<?xml version="1.0"?> 
<VTKFile type="UnstructuredGrid"> 
   <UnstructuredGrid> 
      <Piece NumberOfPoints="6000"  NumberOfCells="1500">  
          <Points>  
             <DataArray type="Float64" NumberOfComponents="3" format="ascii">   
-500.0   0.0   0.0
-450.0   0.0   0.0
-500.0   30.0   0.0
-500.0   0.0   16.666666666666668
-450.0   0.0   0.0
-450.0   30.0   0.0
-500.0   30.0   0.0
-450.0   30.0   16.666666666666668
-500.0   0.0   16.666666666666668
-500.0   30.0   16.666666666666668
-450.0   30.0   16.666666666666668
-500.0   30.0   0.0
-500.0   0.0   16.666666666666668
-450.0   30.0   16.666666666666668
-450.0   0.0   16.666666666666668
-450.0   0.0   0.0
-500.0   0.0   16.666666666666668
-450.0   30.0   16.666666666666668
-450.0   0.0   0.0
-500.0   30.0   0.0
-500.0   0.0   16.666666666666668
-450.0   0.0   16.666666666666668
-500.0   30.0   16.666666666666668
-500.0   0.0   33.333333333333336
-450.0   0.0   16.666666666666668
-450.0   30.0   16.666666666666668
-500.0   30.0   16.666666666666668
-450.0   30.0   33.333333333333336
-500.0   0.0   33.333333333333336
-500.0   30.0   33.333333333333336
-450.0   30.0   33.333333333333336
-500.0   30.0   16.666666666666668
-500.0   0.0   33.333333333333336
-450.0   30.0   33.333333333333336
-450.0   0.0   33.333333333333336
-450.0   0.0   16.666666666666668
-500.0   0.0   33.333333333333336
-450.0   30.0   33.333333333333336
-450.0   0.0   16.666666666666668
-500.0   30.0   16.666666666666668
-500.0   0.0   33.333333333333336
-450.0   0.0   33.333333333333336
-500.0   30.0   33.333333333333336
-500.0   0.0   50.0
-450.0   0.0   33.333333333333336
-450.0   30.0   33.333333333333336
-500.0   30.0   33.333333333333336
-450.0   30.0   50.0
-500.0   0.0   50.0
-500.0   30.0   50.0
-450.0   30.0   50.0
-500.0   30.0   33.333333333333336
-500.0   0.0   50.0
-450.0   30.0   50.0
-450.0   0.0   50.0
-450.0   0.0   33.333333333333336
-500.0   0.0   50.0
-450.0   30.0   50.0
-450.0   0.0   33.333333333333336
-500.0   30.0   33.333333333333336
-500.0   30.0   0.0
-450.0   30.0   0.0
-500.0   60.0   0.0
-500.0   30.0   16.666666666666668
-450.0   30.0   0.0
-450.0   60.0   0.0
-500.0   60.0   0.0
-450.0   60.0   16.666666666666668
-500.0   30.0   16.666666666666668
-500.0   60.0   16.666666666666668
-450.0   60.0   16.666666666666668
-500.0   60.0   0.0
-500.0   30.0   16.666666666666668
-450.0   60.0   16.666666666666668
-450.0   30.0   16.666666666666668
-450.0   30.0   0.0
-500.0   30.0   16.666666666666668
-450.0   60.0   16.666666666666668
-450.0   30.0   0.0
-500.0   60.0   0.0
-500.0   30.0   16.666666666666668
-450.0   30.0   16.666666666666668
-500.0   60.0   16.666666666666668
-500.0   30.0   33.333333333333336
-450.0   30.0   16.666666666666668
-450.0   60.0   16.666666666666668
-500.0   60.0   16.666666666666668
-450.0   60.0   33.333333333333336
-500.0   30.0   33.333333333333336
-500.0   60.0   33.333333333333336
-450.0   60.0   33.333333333333336
-500.0   60.0   16.666666666666668
-500.0   30.0   33.333333333333336
-450.0   60.0   33.333333333333336
-450.0   30.0   33.333333333333336
-450.0   30.0   16.666666666666668
-500.0   30.0   33.333333333333336
-450.0   60.0   33.333333333333336
-450.0   30.0   16.666666666666668
-500.0   60.0   16.666666666666668
-500.0   30.0   33.333333333333336
-450.0   30.0   33.333333333333336
-500.0   60.0   33.333333333333336
-500.0   30.0   50.0
-450.0   30.0   33.333333333333336
-450.0   60.0   33.333333333333336
-500.0   60.0   33.333333333333336
-450.0   60.0   50.0
-500.0   30.0   50.0
-500.0   60.0   50.0
-450.0   60.0   50.0
-500.0   60.0   33.333333333333336
-500.0   30.0   50.0
-450.0   60.0   50.0
-450.0   30.0   50.0
-450.0   30.0   33.333333333333336
-500.0   30.0   50.0
-450.0   60.0   50.0
-450.0   30.0   33.333333333333336
-500.0   60.0   33.333333333333336
-500.0   60.0   0.0
-450.0   60.0   0.0
-500.0   90.0   0.0
-500.0   60.0   16.666666666666668
-450.0   60.0   0.0
-450.0   90.0   0.0
-500.0   90.0   0.0
-450.0   90.0   16.666666666666668
-500.0   60.0   16.666666666666668
-500.0   90.0   16.666666666666668
-450.0   90.0   16.666666666666668
-500.0   90.0   0.0
-500.0   60.0   16.666666666666668
-450.0   90.0   16.666666666666668
-450.0   60.0   16.666666666666668
-450.0   60.0   0.0
-500.0   60.0   16.666666666666668
-450.0   90.0   16.666666666666668
-450.0   60.0   0.0
-500.0   90.0   0.0
-500.0   60.0   16.666666666666668
-450.0   60.0   16.666666666666668
-500.0   90.0   16.666666666666668
-500.0   60.0   33.333333333333336
-450.0   60.0   16.666666666666668
-450.0   90.0   16.666666666666668
-500.0   90.0   16.666666666666668
-450.0   90.0   33.333333333333336
-500.0   60.0   33.333333333333336
-500.0   90.0   33.333333333333336
-450.0   90.0   33.333333333333336
-500.0   90.0   16.666666666666668
-500.0   60.0   33.333333333333336
-450.0   90.0   33.333333333333336
-450.0   60.0   33.333333333333336
-450.0   60.0   16.666666666666668
-500.0   60.0   33.333333333333336
-450.0   90.0   33.333333333333336
-450.0   60.0   16.666666666666668
-500.0   90.0   16.666666666666668
-500.0   60.0   33.333333333333336
-450.0   60.0   33.333333333333336
-500.0   90.0   33.333333333333336
-500.0   60.0   50.0
-450.0   60.0   33.333333333333336
-450.0   90.0   33.333333333333336
-500.0   90.0   33.333333333333336
-450.0   90.0   50.0
-500.0   60.0   50.0
-500.0   90.0   50.0
-450.0   90.0   50.0
-500.0   90.0   33.333333333333336
-500.0   60.0   50.0
-450.0   90.0   50.0
-450.0   60.0   50.0
-450.0   60.0   33.333333333333336
-500.0   60.0   50.0
-450.0   90.0   50.0
-450.0   60.0   33.333333333333336
-500.0   90.0   33.333333333333336
-500.0   90.0   0.0
-450.0   90.0   0.0
-500.0   120.0   0.0
-500.0   90.0   16.666666666666668
-450.0   90.0   0.0
-450.0   120.0   0.0
-500.0   120.0   0.0
-450.0   120.0   16.666666666666668
-500.0   90.0   16.666666666666668
-500.0   120.0   16.666666666666668
-450.0   120.0   16.666666666666668
-500.0   120.0   0.0
-500.0   90.0   16.666666666666668
-450.0   120.0   16.666666666666668
-450.0   90.0   16.666666666666668
-450.0   90.0   0.0
-500.0   90.0   16.666666666666668
-450.0   120.0   16.666666666666668
-450.0   90.0   0.0
-500.0   120.0   0.0
-500.0   90.0   16.666666666666668
-450.0   90.0   16.666666666666668
-500.0   120.0   16.666666666666668
-500.0   90.0   33.333333333333336
-450.0   90.0   16.666666666666668
-450.0   120.0   16.666666666666668
-500.0   120.0   16.666666666666668
-450.0   120.0   33.333333333333336
-500.0   90.0   33.333333333333336
-500.0   120.0   33.333333333333336
-450.0   120.0   33.333333333333336
-500.0   120.0   16.666666666666668
-500.0   90.0   33.333333333333336
-450.0   120.0   33.333333333333336
-450.0   90.0   33.333333333333336
-450.0   90.0   16.666666666666668
-500.0   90.0   33.333333333333336
-450.0   120.0   33.333333333333336
-450.0   90.0   16.666666666666668
-500.0   120.0   16.666666666666668
-500.0   90.0   33.333333333333336
-450.0   90.0   33.333333333333336
-500.0   120.0   33.333333333333336
-500.0   90.0   50.0
-450.0   90.0   33.333333333333336
-450.0   120.0   33.333333333333336
-500.0   120.0   33.333333333333336
-450.0   120.0   50.0
-500.0   90.0   50.0
-500.0   120.0   50.0
-450.0   120.0   50.0
-500.0   120.0   33.333333333333336
-500.0   90.0   50.0
-450.0   120.0   50.0
-450.0   90.0   50.0
-450.0   90.0   33.333333333333336
-500.0   90.0   50.0
-450.0   120.0   50.0
-450.0   90.0   33.333333333333336
-500.0   120.0   33.333333333333336
-500.0   120.0   0.0
-450.0   120.0   0.0
-500.0   150.0   0.0
-500.0   120.0   16.666666666666668
-450.0   120.0   0.0
-450.0   150.0   0.0
-500.0   150.0   0.0
-450.0   150.0   16.666666666666668
-500.0   120.0   16.666666666666668
-500.0   150.0   16.666666666666668
-450.0   150.0   16.666666666666668
-500.0   150.0   0.0
-500.0   120.0   16.666666666666668
-450.0   150.0   16.666666666666668
-450.0   120.0   16.666666666666668
-450.0   120.0   0.0
-500.0   120.0   16.666666666666668
-450.0   150.0   16.666666666666668
-450.0   120.0   0.0
-500.0   150.0   0.0
-500.0   120.0   16.666666666666668
-450.0   120.0   16.666666666666668
-500.0   150.0   16.666666666666668
-500.0   120.0   33.333333333333336
-450.0   120.0   16.666666666666668
-450.0   150.0   16.666666666666668
-500.0   150.0   16.666666666666668
-450.0   150.0   33.333333333333336
-500.0   120.0   33.333333333333336
-500.0   150.0   33.333333333333336
-450.0   150.0   33.333333333333336
-500.0   150.0   16.666666666666668
-500.0   120.0   33.333333333333336
-450.0   150.0   33.333333333333336
-450.0   120.0   33.333333333333336
-450.0   120.0   16.666666666666668
-500.0   120.0   33.333333333333336
-450.0   150.0   33.333333333333336
-450.0   120.0   16.666666666666668
-500.0   150.0   16.666666666666668
-500.0   120.0   33.333333333333336
-450.0   120.0   33.333333333333336
-500.0   150.0   33.333333333333336
-500.0   120.0   50.0
-450.0   120.0   33.333333333333336
-450.0   150.0   33.333333333333336
-500.0   150.0   33.333333333333336
-450.0   150.0   50.0
-500.0   120.0   50.0
-500.0   150.0   50.0
-450.0   150.0   50.0
-500.0   150.0   33.333333333333336
-500.0   120.0   50.0
-450.0   150.0   50.0
-450.0   120.0   50.0
-450.0   120.0   33.333333333333336
-500.0   120.0   50.0
-450.0   150.0   50.0
-450.0   120.0   33.333333333333336
-500.0   150.0   33.333333333333336
-450.0   0.0   0.0
-400.0   0.0   0.0
-450.0   30.0   0.0
-450.0   0.0   16.666666666666668
-400.0   0.0   0.0
-400.0   30.0   0.0
-450.0   30.0   0.0
-400.0   30.0   16.666666666666668
-450.0   0.0   16.666666666666668
-450.0   30.0   16.666666666666668
-400.0   30.0   16.666666666666668
-450.0   30.0   0.0
-450.0   0.0   16.666666666666668
-400.0   30.0   16.666666666666668
-400.0   0.0   16.666666666666668
-400.0   0.0   0.0
-450.0   0.0   16.666666666666668
-400.0   30.0   16.666666666666668
-400.0   0.0   0.0
-450.0   30.0   0.0
-450.0   0.0   16.666666666666668
-400.0   0.0   16.666666666666668
-450.0   30.0   16.666666666666668
-450.0   0.0   33.333333333333336
-400.0   0.0   16.666666666666668
-400.0   30.0   16.666666666666668
-450.0   30.0   16.666666666666668
-400.0   30.0   33.333333333333336
-450.0   0.0   33.333333333333336
-450.0   30.0   33.333333333333336
-400.0   30.0   33.333333333333336
-450.0   30.0   16.666666666666668
-450.0   0.0   33.333333333333336
-400.0   30.0   33.333333333333336
-400.0   0.0   33.333333333333336
-400.0   0.0   16.666666666666668
-450.0   0.0   33.333333333333336
-400.0   30.0   33.333333333333336
-400.0   0.0   16.666666666666668
-450.0   30.0   16.666666666666668
-450.0   0.0   33.333333333333336
-400.0   0.0   33.333333333333336
-450.0   30.0   33.333333333333336
-450.0   0.0   50.0
-400.0   0.0   33.333333333333336
-400.0   30.0   33.333333333333336
-450.0   30.0   33.333333333333336
-400.0   30.0   50.0
-450.0   0.0   50.0
-450.0   30.0   50.0
-400.0   30.0   50.0
-450.0   30.0   33.333333333333336
-450.0   0.0   50.0
-400.0   30.0   50.0
-400.0   0.0   50.0
-400.0   0.0   33.333333333333336
-450.0   0.0   50.0
-400.0   30.0   50.0
-400.0   0.0   33.333333333333336
-450.0   30.0   33.333333333333336
-450.0   30.0   0.0
-400.0   30.0   0.0
-450.0   60.0   0.0
-450.0   30.0   16.666666666666668
-400.0   30.0   0.0
-400.0   60.0   0.0
-450.0   60.0   0.0
-400.0   60.0   16.666666666666668
-450.0   30.0   16.666666666666668
-450.0   60.0   16.666666666666668
-400.0   60.0   16.666666666666668
-450.0   60.0   0.0
-450.0   30.0   16.666666666666668
-400.0   60.0   16.666666666666668
-400.0   30.0   16.666666666666668
-400.0   30.0   0.0
-450.0   30.0   16.666666666666668
-400.0   60.0   16.666666666666668
-400.0   30.0   0.0
-450.0   60.0   0.0
-450.0   30.0   16.666666666666668
-400.0   30.0   16.666666666666668
-450.0   60.0   16.666666666666668
-450.0   30.0   33.333333333333336
-400.0   30.0   16.666666666666668
-400.0   60.0   16.666666666666668
-450.0   60.0   16.666666666666668
-400.0   60.0   33.333333333333336
-450.0   30.0   33.333333333333336
-450.0   60.0   33.333333333333336
-400.0   60.0   33.333333333333336
-450.0   60.0   16.666666666666668
-450.0   30.0   33.333333333333336
-400.0   60.0   33.333333333333336
-400.0   30.0   33.333333333333336
-400.0   30.0   16.666666666666668
-450.0   30.0   33.333333333333336
-400.0   60.0   33.333333333333336
-400.0   30.0   16.666666666666668
-450.0   60.0   16.666666666666668
-450.0   30.0   33.333333333333336
-400.0   30.0   33.333333333333336
-450.0   60.0   33.333333333333336
-450.0   30.0   50.0
-400.0   30.0   33.333333333333336
-400.0   60.0   33.333333333333336
-450.0   60.0   33.333333333333336
-400.0   60.0   50.0
-450.0   30.0   50.0
-450.0   60.0   50.0
-400.0   60.0   50.0
-450.0   60.0   33.333333333333336
-450.0   30.0   50.0
-400.0   60.0   50.0
-400.0   30.0   50.0
-400.0   30.0   33.333333333333336
-450.0   30.0   50.0
-400.0   60.0   50.0
-400.0   30.0   33.333333333333336
-450.0   60.0   33.333333333333336
-450.0   60.0   0.0
-400.0   60.0   0.0
-450.0   90.0   0.0
-450.0   60.0   16.666666666666668
-400.0   60.0   0.0
-400.0   90.0   0.0
-450.0   90.0   0.0
-400.0   90.0   16.666666666666668
-450.0   60.0   16.666666666666668
-450.0   90.0   16.666666666666668
-400.0   90.0   16.666666666666668
-450.0   90.0   0.0
-450.0   60.0   16.666666666666668
-400.0   90.0   16.666666666666668
-400.0   60.0   16.666666666666668
-400.0   60.0   0.0
-450.0   60.0   16.666666666666668
-400.0   90.0   16.666666666666668
-400.0   60.0   0.0
-450.0   90.0   0.0
-450.0   60.0   16.666666666666668
-400.0   60.0   16.666666666666668
-450.0   90.0   16.666666666666668
-450.0   60.0   33.333333333333336
-400.0   60.0   16.666666666666668
-400.0   90.0   16.666666666666668
-450.0   90.0   16.666666666666668
-400.0   90.0   33.333333333333336
-450.0   60.0   33.333333333333336
-450.0   90.0   33.333333333333336
-400.0   90.0   33.333333333333336
-450.0   90.0   16.666666666666668
-450.0   60.0   33.333333333333336
-400.0   90.0   33.333333333333336
-400.0   60.0   33.333333333333336
-400.0   60.0   16.666666666666668
-450.0   60.0   33.333333333333336
-400.0   90.0   33.333333333333336
-400.0   60.0   16.666666666666668
-450.0   90.0   16.666666666666668
-450.0   60.0   33.333333333333336
-400.0   60.0   33.333333333333336
-450.0   90.0   33.333333333333336
-450.0   60.0   50.0
-400.0   60.0   33.333333333333336
-400.0   90.0   33.333333333333336
-450.0   90.0   33.333333333333336
-400.0   90.0   50.0
-450.0   60.0   50.0
-450.0   90.0   50.0
-400.0   90.0   50.0
-450.0   90.0   33.333333333333336
-450.0   60.0   50.0
-400.0   90.0   50.0
-400.0   60.0   50.0
-400.0   60.0   33.333333333333336
-450.0   60.0   50.0
-400.0   90.0   50.0
-400.0   60.0   33.333333333333336
-450.0   90.0   33.333333333333336
-450.0   90.0   0.0
-400.0   90.0   0.0
-450.0   120.0   0.0
-450.0   90.0   16.666666666666668
-400.0   90.0   0.0
-400.0   120.0   0.0
-450.0   120.0   0.0
-400.0   120.0   16.666666666666668
-450.0   90.0   16.666666666666668
-450.0   120.0   16.666666666666668
-400.0   120.0   16.666666666666668
-450.0   120.0   0.0
-450.0   90.0   16.666666666666668
-400.0   120.0   16.666666666666668
-400.0   90.0   16.666666666666668
-400.0   90.0   0.0
-450.0   90.0   16.666666666666668
-400.0   120.0   16.666666666666668
-400.0   90.0   0.0
-450.0   120.0   0.0
-450.0   90.0   16.666666666666668
-400.0   90.0   16.666666666666668
-450.0   120.0   16.666666666666668
-450.0   90.0   33.333333333333336
-400.0   90.0   16.666666666666668
-400.0   120.0   16.666666666666668
-450.0   120.0   16.666666666666668
-400.0   120.0   33.333333333333336
-450.0   90.0   33.333333333333336
-450.0   120.0   33.333333333333336
-400.0   120.0   33.333333333333336
-450.0   120.0   16.666666666666668
-450.0   90.0   33.333333333333336
-400.0   120.0   33.333333333333336
-400.0   90.0   33.333333333333336
-400.0   90.0   16.666666666666668
-450.0   90.0   33.333333333333336
-400.0   120.0   33.333333333333336
-400.0   90.0   16.666666666666668
-450.0   120.0   16.666666666666668
-450.0   90.0   33.333333333333336
-400.0   90.0   33.333333333333336
-450.0   120.0   33.333333333333336
-450.0   90.0   50.0
-400.0   90.0   33.333333333333336
-400.0   120.0   33.333333333333336
-450.0   120.0   33.333333333333336
-400.0   120.0   50.0
-450.0   90.0   50.0
-450.0   120.0   50.0
-400.0   120.0   50.0
-450.0   120.0   33.333333333333336
-450.0   90.0   50.0
-400.0   120.0   50.0
-400.0   90.0   50.0
-400.0   90.0   33.333333333333336
-450.0   90.0   50.0
-400.0   120.0   50.0
-400.0   90.0   33.333333333333336
-450.0   120.0   33.333333333333336
-450.0   120.0   0.0
-400.0   120.0   0.0
-450.0   150.0   0.0
-450.0   120.0   16.666666666666668
-400.0   120.0   0.0
-400.0   150.0   0.0
-450.0   150.0   0.0
-400.0   150.0   16.666666666666668
-450.0   120.0   16.666666666666668
-450.0   150.0   16.666666666666668
-400.0   150.0   16.666666666666668
-450.0   150.0   0.0
-450.0   120.0   16.666666666666668
-400.0   150.0   16.666666666666668
-400.0   120.0   16.666666666666668
-400.0   120.0   0.0
-450.0   120.0   16.666666666666668
-400.0   150.0   16.666666666666668
-400.0   120.0   0.0
-450.0   150.0   0.0
-450.0   120.0   16.666666666666668
-400.0   120.0   16.666666666666668
-450.0   150.0   16.666666666666668
-450.0   120.0   33.333333333333336
-400.0   120.0   16.666666666666668
-400.0   150.0   16.666666666666668
-450.0   150.0   16.666666666666668
-400.0   150.0   33.333333333333336
-450.0   120.0   33.333333333333336
-450.0   150.0   33.333333333333336
-400.0   150.0   33.333333333333336
-450.0   150.0   16.666666666666668
-450.0   120.0   33.333333333333336
-400.0   150.0   33.333333333333336
-400.0   120.0   33.333333333333336
-400.0   120.0   16.666666666666668
-450.0   120.0   33.333333333333336
-400.0   150.0   33.333333333333336
-400.0   120.0   16.666666666666668
-450.0   150.0   16.666666666666668
-450.0   120.0   33.333333333333336
-400.0   120.0   33.333333333333336
-450.0   150.0   33.333333333333336
-450.0   120.0   50.0
-400.0   120.0   33.333333333333336
-400.0   150.0   33.333333333333336
-450.0   150.0   33.333333333333336
-400.0   150.0   50.0
-450.0   120.0   50.0
-450.0   150.0   50.0
-400.0   150.0   50.0
-450.0   150.0   33.333333333333336
-450.0   120.0   50.0
-400.0   150.0   50.0
-400.0   120.0   50.0
-400.0   120.0   33.333333333333336
-450.0   120.0   50.0
-400.0   150.0   50.0
-400.0   120.0   33.333333333333336
-450.0   150.0   33.333333333333336
-400.0   0.0   0.0
-350.0   0.0   0.0
-400.0   30.0   0.0
-400.0   0.0   16.666666666666668
-350.0   0.0   0.0
-350.0   30.0   0.0
-400.0   30.0   0.0
-350.0   30.0   16.666666666666668
-400.0   0.0   16.666666666666668
-400.0   30.0   16.666666666666668
-350.0   30.0   16.666666666666668
-400.0   30.0   0.0
-400.0   0.0   16.666666666666668
-350.0   30.0   16.666666666666668
-350.0   0.0   16.666666666666668
-350.0   0.0   0.0
-400.0   0.0   16.666666666666668
-350.0   30.0   16.666666666666668
-350.0   0.0   0.0
-400.0   30.0   0.0
-400.0   0.0   16.666666666666668
-350.0   0.0   16.666666666666668
-400.0   30.0   16.666666666666668
-400.0   0.0   33.333333333333336
-350.0   0.0   16.666666666666668
-350.0   30.0   16.666666666666668
-400.0   30.0   16.666666666666668
-350.0   30.0   33.333333333333336
-400.0   0.0   33.333333333333336
-400.0   30.0   33.333333333333336
-350.0   30.0   33.333333333333336
-400.0   30.0   16.666666666666668
-400.0   0.0   33.333333333333336
-350.0   30.0   33.333333333333336
-350.0   0.0   33.333333333333336
-350.0   0.0   16.666666666666668
-400.0   0.0   33.333333333333336
-350.0   30.0   33.333333333333336
-350.0   0.0   16.666666666666668
-400.0   30.0   16.666666666666668
-400.0   0.0   33.333333333333336
-350.0   0.0   33.333333333333336
-400.0   30.0   33.333333333333336
-400.0   0.0   50.0
-350.0   0.0   33.333333333333336
-350.0   30.0   33.333333333333336
-400.0   30.0   33.333333333333336
-350.0   30.0   50.0
-400.0   0.0   50.0
-400.0   30.0   50.0
-350.0   30.0   50.0
-400.0   30.0   33.333333333333336
-400.0   0.0   50.0
-350.0   30.0   50.0
-350.0   0.0   50.0
-350.0   0.0   33.333333333333336
-400.0   0.0   50.0
-350.0   30.0   50.0
-350.0   0.0   33.333333333333336
-400.0   30.0   33.333333333333336
-400.0   30.0   0.0
-350.0   30.0   0.0
-400.0   60.0   0.0
-400.0   30.0   16.666666666666668
-350.0   30.0   0.0
-350.0   60.0   0.0
-400.0   60.0   0.0
-350.0   60.0   16.666666666666668
-400.0   30.0   16.666666666666668
-400.0   60.0   16.666666666666668
-350.0   60.0   16.666666666666668
-400.0   60.0   0.0
-400.0   30.0   16.666666666666668
-350.0   60.0   16.666666666666668
-350.0   30.0   16.666666666666668
-350.0   30.0   0.0
-400.0   30.0   16.666666666666668
-350.0   60.0   16.666666666666668
-350.0   30.0   0.0
-400.0   60.0   0.0
-400.0   30.0   16.666666666666668
-350.0   30.0   16.666666666666668
-400.0   60.0   16.666666666666668
-400.0   30.0   33.333333333333336
-350.0   30.0   16.666666666666668
-350.0   60.0   16.666666666666668
-400.0   60.0   16.666666666666668
-350.0   60.0   33.333333333333336
-400.0   30.0   33.333333333333336
-400.0   60.0   33.333333333333336
-350.0   60.0   33.333333333333336
-400.0   60.0   16.666666666666668
-400.0   30.0   33.333333333333336
-350.0   60.0   33.333333333333336
-350.0   30.0   33.333333333333336
-350.0   30.0   16.666666666666668
-400.0   30.0   33.333333333333336
-350.0   60.0   33.333333333333336
-350.0   30.0   16.666666666666668
-400.0   60.0   16.666666666666668
-400.0   30.0   33.333333333333336
-350.0   30.0   33.333333333333336
-400.0   60.0   33.333333333333336
-400.0   30.0   50.0
-350.0   30.0   33.333333333333336
-350.0   60.0   33.333333333333336
-400.0   60.0   33.333333333333336
-350.0   60.0   50.0
-400.0   30.0   50.0
-400.0   60.0   50.0
-350.0   60.0   50.0
-400.0   60.0   33.333333333333336
-400.0   30.0   50.0
-350.0   60.0   50.0
-350.0   30.0   50.0
-350.0   30.0   33.333333333333336
-400.0   30.0   50.0
-350.0   60.0   50.0
-350.0   30.0   33.333333333333336
-400.0   60.0   33.333333333333336
-400.0   60.0   0.0
-350.0   60.0   0.0
-400.0   90.0   0.0
-400.0   60.0   16.666666666666668
-350.0   60.0   0.0
-350.0   90.0   0.0
-400.0   90.0   0.0
-350.0   90.0   16.666666666666668
-400.0   60.0   16.666666666666668
-400.0   90.0   16.666666666666668
-350.0   90.0   16.666666666666668
-400.0   90.0   0.0
-400.0   60.0   16.666666666666668
-350.0   90.0   16.666666666666668
-350.0   60.0   16.666666666666668
-350.0   60.0   0.0
-400.0   60.0   16.666666666666668
-350.0   90.0   16.666666666666668
-350.0   60.0   0.0
-400.0   90.0   0.0
-400.0   60.0   16.666666666666668
-350.0   60.0   16.666666666666668
-400.0   90.0   16.666666666666668
-400.0   60.0   33.333333333333336
-350.0   60.0   16.666666666666668
-350.0   90.0   16.666666666666668
-400.0   90.0   16.666666666666668
-350.0   90.0   33.333333333333336
-400.0   60.0   33.333333333333336
-400.0   90.0   33.333333333333336
-350.0   90.0   33.333333333333336
-400.0   90.0   16.666666666666668
-400.0   60.0   33.333333333333336
-350.0   90.0   33.333333333333336
-350.0   60.0   33.333333333333336
-350.0   60.0   16.666666666666668
-400.0   60.0   33.333333333333336
-350.0   90.0   33.333333333333336
-350.0   60.0   16.666666666666668
-400.0   90.0   16.666666666666668
-400.0   60.0   33.333333333333336
-350.0   60.0   33.333333333333336
-400.0   90.0   33.333333333333336
-400.0   60.0   50.0
-350.0   60.0   33.333333333333336
-350.0   90.0   33.333333333333336
-400.0   90.0   33.333333333333336
-350.0   90.0   50.0
-400.0   60.0   50.0
-400.0   90.0   50.0
-350.0   90.0   50.0
-400.0   90.0   33.333333333333336
-400.0   60.0   50.0
-350.0   90.0   50.0
-350.0   60.0   50.0
-350.0   60.0   33.333333333333336
-400.0   60.0   50.0
-350.0   90.0   50.0
-350.0   60.0   33.333333333333336
-400.0   90.0   33.333333333333336
-400.0   90.0   0.0
-350.0   90.0   0.0
-400.0   120.0   0.0
-400.0   90.0   16.666666666666668
-350.0   90.0   0.0
-350.0   120.0   0.0
-400.0   120.0   0.0
-350.0   120.0   16.666666666666668
-400.0   90.0   16.666666666666668
-400.0   120.0   16.666666666666668
-350.0   120.0   16.666666666666668
-400.0   120.0   0.0
-400.0   90.0   16.666666666666668
-350.0   120.0   16.666666666666668
-350.0   90.0   16.666666666666668
-350.0   90.0   0.0
-400.0   90.0   16.666666666666668
-350.0   120.0   16.666666666666668
-350.0   90.0   0.0
-400.0   120.0   0.0
-400.0   90.0   16.666666666666668
-350.0   90.0   16.666666666666668
-400.0   120.0   16.666666666666668
-400.0   90.0   33.333333333333336
-350.0   90.0   16.666666666666668
-350.0   120.0   16.666666666666668
-400.0   120.0   16.666666666666668
-350.0   120.0   33.333333333333336
-400.0   90.0   33.333333333333336
-400.0   120.0   33.333333333333336
-350.0   120.0   33.333333333333336
-400.0   120.0   16.666666666666668
-400.0   90.0   33.333333333333336
-350.0   120.0   33.333333333333336
-350.0   90.0   33.333333333333336
-350.0   90.0   16.666666666666668
-400.0   90.0   33.333333333333336
-350.0   120.0   33.333333333333336
-350.0   90.0   16.666666666666668
-400.0   120.0   16.666666666666668
-400.0   90.0   33.333333333333336
-350.0   90.0   33.333333333333336
-400.0   120.0   33.333333333333336
-400.0   90.0   50.0
-350.0   90.0   33.333333333333336
-350.0   120.0   33.333333333333336
-400.0   120.0   33.333333333333336
-350.0   120.0   50.0
-400.0   90.0   50.0
-400.0   120.0   50.0
-350.0   120.0   50.0
-400.0   120.0   33.333333333333336
-400.0   90.0   50.0
-350.0   120.0   50.0
-350.0   90.0   50.0
-350.0   90.0   33.333333333333336
-400.0   90.0   50.0
-350.0   120.0   50.0
-350.0   90.0   33.333333333333336
-400.0   120.0   33.333333333333336
-400.0   120.0   0.0
-350.0   120.0   0.0
-400.0   150.0   0.0
-400.0   120.0   16.666666666666668
-350.0   120.0   0.0
-350.0   150.0   0.0
-400.0   150.0   0.0
-350.0   150.0   16.666666666666668
-400.0   120.0   16.666666666666668
-400.0   150.0   16.666666666666668
-350.0   150.0   16.666666666666668
-400.0   150.0   0.0
-400.0   120.0   16.666666666666668
-350.0   150.0   16.666666666666668
-350.0   120.0   16.666666666666668
-350.0   120.0   0.0
-400.0   120.0   16.666666666666668
-350.0   150.0   16.666666666666668
-350.0   120.0   0.0
-400.0   150.0   0.0
-400.0   120.0   16.666666666666668
-350.0   120.0   16.666666666666668
-400.0   150.0   16.666666666666668
-400.0   120.0   33.333333333333336
-350.0   120.0   16.666666666666668
-350.0   150.0   16.666666666666668
-400.0   150.0   16.666666666666668
-350.0   150.0   33.333333333333336
-400.0   120.0   33.333333333333336
-400.0   150.0   33.333333333333336
-350.0   150.0   33.333333333333336
-400.0   150.0   16.666666666666668
-400.0   120.0   33.333333333333336
-350.0   150.0   33.333333333333336
-350.0   120.0   33.333333333333336
-350.0   120.0   16.666666666666668
-400.0   120.0   33.333333333333336
-350.0   150.0   33.333333333333336
-350.0   120.0   16.666666666666668
-400.0   150.0   16.666666666666668
-400.0   120.0   33.333333333333336
-350.0   120.0   33.333333333333336
-400.0   150.0   33.333333333333336
-400.0   120.0   50.0
-350.0   120.0   33.333333333333336
-350.0   150.0   33.333333333333336
-400.0   150.0   33.333333333333336
-350.0   150.0   50.0
-400.0   120.0   50.0
-400.0   150.0   50.0
-350.0   150.0   50.0
-400.0   150.0   33.333333333333336
-400.0   120.0   50.0
-350.0   150.0   50.0
-350.0   120.0   50.0
-350.0   120.0   33.333333333333336
-400.0   120.0   50.0
-350.0   150.0   50.0
-350.0   120.0   33.333333333333336
-400.0   150.0   33.333333333333336
-350.0   0.0   0.0
-300.0   0.0   0.0
-350.0   30.0   0.0
-350.0   0.0   16.666666666666668
-300.0   0.0   0.0
-300.0   30.0   0.0
-350.0   30.0   0.0
-300.0   30.0   16.666666666666668
-350.0   0.0   16.666666666666668
-350.0   30.0   16.666666666666668
-300.0   30.0   16.666666666666668
-350.0   30.0   0.0
-350.0   0.0   16.666666666666668
-300.0   30.0   16.666666666666668
-300.0   0.0   16.666666666666668
-300.0   0.0   0.0
-350.0   0.0   16.666666666666668
-300.0   30.0   16.666666666666668
-300.0   0.0   0.0
-350.0   30.0   0.0
-350.0   0.0   16.666666666666668
-300.0   0.0   16.666666666666668
-350.0   30.0   16.666666666666668
-350.0   0.0   33.333333333333336
-300.0   0.0   16.666666666666668
-300.0   30.0   16.666666666666668
-350.0   30.0   16.666666666666668
-300.0   30.0   33.333333333333336
-350.0   0.0   33.333333333333336
-350.0   30.0   33.333333333333336
-300.0   30.0   33.333333333333336
-350.0   30.0   16.666666666666668
-350.0   0.0   33.333333333333336
-300.0   30.0   33.333333333333336
-300.0   0.0   33.333333333333336
-300.0   0.0   16.666666666666668
-350.0   0.0   33.333333333333336
-300.0   30.0   33.333333333333336
-300.0   0.0   16.666666666666668
-350.0   30.0   16.666666666666668
-350.0   0.0   33.333333333333336
-300.0   0.0   33.333333333333336
-350.0   30.0   33.333333333333336
-350.0   0.0   50.0
-300.0   0.0   33.333333333333336
-300.0   30.0   33.333333333333336
-350.0   30.0   33.333333333333336
-300.0   30.0   50.0
-350.0   0.0   50.0
-350.0   30.0   50.0
-300.0   30.0   50.0
-350.0   30.0   33.333333333333336
-350.0   0.0   50.0
-300.0   30.0   50.0
-300.0   0.0   50.0
-300.0   0.0   33.333333333333336
-350.0   0.0   50.0
-300.0   30.0   50.0
-300.0   0.0   33.333333333333336
-350.0   30.0   33.333333333333336
-350.0   30.0   0.0
-300.0   30.0   0.0
-350.0   60.0   0.0
-350.0   30.0   16.666666666666668
-300.0   30.0   0.0
-300.0   60.0   0.0
-350.0   60.0   0.0
-300.0   60.0   16.666666666666668
-350.0   30.0   16.666666666666668
-350.0   60.0   16.666666666666668
-300.0   60.0   16.666666666666668
-350.0   60.0   0.0
-350.0   30.0   16.666666666666668
-300.0   60.0   16.666666666666668
-300.0   30.0   16.666666666666668
-300.0   30.0   0.0
-350.0   30.0   16.666666666666668
-300.0   60.0   16.666666666666668
-300.0   30.0   0.0
-350.0   60.0   0.0
-350.0   30.0   16.666666666666668
-300.0   30.0   16.666666666666668
-350.0   60.0   16.666666666666668
-350.0   30.0   33.333333333333336
-300.0   30.0   16.666666666666668
-300.0   60.0   16.666666666666668
-350.0   60.0   16.666666666666668
-300.0   60.0   33.333333333333336
-350.0   30.0   33.333333333333336
-350.0   60.0   33.333333333333336
-300.0   60.0   33.333333333333336
-350.0   60.0   16.666666666666668
-350.0   30.0   33.333333333333336
-300.0   60.0   33.333333333333336
-300.0   30.0   33.333333333333336
-300.0   30.0   16.666666666666668
-350.0   30.0   33.333333333333336
-300.0   60.0   33.333333333333336
-300.0   30.0   16.666666666666668
-350.0   60.0   16.666666666666668
-350.0   30.0   33.333333333333336
-300.0   30.0   33.333333333333336
-350.0   60.0   33.333333333333336
-350.0   30.0   50.0
-300.0   30.0   33.333333333333336
-300.0   60.0   33.333333333333336
-350.0   60.0   33.333333333333336
-300.0   60.0   50.0
-350.0   30.0   50.0
-350.0   60.0   50.0
-300.0   60.0   50.0
-350.0   60.0   33.333333333333336
-350.0   30.0   50.0
-300.0   60.0   50.0
-300.0   30.0   50.0
-300.0   30.0   33.333333333333336
-350.0   30.0   50.0
-300.0   60.0   50.0
-300.0   30.0   33.333333333333336
-350.0   60.0   33.333333333333336
-350.0   60.0   0.0
-300.0   60.0   0.0
-350.0   90.0   0.0
-350.0   60.0   16.666666666666668
-300.0   60.0   0.0
-300.0   90.0   0.0
-350.0   90.0   0.0
-300.0   90.0   16.666666666666668
-350.0   60.0   16.666666666666668
-350.0   90.0   16.666666666666668
-300.0   90.0   16.666666666666668
-350.0   90.0   0.0
-350.0   60.0   16.666666666666668
-300.0   90.0   16.666666666666668
-300.0   60.0   16.666666666666668
-300.0   60.0   0.0
-350.0   60.0   16.666666666666668
-300.0   90.0   16.666666666666668
-300.0   60.0   0.0
-350.0   90.0   0.0
-350.0   60.0   16.666666666666668
-300.0   60.0   16.666666666666668
-350.0   90.0   16.666666666666668
-350.0   60.0   33.333333333333336
-300.0   60.0   16.666666666666668
-300.0   90.0   16.666666666666668
-350.0   90.0   16.666666666666668
-300.0   90.0   33.333333333333336
-350.0   60.0   33.333333333333336
-350.0   90.0   33.333333333333336
-300.0   90.0   33.333333333333336
-350.0   90.0   16.666666666666668
-350.0   60.0   33.333333333333336
-300.0   90.0   33.333333333333336
-300.0   60.0   33.333333333333336
-300.0   60.0   16.666666666666668
-350.0   60.0   33.333333333333336
-300.0   90.0   33.333333333333336
-300.0   60.0   16.666666666666668
-350.0   90.0   16.666666666666668
-350.0   60.0   33.333333333333336
-300.0   60.0   33.333333333333336
-350.0   90.0   33.333333333333336
-350.0   60.0   50.0
-300.0   60.0   33.333333333333336
-300.0   90.0   33.333333333333336
-350.0   90.0   33.333333333333336
-300.0   90.0   50.0
-350.0   60.0   50.0
-350.0   90.0   50.0
-300.0   90.0   50.0
-350.0   90.0   33.333333333333336
-350.0   60.0   50.0
-300.0   90.0   50.0
-300.0   60.0   50.0
-300.0   60.0   33.333333333333336
-350.0   60.0   50.0
-300.0   90.0   50.0
-300.0   60.0   33.333333333333336
-350.0   90.0   33.333333333333336
-350.0   90.0   0.0
-300.0   90.0   0.0
-350.0   120.0   0.0
-350.0   90.0   16.666666666666668
-300.0   90.0   0.0
-300.0   120.0   0.0
-350.0   120.0   0.0
-300.0   120.0   16.666666666666668
-350.0   90.0   16.666666666666668
-350.0   120.0   16.666666666666668
-300.0   120.0   16.666666666666668
-350.0   120.0   0.0
-350.0   90.0   16.666666666666668
-300.0   120.0   16.666666666666668
-300.0   90.0   16.666666666666668
-300.0   90.0   0.0
-350.0   90.0   16.666666666666668
-300.0   120.0   16.666666666666668
-300.0   90.0   0.0
-350.0   120.0   0.0
-350.0   90.0   16.666666666666668
-300.0   90.0   16.666666666666668
-350.0   120.0   16.666666666666668
-350.0   90.0   33.333333333333336
-300.0   90.0   16.666666666666668
-300.0   120.0   16.666666666666668
-350.0   120.0   16.666666666666668
-300.0   120.0   33.333333333333336
-350.0   90.0   33.333333333333336
-350.0   120.0   33.333333333333336
-300.0   120.0   33.333333333333336
-350.0   120.0   16.666666666666668
-350.0   90.0   33.333333333333336
-300.0   120.0   33.333333333333336
-300.0   90.0   33.333333333333336
-300.0   90.0   16.666666666666668
-350.0   90.0   33.333333333333336
-300.0   120.0   33.333333333333336
-300.0   90.0   16.666666666666668
-350.0   120.0   16.666666666666668
-350.0   90.0   33.333333333333336
-300.0   90.0   33.333333333333336
-350.0   120.0   33.333333333333336
-350.0   90.0   50.0
-300.0   90.0   33.333333333333336
-300.0   120.0   33.333333333333336
-350.0   120.0   33.333333333333336
-300.0   120.0   50.0
-350.0   90.0   50.0
-350.0   120.0   50.0
-300.0   120.0   50.0
-350.0   120.0   33.333333333333336
-350.0   90.0   50.0
-300.0   120.0   50.0
-300.0   90.0   50.0
-300.0   90.0   33.333333333333336
-350.0   90.0   50.0
-300.0   120.0   50.0
-300.0   90.0   33.333333333333336
-350.0   120.0   33.333333333333336
-350.0   120.0   0.0
-300.0   120.0   0.0
-350.0   150.0   0.0
-350.0   120.0   16.666666666666668
-300.0   120.0   0.0
-300.0   150.0   0.0
-350.0   150.0   0.0
-300.0   150.0   16.666666666666668
-350.0   120.0   16.666666666666668
-350.0   150.0   16.666666666666668
-300.0   150.0   16.666666666666668
-350.0   150.0   0.0
-350.0   120.0   16.666666666666668
-300.0   150.0   16.666666666666668
-300.0   120.0   16.666666666666668
-300.0   120.0   0.0
-350.0   120.0   16.666666666666668
-300.0   150.0   16.666666666666668
-300.0   120.0   0.0
-350.0   150.0   0.0
-350.0   120.0   16.666666666666668
-300.0   120.0   16.666666666666668
-350.0   150.0   16.666666666666668
-350.0   120.0   33.333333333333336
-300.0   120.0   16.666666666666668
-300.0   150.0   16.666666666666668
-350.0   150.0   16.666666666666668
-300.0   150.0   33.333333333333336
-350.0   120.0   33.333333333333336
-350.0   150.0   33.333333333333336
-300.0   150.0   33.333333333333336
-350.0   150.0   16.666666666666668
-350.0   120.0   33.333333333333336
-300.0   150.0   33.333333333333336
-300.0   120.0   33.333333333333336
-300.0   120.0   16.666666666666668
-350.0   120.0   33.333333333333336
-300.0   150.0   33.333333333333336
-300.0   120.0   16.666666666666668
-350.0   150.0   16.666666666666668
-350.0   120.0   33.333333333333336
-300.0   120.0   33.333333333333336
-350.0   150.0   33.333333333333336
-350.0   120.0   50.0
-300.0   120.0   33.333333333333336
-300.0   150.0   33.333333333333336
-350.0   150.0   33.333333333333336
-300.0   150.0   50.0
-350.0   120.0   50.0
-350.0   150.0   50.0
-300.0   150.0   50.0
-350.0   150.0   33.333333333333336
-350.0   120.0   50.0
-300.0   150.0   50.0
-300.0   120.0   50.0
-300.0   120.0   33.333333333333336
-350.0   120.0   50.0
-300.0   150.0   50.0
-300.0   120.0   33.333333333333336
-350.0   150.0   33.333333333333336
-300.0   0.0   0.0
-250.0   0.0   0.0
-300.0   30.0   0.0
-300.0   0.0   16.666666666666668
-250.0   0.0   0.0
-250.0   30.0   0.0
-300.0   30.0   0.0
-250.0   30.0   16.666666666666668
-300.0   0.0   16.666666666666668
-300.0   30.0   16.666666666666668
-250.0   30.0   16.666666666666668
-300.0   30.0   0.0
-300.0   0.0   16.666666666666668
-250.0   30.0   16.666666666666668
-250.0   0.0   16.666666666666668
-250.0   0.0   0.0
-300.0   0.0   16.666666666666668
-250.0   30.0   16.666666666666668
-250.0   0.0   0.0
-300.0   30.0   0.0
-300.0   0.0   16.666666666666668
-250.0   0.0   16.666666666666668
-300.0   30.0   16.666666666666668
-300.0   0.0   33.333333333333336
-250.0   0.0   16.666666666666668
-250.0   30.0   16.666666666666668
-300.0   30.0   16.666666666666668
-250.0   30.0   33.333333333333336
-300.0   0.0   33.333333333333336
-300.0   30.0   33.333333333333336
-250.0   30.0   33.333333333333336
-300.0   30.0   16.666666666666668
-300.0   0.0   33.333333333333336
-250.0   30.0   33.333333333333336
-250.0   0.0   33.333333333333336
-250.0   0.0   16.666666666666668
-300.0   0.0   33.333333333333336
-250.0   30.0   33.333333333333336
-250.0   0.0   16.666666666666668
-300.0   30.0   16.666666666666668
-300.0   0.0   33.333333333333336
-250.0   0.0   33.333333333333336
-300.0   30.0   33.333333333333336
-300.0   0.0   50.0
-250.0   0.0   33.333333333333336
-250.0   30.0   33.333333333333336
-300.0   30.0   33.333333333333336
-250.0   30.0   50.0
-300.0   0.0   50.0
-300.0   30.0   50.0
-250.0   30.0   50.0
-300.0   30.0   33.333333333333336
-300.0   0.0   50.0
-250.0   30.0   50.0
-250.0   0.0   50.0
-250.0   0.0   33.333333333333336
-300.0   0.0   50.0
-250.0   30.0   50.0
-250.0   0.0   33.333333333333336
-300.0   30.0   33.333333333333336
-300.0   30.0   0.0
-250.0   30.0   0.0
-300.0   60.0   0.0
-300.0   30.0   16.666666666666668
-250.0   30.0   0.0
-250.0   60.0   0.0
-300.0   60.0   0.0
-250.0   60.0   16.666666666666668
-300.0   30.0   16.666666666666668
-300.0   60.0   16.666666666666668
-250.0   60.0   16.666666666666668
-300.0   60.0   0.0
-300.0   30.0   16.666666666666668
-250.0   60.0   16.666666666666668
-250.0   30.0   16.666666666666668
-250.0   30.0   0.0
-300.0   30.0   16.666666666666668
-250.0   60.0   16.666666666666668
-250.0   30.0   0.0
-300.0   60.0   0.0
-300.0   30.0   16.666666666666668
-250.0   30.0   16.666666666666668
-300.0   60.0   16.666666666666668
-300.0   30.0   33.333333333333336
-250.0   30.0   16.666666666666668
-250.0   60.0   16.666666666666668
-300.0   60.0   16.666666666666668
-250.0   60.0   33.333333333333336
-300.0   30.0   33.333333333333336
-300.0   60.0   33.333333333333336
-250.0   60.0   33.333333333333336
-300.0   60.0   16.666666666666668
-300.0   30.0   33.333333333333336
-250.0   60.0   33.333333333333336
-250.0   30.0   33.333333333333336
-250.0   30.0   16.666666666666668
-300.0   30.0   33.333333333333336
-250.0   60.0   33.333333333333336
-250.0   30.0   16.666666666666668
-300.0   60.0   16.666666666666668
-300.0   30.0   33.333333333333336
-250.0   30.0   33.333333333333336
-300.0   60.0   33.333333333333336
-300.0   30.0   50.0
-250.0   30.0   33.333333333333336
-250.0   60.0   33.333333333333336
-300.0   60.0   33.333333333333336
-250.0   60.0   50.0
-300.0   30.0   50.0
-300.0   60.0   50.0
-250.0   60.0   50.0
-300.0   60.0   33.333333333333336
-300.0   30.0   50.0
-250.0   60.0   50.0
-250.0   30.0   50.0
-250.0   30.0   33.333333333333336
-300.0   30.0   50.0
-250.0   60.0   50.0
-250.0   30.0   33.333333333333336
-300.0   60.0   33.333333333333336
-300.0   60.0   0.0
-250.0   60.0   0.0
-300.0   90.0   0.0
-300.0   60.0   16.666666666666668
-250.0   60.0   0.0
-250.0   90.0   0.0
-300.0   90.0   0.0
-250.0   90.0   16.666666666666668
-300.0   60.0   16.666666666666668
-300.0   90.0   16.666666666666668
-250.0   90.0   16.666666666666668
-300.0   90.0   0.0
-300.0   60.0   16.666666666666668
-250.0   90.0   16.666666666666668
-250.0   60.0   16.666666666666668
-250.0   60.0   0.0
-300.0   60.0   16.666666666666668
-250.0   90.0   16.666666666666668
-250.0   60.0   0.0
-300.0   90.0   0.0
-300.0   60.0   16.666666666666668
-250.0   60.0   16.666666666666668
-300.0   90.0   16.666666666666668
-300.0   60.0   33.333333333333336
-250.0   60.0   16.666666666666668
-250.0   90.0   16.666666666666668
-300.0   90.0   16.666666666666668
-250.0   90.0   33.333333333333336
-300.0   60.0   33.333333333333336
-300.0   90.0   33.333333333333336
-250.0   90.0   33.333333333333336
-300.0   90.0   16.666666666666668
-300.0   60.0   33.333333333333336
-250.0   90.0   33.333333333333336
-250.0   60.0   33.333333333333336
-250.0   60.0   16.666666666666668
-300.0   60.0   33.333333333333336
-250.0   90.0   33.333333333333336
-250.0   60.0   16.666666666666668
-300.0   90.0   16.666666666666668
-300.0   60.0   33.333333333333336
-250.0   60.0   33.333333333333336
-300.0   90.0   33.333333333333336
-300.0   60.0   50.0
-250.0   60.0   33.333333333333336
-250.0   90.0   33.333333333333336
-300.0   90.0   33.333333333333336
-250.0   90.0   50.0
-300.0   60.0   50.0
-300.0   90.0   50.0
-250.0   90.0   50.0
-300.0   90.0   33.333333333333336
-300.0   60.0   50.0
-250.0   90.0   50.0
-250.0   60.0   50.0
-250.0   60.0   33.333333333333336
-300.0   60.0   50.0
-250.0   90.0   50.0
-250.0   60.0   33.333333333333336
-300.0   90.0   33.333333333333336
-300.0   90.0   0.0
-250.0   90.0   0.0
-300.0   120.0   0.0
-300.0   90.0   16.666666666666668
-250.0   90.0   0.0
-250.0   120.0   0.0
-300.0   120.0   0.0
-250.0   120.0   16.666666666666668
-300.0   90.0   16.666666666666668
-300.0   120.0   16.666666666666668
-250.0   120.0   16.666666666666668
-300.0   120.0   0.0
-300.0   90.0   16.666666666666668
-250.0   120.0   16.666666666666668
-250.0   90.0   16.666666666666668
-250.0   90.0   0.0
-300.0   90.0   16.666666666666668
-250.0   120.0   16.666666666666668
-250.0   90.0   0.0
-300.0   120.0   0.0
-300.0   90.0   16.666666666666668
-250.0   90.0   16.666666666666668
-300.0   120.0   16.666666666666668
-300.0   90.0   33.333333333333336
-250.0   90.0   16.666666666666668
-250.0   120.0   16.666666666666668
-300.0   120.0   16.666666666666668
-250.0   120.0   33.333333333333336
-300.0   90.0   33.333333333333336
-300.0   120.0   33.333333333333336
-250.0   120.0   33.333333333333336
-300.0   120.0   16.666666666666668
-300.0   90.0   33.333333333333336
-250.0   120.0   33.333333333333336
-250.0   90.0   33.333333333333336
-250.0   90.0   16.666666666666668
-300.0   90.0   33.333333333333336
-250.0   120.0   33.333333333333336
-250.0   90.0   16.666666666666668
-300.0   120.0   16.666666666666668
-300.0   90.0   33.333333333333336
-250.0   90.0   33.333333333333336
-300.0   120.0   33.333333333333336
-300.0   90.0   50.0
-250.0   90.0   33.333333333333336
-250.0   120.0   33.333333333333336
-300.0   120.0   33.333333333333336
-250.0   120.0   50.0
-300.0   90.0   50.0
-300.0   120.0   50.0
-250.0   120.0   50.0
-300.0   120.0   33.333333333333336
-300.0   90.0   50.0
-250.0   120.0   50.0
-250.0   90.0   50.0
-250.0   90.0   33.333333333333336
-300.0   90.0   50.0
-250.0   120.0   50.0
-250.0   90.0   33.333333333333336
-300.0   120.0   33.333333333333336
-300.0   120.0   0.0
-250.0   120.0   0.0
-300.0   150.0   0.0
-300.0   120.0   16.666666666666668
-250.0   120.0   0.0
-250.0   150.0   0.0
-300.0   150.0   0.0
-250.0   150.0   16.666666666666668
-300.0   120.0   16.666666666666668
-300.0   150.0   16.666666666666668
-250.0   150.0   16.666666666666668
-300.0   150.0   0.0
-300.0   120.0   16.666666666666668
-250.0   150.0   16.666666666666668
-250.0   120.0   16.666666666666668
-250.0   120.0   0.0
-300.0   120.0   16.666666666666668
-250.0   150.0   16.666666666666668
-250.0   120.0   0.0
-300.0   150.0   0.0
-300.0   120.0   16.666666666666668
-250.0   120.0   16.666666666666668
-300.0   150.0   16.666666666666668
-300.0   120.0   33.333333333333336
-250.0   120.0   16.666666666666668
-250.0   150.0   16.666666666666668
-300.0   150.0   16.666666666666668
-250.0   150.0   33.333333333333336
-300.0   120.0   33.333333333333336
-300.0   150.0   33.333333333333336
-250.0   150.0   33.333333333333336
-300.0   150.0   16.666666666666668
-300.0   120.0   33.333333333333336
-250.0   150.0   33.333333333333336
-250.0   120.0   33.333333333333336
-250.0   120.0   16.666666666666668
-300.0   120.0   33.333333333333336
-250.0   150.0   33.333333333333336
-250.0   120.0   16.666666666666668
-300.0   150.0   16.666666666666668
-300.0   120.0   33.333333333333336
-250.0   120.0   33.333333333333336
-300.0   150.0   33.333333333333336
-300.0   120.0   50.0
-250.0   120.0   33.333333333333336
-250.0   150.0   33.333333333333336
-300.0   150.0   33.333333333333336
-250.0   150.0   50.0
-300.0   120.0   50.0
-300.0   150.0   50.0
-250.0   150.0   50.0
-300.0   150.0   33.333333333333336
-300.0   120.0   50.0
-250.0   150.0   50.0
-250.0   120.0   50.0
-250.0   120.0   33.333333333333336
-300.0   120.0   50.0
-250.0   150.0   50.0
-250.0   120.0   33.333333333333336
-300.0   150.0   33.333333333333336
-250.0   0.0   0.0
-200.0   0.0   0.0
-250.0   30.0   0.0
-250.0   0.0   16.666666666666668
-200.0   0.0   0.0
-200.0   30.0   0.0
-250.0   30.0   0.0
-200.0   30.0   16.666666666666668
-250.0   0.0   16.666666666666668
-250.0   30.0   16.666666666666668
-200.0   30.0   16.666666666666668
-250.0   30.0   0.0
-250.0   0.0   16.666666666666668
-200.0   30.0   16.666666666666668
-200.0   0.0   16.666666666666668
-200.0   0.0   0.0
-250.0   0.0   16.666666666666668
-200.0   30.0   16.666666666666668
-200.0   0.0   0.0
-250.0   30.0   0.0
-250.0   0.0   16.666666666666668
-200.0   0.0   16.666666666666668
-250.0   30.0   16.666666666666668
-250.0   0.0   33.333333333333336
-200.0   0.0   16.666666666666668
-200.0   30.0   16.666666666666668
-250.0   30.0   16.666666666666668
-200.0   30.0   33.333333333333336
-250.0   0.0   33.333333333333336
-250.0   30.0   33.333333333333336
-200.0   30.0   33.333333333333336
-250.0   30.0   16.666666666666668
-250.0   0.0   33.333333333333336
-200.0   30.0   33.333333333333336
-200.0   0.0   33.333333333333336
-200.0   0.0   16.666666666666668
-250.0   0.0   33.333333333333336
-200.0   30.0   33.333333333333336
-200.0   0.0   16.666666666666668
-250.0   30.0   16.666666666666668
-250.0   0.0   33.333333333333336
-200.0   0.0   33.333333333333336
-250.0   30.0   33.333333333333336
-250.0   0.0   50.0
-200.0   0.0   33.333333333333336
-200.0   30.0   33.333333333333336
-250.0   30.0   33.333333333333336
-200.0   30.0   50.0
-250.0   0.0   50.0
-250.0   30.0   50.0
-200.0   30.0   50.0
-250.0   30.0   33.333333333333336
-250.0   0.0   50.0
-200.0   30.0   50.0
-200.0   0.0   50.0
-200.0   0.0   33.333333333333336
-250.0   0.0   50.0
-200.0   30.0   50.0
-200.0   0.0   33.333333333333336
-250.0   30.0   33.333333333333336
-250.0   30.0   0.0
-200.0   30.0   0.0
-250.0   60.0   0.0
-250.0   30.0   16.666666666666668
-200.0   30.0   0.0
-200.0   60.0   0.0
-250.0   60.0   0.0
-200.0   60.0   16.666666666666668
-250.0   30.0   16.666666666666668
-250.0   60.0   16.666666666666668
-200.0   60.0   16.666666666666668
-250.0   60.0   0.0
-250.0   30.0   16.666666666666668
-200.0   60.0   16.666666666666668
-200.0   30.0   16.666666666666668
-200.0   30.0   0.0
-250.0   30.0   16.666666666666668
-200.0   60.0   16.666666666666668
-200.0   30.0   0.0
-250.0   60.0   0.0
-250.0   30.0   16.666666666666668
-200.0   30.0   16.666666666666668
-250.0   60.0   16.666666666666668
-250.0   30.0   33.333333333333336
-200.0   30.0   16.666666666666668
-200.0   60.0   16.666666666666668
-250.0   60.0   16.666666666666668
-200.0   60.0   33.333333333333336
-250.0   30.0   33.333333333333336
-250.0   60.0   33.333333333333336
-200.0   60.0   33.333333333333336
-250.0   60.0   16.666666666666668
-250.0   30.0   33.333333333333336
-200.0   60.0   33.333333333333336
-200.0   30.0   33.333333333333336
-200.0   30.0   16.666666666666668
-250.0   30.0   33.333333333333336
-200.0   60.0   33.333333333333336
-200.0   30.0   16.666666666666668
-250.0   60.0   16.666666666666668
-250.0   30.0   33.333333333333336
-200.0   30.0   33.333333333333336
-250.0   60.0   33.333333333333336
-250.0   30.0   50.0
-200.0   30.0   33.333333333333336
-200.0   60.0   33.333333333333336
-250.0   60.0   33.333333333333336
-200.0   60.0   50.0
-250.0   30.0   50.0
-250.0   60.0   50.0
-200.0   60.0   50.0
-250.0   60.0   33.333333333333336
-250.0   30.0   50.0
-200.0   60.0   50.0
-200.0   30.0   50.0
-200.0   30.0   33.333333333333336
-250.0   30.0   50.0
-200.0   60.0   50.0
-200.0   30.0   33.333333333333336
-250.0   60.0   33.333333333333336
-250.0   60.0   0.0
-200.0   60.0   0.0
-250.0   90.0   0.0
-250.0   60.0   16.666666666666668
-200.0   60.0   0.0
-200.0   90.0   0.0
-250.0   90.0   0.0
-200.0   90.0   16.666666666666668
-250.0   60.0   16.666666666666668
-250.0   90.0   16.666666666666668
-200.0   90.0   16.666666666666668
-250.0   90.0   0.0
-250.0   60.0   16.666666666666668
-200.0   90.0   16.666666666666668
-200.0   60.0   16.666666666666668
-200.0   60.0   0.0
-250.0   60.0   16.666666666666668
-200.0   90.0   16.666666666666668
-200.0   60.0   0.0
-250.0   90.0   0.0
-250.0   60.0   16.666666666666668
-200.0   60.0   16.666666666666668
-250.0   90.0   16.666666666666668
-250.0   60.0   33.333333333333336
-200.0   60.0   16.666666666666668
-200.0   90.0   16.666666666666668
-250.0   90.0   16.666666666666668
-200.0   90.0   33.333333333333336
-250.0   60.0   33.333333333333336
-250.0   90.0   33.333333333333336
-200.0   90.0   33.333333333333336
-250.0   90.0   16.666666666666668
-250.0   60.0   33.333333333333336
-200.0   90.0   33.333333333333336
-200.0   60.0   33.333333333333336
-200.0   60.0   16.666666666666668
-250.0   60.0   33.333333333333336
-200.0   90.0   33.333333333333336
-200.0   60.0   16.666666666666668
-250.0   90.0   16.666666666666668
-250.0   60.0   33.333333333333336
-200.0   60.0   33.333333333333336
-250.0   90.0   33.333333333333336
-250.0   60.0   50.0
-200.0   60.0   33.333333333333336
-200.0   90.0   33.333333333333336
-250.0   90.0   33.333333333333336
-200.0   90.0   50.0
-250.0   60.0   50.0
-250.0   90.0   50.0
-200.0   90.0   50.0
-250.0   90.0   33.333333333333336
-250.0   60.0   50.0
-200.0   90.0   50.0
-200.0   60.0   50.0
-200.0   60.0   33.333333333333336
-250.0   60.0   50.0
-200.0   90.0   50.0
-200.0   60.0   33.333333333333336
-250.0   90.0   33.333333333333336
-250.0   90.0   0.0
-200.0   90.0   0.0
-250.0   120.0   0.0
-250.0   90.0   16.666666666666668
-200.0   90.0   0.0
-200.0   120.0   0.0
-250.0   120.0   0.0
-200.0   120.0   16.666666666666668
-250.0   90.0   16.666666666666668
-250.0   120.0   16.666666666666668
-200.0   120.0   16.666666666666668
-250.0   120.0   0.0
-250.0   90.0   16.666666666666668
-200.0   120.0   16.666666666666668
-200.0   90.0   16.666666666666668
-200.0   90.0   0.0
-250.0   90.0   16.666666666666668
-200.0   120.0   16.666666666666668
-200.0   90.0   0.0
-250.0   120.0   0.0
-250.0   90.0   16.666666666666668
-200.0   90.0   16.666666666666668
-250.0   120.0   16.666666666666668
-250.0   90.0   33.333333333333336
-200.0   90.0   16.666666666666668
-200.0   120.0   16.666666666666668
-250.0   120.0   16.666666666666668
-200.0   120.0   33.333333333333336
-250.0   90.0   33.333333333333336
-250.0   120.0   33.333333333333336
-200.0   120.0   33.333333333333336
-250.0   120.0   16.666666666666668
-250.0   90.0   33.333333333333336
-200.0   120.0   33.333333333333336
-200.0   90.0   33.333333333333336
-200.0   90.0   16.666666666666668
-250.0   90.0   33.333333333333336
-200.0   120.0   33.333333333333336
-200.0   90.0   16.666666666666668
-250.0   120.0   16.666666666666668
-250.0   90.0   33.333333333333336
-200.0   90.0   33.333333333333336
-250.0   120.0   33.333333333333336
-250.0   90.0   50.0
-200.0   90.0   33.333333333333336
-200.0   120.0   33.333333333333336
-250.0   120.0   33.333333333333336
-200.0   120.0   50.0
-250.0   90.0   50.0
-250.0   120.0   50.0
-200.0   120.0   50.0
-250.0   120.0   33.333333333333336
-250.0   90.0   50.0
-200.0   120.0   50.0
-200.0   90.0   50.0
-200.0   90.0   33.333333333333336
-250.0   90.0   50.0
-200.0   120.0   50.0
-200.0   90.0   33.333333333333336
-250.0   120.0   33.333333333333336
-250.0   120.0   0.0
-200.0   120.0   0.0
-250.0   150.0   0.0
-250.0   120.0   16.666666666666668
-200.0   120.0   0.0
-200.0   150.0   0.0
-250.0   150.0   0.0
-200.0   150.0   16.666666666666668
-250.0   120.0   16.666666666666668
-250.0   150.0   16.666666666666668
-200.0   150.0   16.666666666666668
-250.0   150.0   0.0
-250.0   120.0   16.666666666666668
-200.0   150.0   16.666666666666668
-200.0   120.0   16.666666666666668
-200.0   120.0   0.0
-250.0   120.0   16.666666666666668
-200.0   150.0   16.666666666666668
-200.0   120.0   0.0
-250.0   150.0   0.0
-250.0   120.0   16.666666666666668
-200.0   120.0   16.666666666666668
-250.0   150.0   16.666666666666668
-250.0   120.0   33.333333333333336
-200.0   120.0   16.666666666666668
-200.0   150.0   16.666666666666668
-250.0   150.0   16.666666666666668
-200.0   150.0   33.333333333333336
-250.0   120.0   33.333333333333336
-250.0   150.0   33.333333333333336
-200.0   150.0   33.333333333333336
-250.0   150.0   16.666666666666668
-250.0   120.0   33.333333333333336
-200.0   150.0   33.333333333333336
-200.0   120.0   33.333333333333336
-200.0   120.0   16.666666666666668
-250.0   120.0   33.333333333333336
-200.0   150.0   33.333333333333336
-200.0   120.0   16.666666666666668
-250.0   150.0   16.666666666666668
-250.0   120.0   33.333333333333336
-200.0   120.0   33.333333333333336
-250.0   150.0   33.333333333333336
-250.0   120.0   50.0
-200.0   120.0   33.333333333333336
-200.0   150.0   33.333333333333336
-250.0   150.0   33.333333333333336
-200.0   150.0   50.0
-250.0   120.0   50.0
-250.0   150.0   50.0
-200.0   150.0   50.0
-250.0   150.0   33.333333333333336
-250.0   120.0   50.0
-200.0   150.0   50.0
-200.0   120.0   50.0
-200.0   120.0   33.333333333333336
-250.0   120.0   50.0
-200.0   150.0   50.0
-200.0   120.0   33.333333333333336
-250.0   150.0   33.333333333333336
-200.0   0.0   0.0
-150.0   0.0   0.0
-200.0   30.0   0.0
-200.0   0.0   16.666666666666668
-150.0   0.0   0.0
-150.0   30.0   0.0
-200.0   30.0   0.0
-150.0   30.0   16.666666666666668
-200.0   0.0   16.666666666666668
-200.0   30.0   16.666666666666668
-150.0   30.0   16.666666666666668
-200.0   30.0   0.0
-200.0   0.0   16.666666666666668
-150.0   30.0   16.666666666666668
-150.0   0.0   16.666666666666668
-150.0   0.0   0.0
-200.0   0.0   16.666666666666668
-150.0   30.0   16.666666666666668
-150.0   0.0   0.0
-200.0   30.0   0.0
-200.0   0.0   16.666666666666668
-150.0   0.0   16.666666666666668
-200.0   30.0   16.666666666666668
-200.0   0.0   33.333333333333336
-150.0   0.0   16.666666666666668
-150.0   30.0   16.666666666666668
-200.0   30.0   16.666666666666668
-150.0   30.0   33.333333333333336
-200.0   0.0   33.333333333333336
-200.0   30.0   33.333333333333336
-150.0   30.0   33.333333333333336
-200.0   30.0   16.666666666666668
-200.0   0.0   33.333333333333336
-150.0   30.0   33.333333333333336
-150.0   0.0   33.333333333333336
-150.0   0.0   16.666666666666668
-200.0   0.0   33.333333333333336
-150.0   30.0   33.333333333333336
-150.0   0.0   16.666666666666668
-200.0   30.0   16.666666666666668
-200.0   0.0   33.333333333333336
-150.0   0.0   33.333333333333336
-200.0   30.0   33.333333333333336
-200.0   0.0   50.0
-150.0   0.0   33.333333333333336
-150.0   30.0   33.333333333333336
-200.0   30.0   33.333333333333336
-150.0   30.0   50.0
-200.0   0.0   50.0
-200.0   30.0   50.0
-150.0   30.0   50.0
-200.0   30.0   33.333333333333336
-200.0   0.0   50.0
-150.0   30.0   50.0
-150.0   0.0   50.0
-150.0   0.0   33.333333333333336
-200.0   0.0   50.0
-150.0   30.0   50.0
-150.0   0.0   33.333333333333336
-200.0   30.0   33.333333333333336
-200.0   30.0   0.0
-150.0   30.0   0.0
-200.0   60.0   0.0
-200.0   30.0   16.666666666666668
-150.0   30.0   0.0
-150.0   60.0   0.0
-200.0   60.0   0.0
-150.0   60.0   16.666666666666668
-200.0   30.0   16.666666666666668
-200.0   60.0   16.666666666666668
-150.0   60.0   16.666666666666668
-200.0   60.0   0.0
-200.0   30.0   16.666666666666668
-150.0   60.0   16.666666666666668
-150.0   30.0   16.666666666666668
-150.0   30.0   0.0
-200.0   30.0   16.666666666666668
-150.0   60.0   16.666666666666668
-150.0   30.0   0.0
-200.0   60.0   0.0
-200.0   30.0   16.666666666666668
-150.0   30.0   16.666666666666668
-200.0   60.0   16.666666666666668
-200.0   30.0   33.333333333333336
-150.0   30.0   16.666666666666668
-150.0   60.0   16.666666666666668
-200.0   60.0   16.666666666666668
-150.0   60.0   33.333333333333336
-200.0   30.0   33.333333333333336
-200.0   60.0   33.333333333333336
-150.0   60.0   33.333333333333336
-200.0   60.0   16.666666666666668
-200.0   30.0   33.333333333333336
-150.0   60.0   33.333333333333336
-150.0   30.0   33.333333333333336
-150.0   30.0   16.666666666666668
-200.0   30.0   33.333333333333336
-150.0   60.0   33.333333333333336
-150.0   30.0   16.666666666666668
-200.0   60.0   16.666666666666668
-200.0   30.0   33.333333333333336
-150.0   30.0   33.333333333333336
-200.0   60.0   33.333333333333336
-200.0   30.0   50.0
-150.0   30.0   33.333333333333336
-150.0   60.0   33.333333333333336
-200.0   60.0   33.333333333333336
-150.0   60.0   50.0
-200.0   30.0   50.0
-200.0   60.0   50.0
-150.0   60.0   50.0
-200.0   60.0   33.333333333333336
-200.0   30.0   50.0
-150.0   60.0   50.0
-150.0   30.0   50.0
-150.0   30.0   33.333333333333336
-200.0   30.0   50.0
-150.0   60.0   50.0
-150.0   30.0   33.333333333333336
-200.0   60.0   33.333333333333336
-200.0   60.0   0.0
-150.0   60.0   0.0
-200.0   90.0   0.0
-200.0   60.0   16.666666666666668
-150.0   60.0   0.0
-150.0   90.0   0.0
-200.0   90.0   0.0
-150.0   90.0   16.666666666666668
-200.0   60.0   16.666666666666668
-200.0   90.0   16.666666666666668
-150.0   90.0   16.666666666666668
-200.0   90.0   0.0
-200.0   60.0   16.666666666666668
-150.0   90.0   16.666666666666668
-150.0   60.0   16.666666666666668
-150.0   60.0   0.0
-200.0   60.0   16.666666666666668
-150.0   90.0   16.666666666666668
-150.0   60.0   0.0
-200.0   90.0   0.0
-200.0   60.0   16.666666666666668
-150.0   60.0   16.666666666666668
-200.0   90.0   16.666666666666668
-200.0   60.0   33.333333333333336
-150.0   60.0   16.666666666666668
-150.0   90.0   16.666666666666668
-200.0   90.0   16.666666666666668
-150.0   90.0   33.333333333333336
-200.0   60.0   33.333333333333336
-200.0   90.0   33.333333333333336
-150.0   90.0   33.333333333333336
-200.0   90.0   16.666666666666668
-200.0   60.0   33.333333333333336
-150.0   90.0   33.333333333333336
-150.0   60.0   33.333333333333336
-150.0   60.0   16.666666666666668
-200.0   60.0   33.333333333333336
-150.0   90.0   33.333333333333336
-150.0   60.0   16.666666666666668
-200.0   90.0   16.666666666666668
-200.0   60.0   33.333333333333336
-150.0   60.0   33.333333333333336
-200.0   90.0   33.333333333333336
-200.0   60.0   50.0
-150.0   60.0   33.333333333333336
-150.0   90.0   33.333333333333336
-200.0   90.0   33.333333333333336
-150.0   90.0   50.0
-200.0   60.0   50.0
-200.0   90.0   50.0
-150.0   90.0   50.0
-200.0   90.0   33.333333333333336
-200.0   60.0   50.0
-150.0   90.0   50.0
-150.0   60.0   50.0
-150.0   60.0   33.333333333333336
-200.0   60.0   50.0
-150.0   90.0   50.0
-150.0   60.0   33.333333333333336
-200.0   90.0   33.333333333333336
-200.0   90.0   0.0
-150.0   90.0   0.0
-200.0   120.0   0.0
-200.0   90.0   16.666666666666668
-150.0   90.0   0.0
-150.0   120.0   0.0
-200.0   120.0   0.0
-150.0   120.0   16.666666666666668
-200.0   90.0   16.666666666666668
-200.0   120.0   16.666666666666668
-150.0   120.0   16.666666666666668
-200.0   120.0   0.0
-200.0   90.0   16.666666666666668
-150.0   120.0   16.666666666666668
-150.0   90.0   16.666666666666668
-150.0   90.0   0.0
-200.0   90.0   16.666666666666668
-150.0   120.0   16.666666666666668
-150.0   90.0   0.0
-200.0   120.0   0.0
-200.0   90.0   16.666666666666668
-150.0   90.0   16.666666666666668
-200.0   120.0   16.666666666666668
-200.0   90.0   33.333333333333336
-150.0   90.0   16.666666666666668
-150.0   120.0   16.666666666666668
-200.0   120.0   16.666666666666668
-150.0   120.0   33.333333333333336
-200.0   90.0   33.333333333333336
-200.0   120.0   33.333333333333336
-150.0   120.0   33.333333333333336
-200.0   120.0   16.666666666666668
-200.0   90.0   33.333333333333336
-150.0   120.0   33.333333333333336
-150.0   90.0   33.333333333333336
-150.0   90.0   16.666666666666668
-200.0   90.0   33.333333333333336
-150.0   120.0   33.333333333333336
-150.0   90.0   16.666666666666668
-200.0   120.0   16.666666666666668
-200.0   90.0   33.333333333333336
-150.0   90.0   33.333333333333336
-200.0   120.0   33.333333333333336
-200.0   90.0   50.0
-150.0   90.0   33.333333333333336
-150.0   120.0   33.333333333333336
-200.0   120.0   33.333333333333336
-150.0   120.0   50.0
-200.0   90.0   50.0
-200.0   120.0   50.0
-150.0   120.0   50.0
-200.0   120.0   33.333333333333336
-200.0   90.0   50.0
-150.0   120.0   50.0
-150.0   90.0   50.0
-150.0   90.0   33.333333333333336
-200.0   90.0   50.0
-150.0   120.0   50.0
-150.0   90.0   33.333333333333336
-200.0   120.0   33.333333333333336
-200.0   120.0   0.0
-150.0   120.0   0.0
-200.0   150.0   0.0
-200.0   120.0   16.666666666666668
-150.0   120.0   0.0
-150.0   150.0   0.0
-200.0   150.0   0.0
-150.0   150.0   16.666666666666668
-200.0   120.0   16.666666666666668
-200.0   150.0   16.666666666666668
-150.0   150.0   16.666666666666668
-200.0   150.0   0.0
-200.0   120.0   16.666666666666668
-150.0   150.0   16.666666666666668
-150.0   120.0   16.666666666666668
-150.0   120.0   0.0
-200.0   120.0   16.666666666666668
-150.0   150.0   16.666666666666668
-150.0   120.0   0.0
-200.0   150.0   0.0
-200.0   120.0   16.666666666666668
-150.0   120.0   16.666666666666668
-200.0   150.0   16.666666666666668
-200.0   120.0   33.333333333333336
-150.0   120.0   16.666666666666668
-150.0   150.0   16.666666666666668
-200.0   150.0   16.666666666666668
-150.0   150.0   33.333333333333336
-200.0   120.0   33.333333333333336
-200.0   150.0   33.333333333333336
-150.0   150.0   33.333333333333336
-200.0   150.0   16.666666666666668
-200.0   120.0   33.333333333333336
-150.0   150.0   33.333333333333336
-150.0   120.0   33.333333333333336
-150.0   120.0   16.666666666666668
-200.0   120.0   33.333333333333336
-150.0   150.0   33.333333333333336
-150.0   120.0   16.666666666666668
-200.0   150.0   16.666666666666668
-200.0   120.0   33.333333333333336
-150.0   120.0   33.333333333333336
-200.0   150.0   33.333333333333336
-200.0   120.0   50.0
-150.0   120.0   33.333333333333336
-150.0   150.0   33.333333333333336
-200.0   150.0   33.333333333333336
-150.0   150.0   50.0
-200.0   120.0   50.0
-200.0   150.0   50.0
-150.0   150.0   50.0
-200.0   150.0   33.333333333333336
-200.0   120.0   50.0
-150.0   150.0   50.0
-150.0   120.0   50.0
-150.0   120.0   33.333333333333336
-200.0   120.0   50.0
-150.0   150.0   50.0
-150.0   120.0   33.333333333333336
-200.0   150.0   33.333333333333336
-150.0   0.0   0.0
-100.0   0.0   0.0
-150.0   30.0   0.0
-150.0   0.0   16.666666666666668
-100.0   0.0   0.0
-100.0   30.0   0.0
-150.0   30.0   0.0
-100.0   30.0   16.666666666666668
-150.0   0.0   16.666666666666668
-150.0   30.0   16.666666666666668
-100.0   30.0   16.666666666666668
-150.0   30.0   0.0
-150.0   0.0   16.666666666666668
-100.0   30.0   16.666666666666668
-100.0   0.0   16.666666666666668
-100.0   0.0   0.0
-150.0   0.0   16.666666666666668
-100.0   30.0   16.666666666666668
-100.0   0.0   0.0
-150.0   30.0   0.0
-150.0   0.0   16.666666666666668
-100.0   0.0   16.666666666666668
-150.0   30.0   16.666666666666668
-150.0   0.0   33.333333333333336
-100.0   0.0   16.666666666666668
-100.0   30.0   16.666666666666668
-150.0   30.0   16.666666666666668
-100.0   30.0   33.333333333333336
-150.0   0.0   33.333333333333336
-150.0   30.0   33.333333333333336
-100.0   30.0   33.333333333333336
-150.0   30.0   16.666666666666668
-150.0   0.0   33.333333333333336
-100.0   30.0   33.333333333333336
-100.0   0.0   33.333333333333336
-100.0   0.0   16.666666666666668
-150.0   0.0   33.333333333333336
-100.0   30.0   33.333333333333336
-100.0   0.0   16.666666666666668
-150.0   30.0   16.666666666666668
-150.0   0.0   33.333333333333336
-100.0   0.0   33.333333333333336
-150.0   30.0   33.333333333333336
-150.0   0.0   50.0
-100.0   0.0   33.333333333333336
-100.0   30.0   33.333333333333336
-150.0   30.0   33.333333333333336
-100.0   30.0   50.0
-150.0   0.0   50.0
-150.0   30.0   50.0
-100.0   30.0   50.0
-150.0   30.0   33.333333333333336
-150.0   0.0   50.0
-100.0   30.0   50.0
-100.0   0.0   50.0
-100.0   0.0   33.333333333333336
-150.0   0.0   50.0
-100.0   30.0   50.0
-100.0   0.0   33.333333333333336
-150.0   30.0   33.333333333333336
-150.0   30.0   0.0
-100.0   30.0   0.0
-150.0   60.0   0.0
-150.0   30.0   16.666666666666668
-100.0   30.0   0.0
-100.0   60.0   0.0
-150.0   60.0   0.0
-100.0   60.0   16.666666666666668
-150.0   30.0   16.666666666666668
-150.0   60.0   16.666666666666668
-100.0   60.0   16.666666666666668
-150.0   60.0   0.0
-150.0   30.0   16.666666666666668
-100.0   60.0   16.666666666666668
-100.0   30.0   16.666666666666668
-100.0   30.0   0.0
-150.0   30.0   16.666666666666668
-100.0   60.0   16.666666666666668
-100.0   30.0   0.0
-150.0   60.0   0.0
-150.0   30.0   16.666666666666668
-100.0   30.0   16.666666666666668
-150.0   60.0   16.666666666666668
-150.0   30.0   33.333333333333336
-100.0   30.0   16.666666666666668
-100.0   60.0   16.666666666666668
-150.0   60.0   16.666666666666668
-100.0   60.0   33.333333333333336
-150.0   30.0   33.333333333333336
-150.0   60.0   33.333333333333336
-100.0   60.0   33.333333333333336
-150.0   60.0   16.666666666666668
-150.0   30.0   33.333333333333336
-100.0   60.0   33.333333333333336
-100.0   30.0   33.333333333333336
-100.0   30.0   16.666666666666668
-150.0   30.0   33.333333333333336
-100.0   60.0   33.333333333333336
-100.0   30.0   16.666666666666668
-150.0   60.0   16.666666666666668
-150.0   30.0   33.333333333333336
-100.0   30.0   33.333333333333336
-150.0   60.0   33.333333333333336
-150.0   30.0   50.0
-100.0   30.0   33.333333333333336
-100.0   60.0   33.333333333333336
-150.0   60.0   33.333333333333336
-100.0   60.0   50.0
-150.0   30.0   50.0
-150.0   60.0   50.0
-100.0   60.0   50.0
-150.0   60.0   33.333333333333336
-150.0   30.0   50.0
-100.0   60.0   50.0
-100.0   30.0   50.0
-100.0   30.0   33.333333333333336
-150.0   30.0   50.0
-100.0   60.0   50.0
-100.0   30.0   33.333333333333336
-150.0   60.0   33.333333333333336
-150.0   60.0   0.0
-100.0   60.0   0.0
-150.0   90.0   0.0
-150.0   60.0   16.666666666666668
-100.0   60.0   0.0
-100.0   90.0   0.0
-150.0   90.0   0.0
-100.0   90.0   16.666666666666668
-150.0   60.0   16.666666666666668
-150.0   90.0   16.666666666666668
-100.0   90.0   16.666666666666668
-150.0   90.0   0.0
-150.0   60.0   16.666666666666668
-100.0   90.0   16.666666666666668
-100.0   60.0   16.666666666666668
-100.0   60.0   0.0
-150.0   60.0   16.666666666666668
-100.0   90.0   16.666666666666668
-100.0   60.0   0.0
-150.0   90.0   0.0
-150.0   60.0   16.666666666666668
-100.0   60.0   16.666666666666668
-150.0   90.0   16.666666666666668
-150.0   60.0   33.333333333333336
-100.0   60.0   16.666666666666668
-100.0   90.0   16.666666666666668
-150.0   90.0   16.666666666666668
-100.0   90.0   33.333333333333336
-150.0   60.0   33.333333333333336
-150.0   90.0   33.333333333333336
-100.0   90.0   33.333333333333336
-150.0   90.0   16.666666666666668
-150.0   60.0   33.333333333333336
-100.0   90.0   33.333333333333336
-100.0   60.0   33.333333333333336
-100.0   60.0   16.666666666666668
-150.0   60.0   33.333333333333336
-100.0   90.0   33.333333333333336
-100.0   60.0   16.666666666666668
-150.0   90.0   16.666666666666668
-150.0   60.0   33.333333333333336
-100.0   60.0   33.333333333333336
-150.0   90.0   33.333333333333336
-150.0   60.0   50.0
-100.0   60.0   33.333333333333336
-100.0   90.0   33.333333333333336
-150.0   90.0   33.333333333333336
-100.0   90.0   50.0
-150.0   60.0   50.0
-150.0   90.0   50.0
-100.0   90.0   50.0
-150.0   90.0   33.333333333333336
-150.0   60.0   50.0
-100.0   90.0   50.0
-100.0   60.0   50.0
-100.0   60.0   33.333333333333336
-150.0   60.0   50.0
-100.0   90.0   50.0
-100.0   60.0   33.333333333333336
-150.0   90.0   33.333333333333336
-150.0   90.0   0.0
-100.0   90.0   0.0
-150.0   120.0   0.0
-150.0   90.0   16.666666666666668
-100.0   90.0   0.0
-100.0   120.0   0.0
-150.0   120.0   0.0
-100.0   120.0   16.666666666666668
-150.0   90.0   16.666666666666668
-150.0   120.0   16.666666666666668
-100.0   120.0   16.666666666666668
-150.0   120.0   0.0
-150.0   90.0   16.666666666666668
-100.0   120.0   16.666666666666668
-100.0   90.0   16.666666666666668
-100.0   90.0   0.0
-150.0   90.0   16.666666666666668
-100.0   120.0   16.666666666666668
-100.0   90.0   0.0
-150.0   120.0   0.0
-150.0   90.0   16.666666666666668
-100.0   90.0   16.666666666666668
-150.0   120.0   16.666666666666668
-150.0   90.0   33.333333333333336
-100.0   90.0   16.666666666666668
-100.0   120.0   16.666666666666668
-150.0   120.0   16.666666666666668
-100.0   120.0   33.333333333333336
-150.0   90.0   33.333333333333336
-150.0   120.0   33.333333333333336
-100.0   120.0   33.333333333333336
-150.0   120.0   16.666666666666668
-150.0   90.0   33.333333333333336
-100.0   120.0   33.333333333333336
-100.0   90.0   33.333333333333336
-100.0   90.0   16.666666666666668
-150.0   90.0   33.333333333333336
-100.0   120.0   33.333333333333336
-100.0   90.0   16.666666666666668
-150.0   120.0   16.666666666666668
-150.0   90.0   33.333333333333336
-100.0   90.0   33.333333333333336
-150.0   120.0   33.333333333333336
-150.0   90.0   50.0
-100.0   90.0   33.333333333333336
-100.0   120.0   33.333333333333336
-150.0   120.0   33.333333333333336
-100.0   120.0   50.0
-150.0   90.0   50.0
-150.0   120.0   50.0
-100.0   120.0   50.0
-150.0   120.0   33.333333333333336
-150.0   90.0   50.0
-100.0   120.0   50.0
-100.0   90.0   50.0
-100.0   90.0   33.333333333333336
-150.0   90.0   50.0
-100.0   120.0   50.0
-100.0   90.0   33.333333333333336
-150.0   120.0   33.333333333333336
-150.0   120.0   0.0
-100.0   120.0   0.0
-150.0   150.0   0.0
-150.0   120.0   16.666666666666668
-100.0   120.0   0.0
-100.0   150.0   0.0
-150.0   150.0   0.0
-100.0   150.0   16.666666666666668
-150.0   120.0   16.666666666666668
-150.0   150.0   16.666666666666668
-100.0   150.0   16.666666666666668
-150.0   150.0   0.0
-150.0   120.0   16.666666666666668
-100.0   150.0   16.666666666666668
-100.0   120.0   16.666666666666668
-100.0   120.0   0.0
-150.0   120.0   16.666666666666668
-100.0   150.0   16.666666666666668
-100.0   120.0   0.0
-150.0   150.0   0.0
-150.0   120.0   16.666666666666668
-100.0   120.0   16.666666666666668
-150.0   150.0   16.666666666666668
-150.0   120.0   33.333333333333336
-100.0   120.0   16.666666666666668
-100.0   150.0   16.666666666666668
-150.0   150.0   16.666666666666668
-100.0   150.0   33.333333333333336
-150.0   120.0   33.333333333333336
-150.0   150.0   33.333333333333336
-100.0   150.0   33.333333333333336
-150.0   150.0   16.666666666666668
-150.0   120.0   33.333333333333336
-100.0   150.0   33.333333333333336
-100.0   120.0   33.333333333333336
-100.0   120.0   16.666666666666668
-150.0   120.0   33.333333333333336
-100.0   150.0   33.333333333333336
-100.0   120.0   16.666666666666668
-150.0   150.0   16.666666666666668
-150.0   120.0   33.333333333333336
-100.0   120.0   33.333333333333336
-150.0   150.0   33.333333333333336
-150.0   120.0   50.0
-100.0   120.0   33.333333333333336
-100.0   150.0   33.333333333333336
-150.0   150.0   33.333333333333336
-100.0   150.0   50.0
-150.0   120.0   50.0
-150.0   150.0   50.0
-100.0   150.0   50.0
-150.0   150.0   33.333333333333336
-150.0   120.0   50.0
-100.0   150.0   50.0
-100.0   120.0   50.0
-100.0   120.0   33.333333333333336
-150.0   120.0   50.0
-100.0   150.0   50.0
-100.0   120.0   33.333333333333336
-150.0   150.0   33.333333333333336
-100.0   0.0   0.0
-50.0   0.0   0.0
-100.0   30.0   0.0
-100.0   0.0   16.666666666666668
-50.0   0.0   0.0
-50.0   30.0   0.0
-100.0   30.0   0.0
-50.0   30.0   16.666666666666668
-100.0   0.0   16.666666666666668
-100.0   30.0   16.666666666666668
-50.0   30.0   16.666666666666668
-100.0   30.0   0.0
-100.0   0.0   16.666666666666668
-50.0   30.0   16.666666666666668
-50.0   0.0   16.666666666666668
-50.0   0.0   0.0
-100.0   0.0   16.666666666666668
-50.0   30.0   16.666666666666668
-50.0   0.0   0.0
-100.0   30.0   0.0
-100.0   0.0   16.666666666666668
-50.0   0.0   16.666666666666668
-100.0   30.0   16.666666666666668
-100.0   0.0   33.333333333333336
-50.0   0.0   16.666666666666668
-50.0   30.0   16.666666666666668
-100.0   30.0   16.666666666666668
-50.0   30.0   33.333333333333336
-100.0   0.0   33.333333333333336
-100.0   30.0   33.333333333333336
-50.0   30.0   33.333333333333336
-100.0   30.0   16.666666666666668
-100.0   0.0   33.333333333333336
-50.0   30.0   33.333333333333336
-50.0   0.0   33.333333333333336
-50.0   0.0   16.666666666666668
-100.0   0.0   33.333333333333336
-50.0   30.0   33.333333333333336
-50.0   0.0   16.666666666666668
-100.0   30.0   16.666666666666668
-100.0   0.0   33.333333333333336
-50.0   0.0   33.333333333333336
-100.0   30.0   33.333333333333336
-100.0   0.0   50.0
-50.0   0.0   33.333333333333336
-50.0   30.0   33.333333333333336
-100.0   30.0   33.333333333333336
-50.0   30.0   50.0
-100.0   0.0   50.0
-100.0   30.0   50.0
-50.0   30.0   50.0
-100.0   30.0   33.333333333333336
-100.0   0.0   50.0
-50.0   30.0   50.0
-50.0   0.0   50.0
-50.0   0.0   33.333333333333336
-100.0   0.0   50.0
-50.0   30.0   50.0
-50.0   0.0   33.333333333333336
-100.0   30.0   33.333333333333336
-100.0   30.0   0.0
-50.0   30.0   0.0
-100.0   60.0   0.0
-100.0   30.0   16.666666666666668
-50.0   30.0   0.0
-50.0   60.0   0.0
-100.0   60.0   0.0
-50.0   60.0   16.666666666666668
-100.0   30.0   16.666666666666668
-100.0   60.0   16.666666666666668
-50.0   60.0   16.666666666666668
-100.0   60.0   0.0
-100.0   30.0   16.666666666666668
-50.0   60.0   16.666666666666668
-50.0   30.0   16.666666666666668
-50.0   30.0   0.0
-100.0   30.0   16.666666666666668
-50.0   60.0   16.666666666666668
-50.0   30.0   0.0
-100.0   60.0   0.0
-100.0   30.0   16.666666666666668
-50.0   30.0   16.666666666666668
-100.0   60.0   16.666666666666668
-100.0   30.0   33.333333333333336
-50.0   30.0   16.666666666666668
-50.0   60.0   16.666666666666668
-100.0   60.0   16.666666666666668
-50.0   60.0   33.333333333333336
-100.0   30.0   33.333333333333336
-100.0   60.0   33.333333333333336
-50.0   60.0   33.333333333333336
-100.0   60.0   16.666666666666668
-100.0   30.0   33.333333333333336
-50.0   60.0   33.333333333333336
-50.0   30.0   33.333333333333336
-50.0   30.0   16.666666666666668
-100.0   30.0   33.333333333333336
-50.0   60.0   33.333333333333336
-50.0   30.0   16.666666666666668
-100.0   60.0   16.666666666666668
-100.0   30.0   33.333333333333336
-50.0   30.0   33.333333333333336
-100.0   60.0   33.333333333333336
-100.0   30.0   50.0
-50.0   30.0   33.333333333333336
-50.0   60.0   33.333333333333336
-100.0   60.0   33.333333333333336
-50.0   60.0   50.0
-100.0   30.0   50.0
-100.0   60.0   50.0
-50.0   60.0   50.0
-100.0   60.0   33.333333333333336
-100.0   30.0   50.0
-50.0   60.0   50.0
-50.0   30.0   50.0
-50.0   30.0   33.333333333333336
-100.0   30.0   50.0
-50.0   60.0   50.0
-50.0   30.0   33.333333333333336
-100.0   60.0   33.333333333333336
-100.0   60.0   0.0
-50.0   60.0   0.0
-100.0   90.0   0.0
-100.0   60.0   16.666666666666668
-50.0   60.0   0.0
-50.0   90.0   0.0
-100.0   90.0   0.0
-50.0   90.0   16.666666666666668
-100.0   60.0   16.666666666666668
-100.0   90.0   16.666666666666668
-50.0   90.0   16.666666666666668
-100.0   90.0   0.0
-100.0   60.0   16.666666666666668
-50.0   90.0   16.666666666666668
-50.0   60.0   16.666666666666668
-50.0   60.0   0.0
-100.0   60.0   16.666666666666668
-50.0   90.0   16.666666666666668
-50.0   60.0   0.0
-100.0   90.0   0.0
-100.0   60.0   16.666666666666668
-50.0   60.0   16.666666666666668
-100.0   90.0   16.666666666666668
-100.0   60.0   33.333333333333336
-50.0   60.0   16.666666666666668
-50.0   90.0   16.666666666666668
-100.0   90.0   16.666666666666668
-50.0   90.0   33.333333333333336
-100.0   60.0   33.333333333333336
-100.0   90.0   33.333333333333336
-50.0   90.0   33.333333333333336
-100.0   90.0   16.666666666666668
-100.0   60.0   33.333333333333336
-50.0   90.0   33.333333333333336
-50.0   60.0   33.333333333333336
-50.0   60.0   16.666666666666668
-100.0   60.0   33.333333333333336
-50.0   90.0   33.333333333333336
-50.0   60.0   16.666666666666668
-100.0   90.0   16.666666666666668
-100.0   60.0   33.333333333333336
-50.0   60.0   33.333333333333336
-100.0   90.0   33.333333333333336
-100.0   60.0   50.0
-50.0   60.0   33.333333333333336
-50.0   90.0   33.333333333333336
-100.0   90.0   33.333333333333336
-50.0   90.0   50.0
-100.0   60.0   50.0
-100.0   90.0   50.0
-50.0   90.0   50.0
-100.0   90.0   33.333333333333336
-100.0   60.0   50.0
-50.0   90.0   50.0
-50.0   60.0   50.0
-50.0   60.0   33.333333333333336
-100.0   60.0   50.0
-50.0   90.0   50.0
-50.0   60.0   33.333333333333336
-100.0   90.0   33.333333333333336
-100.0   90.0   0.0
-50.0   90.0   0.0
-100.0   120.0   0.0
-100.0   90.0   16.666666666666668
-50.0   90.0   0.0
-50.0   120.0   0.0
-100.0   120.0   0.0
-50.0   120.0   16.666666666666668
-100.0   90.0   16.666666666666668
-100.0   120.0   16.666666666666668
-50.0   120.0   16.666666666666668
-100.0   120.0   0.0
-100.0   90.0   16.666666666666668
-50.0   120.0   16.666666666666668
-50.0   90.0   16.666666666666668
-50.0   90.0   0.0
-100.0   90.0   16.666666666666668
-50.0   120.0   16.666666666666668
-50.0   90.0   0.0
-100.0   120.0   0.0
-100.0   90.0   16.666666666666668
-50.0   90.0   16.666666666666668
-100.0   120.0   16.666666666666668
-100.0   90.0   33.333333333333336
-50.0   90.0   16.666666666666668
-50.0   120.0   16.666666666666668
-100.0   120.0   16.666666666666668
-50.0   120.0   33.333333333333336
-100.0   90.0   33.333333333333336
-100.0   120.0   33.333333333333336
-50.0   120.0   33.333333333333336
-100.0   120.0   16.666666666666668
-100.0   90.0   33.333333333333336
-50.0   120.0   33.333333333333336
-50.0   90.0   33.333333333333336
-50.0   90.0   16.666666666666668
-100.0   90.0   33.333333333333336
-50.0   120.0   33.333333333333336
-50.0   90.0   16.666666666666668
-100.0   120.0   16.666666666666668
-100.0   90.0   33.333333333333336
-50.0   90.0   33.333333333333336
-100.0   120.0   33.333333333333336
-100.0   90.0   50.0
-50.0   90.0   33.333333333333336
-50.0   120.0   33.333333333333336
-100.0   120.0   33.333333333333336
-50.0   120.0   50.0
-100.0   90.0   50.0
-100.0   120.0   50.0
-50.0   120.0   50.0
-100.0   120.0   33.333333333333336
-100.0   90.0   50.0
-50.0   120.0   50.0
-50.0   90.0   50.0
-50.0   90.0   33.333333333333336
-100.0   90.0   50.0
-50.0   120.0   50.0
-50.0   90.0   33.333333333333336
-100.0   120.0   33.333333333333336
-100.0   120.0   0.0
-50.0   120.0   0.0
-100.0   150.0   0.0
-100.0   120.0   16.666666666666668
-50.0   120.0   0.0
-50.0   150.0   0.0
-100.0   150.0   0.0
-50.0   150.0   16.666666666666668
-100.0   120.0   16.666666666666668
-100.0   150.0   16.666666666666668
-50.0   150.0   16.666666666666668
-100.0   150.0   0.0
-100.0   120.0   16.666666666666668
-50.0   150.0   16.666666666666668
-50.0   120.0   16.666666666666668
-50.0   120.0   0.0
-100.0   120.0   16.666666666666668
-50.0   150.0   16.666666666666668
-50.0   120.0   0.0
-100.0   150.0   0.0
-100.0   120.0   16.666666666666668
-50.0   120.0   16.666666666666668
-100.0   150.0   16.666666666666668
-100.0   120.0   33.333333333333336
-50.0   120.0   16.666666666666668
-50.0   150.0   16.666666666666668
-100.0   150.0   16.666666666666668
-50.0   150.0   33.333333333333336
-100.0   120.0   33.333333333333336
-100.0   150.0   33.333333333333336
-50.0   150.0   33.333333333333336
-100.0   150.0   16.666666666666668
-100.0   120.0   33.333333333333336
-50.0   150.0   33.333333333333336
-50.0   120.0   33.333333333333336
-50.0   120.0   16.666666666666668
-100.0   120.0   33.333333333333336
-50.0   150.0   33.333333333333336
-50.0   120.0   16.666666666666668
-100.0   150.0   16.666666666666668
-100.0   120.0   33.333333333333336
-50.0   120.0   33.333333333333336
-100.0   150.0   33.333333333333336
-100.0   120.0   50.0
-50.0   120.0   33.333333333333336
-50.0   150.0   33.333333333333336
-100.0   150.0   33.333333333333336
-50.0   150.0   50.0
-100.0   120.0   50.0
-100.0   150.0   50.0
-50.0   150.0   50.0
-100.0   150.0   33.333333333333336
-100.0   120.0   50.0
-50.0   150.0   50.0
-50.0   120.0   50.0
-50.0   120.0   33.333333333333336
-100.0   120.0   50.0
-50.0   150.0   50.0
-50.0   120.0   33.333333333333336
-100.0   150.0   33.333333333333336
-50.0   0.0   0.0
0.0   0.0   0.0
-50.0   30.0   0.0
-50.0   0.0   16.666666666666668
0.0   0.0   0.0
0.0   30.0   0.0
-50.0   30.0   0.0
0.0   30.0   16.666666666666668
-50.0   0.0   16.666666666666668
-50.0   30.0   16.666666666666668
0.0   30.0   16.666666666666668
-50.0   30.0   0.0
-50.0   0.0   16.666666666666668
0.0   30.0   16.666666666666668
0.0   0.0   16.666666666666668
0.0   0.0   0.0
-50.0   0.0   16.666666666666668
0.0   30.0   16.666666666666668
0.0   0.0   0.0
-50.0   30.0   0.0
-50.0   0.0   16.666666666666668
0.0   0.0   16.666666666666668
-50.0   30.0   16.666666666666668
-50.0   0.0   33.333333333333336
0.0   0.0   16.666666666666668
0.0   30.0   16.666666666666668
-50.0   30.0   16.666666666666668
0.0   30.0   33.333333333333336
-50.0   0.0   33.333333333333336
-50.0   30.0   33.333333333333336
0.0   30.0   33.333333333333336
-50.0   30.0   16.666666666666668
-50.0   0.0   33.333333333333336
0.0   30.0   33.333333333333336
0.0   0.0   33.333333333333336
0.0   0.0   16.666666666666668
-50.0   0.0   33.333333333333336
0.0   30.0   33.333333333333336
0.0   0.0   16.666666666666668
-50.0   30.0   16.666666666666668
-50.0   0.0   33.333333333333336
0.0   0.0   33.333333333333336
-50.0   30.0   33.333333333333336
-50.0   0.0   50.0
0.0   0.0   33.333333333333336
0.0   30.0   33.333333333333336
-50.0   30.0   33.333333333333336
0.0   30.0   50.0
-50.0   0.0   50.0
-50.0   30.0   50.0
0.0   30.0   50.0
-50.0   30.0   33.333333333333336
-50.0   0.0   50.0
0.0   30.0   50.0
0.0   0.0   50.0
0.0   0.0   33.333333333333336
-50.0   0.0   50.0
0.0   30.0   50.0
0.0   0.0   33.333333333333336
-50.0   30.0   33.333333333333336
-50.0   30.0   0.0
0.0   30.0   0.0
-50.0   60.0   0.0
-50.0   30.0   16.666666666666668
0.0   30.0   0.0
0.0   60.0   0.0
-50.0   60.0   0.0
0.0   60.0   16.666666666666668
-50.0   30.0   16.666666666666668
-50.0   60.0   16.666666666666668
0.0   60.0   16.666666666666668
-50.0   60.0   0.0
-50.0   30.0   16.666666666666668
0.0   60.0   16.666666666666668
0.0   30.0   16.666666666666668
0.0   30.0   0.0
-50.0   30.0   16.666666666666668
0.0   60.0   16.666666666666668
0.0   30.0   0.0
-50.0   60.0   0.0
-50.0   30.0   16.666666666666668
0.0   30.0   16.666666666666668
-50.0   60.0   16.666666666666668
-50.0   30.0   33.333333333333336
0.0   30.0   16.666666666666668
0.0   60.0   16.666666666666668
-50.0   60.0   16.666666666666668
0.0   60.0   33.333333333333336
-50.0   30.0   33.333333333333336
-50.0   60.0   33.333333333333336
0.0   60.0   33.333333333333336
-50.0   60.0   16.666666666666668
-50.0   30.0   33.333333333333336
0.0   60.0   33.333333333333336
0.0   30.0   33.333333333333336
0.0   30.0   16.666666666666668
-50.0   30.0   33.333333333333336
0.0   60.0   33.333333333333336
0.0   30.0   16.666666666666668
-50.0   60.0   16.666666666666668
-50.0   30.0   33.333333333333336
0.0   30.0   33.333333333333336
-50.0   60.0   33.333333333333336
-50.0   30.0   50.0
0.0   30.0   33.333333333333336
0.0   60.0   33.333333333333336
-50.0   60.0   33.333333333333336
0.0   60.0   50.0
-50.0   30.0   50.0
-50.0   60.0   50.0
0.0   60.0   50.0
-50.0   60.0   33.333333333333336
-50.0   30.0   50.0
0.0   60.0   50.0
0.0   30.0   50.0
0.0   30.0   33.333333333333336
-50.0   30.0   50.0
0.0   60.0   50.0
0.0   30.0   33.333333333333336
-50.0   60.0   33.333333333333336
-50.0   60.0   0.0
0.0   60.0   0.0
-50.0   90.0   0.0
-50.0   60.0   16.666666666666668
0.0   60.0   0.0
0.0   90.0   0.0
-50.0   90.0   0.0
0.0   90.0   16.666666666666668
-50.0   60.0   16.666666666666668
-50.0   90.0   16.666666666666668
0.0   90.0   16.666666666666668
-50.0   90.0   0.0
-50.0   60.0   16.666666666666668
0.0   90.0   16.666666666666668
0.0   60.0   16.666666666666668
0.0   60.0   0.0
-50.0   60.0   16.666666666666668
0.0   90.0   16.666666666666668
0.0   60.0   0.0
-50.0   90.0   0.0
-50.0   60.0   16.666666666666668
0.0   60.0   16.666666666666668
-50.0   90.0   16.666666666666668
-50.0   60.0   33.333333333333336
0.0   60.0   16.666666666666668
0.0   90.0   16.666666666666668
-50.0   90.0   16.666666666666668
0.0   90.0   33.333333333333336
-50.0   60.0   33.333333333333336
-50.0   90.0   33.333333333333336
0.0   90.0   33.333333333333336
-50.0   90.0   16.666666666666668
-50.0   60.0   33.333333333333336
0.0   90.0   33.333333333333336
0.0   60.0   33.333333333333336
0.0   60.0   16.666666666666668
-50.0   60.0   33.333333333333336
0.0   90.0   33.333333333333336
0.0   60.0   16.666666666666668
-50.0   90.0   16.666666666666668
-50.0   60.0   33.333333333333336
0.0   60.0   33.333333333333336
-50.0   90.0   33.333333333333336
-50.0   60.0   50.0
0.0   60.0   33.333333333333336
0.0   90.0   33.333333333333336
-50.0   90.0   33.333333333333336
0.0   90.0   50.0
-50.0   60.0   50.0
-50.0   90.0   50.0
0.0   90.0   50.0
-50.0   90.0   33.333333333333336
-50.0   60.0   50.0
0.0   90.0   50.0
0.0   60.0   50.0
0.0   60.0   33.333333333333336
-50.0   60.0   50.0
0.0   90.0   50.0
0.0   60.0   33.333333333333336
-50.0   90.0   33.333333333333336
-50.0   90.0   0.0
0.0   90.0   0.0
-50.0   120.0   0.0
-50.0   90.0   16.666666666666668
0.0   90.0   0.0
0.0   120.0   0.0
-50.0   120.0   0.0
0.0   120.0   16.666666666666668
-50.0   90.0   16.666666666666668
-50.0   120.0   16.666666666666668
0.0   120.0   16.666666666666668
-50.0   120.0   0.0
-50.0   90.0   16.666666666666668
0.0   120.0   16.666666666666668
0.0   90.0   16.666666666666668
0.0   90.0   0.0
-50.0   90.0   16.666666666666668
0.0   120.0   16.666666666666668
0.0   90.0   0.0
-50.0   120.0   0.0
-50.0   90.0   16.666666666666668
0.0   90.0   16.666666666666668
-50.0   120.0   16.666666666666668
-50.0   90.0   33.333333333333336
0.0   90.0   16.666666666666668
0.0   120.0   16.666666666666668
-50.0   120.0   16.666666666666668
0.0   120.0   33.333333333333336
-50.0   90.0   33.333333333333336
-50.0   120.0   33.333333333333336
0.0   120.0   33.333333333333336
-50.0   120.0   16.666666666666668
-50.0   90.0   33.333333333333336
0.0   120.0   33.333333333333336
0.0   90.0   33.333333333333336
0.0   90.0   16.666666666666668
-50.0   90.0   33.333333333333336
0.0   120.0   33.333333333333336
0.0   90.0   16.666666666666668
-50.0   120.0   16.666666666666668
-50.0   90.0   33.333333333333336
0.0   90.0   33.333333333333336
-50.0   120.0   33.333333333333336
-50.0   90.0   50.0
0.0   90.0   33.333333333333336
0.0   120.0   33.333333333333336
-50.0   120.0   33.333333333333336
0.0   120.0   50.0
-50.0   90.0   50.0
-50.0   120.0   50.0
0.0   120.0   50.0
-50.0   120.0   33.333333333333336
-50.0   90.0   50.0
0.0   120.0   50.0
0.0   90.0   50.0
0.0   90.0   33.333333333333336
-50.0   90.0   50.0
0.0   120.0   50.0
0.0   90.0   33.333333333333336
-50.0   120.0   33.333333333333336
-50.0   120.0   0.0
0.0   120.0   0.0
-50.0   150.0   0.0
-50.0   120.0   16.666666666666668
0.0   120.0   0.0
0.0   150.0   0.0
-50.0   150.0   0.0
0.0   150.0   16.666666666666668
-50.0   120.0   16.666666666666668
-50.0   150.0   16.666666666666668
0.0   150.0   16.666666666666668
-50.0   150.0   0.0
-50.0   120.0   16.666666666666668
0.0   150.0   16.666666666666668
0.0   120.0   16.666666666666668
0.0   120.0   0.0
-50.0   120.0   16.666666666666668
0.0   150.0   16.666666666666668
0.0   120.0   0.0
-50.0   150.0   0.0
-50.0   120.0   16.666666666666668
0.0   120.0   16.666666666666668
-50.0   150.0   16.666666666666668
-50.0   120.0   33.333333333333336
0.0   120.0   16.666666666666668
0.0   150.0   16.666666666666668
-50.0   150.0   16.666666666666668
0.0   150.0   33.333333333333336
-50.0   120.0   33.333333333333336
-50.0   150.0   33.333333333333336
0.0   150.0   33.333333333333336
-50.0   150.0   16.666666666666668
-50.0   120.0   33.333333333333336
0.0   150.0   33.333333333333336
0.0   120.0   33.333333333333336
0.0   120.0   16.666666666666668
-50.0   120.0   33.333333333333336
0.0   150.0   33.333333333333336
0.0   120.0   16.666666666666668
-50.0   150.0   16.666666666666668
-50.0   120.0   33.333333333333336
0.0   120.0   33.333333333333336
-50.0   150.0   33.333333333333336
-50.0   120.0   50.0
0.0   120.0   33.333333333333336
0.0   150.0   33.333333333333336
-50.0   150.0   33.333333333333336
0.0   150.0   50.0
-50.0   120.0   50.0
-50.0   150.0   50.0
0.0   150.0   50.0
-50.0   150.0   33.333333333333336
-50.0   120.0   50.0
0.0   150.0   50.0
0.0   120.0   50.0
0.0   120.0   33.333333333333336
-50.0   120.0   50.0
0.0   150.0   50.0
0.0   120.0   33.333333333333336
-50.0   150.0   33.333333333333336
0.0   0.0   0.0
50.0   0.0   0.0
0.0   30.0   0.0
0.0   0.0   16.666666666666668
50.0   0.0   0.0
50.0   30.0   0.0
0.0   30.0   0.0
50.0   30.0   16.666666666666668
0.0   0.0   16.666666666666668
0.0   30.0   16.666666666666668
50.0   30.0   16.666666666666668
0.0   30.0   0.0
0.0   0.0   16.666666666666668
50.0   30.0   16.666666666666668
50.0   0.0   16.666666666666668
50.0   0.0   0.0
0.0   0.0   16.666666666666668
50.0   30.0   16.666666666666668
50.0   0.0   0.0
0.0   30.0   0.0
0.0   0.0   16.666666666666668
50.0   0.0   16.666666666666668
0.0   30.0   16.666666666666668
0.0   0.0   33.333333333333336
50.0   0.0   16.666666666666668
50.0   30.0   16.666666666666668
0.0   30.0   16.666666666666668
50.0   30.0   33.333333333333336
0.0   0.0   33.333333333333336
0.0   30.0   33.333333333333336
50.0   30.0   33.333333333333336
0.0   30.0   16.666666666666668
0.0   0.0   33.333333333333336
50.0   30.0   33.333333333333336
50.0   0.0   33.333333333333336
50.0   0.0   16.666666666666668
0.0   0.0   33.333333333333336
50.0   30.0   33.333333333333336
50.0   0.0   16.666666666666668
0.0   30.0   16.666666666666668
0.0   0.0   33.333333333333336
50.0   0.0   33.333333333333336
0.0   30.0   33.333333333333336
0.0   0.0   50.0
50.0   0.0   33.333333333333336
50.0   30.0   33.333333333333336
0.0   30.0   33.333333333333336
50.0   30.0   50.0
0.0   0.0   50.0
0.0   30.0   50.0
50.0   30.0   50.0
0.0   30.0   33.333333333333336
0.0   0.0   50.0
50.0   30.0   50.0
50.0   0.0   50.0
50.0   0.0   33.333333333333336
0.0   0.0   50.0
50.0   30.0   50.0
50.0   0.0   33.333333333333336
0.0   30.0   33.333333333333336
0.0   30.0   0.0
50.0   30.0   0.0
0.0   60.0   0.0
0.0   30.0   16.666666666666668
50.0   30.0   0.0
50.0   60.0   0.0
0.0   60.0   0.0
50.0   60.0   16.666666666666668
0.0   30.0   16.666666666666668
0.0   60.0   16.666666666666668
50.0   60.0   16.666666666666668
0.0   60.0   0.0
0.0   30.0   16.666666666666668
50.0   60.0   16.666666666666668
50.0   30.0   16.666666666666668
50.0   30.0   0.0
0.0   30.0   16.666666666666668
50.0   60.0   16.666666666666668
50.0   30.0   0.0
0.0   60.0   0.0
0.0   30.0   16.666666666666668
50.0   30.0   16.666666666666668
0.0   60.0   16.666666666666668
0.0   30.0   33.333333333333336
50.0   30.0   16.666666666666668
50.0   60.0   16.666666666666668
0.0   60.0   16.666666666666668
50.0   60.0   33.333333333333336
0.0   30.0   33.333333333333336
0.0   60.0   33.333333333333336
50.0   60.0   33.333333333333336
0.0   60.0   16.666666666666668
0.0   30.0   33.333333333333336
50.0   60.0   33.333333333333336
50.0   30.0   33.333333333333336
50.0   30.0   16.666666666666668
0.0   30.0   33.333333333333336
50.0   60.0   33.333333333333336
50.0   30.0   16.666666666666668
0.0   60.0   16.666666666666668
0.0   30.0   33.333333333333336
50.0   30.0   33.333333333333336
0.0   60.0   33.333333333333336
0.0   30.0   50.0
50.0   30.0   33.333333333333336
50.0   60.0   33.333333333333336
0.0   60.0   33.333333333333336
50.0   60.0   50.0
0.0   30.0   50.0
0.0   60.0   50.0
50.0   60.0   50.0
0.0   60.0   33.333333333333336
0.0   30.0   50.0
50.0   60.0   50.0
50.0   30.0   50.0
50.0   30.0   33.333333333333336
0.0   30.0   50.0
50.0   60.0   50.0
50.0   30.0   33.333333333333336
0.0   60.0   33.333333333333336
0.0   60.0   0.0
50.0   60.0   0.0
0.0   90.0   0.0
0.0   60.0   16.666666666666668
50.0   60.0   0.0
50.0   90.0   0.0
0.0   90.0   0.0
50.0   90.0   16.666666666666668
0.0   60.0   16.666666666666668
0.0   90.0   16.666666666666668
50.0   90.0   16.666666666666668
0.0   90.0   0.0
0.0   60.0   16.666666666666668
50.0   90.0   16.666666666666668
50.0   60.0   16.666666666666668
50.0   60.0   0.0
0.0   60.0   16.666666666666668
50.0   90.0   16.666666666666668
50.0   60.0   0.0
0.0   90.0   0.0
0.0   60.0   16.666666666666668
50.0   60.0   16.666666666666668
0.0   90.0   16.666666666666668
0.0   60.0   33.333333333333336
50.0   60.0   16.666666666666668
50.0   90.0   16.666666666666668
0.0   90.0   16.666666666666668
50.0   90.0   33.333333333333336
0.0   60.0   33.333333333333336
0.0   90.0   33.333333333333336
50.0   90.0   33.333333333333336
0.0   90.0   16.666666666666668
0.0   60.0   33.333333333333336
50.0   90.0   33.333333333333336
50.0   60.0   33.333333333333336
50.0   60.0   16.666666666666668
0.0   60.0   33.333333333333336
50.0   90.0   33.333333333333336
50.0   60.0   16.666666666666668
0.0   90.0   16.666666666666668
0.0   60.0   33.333333333333336
50.0   60.0   33.333333333333336
0.0   90.0   33.333333333333336
0.0   60.0   50.0
50.0   60.0   33.333333333333336
50.0   90.0   33.333333333333336
0.0   90.0   33.333333333333336
50.0   90.0   50.0
0.0   60.0   50.0
0.0   90.0   50.0
50.0   90.0   50.0
0.0   90.0   33.333333333333336
0.0   60.0   50.0
50.0   90.0   50.0
50.0   60.0   50.0
50.0   60.0   33.333333333333336
0.0   60.0   50.0
50.0   90.0   50.0
50.0   60.0   33.333333333333336
0.0   90.0   33.333333333333336
0.0   90.0   0.0
50.0   90.0   0.0
0.0   120.0   0.0
0.0   90.0   16.666666666666668
50.0   90.0   0.0
50.0   120.0   0.0
0.0   120.0   0.0
50.0   120.0   16.666666666666668
0.0   90.0   16.666666666666668
0.0   120.0   16.666666666666668
50.0   120.0   16.666666666666668
0.0   120.0   0.0
0.0   90.0   16.666666666666668
50.0   120.0   16.666666666666668
50.0   90.0   16.666666666666668
50.0   90.0   0.0
0.0   90.0   16.666666666666668
50.0   120.0   16.666666666666668
50.0   90.0   0.0
0.0   120.0   0.0
0.0   90.0   16.666666666666668
50.0   90.0   16.666666666666668
0.0   120.0   16.666666666666668
0.0   90.0   33.333333333333336
50.0   90.0   16.666666666666668
50.0   120.0   16.666666666666668
0.0   120.0   16.666666666666668
50.0   120.0   33.333333333333336
0.0   90.0   33.333333333333336
0.0   120.0   33.333333333333336
50.0   120.0   33.333333333333336
0.0   120.0   16.666666666666668
0.0   90.0   33.333333333333336
50.0   120.0   33.333333333333336
50.0   90.0   33.333333333333336
50.0   90.0   16.666666666666668
0.0   90.0   33.333333333333336
50.0   120.0   33.333333333333336
50.0   90.0   16.666666666666668
0.0   120.0   16.666666666666668
0.0   90.0   33.333333333333336
50.0   90.0   33.333333333333336
0.0   120.0   33.333333333333336
0.0   90.0   50.0
50.0   90.0   33.333333333333336
50.0   120.0   33.333333333333336
0.0   120.0   33.333333333333336
50.0   120.0   50.0
0.0   90.0   50.0
0.0   120.0   50.0
50.0   120.0   50.0
0.0   120.0   33.333333333333336
0.0   90.0   50.0
50.0   120.0   50.0
50.0   90.0   50.0
50.0   90.0   33.333333333333336
0.0   90.0   50.0
50.0   120.0   50.0
50.0   90.0   33.333333333333336
0.0   120.0   33.333333333333336
0.0   120.0   0.0
50.0   120.0   0.0
0.0   150.0   0.0
0.0   120.0   16.666666666666668
50.0   120.0   0.0
50.0   150.0   0.0
0.0   150.0   0.0
50.0   150.0   16.666666666666668
0.0   120.0   16.666666666666668
0.0   150.0   16.666666666666668
50.0   150.0   16.666666666666668
0.0   150.0   0.0
0.0   120.0   16.666666666666668
50.0   150.0   16.666666666666668
50.0   120.0   16.666666666666668
50.0   120.0   0.0
0.0   120.0   16.666666666666668
50.0   150.0   16.666666666666668
50.0   120.0   0.0
0.0   150.0   0.0
0.0   120.0   16.666666666666668
50.0   120.0   16.666666666666668
0.0   150.0   16.666666666666668
0.0   120.0   33.333333333333336
50.0   120.0   16.666666666666668
50.0   150.0   16.666666666666668
0.0   150.0   16.666666666666668
50.0   150.0   33.333333333333336
0.0   120.0   33.333333333333336
0.0   150.0   33.333333333333336
50.0   150.0   33.333333333333336
0.0   150.0   16.666666666666668
0.0   120.0   33.333333333333336
50.0   150.0   33.333333333333336
50.0   120.0   33.333333333333336
50.0   120.0   16.666666666666668
0.0   120.0   33.333333333333336
50.0   150.0   33.333333333333336
50.0   120.0   16.666666666666668
0.0   150.0   16.666666666666668
0.0   120.0   33.333333333333336
50.0   120.0   33.333333333333336
0.0   150.0   33.333333333333336
0.0   120.0   50.0
50.0   120.0   33.333333333333336
50.0   150.0   33.333333333333336
0.0   150.0   33.333333333333336
50.0   150.0   50.0
0.0   120.0   50.0
0.0   150.0   50.0
50.0   150.0   50.0
0.0   150.0   33.333333333333336
0.0   120.0   50.0
50.0   150.0   50.0
50.0   120.0   50.0
50.0   120.0   33.333333333333336
0.0   120.0   50.0
50.0   150.0   50.0
50.0   120.0   33.333333333333336
0.0   150.0   33.333333333333336
50.0   0.0   0.0
100.0   0.0   0.0
50.0   30.0   0.0
50.0   0.0   16.666666666666668
100.0   0.0   0.0
100.0   30.0   0.0
50.0   30.0   0.0
100.0   30.0   16.666666666666668
50.0   0.0   16.666666666666668
50.0   30.0   16.666666666666668
100.0   30.0   16.666666666666668
50.0   30.0   0.0
50.0   0.0   16.666666666666668
100.0   30.0   16.666666666666668
100.0   0.0   16.666666666666668
100.0   0.0   0.0
50.0   0.0   16.666666666666668
100.0   30.0   16.666666666666668
100.0   0.0   0.0
50.0   30.0   0.0
50.0   0.0   16.666666666666668
100.0   0.0   16.666666666666668
50.0   30.0   16.666666666666668
50.0   0.0   33.333333333333336
100.0   0.0   16.666666666666668
100.0   30.0   16.666666666666668
50.0   30.0   16.666666666666668
100.0   30.0   33.333333333333336
50.0   0.0   33.333333333333336
50.0   30.0   33.333333333333336
100.0   30.0   33.333333333333336
50.0   30.0   16.666666666666668
50.0   0.0   33.333333333333336
100.0   30.0   33.333333333333336
100.0   0.0   33.333333333333336
100.0   0.0   16.666666666666668
50.0   0.0   33.333333333333336
100.0   30.0   33.333333333333336
100.0   0.0   16.666666666666668
50.0   30.0   16.666666666666668
50.0   0.0   33.333333333333336
100.0   0.0   33.333333333333336
50.0   30.0   33.333333333333336
50.0   0.0   50.0
100.0   0.0   33.333333333333336
100.0   30.0   33.333333333333336
50.0   30.0   33.333333333333336
100.0   30.0   50.0
50.0   0.0   50.0
50.0   30.0   50.0
100.0   30.0   50.0
50.0   30.0   33.333333333333336
50.0   0.0   50.0
100.0   30.0   50.0
100.0   0.0   50.0
100.0   0.0   33.333333333333336
50.0   0.0   50.0
100.0   30.0   50.0
100.0   0.0   33.333333333333336
50.0   30.0   33.333333333333336
50.0   30.0   0.0
100.0   30.0   0.0
50.0   60.0   0.0
50.0   30.0   16.666666666666668
100.0   30.0   0.0
100.0   60.0   0.0
50.0   60.0   0.0
100.0   60.0   16.666666666666668
50.0   30.0   16.666666666666668
50.0   60.0   16.666666666666668
100.0   60.0   16.666666666666668
50.0   60.0   0.0
50.0   30.0   16.666666666666668
100.0   60.0   16.666666666666668
100.0   30.0   16.666666666666668
100.0   30.0   0.0
50.0   30.0   16.666666666666668
100.0   60.0   16.666666666666668
100.0   30.0   0.0
50.0   60.0   0.0
50.0   30.0   16.666666666666668
100.0   30.0   16.666666666666668
50.0   60.0   16.666666666666668
50.0   30.0   33.333333333333336
100.0   30.0   16.666666666666668
100.0   60.0   16.666666666666668
50.0   60.0   16.666666666666668
100.0   60.0   33.333333333333336
50.0   30.0   33.333333333333336
50.0   60.0   33.333333333333336
100.0   60.0   33.333333333333336
50.0   60.0   16.666666666666668
50.0   30.0   33.333333333333336
100.0   60.0   33.333333333333336
100.0   30.0   33.333333333333336
100.0   30.0   16.666666666666668
50.0   30.0   33.333333333333336
100.0   60.0   33.333333333333336
100.0   30.0   16.666666666666668
50.0   60.0   16.666666666666668
50.0   30.0   33.333333333333336
100.0   30.0   33.333333333333336
50.0   60.0   33.333333333333336
50.0   30.0   50.0
100.0   30.0   33.333333333333336
100.0   60.0   33.333333333333336
50.0   60.0   33.333333333333336
100.0   60.0   50.0
50.0   30.0   50.0
50.0   60.0   50.0
100.0   60.0   50.0
50.0   60.0   33.333333333333336
50.0   30.0   50.0
100.0   60.0   50.0
100.0   30.0   50.0
100.0   30.0   33.333333333333336
50.0   30.0   50.0
100.0   60.0   50.0
100.0   30.0   33.333333333333336
50.0   60.0   33.333333333333336
50.0   60.0   0.0
100.0   60.0   0.0
50.0   90.0   0.0
50.0   60.0   16.666666666666668
100.0   60.0   0.0
100.0   90.0   0.0
50.0   90.0   0.0
100.0   90.0   16.666666666666668
50.0   60.0   16.666666666666668
50.0   90.0   16.666666666666668
100.0   90.0   16.666666666666668
50.0   90.0   0.0
50.0   60.0   16.666666666666668
100.0   90.0   16.666666666666668
100.0   60.0   16.666666666666668
100.0   60.0   0.0
50.0   60.0   16.666666666666668
100.0   90.0   16.666666666666668
100.0   60.0   0.0
50.0   90.0   0.0
50.0   60.0   16.666666666666668
100.0   60.0   16.666666666666668
50.0   90.0   16.666666666666668
50.0   60.0   33.333333333333336
100.0   60.0   16.666666666666668
100.0   90.0   16.666666666666668
50.0   90.0   16.666666666666668
100.0   90.0   33.333333333333336
50.0   60.0   33.333333333333336
50.0   90.0   33.333333333333336
100.0   90.0   33.333333333333336
50.0   90.0   16.666666666666668
50.0   60.0   33.333333333333336
100.0   90.0   33.333333333333336
100.0   60.0   33.333333333333336
100.0   60.0   16.666666666666668
50.0   60.0   33.333333333333336
100.0   90.0   33.333333333333336
100.0   60.0   16.666666666666668
50.0   90.0   16.666666666666668
50.0   60.0   33.333333333333336
100.0   60.0   33.333333333333336
50.0   90.0   33.333333333333336
50.0   60.0   50.0
100.0   60.0   33.333333333333336
100.0   90.0   33.333333333333336
50.0   90.0   33.333333333333336
100.0   90.0   50.0
50.0   60.0   50.0
50.0   90.0   50.0
100.0   90.0   50.0
50.0   90.0   33.333333333333336
50.0   60.0   50.0
100.0   90.0   50.0
100.0   60.0   50.0
100.0   60.0   33.333333333333336
50.0   60.0   50.0
100.0   90.0   50.0
100.0   60.0   33.333333333333336
50.0   90.0   33.333333333333336
50.0   90.0   0.0
100.0   90.0   0.0
50.0   120.0   0.0
50.0   90.0   16.666666666666668
100.0   90.0   0.0
100.0   120.0   0.0
50.0   120.0   0.0
100.0   120.0   16.666666666666668
50.0   90.0   16.666666666666668
50.0   120.0   16.666666666666668
100.0   120.0   16.666666666666668
50.0   120.0   0.0
50.0   90.0   16.666666666666668
100.0   120.0   16.666666666666668
100.0   90.0   16.666666666666668
100.0   90.0   0.0
50.0   90.0   16.666666666666668
100.0   120.0   16.666666666666668
100.0   90.0   0.0
50.0   120.0   0.0
50.0   90.0   16.666666666666668
100.0   90.0   16.666666666666668
50.0   120.0   16.666666666666668
50.0   90.0   33.333333333333336
100.0   90.0   16.666666666666668
100.0   120.0   16.666666666666668
50.0   120.0   16.666666666666668
100.0   120.0   33.333333333333336
50.0   90.0   33.333333333333336
50.0   120.0   33.333333333333336
100.0   120.0   33.333333333333336
50.0   120.0   16.666666666666668
50.0   90.0   33.333333333333336
100.0   120.0   33.333333333333336
100.0   90.0   33.333333333333336
100.0   90.0   16.666666666666668
50.0   90.0   33.333333333333336
100.0   120.0   33.333333333333336
100.0   90.0   16.666666666666668
50.0   120.0   16.666666666666668
50.0   90.0   33.333333333333336
100.0   90.0   33.333333333333336
50.0   120.0   33.333333333333336
50.0   90.0   50.0
100.0   90.0   33.333333333333336
100.0   120.0   33.333333333333336
50.0   120.0   33.333333333333336
100.0   120.0   50.0
50.0   90.0   50.0
50.0   120.0   50.0
100.0   120.0   50.0
50.0   120.0   33.333333333333336
50.0   90.0   50.0
100.0   120.0   50.0
100.0   90.0   50.0
100.0   90.0   33.333333333333336
50.0   90.0   50.0
100.0   120.0   50.0
100.0   90.0   33.333333333333336
50.0   120.0   33.333333333333336
50.0   120.0   0.0
100.0   120.0   0.0
50.0   150.0   0.0
50.0   120.0   16.666666666666668
100.0   120.0   0.0
100.0   150.0   0.0
50.0   150.0   0.0
100.0   150.0   16.666666666666668
50.0   120.0   16.666666666666668
50.0   150.0   16.666666666666668
100.0   150.0   16.666666666666668
50.0   150.0   0.0
50.0   120.0   16.666666666666668
100.0   150.0   16.666666666666668
100.0   120.0   16.666666666666668
100.0   120.0   0.0
50.0   120.0   16.666666666666668
100.0   150.0   16.666666666666668
100.0   120.0   0.0
50.0   150.0   0.0
50.0   120.0   16.666666666666668
100.0   120.0   16.666666666666668
50.0   150.0   16.666666666666668
50.0   120.0   33.333333333333336
100.0   120.0   16.666666666666668
100.0   150.0   16.666666666666668
50.0   150.0   16.666666666666668
100.0   150.0   33.333333333333336
50.0   120.0   33.333333333333336
50.0   150.0   33.333333333333336
100.0   150.0   33.333333333333336
50.0   150.0   16.666666666666668
50.0   120.0   33.333333333333336
100.0   150.0   33.333333333333336
100.0   120.0   33.333333333333336
100.0   120.0   16.666666666666668
50.0   120.0   33.333333333333336
100.0   150.0   33.333333333333336
100.0   120.0   16.666666666666668
50.0   150.0   16.666666666666668
50.0   120.0   33.333333333333336
100.0   120.0   33.333333333333336
50.0   150.0   33.333333333333336
50.0   120.0   50.0
100.0   120.0   33.333333333333336
100.0   150.0   33.333333333333336
50.0   150.0   33.333333333333336
100.0   150.0   50.0
50.0   120.0   50.0
50.0   150.0   50.0
100.0   150.0   50.0
50.0   150.0   33.333333333333336
50.0   120.0   50.0
100.0   150.0   50.0
100.0   120.0   50.0
100.0   120.0   33.333333333333336
50.0   120.0   50.0
100.0   150.0   50.0
100.0   120.0   33.333333333333336
50.0   150.0   33.333333333333336
100.0   0.0   0.0
150.0   0.0   0.0
100.0   30.0   0.0
100.0   0.0   16.666666666666668
150.0   0.0   0.0
150.0   30.0   0.0
100.0   30.0   0.0
150.0   30.0   16.666666666666668
100.0   0.0   16.666666666666668
100.0   30.0   16.666666666666668
150.0   30.0   16.666666666666668
100.0   30.0   0.0
100.0   0.0   16.666666666666668
150.0   30.0   16.666666666666668
150.0   0.0   16.666666666666668
150.0   0.0   0.0
100.0   0.0   16.666666666666668
150.0   30.0   16.666666666666668
150.0   0.0   0.0
100.0   30.0   0.0
100.0   0.0   16.666666666666668
150.0   0.0   16.666666666666668
100.0   30.0   16.666666666666668
100.0   0.0   33.333333333333336
150.0   0.0   16.666666666666668
150.0   30.0   16.666666666666668
100.0   30.0   16.666666666666668
150.0   30.0   33.333333333333336
100.0   0.0   33.333333333333336
100.0   30.0   33.333333333333336
150.0   30.0   33.333333333333336
100.0   30.0   16.666666666666668
100.0   0.0   33.333333333333336
150.0   30.0   33.333333333333336
150.0   0.0   33.333333333333336
150.0   0.0   16.666666666666668
100.0   0.0   33.333333333333336
150.0   30.0   33.333333333333336
150.0   0.0   16.666666666666668
100.0   30.0   16.666666666666668
100.0   0.0   33.333333333333336
150.0   0.0   33.333333333333336
100.0   30.0   33.333333333333336
100.0   0.0   50.0
150.0   0.0   33.333333333333336
150.0   30.0   33.333333333333336
100.0   30.0   33.333333333333336
150.0   30.0   50.0
100.0   0.0   50.0
100.0   30.0   50.0
150.0   30.0   50.0
100.0   30.0   33.333333333333336
100.0   0.0   50.0
150.0   30.0   50.0
150.0   0.0   50.0
150.0   0.0   33.333333333333336
100.0   0.0   50.0
150.0   30.0   50.0
150.0   0.0   33.333333333333336
100.0   30.0   33.333333333333336
100.0   30.0   0.0
150.0   30.0   0.0
100.0   60.0   0.0
100.0   30.0   16.666666666666668
150.0   30.0   0.0
150.0   60.0   0.0
100.0   60.0   0.0
150.0   60.0   16.666666666666668
100.0   30.0   16.666666666666668
100.0   60.0   16.666666666666668
150.0   60.0   16.666666666666668
100.0   60.0   0.0
100.0   30.0   16.666666666666668
150.0   60.0   16.666666666666668
150.0   30.0   16.666666666666668
150.0   30.0   0.0
100.0   30.0   16.666666666666668
150.0   60.0   16.666666666666668
150.0   30.0   0.0
100.0   60.0   0.0
100.0   30.0   16.666666666666668
150.0   30.0   16.666666666666668
100.0   60.0   16.666666666666668
100.0   30.0   33.333333333333336
150.0   30.0   16.666666666666668
150.0   60.0   16.666666666666668
100.0   60.0   16.666666666666668
150.0   60.0   33.333333333333336
100.0   30.0   33.333333333333336
100.0   60.0   33.333333333333336
150.0   60.0   33.333333333333336
100.0   60.0   16.666666666666668
100.0   30.0   33.333333333333336
150.0   60.0   33.333333333333336
150.0   30.0   33.333333333333336
150.0   30.0   16.666666666666668
100.0   30.0   33.333333333333336
150.0   60.0   33.333333333333336
150.0   30.0   16.666666666666668
100.0   60.0   16.666666666666668
100.0   30.0   33.333333333333336
150.0   30.0   33.333333333333336
100.0   60.0   33.333333333333336
100.0   30.0   50.0
150.0   30.0   33.333333333333336
150.0   60.0   33.333333333333336
100.0   60.0   33.333333333333336
150.0   60.0   50.0
100.0   30.0   50.0
100.0   60.0   50.0
150.0   60.0   50.0
100.0   60.0   33.333333333333336
100.0   30.0   50.0
150.0   60.0   50.0
150.0   30.0   50.0
150.0   30.0   33.333333333333336
100.0   30.0   50.0
150.0   60.0   50.0
150.0   30.0   33.333333333333336
100.0   60.0   33.333333333333336
100.0   60.0   0.0
150.0   60.0   0.0
100.0   90.0   0.0
100.0   60.0   16.666666666666668
150.0   60.0   0.0
150.0   90.0   0.0
100.0   90.0   0.0
150.0   90.0   16.666666666666668
100.0   60.0   16.666666666666668
100.0   90.0   16.666666666666668
150.0   90.0   16.666666666666668
100.0   90.0   0.0
100.0   60.0   16.666666666666668
150.0   90.0   16.666666666666668
150.0   60.0   16.666666666666668
150.0   60.0   0.0
100.0   60.0   16.666666666666668
150.0   90.0   16.666666666666668
150.0   60.0   0.0
100.0   90.0   0.0
100.0   60.0   16.666666666666668
150.0   60.0   16.666666666666668
100.0   90.0   16.666666666666668
100.0   60.0   33.333333333333336
150.0   60.0   16.666666666666668
150.0   90.0   16.666666666666668
100.0   90.0   16.666666666666668
150.0   90.0   33.333333333333336
100.0   60.0   33.333333333333336
100.0   90.0   33.333333333333336
150.0   90.0   33.333333333333336
100.0   90.0   16.666666666666668
100.0   60.0   33.333333333333336
150.0   90.0   33.333333333333336
150.0   60.0   33.333333333333336
150.0   60.0   16.666666666666668
100.0   60.0   33.333333333333336
150.0   90.0   33.333333333333336
150.0   60.0   16.666666666666668
100.0   90.0   16.666666666666668
100.0   60.0   33.333333333333336
150.0   60.0   33.333333333333336
100.0   90.0   33.333333333333336
100.0   60.0   50.0
150.0   60.0   33.333333333333336
150.0   90.0   33.333333333333336
100.0   90.0   33.333333333333336
150.0   90.0   50.0
100.0   60.0   50.0
100.0   90.0   50.0
150.0   90.0   50.0
100.0   90.0   33.333333333333336
100.0   60.0   50.0
150.0   90.0   50.0
150.0   60.0   50.0
150.0   60.0   33.333333333333336
100.0   60.0   50.0
150.0   90.0   50.0
150.0   60.0   33.333333333333336
100.0   90.0   33.333333333333336
100.0   90.0   0.0
150.0   90.0   0.0
100.0   120.0   0.0
100.0   90.0   16.666666666666668
150.0   90.0   0.0
150.0   120.0   0.0
100.0   120.0   0.0
150.0   120.0   16.666666666666668
100.0   90.0   16.666666666666668
100.0   120.0   16.666666666666668
150.0   120.0   16.666666666666668
100.0   120.0   0.0
100.0   90.0   16.666666666666668
150.0   120.0   16.666666666666668
150.0   90.0   16.666666666666668
150.0   90.0   0.0
100.0   90.0   16.666666666666668
150.0   120.0   16.666666666666668
150.0   90.0   0.0
100.0   120.0   0.0
100.0   90.0   16.666666666666668
150.0   90.0   16.666666666666668
100.0   120.0   16.666666666666668
100.0   90.0   33.333333333333336
150.0   90.0   16.666666666666668
150.0   120.0   16.666666666666668
100.0   120.0   16.666666666666668
150.0   120.0   33.333333333333336
100.0   90.0   33.333333333333336
100.0   120.0   33.333333333333336
150.0   120.0   33.333333333333336
100.0   120.0   16.666666666666668
100.0   90.0   33.333333333333336
150.0   120.0   33.333333333333336
150.0   90.0   33.333333333333336
150.0   90.0   16.666666666666668
100.0   90.0   33.333333333333336
150.0   120.0   33.333333333333336
150.0   90.0   16.666666666666668
100.0   120.0   16.666666666666668
100.0   90.0   33.333333333333336
150.0   90.0   33.333333333333336
100.0   120.0   33.333333333333336
100.0   90.0   50.0
150.0   90.0   33.333333333333336
150.0   120.0   33.333333333333336
100.0   120.0   33.333333333333336
150.0   120.0   50.0
100.0   90.0   50.0
100.0   120.0   50.0
150.0   120.0   50.0
100.0   120.0   33.333333333333336
100.0   90.0   50.0
150.0   120.0   50.0
150.0   90.0   50.0
150.0   90.0   33.333333333333336
100.0   90.0   50.0
150.0   120.0   50.0
150.0   90.0   33.333333333333336
100.0   120.0   33.333333333333336
100.0   120.0   0.0
150.0   120.0   0.0
100.0   150.0   0.0
100.0   120.0   16.666666666666668
150.0   120.0   0.0
150.0   150.0   0.0
100.0   150.0   0.0
150.0   150.0   16.666666666666668
100.0   120.0   16.666666666666668
100.0   150.0   16.666666666666668
150.0   150.0   16.666666666666668
100.0   150.0   0.0
100.0   120.0   16.666666666666668
150.0   150.0   16.666666666666668
150.0   120.0   16.666666666666668
150.0   120.0   0.0
100.0   120.0   16.666666666666668
150.0   150.0   16.666666666666668
150.0   120.0   0.0
100.0   150.0   0.0
100.0   120.0   16.666666666666668
150.0   120.0   16.666666666666668
100.0   150.0   16.666666666666668
100.0   120.0   33.333333333333336
150.0   120.0   16.666666666666668
150.0   150.0   16.666666666666668
100.0   150.0   16.666666666666668
150.0   150.0   33.333333333333336
100.0   120.0   33.333333333333336
100.0   150.0   33.333333333333336
150.0   150.0   33.333333333333336
100.0   150.0   16.666666666666668
100.0   120.0   33.333333333333336
150.0   150.0   33.333333333333336
150.0   120.0   33.333333333333336
150.0   120.0   16.666666666666668
100.0   120.0   33.333333333333336
150.0   150.0   33.333333333333336
150.0   120.0   16.666666666666668
100.0   150.0   16.666666666666668
100.0   120.0   33.333333333333336
150.0   120.0   33.333333333333336
100.0   150.0   33.333333333333336
100.0   120.0   50.0
150.0   120.0   33.333333333333336
150.0   150.0   33.333333333333336
100.0   150.0   33.333333333333336
150.0   150.0   50.0
100.0   120.0   50.0
100.0   150.0   50.0
150.0   150.0   50.0
100.0   150.0   33.333333333333336
100.0   120.0   50.0
150.0   150.0   50.0
150.0   120.0   50.0
150.0   120.0   33.333333333333336
100.0   120.0   50.0
150.0   150.0   50.0
150.0   120.0   33.333333333333336
100.0   150.0   33.333333333333336
150.0   0.0   0.0
200.0   0.0   0.0
150.0   30.0   0.0
150.0   0.0   16.666666666666668
200.0   0.0   0.0
200.0   30.0   0.0
150.0   30.0   0.0
200.0   30.0   16.666666666666668
150.0   0.0   16.666666666666668
150.0   30.0   16.666666666666668
200.0   30.0   16.666666666666668
150.0   30.0   0.0
150.0   0.0   16.666666666666668
200.0   30.0   16.666666666666668
200.0   0.0   16.666666666666668
200.0   0.0   0.0
150.0   0.0   16.666666666666668
200.0   30.0   16.666666666666668
200.0   0.0   0.0
150.0   30.0   0.0
150.0   0.0   16.666666666666668
200.0   0.0   16.666666666666668
150.0   30.0   16.666666666666668
150.0   0.0   33.333333333333336
200.0   0.0   16.666666666666668
200.0   30.0   16.666666666666668
150.0   30.0   16.666666666666668
200.0   30.0   33.333333333333336
150.0   0.0   33.333333333333336
150.0   30.0   33.333333333333336
200.0   30.0   33.333333333333336
150.0   30.0   16.666666666666668
150.0   0.0   33.333333333333336
200.0   30.0   33.333333333333336
200.0   0.0   33.333333333333336
200.0   0.0   16.666666666666668
150.0   0.0   33.333333333333336
200.0   30.0   33.333333333333336
200.0   0.0   16.666666666666668
150.0   30.0   16.666666666666668
150.0   0.0   33.333333333333336
200.0   0.0   33.333333333333336
150.0   30.0   33.333333333333336
150.0   0.0   50.0
200.0   0.0   33.333333333333336
200.0   30.0   33.333333333333336
150.0   30.0   33.333333333333336
200.0   30.0   50.0
150.0   0.0   50.0
150.0   30.0   50.0
200.0   30.0   50.0
150.0   30.0   33.333333333333336
150.0   0.0   50.0
200.0   30.0   50.0
200.0   0.0   50.0
200.0   0.0   33.333333333333336
150.0   0.0   50.0
200.0   30.0   50.0
200.0   0.0   33.333333333333336
150.0   30.0   33.333333333333336
150.0   30.0   0.0
200.0   30.0   0.0
150.0   60.0   0.0
150.0   30.0   16.666666666666668
200.0   30.0   0.0
200.0   60.0   0.0
150.0   60.0   0.0
200.0   60.0   16.666666666666668
150.0   30.0   16.666666666666668
150.0   60.0   16.666666666666668
200.0   60.0   16.666666666666668
150.0   60.0   0.0
150.0   30.0   16.666666666666668
200.0   60.0   16.666666666666668
200.0   30.0   16.666666666666668
200.0   30.0   0.0
150.0   30.0   16.666666666666668
200.0   60.0   16.666666666666668
200.0   30.0   0.0
150.0   60.0   0.0
150.0   30.0   16.666666666666668
200.0   30.0   16.666666666666668
150.0   60.0   16.666666666666668
150.0   30.0   33.333333333333336
200.0   30.0   16.666666666666668
200.0   60.0   16.666666666666668
150.0   60.0   16.666666666666668
200.0   60.0   33.333333333333336
150.0   30.0   33.333333333333336
150.0   60.0   33.333333333333336
200.0   60.0   33.333333333333336
150.0   60.0   16.666666666666668
150.0   30.0   33.333333333333336
200.0   60.0   33.333333333333336
200.0   30.0   33.333333333333336
200.0   30.0   16.666666666666668
150.0   30.0   33.333333333333336
200.0   60.0   33.333333333333336
200.0   30.0   16.666666666666668
150.0   60.0   16.666666666666668
150.0   30.0   33.333333333333336
200.0   30.0   33.333333333333336
150.0   60.0   33.333333333333336
150.0   30.0   50.0
200.0   30.0   33.333333333333336
200.0   60.0   33.333333333333336
150.0   60.0   33.333333333333336
200.0   60.0   50.0
150.0   30.0   50.0
150.0   60.0   50.0
200.0   60.0   50.0
150.0   60.0   33.333333333333336
150.0   30.0   50.0
200.0   60.0   50.0
200.0   30.0   50.0
200.0   30.0   33.333333333333336
150.0   30.0   50.0
200.0   60.0   50.0
200.0   30.0   33.333333333333336
150.0   60.0   33.333333333333336
150.0   60.0   0.0
200.0   60.0   0.0
150.0   90.0   0.0
150.0   60.0   16.666666666666668
200.0   60.0   0.0
200.0   90.0   0.0
150.0   90.0   0.0
200.0   90.0   16.666666666666668
150.0   60.0   16.666666666666668
150.0   90.0   16.666666666666668
200.0   90.0   16.666666666666668
150.0   90.0   0.0
150.0   60.0   16.666666666666668
200.0   90.0   16.666666666666668
200.0   60.0   16.666666666666668
200.0   60.0   0.0
150.0   60.0   16.666666666666668
200.0   90.0   16.666666666666668
200.0   60.0   0.0
150.0   90.0   0.0
150.0   60.0   16.666666666666668
200.0   60.0   16.666666666666668
150.0   90.0   16.666666666666668
150.0   60.0   33.333333333333336
200.0   60.0   16.666666666666668
200.0   90.0   16.666666666666668
150.0   90.0   16.666666666666668
200.0   90.0   33.333333333333336
150.0   60.0   33.333333333333336
150.0   90.0   33.333333333333336
200.0   90.0   33.333333333333336
150.0   90.0   16.666666666666668
150.0   60.0   33.333333333333336
200.0   90.0   33.333333333333336
200.0   60.0   33.333333333333336
200.0   60.0   16.666666666666668
150.0   60.0   33.333333333333336
200.0   90.0   33.333333333333336
200.0   60.0   16.666666666666668
150.0   90.0   16.666666666666668
150.0   60.0   33.333333333333336
200.0   60.0   33.333333333333336
150.0   90.0   33.333333333333336
150.0   60.0   50.0
200.0   60.0   33.333333333333336
200.0   90.0   33.333333333333336
150.0   90.0   33.333333333333336
200.0   90.0   50.0
150.0   60.0   50.0
150.0   90.0   50.0
200.0   90.0   50.0
150.0   90.0   33.333333333333336
150.0   60.0   50.0
200.0   90.0   50.0
200.0   60.0   50.0
200.0   60.0   33.333333333333336
150.0   60.0   50.0
200.0   90.0   50.0
200.0   60.0   33.333333333333336
150.0   90.0   33.333333333333336
150.0   90.0   0.0
200.0   90.0   0.0
150.0   120.0   0.0
150.0   90.0   16.666666666666668
200.0   90.0   0.0
200.0   120.0   0.0
150.0   120.0   0.0
200.0   120.0   16.666666666666668
150.0   90.0   16.666666666666668
150.0   120.0   16.666666666666668
200.0   120.0   16.666666666666668
150.0   120.0   0.0
150.0   90.0   16.666666666666668
200.0   120.0   16.666666666666668
200.0   90.0   16.666666666666668
200.0   90.0   0.0
150.0   90.0   16.666666666666668
200.0   120.0   16.666666666666668
200.0   90.0   0.0
150.0   120.0   0.0
150.0   90.0   16.666666666666668
200.0   90.0   16.666666666666668
150.0   120.0   16.666666666666668
150.0   90.0   33.333333333333336
200.0   90.0   16.666666666666668
200.0   120.0   16.666666666666668
150.0   120.0   16.666666666666668
200.0   120.0   33.333333333333336
150.0   90.0   33.333333333333336
150.0   120.0   33.333333333333336
200.0   120.0   33.333333333333336
150.0   120.0   16.666666666666668
150.0   90.0   33.333333333333336
200.0   120.0   33.333333333333336
200.0   90.0   33.333333333333336
200.0   90.0   16.666666666666668
150.0   90.0   33.333333333333336
200.0   120.0   33.333333333333336
200.0   90.0   16.666666666666668
150.0   120.0   16.666666666666668
150.0   90.0   33.333333333333336
200.0   90.0   33.333333333333336
150.0   120.0   33.333333333333336
150.0   90.0   50.0
200.0   90.0   33.333333333333336
200.0   120.0   33.333333333333336
150.0   120.0   33.333333333333336
200.0   120.0   50.0
150.0   90.0   50.0
150.0   120.0   50.0
200.0   120.0   50.0
150.0   120.0   33.333333333333336
150.0   90.0   50.0
200.0   120.0   50.0
200.0   90.0   50.0
200.0   90.0   33.333333333333336
150.0   90.0   50.0
200.0   120.0   50.0
200.0   90.0   33.333333333333336
150.0   120.0   33.333333333333336
150.0   120.0   0.0
200.0   120.0   0.0
150.0   150.0   0.0
150.0   120.0   16.666666666666668
200.0   120.0   0.0
200.0   150.0   0.0
150.0   150.0   0.0
200.0   150.0   16.666666666666668
150.0   120.0   16.666666666666668
150.0   150.0   16.666666666666668
200.0   150.0   16.666666666666668
150.0   150.0   0.0
150.0   120.0   16.666666666666668
200.0   150.0   16.666666666666668
200.0   120.0   16.666666666666668
200.0   120.0   0.0
150.0   120.0   16.666666666666668
200.0   150.0   16.666666666666668
200.0   120.0   0.0
150.0   150.0   0.0
150.0   120.0   16.666666666666668
200.0   120.0   16.666666666666668
150.0   150.0   16.666666666666668
150.0   120.0   33.333333333333336
200.0   120.0   16.666666666666668
200.0   150.0   16.666666666666668
150.0   150.0   16.666666666666668
200.0   150.0   33.333333333333336
150.0   120.0   33.333333333333336
150.0   150.0   33.333333333333336
200.0   150.0   33.333333333333336
150.0   150.0   16.666666666666668
150.0   120.0   33.333333333333336
200.0   150.0   33.333333333333336
200.0   120.0   33.333333333333336
200.0   120.0   16.666666666666668
150.0   120.0   33.333333333333336
200.0   150.0   33.333333333333336
200.0   120.0   16.666666666666668
150.0   150.0   16.666666666666668
150.0   120.0   33.333333333333336
200.0   120.0   33.333333333333336
150.0   150.0   33.333333333333336
150.0   120.0   50.0
200.0   120.0   33.333333333333336
200.0   150.0   33.333333333333336
150.0   150.0   33.333333333333336
200.0   150.0   50.0
150.0   120.0   50.0
150.0   150.0   50.0
200.0   150.0   50.0
150.0   150.0   33.333333333333336
150.0   120.0   50.0
200.0   150.0   50.0
200.0   120.0   50.0
200.0   120.0   33.333333333333336
150.0   120.0   50.0
200.0   150.0   50.0
200.0   120.0   33.333333333333336
150.0   150.0   33.333333333333336
200.0   0.0   0.0
250.0   0.0   0.0
200.0   30.0   0.0
200.0   0.0   16.666666666666668
250.0   0.0   0.0
250.0   30.0   0.0
200.0   30.0   0.0
250.0   30.0   16.666666666666668
200.0   0.0   16.666666666666668
200.0   30.0   16.666666666666668
250.0   30.0   16.666666666666668
200.0   30.0   0.0
200.0   0.0   16.666666666666668
250.0   30.0   16.666666666666668
250.0   0.0   16.666666666666668
250.0   0.0   0.0
200.0   0.0   16.666666666666668
250.0   30.0   16.666666666666668
250.0   0.0   0.0
200.0   30.0   0.0
200.0   0.0   16.666666666666668
250.0   0.0   16.666666666666668
200.0   30.0   16.666666666666668
200.0   0.0   33.333333333333336
250.0   0.0   16.666666666666668
250.0   30.0   16.666666666666668
200.0   30.0   16.666666666666668
250.0   30.0   33.333333333333336
200.0   0.0   33.333333333333336
200.0   30.0   33.333333333333336
250.0   30.0   33.333333333333336
200.0   30.0   16.666666666666668
200.0   0.0   33.333333333333336
250.0   30.0   33.333333333333336
250.0   0.0   33.333333333333336
250.0   0.0   16.666666666666668
200.0   0.0   33.333333333333336
250.0   30.0   33.333333333333336
250.0   0.0   16.666666666666668
200.0   30.0   16.666666666666668
200.0   0.0   33.333333333333336
250.0   0.0   33.333333333333336
200.0   30.0   33.333333333333336
200.0   0.0   50.0
250.0   0.0   33.333333333333336
250.0   30.0   33.333333333333336
200.0   30.0   33.333333333333336
250.0   30.0   50.0
200.0   0.0   50.0
200.0   30.0   50.0
250.0   30.0   50.0
200.0   30.0   33.333333333333336
200.0   0.0   50.0
250.0   30.0   50.0
250.0   0.0   50.0
250.0   0.0   33.333333333333336
200.0   0.0   50.0
250.0   30.0   50.0
250.0   0.0   33.333333333333336
200.0   30.0   33.333333333333336
200.0   30.0   0.0
250.0   30.0   0.0
200.0   60.0   0.0
200.0   30.0   16.666666666666668
250.0   30.0   0.0
250.0   60.0   0.0
200.0   60.0   0.0
250.0   60.0   16.666666666666668
200.0   30.0   16.666666666666668
200.0   60.0   16.666666666666668
250.0   60.0   16.666666666666668
200.0   60.0   0.0
200.0   30.0   16.666666666666668
250.0   60.0   16.666666666666668
250.0   30.0   16.666666666666668
250.0   30.0   0.0
200.0   30.0   16.666666666666668
250.0   60.0   16.666666666666668
250.0   30.0   0.0
200.0   60.0   0.0
200.0   30.0   16.666666666666668
250.0   30.0   16.666666666666668
200.0   60.0   16.666666666666668
200.0   30.0   33.333333333333336
250.0   30.0   16.666666666666668
250.0   60.0   16.666666666666668
200.0   60.0   16.666666666666668
250.0   60.0   33.333333333333336
200.0   30.0   33.333333333333336
200.0   60.0   33.333333333333336
250.0   60.0   33.333333333333336
200.0   60.0   16.666666666666668
200.0   30.0   33.333333333333336
250.0   60.0   33.333333333333336
250.0   30.0   33.333333333333336
250.0   30.0   16.666666666666668
200.0   30.0   33.333333333333336
250.0   60.0   33.333333333333336
250.0   30.0   16.666666666666668
200.0   60.0   16.666666666666668
200.0   30.0   33.333333333333336
250.0   30.0   33.333333333333336
200.0   60.0   33.333333333333336
200.0   30.0   50.0
250.0   30.0   33.333333333333336
250.0   60.0   33.333333333333336
200.0   60.0   33.333333333333336
250.0   60.0   50.0
200.0   30.0   50.0
200.0   60.0   50.0
250.0   60.0   50.0
200.0   60.0   33.333333333333336
200.0   30.0   50.0
250.0   60.0   50.0
250.0   30.0   50.0
250.0   30.0   33.333333333333336
200.0   30.0   50.0
250.0   60.0   50.0
250.0   30.0   33.333333333333336
200.0   60.0   33.333333333333336
200.0   60.0   0.0
250.0   60.0   0.0
200.0   90.0   0.0
200.0   60.0   16.666666666666668
250.0   60.0   0.0
250.0   90.0   0.0
200.0   90.0   0.0
250.0   90.0   16.666666666666668
200.0   60.0   16.666666666666668
200.0   90.0   16.666666666666668
250.0   90.0   16.666666666666668
200.0   90.0   0.0
200.0   60.0   16.666666666666668
250.0   90.0   16.666666666666668
250.0   60.0   16.666666666666668
250.0   60.0   0.0
200.0   60.0   16.666666666666668
250.0   90.0   16.666666666666668
250.0   60.0   0.0
200.0   90.0   0.0
200.0   60.0   16.666666666666668
250.0   60.0   16.666666666666668
200.0   90.0   16.666666666666668
200.0   60.0   33.333333333333336
250.0   60.0   16.666666666666668
250.0   90.0   16.666666666666668
200.0   90.0   16.666666666666668
250.0   90.0   33.333333333333336
200.0   60.0   33.333333333333336
200.0   90.0   33.333333333333336
250.0   90.0   33.333333333333336
200.0   90.0   16.666666666666668
200.0   60.0   33.333333333333336
250.0   90.0   33.333333333333336
250.0   60.0   33.333333333333336
250.0   60.0   16.666666666666668
200.0   60.0   33.333333333333336
250.0   90.0   33.333333333333336
250.0   60.0   16.666666666666668
200.0   90.0   16.666666666666668
200.0   60.0   33.333333333333336
250.0   60.0   33.333333333333336
200.0   90.0   33.333333333333336
200.0   60.0   50.0
250.0   60.0   33.333333333333336
250.0   90.0   33.333333333333336
200.0   90.0   33.333333333333336
250.0   90.0   50.0
200.0   60.0   50.0
200.0   90.0   50.0
250.0   90.0   50.0
200.0   90.0   33.333333333333336
200.0   60.0   50.0
250.0   90.0   50.0
250.0   60.0   50.0
250.0   60.0   33.333333333333336
200.0   60.0   50.0
250.0   90.0   50.0
250.0   60.0   33.333333333333336
200.0   90.0   33.333333333333336
200.0   90.0   0.0
250.0   90.0   0.0
200.0   120.0   0.0
200.0   90.0   16.666666666666668
250.0   90.0   0.0
250.0   120.0   0.0
200.0   120.0   0.0
250.0   120.0   16.666666666666668
200.0   90.0   16.666666666666668
200.0   120.0   16.666666666666668
250.0   120.0   16.666666666666668
200.0   120.0   0.0
200.0   90.0   16.666666666666668
250.0   120.0   16.666666666666668
250.0   90.0   16.666666666666668
250.0   90.0   0.0
200.0   90.0   16.666666666666668
250.0   120.0   16.666666666666668
250.0   90.0   0.0
200.0   120.0   0.0
200.0   90.0   16.666666666666668
250.0   90.0   16.666666666666668
200.0   120.0   16.666666666666668
200.0   90.0   33.333333333333336
250.0   90.0   16.666666666666668
250.0   120.0   16.666666666666668
200.0   120.0   16.666666666666668
250.0   120.0   33.333333333333336
200.0   90.0   33.333333333333336
200.0   120.0   33.333333333333336
250.0   120.0   33.333333333333336
200.0   120.0   16.666666666666668
200.0   90.0   33.333333333333336
250.0   120.0   33.333333333333336
250.0   90.0   33.333333333333336
250.0   90.0   16.666666666666668
200.0   90.0   33.333333333333336
250.0   120.0   33.333333333333336
250.0   90.0   16.666666666666668
200.0   120.0   16.666666666666668
200.0   90.0   33.333333333333336
250.0   90.0   33.333333333333336
200.0   120.0   33.333333333333336
200.0   90.0   50.0
250.0   90.0   33.333333333333336
250.0   120.0   33.333333333333336
200.0   120.0   33.333333333333336
250.0   120.0   50.0
200.0   90.0   50.0
200.0   120.0   50.0
250.0   120.0   50.0
200.0   120.0   33.333333333333336
200.0   90.0   50.0
250.0   120.0   50.0
250.0   90.0   50.0
250.0   90.0   33.333333333333336
200.0   90.0   50.0
250.0   120.0   50.0
250.0   90.0   33.333333333333336
200.0   120.0   33.333333333333336
200.0   120.0   0.0
250.0   120.0   0.0
200.0   150.0   0.0
200.0   120.0   16.666666666666668
250.0   120.0   0.0
250.0   150.0   0.0
200.0   150.0   0.0
250.0   150.0   16.666666666666668
200.0   120.0   16.666666666666668
200.0   150.0   16.666666666666668
250.0   150.0   16.666666666666668
200.0   150.0   0.0
200.0   120.0   16.666666666666668
250.0   150.0   16.666666666666668
250.0   120.0   16.666666666666668
250.0   120.0   0.0
200.0   120.0   16.666666666666668
250.0   150.0   16.666666666666668
250.0   120.0   0.0
200.0   150.0   0.0
200.0   120.0   16.666666666666668
250.0   120.0   16.666666666666668
200.0   150.0   16.666666666666668
200.0   120.0   33.333333333333336
250.0   120.0   16.666666666666668
250.0   150.0   16.666666666666668
200.0   150.0   16.666666666666668
250.0   150.0   33.333333333333336
200.0   120.0   33.333333333333336
200.0   150.0   33.333333333333336
250.0   150.0   33.333333333333336
200.0   150.0   16.666666666666668
200.0   120.0   33.333333333333336
250.0   150.0   33.333333333333336
250.0   120.0   33.333333333333336
250.0   120.0   16.666666666666668
200.0   120.0   33.333333333333336
250.0   150.0   33.333333333333336
250.0   120.0   16.666666666666668
200.0   150.0   16.666666666666668
200.0   120.0   33.333333333333336
250.0   120.0   33.333333333333336
200.0   150.0   33.333333333333336
200.0   120.0   50.0
250.0   120.0   33.333333333333336
250.0   150.0   33.333333333333336
200.0   150.0   33.333333333333336
250.0   150.0   50.0
200.0   120.0   50.0
200.0   150.0   50.0
250.0   150.0   50.0
200.0   150.0   33.333333333333336
200.0   120.0   50.0
250.0   150.0   50.0
250.0   120.0   50.0
250.0   120.0   33.333333333333336
200.0   120.0   50.0
250.0   150.0   50.0
250.0   120.0   33.333333333333336
200.0   150.0   33.333333333333336
250.0   0.0   0.0
300.0   0.0   0.0
250.0   30.0   0.0
250.0   0.0   16.666666666666668
300.0   0.0   0.0
300.0   30.0   0.0
250.0   30.0   0.0
300.0   30.0   16.666666666666668
250.0   0.0   16.666666666666668
250.0   30.0   16.666666666666668
300.0   30.0   16.666666666666668
250.0   30.0   0.0
250.0   0.0   16.666666666666668
300.0   30.0   16.666666666666668
300.0   0.0   16.666666666666668
300.0   0.0   0.0
250.0   0.0   16.666666666666668
300.0   30.0   16.666666666666668
300.0   0.0   0.0
250.0   30.0   0.0
250.0   0.0   16.666666666666668
300.0   0.0   16.666666666666668
250.0   30.0   16.666666666666668
250.0   0.0   33.333333333333336
300.0   0.0   16.666666666666668
300.0   30.0   16.666666666666668
250.0   30.0   16.666666666666668
300.0   30.0   33.333333333333336
250.0   0.0   33.333333333333336
250.0   30.0   33.333333333333336
300.0   30.0   33.333333333333336
250.0   30.0   16.666666666666668
250.0   0.0   33.333333333333336
300.0   30.0   33.333333333333336
300.0   0.0   33.333333333333336
300.0   0.0   16.666666666666668
250.0   0.0   33.333333333333336
300.0   30.0   33.333333333333336
300.0   0.0   16.666666666666668
250.0   30.0   16.666666666666668
250.0   0.0   33.333333333333336
300.0   0.0   33.333333333333336
250.0   30.0   33.333333333333336
250.0   0.0   50.0
300.0   0.0   33.333333333333336
300.0   30.0   33.333333333333336
250.0   30.0   33.333333333333336
300.0   30.0   50.0
250.0   0.0   50.0
250.0   30.0   50.0
300.0   30.0   50.0
250.0   30.0   33.333333333333336
250.0   0.0   50.0
300.0   30.0   50.0
300.0   0.0   50.0
300.0   0.0   33.333333333333336
250.0   0.0   50.0
300.0   30.0   50.0
300.0   0.0   33.333333333333336
250.0   30.0   33.333333333333336
250.0   30.0   0.0
300.0   30.0   0.0
250.0   60.0   0.0
250.0   30.0   16.666666666666668
300.0   30.0   0.0
300.0   60.0   0.0
250.0   60.0   0.0
300.0   60.0   16.666666666666668
250.0   30.0   16.666666666666668
250.0   60.0   16.666666666666668
300.0   60.0   16.666666666666668
250.0   60.0   0.0
250.0   30.0   16.666666666666668
300.0   60.0   16.666666666666668
300.0   30.0   16.666666666666668
300.0   30.0   0.0
250.0   30.0   16.666666666666668
300.0   60.0   16.666666666666668
300.0   30.0   0.0
250.0   60.0   0.0
250.0   30.0   16.666666666666668
300.0   30.0   16.666666666666668
250.0   60.0   16.666666666666668
250.0   30.0   33.333333333333336
300.0   30.0   16.666666666666668
300.0   60.0   16.666666666666668
250.0   60.0   16.666666666666668
300.0   60.0   33.333333333333336
250.0   30.0   33.333333333333336
250.0   60.0   33.333333333333336
300.0   60.0   33.333333333333336
250.0   60.0   16.666666666666668
250.0   30.0   33.333333333333336
300.0   60.0   33.333333333333336
300.0   30.0   33.333333333333336
300.0   30.0   16.666666666666668
250.0   30.0   33.333333333333336
300.0   60.0   33.333333333333336
300.0   30.0   16.666666666666668
250.0   60.0   16.666666666666668
250.0   30.0   33.333333333333336
300.0   30.0   33.333333333333336
250.0   60.0   33.333333333333336
250.0   30.0   50.0
300.0   30.0   33.333333333333336
300.0   60.0   33.333333333333336
250.0   60.0   33.333333333333336
300.0   60.0   50.0
250.0   30.0   50.0
250.0   60.0   50.0
300.0   60.0   50.0
250.0   60.0   33.333333333333336
250.0   30.0   50.0
300.0   60.0   50.0
300.0   30.0   50.0
300.0   30.0   33.333333333333336
250.0   30.0   50.0
300.0   60.0   50.0
300.0   30.0   33.333333333333336
250.0   60.0   33.333333333333336
250.0   60.0   0.0
300.0   60.0   0.0
250.0   90.0   0.0
250.0   60.0   16.666666666666668
300.0   60.0   0.0
300.0   90.0   0.0
250.0   90.0   0.0
300.0   90.0   16.666666666666668
250.0   60.0   16.666666666666668
250.0   90.0   16.666666666666668
300.0   90.0   16.666666666666668
250.0   90.0   0.0
250.0   60.0   16.666666666666668
300.0   90.0   16.666666666666668
300.0   60.0   16.666666666666668
300.0   60.0   0.0
250.0   60.0   16.666666666666668
300.0   90.0   16.666666666666668
300.0   60.0   0.0
250.0   90.0   0.0
250.0   60.0   16.666666666666668
300.0   60.0   16.666666666666668
250.0   90.0   16.666666666666668
250.0   60.0   33.333333333333336
300.0   60.0   16.666666666666668
300.0   90.0   16.666666666666668
250.0   90.0   16.666666666666668
300.0   90.0   33.333333333333336
250.0   60.0   33.333333333333336
250.0   90.0   33.333333333333336
300.0   90.0   33.333333333333336
250.0   90.0   16.666666666666668
250.0   60.0   33.333333333333336
300.0   90.0   33.333333333333336
300.0   60.0   33.333333333333336
300.0   60.0   16.666666666666668
250.0   60.0   33.333333333333336
300.0   90.0   33.333333333333336
300.0   60.0   16.666666666666668
250.0   90.0   16.666666666666668
250.0   60.0   33.333333333333336
300.0   60.0   33.333333333333336
250.0   90.0   33.333333333333336
250.0   60.0   50.0
300.0   60.0   33.333333333333336
300.0   90.0   33.333333333333336
250.0   90.0   33.333333333333336
300.0   90.0   50.0
250.0   60.0   50.0
250.0   90.0   50.0
300.0   90.0   50.0
250.0   90.0   33.333333333333336
250.0   60.0   50.0
300.0   90.0   50.0
300.0   60.0   50.0
300.0   60.0   33.333333333333336
250.0   60.0   50.0
300.0   90.0   50.0
300.0   60.0   33.333333333333336
250.0   90.0   33.333333333333336
250.0   90.0   0.0
300.0   90.0   0.0
250.0   120.0   0.0
250.0   90.0   16.666666666666668
300.0   90.0   0.0
300.0   120.0   0.0
250.0   120.0   0.0
300.0   120.0   16.666666666666668
250.0   90.0   16.666666666666668
250.0   120.0   16.666666666666668
300.0   120.0   16.666666666666668
250.0   120.0   0.0
250.0   90.0   16.666666666666668
300.0   120.0   16.666666666666668
300.0   90.0   16.666666666666668
300.0   90.0   0.0
250.0   90.0   16.666666666666668
300.0   120.0   16.666666666666668
300.0   90.0   0.0
250.0   120.0   0.0
250.0   90.0   16.666666666666668
300.0   90.0   16.666666666666668
250.0   120.0   16.666666666666668
250.0   90.0   33.333333333333336
300.0   90.0   16.666666666666668
300.0   120.0   16.666666666666668
250.0   120.0   16.666666666666668
300.0   120.0   33.333333333333336
250.0   90.0   33.333333333333336
250.0   120.0   33.333333333333336
300.0   120.0   33.333333333333336
250.0   120.0   16.666666666666668
250.0   90.0   33.333333333333336
300.0   120.0   33.333333333333336
300.0   90.0   33.333333333333336
300.0   90.0   16.666666666666668
250.0   90.0   33.333333333333336
300.0   120.0   33.333333333333336
300.0   90.0   16.666666666666668
250.0   120.0   16.666666666666668
250.0   90.0   33.333333333333336
300.0   90.0   33.333333333333336
250.0   120.0   33.333333333333336
250.0   90.0   50.0
300.0   90.0   33.333333333333336
300.0   120.0   33.333333333333336
250.0   120.0   33.333333333333336
300.0   120.0   50.0
250.0   90.0   50.0
250.0   120.0   50.0
300.0   120.0   50.0
250.0   120.0   33.333333333333336
250.0   90.0   50.0
300.0   120.0   50.0
300.0   90.0   50.0
300.0   90.0   33.333333333333336
250.0   90.0   50.0
300.0   120.0   50.0
300.0   90.0   33.333333333333336
250.0   120.0   33.333333333333336
250.0   120.0   0.0
300.0   120.0   0.0
250.0   150.0   0.0
250.0   120.0   16.666666666666668
300.0   120.0   0.0
300.0   150.0   0.0
250.0   150.0   0.0
300.0   150.0   16.666666666666668
250.0   120.0   16.666666666666668
250.0   150.0   16.666666666666668
300.0   150.0   16.666666666666668
250.0   150.0   0.0
250.0   120.0   16.666666666666668
300.0   150.0   16.666666666666668
300.0   120.0   16.666666666666668
300.0   120.0   0.0
250.0   120.0   16.666666666666668
300.0   150.0   16.666666666666668
300.0   120.0   0.0
250.0   150.0   0.0
250.0   120.0   16.666666666666668
300.0   120.0   16.666666666666668
250.0   150.0   16.666666666666668
250.0   120.0   33.333333333333336
300.0   120.0   16.666666666666668
300.0   150.0   16.666666666666668
250.0   150.0   16.666666666666668
300.0   150.0   33.333333333333336
250.0   120.0   33.333333333333336
250.0   150.0   33.333333333333336
300.0   150.0   33.333333333333336
250.0   150.0   16.666666666666668
250.0   120.0   33.333333333333336
300.0   150.0   33.333333333333336
300.0   120.0   33.333333333333336
300.0   120.0   16.666666666666668
250.0   120.0   33.333333333333336
300.0   150.0   33.333333333333336
300.0   120.0   16.666666666666668
250.0   150.0   16.666666666666668
250.0   120.0   33.333333333333336
300.0   120.0   33.333333333333336
250.0   150.0   33.333333333333336
250.0   120.0   50.0
300.0   120.0   33.333333333333336
300.0   150.0   33.333333333333336
250.0   150.0   33.333333333333336
300.0   150.0   50.0
250.0   120.0   50.0
250.0   150.0   50.0
300.0   150.0   50.0
250.0   150.0   33.333333333333336
250.0   120.0   50.0
300.0   150.0   50.0
300.0   120.0   50.0
300.0   120.0   33.333333333333336
250.0   120.0   50.0
300.0   150.0   50.0
300.0   120.0   33.333333333333336
250.0   150.0   33.333333333333336
300.0   0.0   0.0
350.0   0.0   0.0
300.0   30.0   0.0
300.0   0.0   16.666666666666668
350.0   0.0   0.0
350.0   30.0   0.0
300.0   30.0   0.0
350.0   30.0   16.666666666666668
300.0   0.0   16.666666666666668
300.0   30.0   16.666666666666668
350.0   30.0   16.666666666666668
300.0   30.0   0.0
300.0   0.0   16.666666666666668
350.0   30.0   16.666666666666668
350.0   0.0   16.666666666666668
350.0   0.0   0.0
300.0   0.0   16.666666666666668
350.0   30.0   16.666666666666668
350.0   0.0   0.0
300.0   30.0   0.0
300.0   0.0   16.666666666666668
350.0   0.0   16.666666666666668
300.0   30.0   16.666666666666668
300.0   0.0   33.333333333333336
350.0   0.0   16.666666666666668
350.0   30.0   16.666666666666668
300.0   30.0   16.666666666666668
350.0   30.0   33.333333333333336
300.0   0.0   33.333333333333336
300.0   30.0   33.333333333333336
350.0   30.0   33.333333333333336
300.0   30.0   16.666666666666668
300.0   0.0   33.333333333333336
350.0   30.0   33.333333333333336
350.0   0.0   33.333333333333336
350.0   0.0   16.666666666666668
300.0   0.0   33.333333333333336
350.0   30.0   33.333333333333336
350.0   0.0   16.666666666666668
300.0   30.0   16.666666666666668
300.0   0.0   33.333333333333336
350.0   0.0   33.333333333333336
300.0   30.0   33.333333333333336
300.0   0.0   50.0
350.0   0.0   33.333333333333336
350.0   30.0   33.333333333333336
300.0   30.0   33.333333333333336
350.0   30.0   50.0
300.0   0.0   50.0
300.0   30.0   50.0
350.0   30.0   50.0
300.0   30.0   33.333333333333336
300.0   0.0   50.0
350.0   30.0   50.0
350.0   0.0   50.0
350.0   0.0   33.333333333333336
300.0   0.0   50.0
350.0   30.0   50.0
350.0   0.0   33.333333333333336
300.0   30.0   33.333333333333336
300.0   30.0   0.0
350.0   30.0   0.0
300.0   60.0   0.0
300.0   30.0   16.666666666666668
350.0   30.0   0.0
350.0   60.0   0.0
300.0   60.0   0.0
350.0   60.0   16.666666666666668
300.0   30.0   16.666666666666668
300.0   60.0   16.666666666666668
350.0   60.0   16.666666666666668
300.0   60.0   0.0
300.0   30.0   16.666666666666668
350.0   60.0   16.666666666666668
350.0   30.0   16.666666666666668
350.0   30.0   0.0
300.0   30.0   16.666666666666668
350.0   60.0   16.666666666666668
350.0   30.0   0.0
300.0   60.0   0.0
300.0   30.0   16.666666666666668
350.0   30.0   16.666666666666668
300.0   60.0   16.666666666666668
300.0   30.0   33.333333333333336
350.0   30.0   16.666666666666668
350.0   60.0   16.666666666666668
300.0   60.0   16.666666666666668
350.0   60.0   33.333333333333336
300.0   30.0   33.333333333333336
300.0   60.0   33.333333333333336
350.0   60.0   33.333333333333336
300.0   60.0   16.666666666666668
300.0   30.0   33.333333333333336
350.0   60.0   33.333333333333336
350.0   30.0   33.333333333333336
350.0   30.0   16.666666666666668
300.0   30.0   33.333333333333336
350.0   60.0   33.333333333333336
350.0   30.0   16.666666666666668
300.0   60.0   16.666666666666668
300.0   30.0   33.333333333333336
350.0   30.0   33.333333333333336
300.0   60.0   33.333333333333336
300.0   30.0   50.0
350.0   30.0   33.333333333333336
350.0   60.0   33.333333333333336
300.0   60.0   33.333333333333336
350.0   60.0   50.0
300.0   30.0   50.0
300.0   60.0   50.0
350.0   60.0   50.0
300.0   60.0   33.333333333333336
300.0   30.0   50.0
350.0   60.0   50.0
350.0   30.0   50.0
350.0   30.0   33.333333333333336
300.0   30.0   50.0
350.0   60.0   50.0
350.0   30.0   33.333333333333336
300.0   60.0   33.333333333333336
300.0   60.0   0.0
350.0   60.0   0.0
300.0   90.0   0.0
300.0   60.0   16.666666666666668
350.0   60.0   0.0
350.0   90.0   0.0
300.0   90.0   0.0
350.0   90.0   16.666666666666668
300.0   60.0   16.666666666666668
300.0   90.0   16.666666666666668
350.0   90.0   16.666666666666668
300.0   90.0   0.0
300.0   60.0   16.666666666666668
350.0   90.0   16.666666666666668
350.0   60.0   16.666666666666668
350.0   60.0   0.0
300.0   60.0   16.666666666666668
350.0   90.0   16.666666666666668
350.0   60.0   0.0
300.0   90.0   0.0
300.0   60.0   16.666666666666668
350.0   60.0   16.666666666666668
300.0   90.0   16.666666666666668
300.0   60.0   33.333333333333336
350.0   60.0   16.666666666666668
350.0   90.0   16.666666666666668
300.0   90.0   16.666666666666668
350.0   90.0   33.333333333333336
300.0   60.0   33.333333333333336
300.0   90.0   33.333333333333336
350.0   90.0   33.333333333333336
300.0   90.0   16.666666666666668
300.0   60.0   33.333333333333336
350.0   90.0   33.333333333333336
350.0   60.0   33.333333333333336
350.0   60.0   16.666666666666668
300.0   60.0   33.333333333333336
350.0   90.0   33.333333333333336
350.0   60.0   16.666666666666668
300.0   90.0   16.666666666666668
300.0   60.0   33.333333333333336
350.0   60.0   33.333333333333336
300.0   90.0   33.333333333333336
300.0   60.0   50.0
350.0   60.0   33.333333333333336
350.0   90.0   33.333333333333336
300.0   90.0   33.333333333333336
350.0   90.0   50.0
300.0   60.0   50.0
300.0   90.0   50.0
350.0   90.0   50.0
300.0   90.0   33.333333333333336
300.0   60.0   50.0
350.0   90.0   50.0
350.0   60.0   50.0
350.0   60.0   33.333333333333336
300.0   60.0   50.0
350.0   90.0   50.0
350.0   60.0   33.333333333333336
300.0   90.0   33.333333333333336
300.0   90.0   0.0
350.0   90.0   0.0
300.0   120.0   0.0
300.0   90.0   16.666666666666668
350.0   90.0   0.0
350.0   120.0   0.0
300.0   120.0   0.0
350.0   120.0   16.666666666666668
300.0   90.0   16.666666666666668
300.0   120.0   16.666666666666668
350.0   120.0   16.666666666666668
300.0   120.0   0.0
300.0   90.0   16.666666666666668
350.0   120.0   16.666666666666668
350.0   90.0   16.666666666666668
350.0   90.0   0.0
300.0   90.0   16.666666666666668
350.0   120.0   16.666666666666668
350.0   90.0   0.0
300.0   120.0   0.0
300.0   90.0   16.666666666666668
350.0   90.0   16.666666666666668
300.0   120.0   16.666666666666668
300.0   90.0   33.333333333333336
350.0   90.0   16.666666666666668
350.0   120.0   16.666666666666668
300.0   120.0   16.666666666666668
350.0   120.0   33.333333333333336
300.0   90.0   33.333333333333336
300.0   120.0   33.333333333333336
350.0   120.0   33.333333333333336
300.0   120.0   16.666666666666668
300.0   90.0   33.333333333333336
350.0   120.0   33.333333333333336
350.0   90.0   33.333333333333336
350.0   90.0   16.666666666666668
300.0   90.0   33.333333333333336
350.0   120.0   33.333333333333336
350.0   90.0   16.666666666666668
300.0   120.0   16.666666666666668
300.0   90.0   33.333333333333336
350.0   90.0   33.333333333333336
300.0   120.0   33.333333333333336
300.0   90.0   50.0
350.0   90.0   33.333333333333336
350.0   120.0   33.333333333333336
300.0   120.0   33.333333333333336
350.0   120.0   50.0
300.0   90.0   50.0
300.0   120.0   50.0
350.0   120.0   50.0
300.0   120.0   33.333333333333336
300.0   90.0   50.0
350.0   120.0   50.0
350.0   90.0   50.0
350.0   90.0   33.333333333333336
300.0   90.0   50.0
350.0   120.0   50.0
350.0   90.0   33.333333333333336
300.0   120.0   33.333333333333336
300.0   120.0   0.0
350.0   120.0   0.0
300.0   150.0   0.0
300.0   120.0   16.666666666666668
350.0   120.0   0.0
350.0   150.0   0.0
300.0   150.0   0.0
350.0   150.0   16.666666666666668
300.0   120.0   16.666666666666668
300.0   150.0   16.666666666666668
350.0   150.0   16.666666666666668
300.0   150.0   0.0
300.0   120.0   16.666666666666668
350.0   150.0   16.666666666666668
350.0   120.0   16.666666666666668
350.0   120.0   0.0
300.0   120.0   16.666666666666668
350.0   150.0   16.666666666666668
350.0   120.0   0.0
300.0   150.0   0.0
300.0   120.0   16.666666666666668
350.0   120.0   16.666666666666668
300.0   150.0   16.666666666666668
300.0   120.0   33.333333333333336
350.0   120.0   16.666666666666668
350.0   150.0   16.666666666666668
300.0   150.0   16.666666666666668
350.0   150.0   33.333333333333336
300.0   120.0   33.333333333333336
300.0   150.0   33.333333333333336
350.0   150.0   33.333333333333336
300.0   150.0   16.666666666666668
300.0   120.0   33.333333333333336
350.0   150.0   33.333333333333336
350.0   120.0   33.333333333333336
350.0   120.0   16.666666666666668
300.0   120.0   33.333333333333336
350.0   150.0   33.333333333333336
350.0   120.0   16.666666666666668
300.0   150.0   16.666666666666668
300.0   120.0   33.333333333333336
350.0   120.0   33.333333333333336
300.0   150.0   33.333333333333336
300.0   120.0   50.0
350.0   120.0   33.333333333333336
350.0   150.0   33.333333333333336
300.0   150.0   33.333333333333336
350.0   150.0   50.0
300.0   120.0   50.0
300.0   150.0   50.0
350.0   150.0   50.0
300.0   150.0   33.333333333333336
300.0   120.0   50.0
350.0   150.0   50.0
350.0   120.0   50.0
350.0   120.0   33.333333333333336
300.0   120.0   50.0
350.0   150.0   50.0
350.0   120.0   33.333333333333336
300.0   150.0   33.333333333333336
350.0   0.0   0.0
400.0   0.0   0.0
350.0   30.0   0.0
350.0   0.0   16.666666666666668
400.0   0.0   0.0
400.0   30.0   0.0
350.0   30.0   0.0
400.0   30.0   16.666666666666668
350.0   0.0   16.666666666666668
350.0   30.0   16.666666666666668
400.0   30.0   16.666666666666668
350.0   30.0   0.0
350.0   0.0   16.666666666666668
400.0   30.0   16.666666666666668
400.0   0.0   16.666666666666668
400.0   0.0   0.0
350.0   0.0   16.666666666666668
400.0   30.0   16.666666666666668
400.0   0.0   0.0
350.0   30.0   0.0
350.0   0.0   16.666666666666668
400.0   0.0   16.666666666666668
350.0   30.0   16.666666666666668
350.0   0.0   33.333333333333336
400.0   0.0   16.666666666666668
400.0   30.0   16.666666666666668
350.0   30.0   16.666666666666668
400.0   30.0   33.333333333333336
350.0   0.0   33.333333333333336
350.0   30.0   33.333333333333336
400.0   30.0   33.333333333333336
350.0   30.0   16.666666666666668
350.0   0.0   33.333333333333336
400.0   30.0   33.333333333333336
400.0   0.0   33.333333333333336
400.0   0.0   16.666666666666668
350.0   0.0   33.333333333333336
400.0   30.0   33.333333333333336
400.0   0.0   16.666666666666668
350.0   30.0   16.666666666666668
350.0   0.0   33.333333333333336
400.0   0.0   33.333333333333336
350.0   30.0   33.333333333333336
350.0   0.0   50.0
400.0   0.0   33.333333333333336
400.0   30.0   33.333333333333336
350.0   30.0   33.333333333333336
400.0   30.0   50.0
350.0   0.0   50.0
350.0   30.0   50.0
400.0   30.0   50.0
350.0   30.0   33.333333333333336
350.0   0.0   50.0
400.0   30.0   50.0
400.0   0.0   50.0
400.0   0.0   33.333333333333336
350.0   0.0   50.0
400.0   30.0   50.0
400.0   0.0   33.333333333333336
350.0   30.0   33.333333333333336
350.0   30.0   0.0
400.0   30.0   0.0
350.0   60.0   0.0
350.0   30.0   16.666666666666668
400.0   30.0   0.0
400.0   60.0   0.0
350.0   60.0   0.0
400.0   60.0   16.666666666666668
350.0   30.0   16.666666666666668
350.0   60.0   16.666666666666668
400.0   60.0   16.666666666666668
350.0   60.0   0.0
350.0   30.0   16.666666666666668
400.0   60.0   16.666666666666668
400.0   30.0   16.666666666666668
400.0   30.0   0.0
350.0   30.0   16.666666666666668
400.0   60.0   16.666666666666668
400.0   30.0   0.0
350.0   60.0   0.0
350.0   30.0   16.666666666666668
400.0   30.0   16.666666666666668
350.0   60.0   16.666666666666668
350.0   30.0   33.333333333333336
400.0   30.0   16.666666666666668
400.0   60.0   16.666666666666668
350.0   60.0   16.666666666666668
400.0   60.0   33.333333333333336
350.0   30.0   33.333333333333336
350.0   60.0   33.333333333333336
400.0   60.0   33.333333333333336
350.0   60.0   16.666666666666668
350.0   30.0   33.333333333333336
400.0   60.0   33.333333333333336
400.0   30.0   33.333333333333336
400.0   30.0   16.666666666666668
350.0   30.0   33.333333333333336
400.0   60.0   33.333333333333336
400.0   30.0   16.666666666666668
350.0   60.0   16.666666666666668
350.0   30.0   33.333333333333336
400.0   30.0   33.333333333333336
350.0   60.0   33.333333333333336
350.0   30.0   50.0
400.0   30.0   33.333333333333336
400.0   60.0   33.333333333333336
350.0   60.0   33.333333333333336
400.0   60.0   50.0
350.0   30.0   50.0
350.0   60.0   50.0
400.0   60.0   50.0
350.0   60.0   33.333333333333336
350.0   30.0   50.0
400.0   60.0   50.0
400.0   30.0   50.0
400.0   30.0   33.333333333333336
350.0   30.0   50.0
400.0   60.0   50.0
400.0   30.0   33.333333333333336
350.0   60.0   33.333333333333336
350.0   60.0   0.0
400.0   60.0   0.0
350.0   90.0   0.0
350.0   60.0   16.666666666666668
400.0   60.0   0.0
400.0   90.0   0.0
350.0   90.0   0.0
400.0   90.0   16.666666666666668
350.0   60.0   16.666666666666668
350.0   90.0   16.666666666666668
400.0   90.0   16.666666666666668
350.0   90.0   0.0
350.0   60.0   16.666666666666668
400.0   90.0   16.666666666666668
400.0   60.0   16.666666666666668
400.0   60.0   0.0
350.0   60.0   16.666666666666668
400.0   90.0   16.666666666666668
400.0   60.0   0.0
350.0   90.0   0.0
350.0   60.0   16.666666666666668
400.0   60.0   16.666666666666668
350.0   90.0   16.666666666666668
350.0   60.0   33.333333333333336
400.0   60.0   16.666666666666668
400.0   90.0   16.666666666666668
350.0   90.0   16.666666666666668
400.0   90.0   33.333333333333336
350.0   60.0   33.333333333333336
350.0   90.0   33.333333333333336
400.0   90.0   33.333333333333336
350.0   90.0   16.666666666666668
350.0   60.0   33.333333333333336
400.0   90.0   33.333333333333336
400.0   60.0   33.333333333333336
400.0   60.0   16.666666666666668
350.0   60.0   33.333333333333336
400.0   90.0   33.333333333333336
400.0   60.0   16.666666666666668
350.0   90.0   16.666666666666668
350.0   60.0   33.333333333333336
400.0   60.0   33.333333333333336
350.0   90.0   33.333333333333336
350.0   60.0   50.0
400.0   60.0   33.333333333333336
400.0   90.0   33.333333333333336
350.0   90.0   33.333333333333336
400.0   90.0   50.0
350.0   60.0   50.0
350.0   90.0   50.0
400.0   90.0   50.0
350.0   90.0   33.333333333333336
350.0   60.0   50.0
400.0   90.0   50.0
400.0   60.0   50.0
400.0   60.0   33.333333333333336
350.0   60.0   50.0
400.0   90.0   50.0
400.0   60.0   33.333333333333336
350.0   90.0   33.333333333333336
350.0   90.0   0.0
400.0   90.0   0.0
350.0   120.0   0.0
350.0   90.0   16.666666666666668
400.0   90.0   0.0
400.0   120.0   0.0
350.0   120.0   0.0
400.0   120.0   16.666666666666668
350.0   90.0   16.666666666666668
350.0   120.0   16.666666666666668
400.0   120.0   16.666666666666668
350.0   120.0   0.0
350.0   90.0   16.666666666666668
400.0   120.0   16.666666666666668
400.0   90.0   16.666666666666668
400.0   90.0   0.0
350.0   90.0   16.666666666666668
400.0   120.0   16.666666666666668
400.0   90.0   0.0
350.0   120.0   0.0
350.0   90.0   16.666666666666668
400.0   90.0   16.666666666666668
350.0   120.0   16.666666666666668
350.0   90.0   33.333333333333336
400.0   90.0   16.666666666666668
400.0   120.0   16.666666666666668
350.0   120.0   16.666666666666668
400.0   120.0   33.333333333333336
350.0   90.0   33.333333333333336
350.0   120.0   33.333333333333336
400.0   120.0   33.333333333333336
350.0   120.0   16.666666666666668
350.0   90.0   33.333333333333336
400.0   120.0   33.333333333333336
400.0   90.0   33.333333333333336
400.0   90.0   16.666666666666668
350.0   90.0   33.333333333333336
400.0   120.0   33.333333333333336
400.0   90.0   16.666666666666668
350.0   120.0   16.666666666666668
350.0   90.0   33.333333333333336
400.0   90.0   33.333333333333336
350.0   120.0   33.333333333333336
350.0   90.0   50.0
400.0   90.0   33.333333333333336
400.0   120.0   33.333333333333336
350.0   120.0   33.333333333333336
400.0   120.0   50.0
350.0   90.0   50.0
350.0   120.0   50.0
400.0   120.0   50.0
350.0   120.0   33.333333333333336
350.0   90.0   50.0
400.0   120.0   50.0
400.0   90.0   50.0
400.0   90.0   33.333333333333336
350.0   90.0   50.0
400.0   120.0   50.0
400.0   90.0   33.333333333333336
350.0   120.0   33.333333333333336
350.0   120.0   0.0
400.0   120.0   0.0
350.0   150.0   0.0
350.0   120.0   16.666666666666668
400.0   120.0   0.0
400.0   150.0   0.0
350.0   150.0   0.0
400.0   150.0   16.666666666666668
350.0   120.0   16.666666666666668
350.0   150.0   16.666666666666668
400.0   150.0   16.666666666666668
350.0   150.0   0.0
350.0   120.0   16.666666666666668
400.0   150.0   16.666666666666668
400.0   120.0   16.666666666666668
400.0   120.0   0.0
350.0   120.0   16.666666666666668
400.0   150.0   16.666666666666668
400.0   120.0   0.0
350.0   150.0   0.0
350.0   120.0   16.666666666666668
400.0   120.0   16.666666666666668
350.0   150.0   16.666666666666668
350.0   120.0   33.333333333333336
400.0   120.0   16.666666666666668
400.0   150.0   16.666666666666668
350.0   150.0   16.666666666666668
400.0   150.0   33.333333333333336
350.0   120.0   33.333333333333336
350.0   150.0   33.333333333333336
400.0   150.0   33.333333333333336
350.0   150.0   16.666666666666668
350.0   120.0   33.333333333333336
400.0   150.0   33.333333333333336
400.0   120.0   33.333333333333336
400.0   120.0   16.666666666666668
350.0   120.0   33.333333333333336
400.0   150.0   33.333333333333336
400.0   120.0   16.666666666666668
350.0   150.0   16.666666666666668
350.0   120.0   33.333333333333336
400.0   120.0   33.333333333333336
350.0   150.0   33.333333333333336
350.0   120.0   50.0
400.0   120.0   33.333333333333336
400.0   150.0   33.333333333333336
350.0   150.0   33.333333333333336
400.0   150.0   50.0
350.0   120.0   50.0
350.0   150.0   50.0
400.0   150.0   50.0
350.0   150.0   33.333333333333336
350.0   120.0   50.0
400.0   150.0   50.0
400.0   120.0   50.0
400.0   120.0   33.333333333333336
350.0   120.0   50.0
400.0   150.0   50.0
400.0   120.0   33.333333333333336
350.0   150.0   33.333333333333336
400.0   0.0   0.0
450.0   0.0   0.0
400.0   30.0   0.0
400.0   0.0   16.666666666666668
450.0   0.0   0.0
450.0   30.0   0.0
400.0   30.0   0.0
450.0   30.0   16.666666666666668
400.0   0.0   16.666666666666668
400.0   30.0   16.666666666666668
450.0   30.0   16.666666666666668
400.0   30.0   0.0
400.0   0.0   16.666666666666668
450.0   30.0   16.666666666666668
450.0   0.0   16.666666666666668
450.0   0.0   0.0
400.0   0.0   16.666666666666668
450.0   30.0   16.666666666666668
450.0   0.0   0.0
400.0   30.0   0.0
400.0   0.0   16.666666666666668
450.0   0.0   16.666666666666668
400.0   30.0   16.666666666666668
400.0   0.0   33.333333333333336
450.0   0.0   16.666666666666668
450.0   30.0   16.666666666666668
400.0   30.0   16.666666666666668
450.0   30.0   33.333333333333336
400.0   0.0   33.333333333333336
400.0   30.0   33.333333333333336
450.0   30.0   33.333333333333336
400.0   30.0   16.666666666666668
400.0   0.0   33.333333333333336
450.0   30.0   33.333333333333336
450.0   0.0   33.333333333333336
450.0   0.0   16.666666666666668
400.0   0.0   33.333333333333336
450.0   30.0   33.333333333333336
450.0   0.0   16.666666666666668
400.0   30.0   16.666666666666668
400.0   0.0   33.333333333333336
450.0   0.0   33.333333333333336
400.0   30.0   33.333333333333336
400.0   0.0   50.0
450.0   0.0   33.333333333333336
450.0   30.0   33.333333333333336
400.0   30.0   33.333333333333336
450.0   30.0   50.0
400.0   0.0   50.0
400.0   30.0   50.0
450.0   30.0   50.0
400.0   30.0   33.333333333333336
400.0   0.0   50.0
450.0   30.0   50.0
450.0   0.0   50.0
450.0   0.0   33.333333333333336
400.0   0.0   50.0
450.0   30.0   50.0
450.0   0.0   33.333333333333336
400.0   30.0   33.333333333333336
400.0   30.0   0.0
450.0   30.0   0.0
400.0   60.0   0.0
400.0   30.0   16.666666666666668
450.0   30.0   0.0
450.0   60.0   0.0
400.0   60.0   0.0
450.0   60.0   16.666666666666668
400.0   30.0   16.666666666666668
400.0   60.0   16.666666666666668
450.0   60.0   16.666666666666668
400.0   60.0   0.0
400.0   30.0   16.666666666666668
450.0   60.0   16.666666666666668
450.0   30.0   16.666666666666668
450.0   30.0   0.0
400.0   30.0   16.666666666666668
450.0   60.0   16.666666666666668
450.0   30.0   0.0
400.0   60.0   0.0
400.0   30.0   16.666666666666668
450.0   30.0   16.666666666666668
400.0   60.0   16.666666666666668
400.0   30.0   33.333333333333336
450.0   30.0   16.666666666666668
450.0   60.0   16.666666666666668
400.0   60.0   16.666666666666668
450.0   60.0   33.333333333333336
400.0   30.0   33.333333333333336
400.0   60.0   33.333333333333336
450.0   60.0   33.333333333333336
400.0   60.0   16.666666666666668
400.0   30.0   33.333333333333336
450.0   60.0   33.333333333333336
450.0   30.0   33.333333333333336
450.0   30.0   16.666666666666668
400.0   30.0   33.333333333333336
450.0   60.0   33.333333333333336
450.0   30.0   16.666666666666668
400.0   60.0   16.666666666666668
400.0   30.0   33.333333333333336
450.0   30.0   33.333333333333336
400.0   60.0   33.333333333333336
400.0   30.0   50.0
450.0   30.0   33.333333333333336
450.0   60.0   33.333333333333336
400.0   60.0   33.333333333333336
450.0   60.0   50.0
400.0   30.0   50.0
400.0   60.0   50.0
450.0   60.0   50.0
400.0   60.0   33.333333333333336
400.0   30.0   50.0
450.0   60.0   50.0
450.0   30.0   50.0
450.0   30.0   33.333333333333336
400.0   30.0   50.0
450.0   60.0   50.0
450.0   30.0   33.333333333333336
400.0   60.0   33.333333333333336
400.0   60.0   0.0
450.0   60.0   0.0
400.0   90.0   0.0
400.0   60.0   16.666666666666668
450.0   60.0   0.0
450.0   90.0   0.0
400.0   90.0   0.0
450.0   90.0   16.666666666666668
400.0   60.0   16.666666666666668
400.0   90.0   16.666666666666668
450.0   90.0   16.666666666666668
400.0   90.0   0.0
400.0   60.0   16.666666666666668
450.0   90.0   16.666666666666668
450.0   60.0   16.666666666666668
450.0   60.0   0.0
400.0   60.0   16.666666666666668
450.0   90.0   16.666666666666668
450.0   60.0   0.0
400.0   90.0   0.0
400.0   60.0   16.666666666666668
450.0   60.0   16.666666666666668
400.0   90.0   16.666666666666668
400.0   60.0   33.333333333333336
450.0   60.0   16.666666666666668
450.0   90.0   16.666666666666668
400.0   90.0   16.666666666666668
450.0   90.0   33.333333333333336
400.0   60.0   33.333333333333336
400.0   90.0   33.333333333333336
450.0   90.0   33.333333333333336
400.0   90.0   16.666666666666668
400.0   60.0   33.333333333333336
450.0   90.0   33.333333333333336
450.0   60.0   33.333333333333336
450.0   60.0   16.666666666666668
400.0   60.0   33.333333333333336
450.0   90.0   33.333333333333336
450.0   60.0   16.666666666666668
400.0   90.0   16.666666666666668
400.0   60.0   33.333333333333336
450.0   60.0   33.333333333333336
400.0   90.0   33.333333333333336
400.0   60.0   50.0
450.0   60.0   33.333333333333336
450.0   90.0   33.333333333333336
400.0   90.0   33.333333333333336
450.0   90.0   50.0
400.0   60.0   50.0
400.0   90.0   50.0
450.0   90.0   50.0
400.0   90.0   33.333333333333336
400.0   60.0   50.0
450.0   90.0   50.0
450.0   60.0   50.0
450.0   60.0   33.333333333333336
400.0   60.0   50.0
450.0   90.0   50.0
450.0   60.0   33.333333333333336
400.0   90.0   33.333333333333336
400.0   90.0   0.0
450.0   90.0   0.0
400.0   120.0   0.0
400.0   90.0   16.666666666666668
450.0   90.0   0.0
450.0   120.0   0.0
400.0   120.0   0.0
450.0   120.0   16.666666666666668
400.0   90.0   16.666666666666668
400.0   120.0   16.666666666666668
450.0   120.0   16.666666666666668
400.0   120.0   0.0
400.0   90.0   16.666666666666668
450.0   120.0   16.666666666666668
450.0   90.0   16.666666666666668
450.0   90.0   0.0
400.0   90.0   16.666666666666668
450.0   120.0   16.666666666666668
450.0   90.0   0.0
400.0   120.0   0.0
400.0   90.0   16.666666666666668
450.0   90.0   16.666666666666668
400.0   120.0   16.666666666666668
400.0   90.0   33.333333333333336
450.0   90.0   16.666666666666668
450.0   120.0   16.666666666666668
400.0   120.0   16.666666666666668
450.0   120.0   33.333333333333336
400.0   90.0   33.333333333333336
400.0   120.0   33.333333333333336
450.0   120.0   33.333333333333336
400.0   120.0   16.666666666666668
400.0   90.0   33.333333333333336
450.0   120.0   33.333333333333336
450.0   90.0   33.333333333333336
450.0   90.0   16.666666666666668
400.0   90.0   33.333333333333336
450.0   120.0   33.333333333333336
450.0   90.0   16.666666666666668
400.0   120.0   16.666666666666668
400.0   90.0   33.333333333333336
450.0   90.0   33.333333333333336
400.0   120.0   33.333333333333336
400.0   90.0   50.0
450.0   90.0   33.333333333333336
450.0   120.0   33.333333333333336
400.0   120.0   33.333333333333336
450.0   120.0   50.0
400.0   90.0   50.0
400.0   120.0   50.0
450.0   120.0   50.0
400.0   120.0   33.333333333333336
400.0   90.0   50.0
450.0   120.0   50.0
450.0   90.0   50.0
450.0   90.0   33.333333333333336
400.0   90.0   50.0
450.0   120.0   50.0
450.0   90.0   33.333333333333336
400.0   120.0   33.333333333333336
400.0   120.0   0.0
450.0   120.0   0.0
400.0   150.0   0.0
400.0   120.0   16.666666666666668
450.0   120.0   0.0
450.0   150.0   0.0
400.0   150.0   0.0
450.0   150.0   16.666666666666668
400.0   120.0   16.666666666666668
400.0   150.0   16.666666666666668
450.0   150.0   16.666666666666668
400.0   150.0   0.0
400.0   120.0   16.666666666666668
450.0   150.0   16.666666666666668
450.0   120.0   16.666666666666668
450.0   120.0   0.0
400.0   120.0   16.666666666666668
450.0   150.0   16.666666666666668
450.0   120.0   0.0
400.0   150.0   0.0
400.0   120.0   16.666666666666668
450.0   120.0   16.666666666666668
400.0   150.0   16.666666666666668
400.0   120.0   33.333333333333336
450.0   120.0   16.666666666666668
450.0   150.0   16.666666666666668
400.0   150.0   16.666666666666668
450.0   150.0   33.333333333333336
400.0   120.0   33.333333333333336
400.0   150.0   33.333333333333336
450.0   150.0   33.333333333333336
400.0   150.0   16.666666666666668
400.0   120.0   33.333333333333336
450.0   150.0   33.333333333333336
450.0   120.0   33.333333333333336
450.0   120.0   16.666666666666668
400.0   120.0   33.333333333333336
450.0   150.0   33.333333333333336
450.0   120.0   16.666666666666668
400.0   150.0   16.666666666666668
400.0   120.0   33.333333333333336
450.0   120.0   33.333333333333336
400.0   150.0   33.333333333333336
400.0   120.0   50.0
450.0   120.0   33.333333333333336
450.0   150.0   33.333333333333336
400.0   150.0   33.333333333333336
450.0   150.0   50.0
400.0   120.0   50.0
400.0   150.0   50.0
450.0   150.0   50.0
400.0   150.0   33.333333333333336
400.0   120.0   50.0
450.0   150.0   50.0
450.0   120.0   50.0
450.0   120.0   33.333333333333336
400.0   120.0   50.0
450.0   150.0   50.0
450.0   120.0   33.333333333333336
400.0   150.0   33.333333333333336
450.0   0.0   0.0
500.0   0.0   0.0
450.0   30.0   0.0
450.0   0.0   16.666666666666668
500.0   0.0   0.0
500.0   30.0   0.0
450.0   30.0   0.0
500.0   30.0   16.666666666666668
450.0   0.0   16.666666666666668
450.0   30.0   16.666666666666668
500.0   30.0   16.666666666666668
450.0   30.0   0.0
450.0   0.0   16.666666666666668
500.0   30.0   16.666666666666668
500.0   0.0   16.666666666666668
500.0   0.0   0.0
450.0   0.0   16.666666666666668
500.0   30.0   16.666666666666668
500.0   0.0   0.0
450.0   30.0   0.0
450.0   0.0   16.666666666666668
500.0   0.0   16.666666666666668
450.0   30.0   16.666666666666668
450.0   0.0   33.333333333333336
500.0   0.0   16.666666666666668
500.0   30.0   16.666666666666668
450.0   30.0   16.666666666666668
500.0   30.0   33.333333333333336
450.0   0.0   33.333333333333336
450.0   30.0   33.333333333333336
500.0   30.0   33.333333333333336
450.0   30.0   16.666666666666668
450.0   0.0   33.333333333333336
500.0   30.0   33.333333333333336
500.0   0.0   33.333333333333336
500.0   0.0   16.666666666666668
450.0   0.0   33.333333333333336
500.0   30.0   33.333333333333336
500.0   0.0   16.666666666666668
450.0   30.0   16.666666666666668
450.0   0.0   33.333333333333336
500.0   0.0   33.333333333333336
450.0   30.0   33.333333333333336
450.0   0.0   50.0
500.0   0.0   33.333333333333336
500.0   30.0   33.333333333333336
450.0   30.0   33.333333333333336
500.0   30.0   50.0
450.0   0.0   50.0
450.0   30.0   50.0
500.0   30.0   50.0
450.0   30.0   33.333333333333336
450.0   0.0   50.0
500.0   30.0   50.0
500.0   0.0   50.0
500.0   0.0   33.333333333333336
450.0   0.0   50.0
500.0   30.0   50.0
500.0   0.0   33.333333333333336
450.0   30.0   33.333333333333336
450.0   30.0   0.0
500.0   30.0   0.0
450.0   60.0   0.0
450.0   30.0   16.666666666666668
500.0   30.0   0.0
500.0   60.0   0.0
450.0   60.0   0.0
500.0   60.0   16.666666666666668
450.0   30.0   16.666666666666668
450.0   60.0   16.666666666666668
500.0   60.0   16.666666666666668
450.0   60.0   0.0
450.0   30.0   16.666666666666668
500.0   60.0   16.666666666666668
500.0   30.0   16.666666666666668
500.0   30.0   0.0
450.0   30.0   16.666666666666668
500.0   60.0   16.666666666666668
500.0   30.0   0.0
450.0   60.0   0.0
450.0   30.0   16.666666666666668
500.0   30.0   16.666666666666668
450.0   60.0   16.666666666666668
450.0   30.0   33.333333333333336
500.0   30.0   16.666666666666668
500.0   60.0   16.666666666666668
450.0   60.0   16.666666666666668
500.0   60.0   33.333333333333336
450.0   30.0   33.333333333333336
450.0   60.0   33.333333333333336
500.0   60.0   33.333333333333336
450.0   60.0   16.666666666666668
450.0   30.0   33.333333333333336
500.0   60.0   33.333333333333336
500.0   30.0   33.333333333333336
500.0   30.0   16.666666666666668
450.0   30.0   33.333333333333336
500.0   60.0   33.333333333333336
500.0   30.0   16.666666666666668
450.0   60.0   16.666666666666668
450.0   30.0   33.333333333333336
500.0   30.0   33.333333333333336
450.0   60.0   33.333333333333336
450.0   30.0   50.0
500.0   30.0   33.333333333333336
500.0   60.0   33.333333333333336
450.0   60.0   33.333333333333336
500.0   60.0   50.0
450.0   30.0   50.0
450.0   60.0   50.0
500.0   60.0   50.0
450.0   60.0   33.333333333333336
450.0   30.0   50.0
500.0   60.0   50.0
500.0   30.0   50.0
500.0   30.0   33.333333333333336
450.0   30.0   50.0
500.0   60.0   50.0
500.0   30.0   33.333333333333336
450.0   60.0   33.333333333333336
450.0   60.0   0.0
500.0   60.0   0.0
450.0   90.0   0.0
450.0   60.0   16.666666666666668
500.0   60.0   0.0
500.0   90.0   0.0
450.0   90.0   0.0
500.0   90.0   16.666666666666668
450.0   60.0   16.666666666666668
450.0   90.0   16.666666666666668
500.0   90.0   16.666666666666668
450.0   90.0   0.0
450.0   60.0   16.666666666666668
500.0   90.0   16.666666666666668
500.0   60.0   16.666666666666668
500.0   60.0   0.0
450.0   60.0   16.666666666666668
500.0   90.0   16.666666666666668
500.0   60.0   0.0
450.0   90.0   0.0
450.0   60.0   16.666666666666668
500.0   60.0   16.666666666666668
450.0   90.0   16.666666666666668
450.0   60.0   33.333333333333336
500.0   60.0   16.666666666666668
500.0   90.0   16.666666666666668
450.0   90.0   16.666666666666668
500.0   90.0   33.333333333333336
450.0   60.0   33.333333333333336
450.0   90.0   33.333333333333336
500.0   90.0   33.333333333333336
450.0   90.0   16.666666666666668
450.0   60.0   33.333333333333336
500.0   90.0   33.333333333333336
500.0   60.0   33.333333333333336
500.0   60.0   16.666666666666668
450.0   60.0   33.333333333333336
500.0   90.0   33.333333333333336
500.0   60.0   16.666666666666668
450.0   90.0   16.666666666666668
450.0   60.0   33.333333333333336
500.0   60.0   33.333333333333336
450.0   90.0   33.333333333333336
450.0   60.0   50.0
500.0   60.0   33.333333333333336
500.0   90.0   33.333333333333336
450.0   90.0   33.333333333333336
500.0   90.0   50.0
450.0   60.0   50.0
450.0   90.0   50.0
500.0   90.0   50.0
450.0   90.0   33.333333333333336
450.0   60.0   50.0
500.0   90.0   50.0
500.0   60.0   50.0
500.0   60.0   33.333333333333336
450.0   60.0   50.0
500.0   90.0   50.0
500.0   60.0   33.333333333333336
450.0   90.0   33.333333333333336
450.0   90.0   0.0
500.0   90.0   0.0
450.0   120.0   0.0
450.0   90.0   16.666666666666668
500.0   90.0   0.0
500.0   120.0   0.0
450.0   120.0   0.0
500.0   120.0   16.666666666666668
450.0   90.0   16.666666666666668
450.0   120.0   16.666666666666668
500.0   120.0   16.666666666666668
450.0   120.0   0.0
450.0   90.0   16.666666666666668
500.0   120.0   16.666666666666668
500.0   90.0   16.666666666666668
500.0   90.0   0.0
450.0   90.0   16.666666666666668
500.0   120.0   16.666666666666668
500.0   90.0   0.0
450.0   120.0   0.0
450.0   90.0   16.666666666666668
500.0   90.0   16.666666666666668
450.0   120.0   16.666666666666668
450.0   90.0   33.333333333333336
500.0   90.0   16.666666666666668
500.0   120.0   16.666666666666668
450.0   120.0   16.666666666666668
500.0   120.0   33.333333333333336
450.0   90.0   33.333333333333336
450.0   120.0   33.333333333333336
500.0   120.0   33.333333333333336
450.0   120.0   16.666666666666668
450.0   90.0   33.333333333333336
500.0   120.0   33.333333333333336
500.0   90.0   33.333333333333336
500.0   90.0   16.666666666666668
450.0   90.0   33.333333333333336
500.0   120.0   33.333333333333336
500.0   90.0   16.666666666666668
450.0   120.0   16.666666666666668
450.0   90.0   33.333333333333336
500.0   90.0   33.333333333333336
450.0   120.0   33.333333333333336
450.0   90.0   50.0
500.0   90.0   33.333333333333336
500.0   120.0   33.333333333333336
450.0   120.0   33.333333333333336
500.0   120.0   50.0
450.0   90.0   50.0
450.0   120.0   50.0
500.0   120.0   50.0
450.0   120.0   33.333333333333336
450.0   90.0   50.0
500.0   120.0   50.0
500.0   90.0   50.0
500.0   90.0   33.333333333333336
450.0   90.0   50.0
500.0   120.0   50.0
500.0   90.0   33.333333333333336
450.0   120.0   33.333333333333336
450.0   120.0   0.0
500.0   120.0   0.0
450.0   150.0   0.0
450.0   120.0   16.666666666666668
500.0   120.0   0.0
500.0   150.0   0.0
450.0   150.0   0.0
500.0   150.0   16.666666666666668
450.0   120.0   16.666666666666668
450.0   150.0   16.666666666666668
500.0   150.0   16.666666666666668
450.0   150.0   0.0
450.0   120.0   16.666666666666668
500.0   150.0   16.666666666666668
500.0   120.0   16.666666666666668
500.0   120.0   0.0
450.0   120.0   16.666666666666668
500.0   150.0   16.666666666666668
500.0   120.0   0.0
450.0   150.0   0.0
450.0   120.0   16.666666666666668
500.0   120.0   16.666666666666668
450.0   150.0   16.666666666666668
450.0   120.0   33.333333333333336
500.0   120.0   16.666666666666668
500.0   150.0   16.666666666666668
450.0   150.0   16.666666666666668
500.0   150.0   33.333333333333336
450.0   120.0   33.333333333333336
450.0   150.0   33.333333333333336
500.0   150.0   33.333333333333336
450.0   150.0   16.666666666666668
450.0   120.0   33.333333333333336
500.0   150.0   33.333333333333336
500.0   120.0   33.333333333333336
500.0   120.0   16.666666666666668
450.0   120.0   33.333333333333336
500.0   150.0   33.333333333333336
500.0   120.0   16.666666666666668
450.0   150.0   16.666666666666668
450.0   120.0   33.333333333333336
500.0   120.0   33.333333333333336
450.0   150.0   33.333333333333336
450.0   120.0   50.0
500.0   120.0   33.333333333333336
500.0   150.0   33.333333333333336
450.0   150.0   33.333333333333336
500.0   150.0   50.0
450.0   120.0   50.0
450.0   150.0   50.0
500.0   150.0   50.0
450.0   150.0   33.333333333333336
450.0   120.0   50.0
500.0   150.0   50.0
500.0   120.0   50.0
500.0   120.0   33.333333333333336
450.0   120.0   50.0
500.0   150.0   50.0
500.0   120.0   33.333333333333336
450.0   150.0   33.333333333333336
             </DataArray>   
          </Points>  
          <Cells>  
             <DataArray type="Int32" Name="connectivity" format="ascii">   
0   1   2   3
4   5   6   7
8   9   10   11
12   13   14   15
16   17   18   19
20   21   22   23
24   25   26   27
28   29   30   31
32   33   34   35
36   37   38   39
40   41   42   43
44   45   46   47
48   49   50   51
52   53   54   55
56   57   58   59
60   61   62   63
64   65   66   67
68   69   70   71
72   73   74   75
76   77   78   79
80   81   82   83
84   85   86   87
88   89   90   91
92   93   94   95
96   97   98   99
100   101   102   103
104   105   106   107
108   109   110   111
112   113   114   115
116   117   118   119
120   121   122   123
124   125   126   127
128   129   130   131
132   133   134   135
136   137   138   139
140   141   142   143
144   145   146   147
148   149   150   151
152   153   154   155
156   157   158   159
160   161   162   163
164   165   166   167
168   169   170   171
172   173   174   175
176   177   178   179
180   181   182   183
184   185   186   187
188   189   190   191
192   193   194   195
196   197   198   199
200   201   202   203
204   205   206   207
208   209   210   211
212   213   214   215
216   217   218   219
220   221   222   223
224   225   226   227
228   229   230   231
232   233   234   235
236   237   238   239
240   241   242   243
244   245   246   247
248   249   250   251
252   253   254   255
256   257   258   259
260   261   262   263
264   265   266   267
268   269   270   271
272   273   274   275
276   277   278   279
280   281   282   283
284   285   286   287
288   289   290   291
292   293   294   295
296   297   298   299
300   301   302   303
304   305   306   307
308   309   310   311
312   313   314   315
316   317   318   319
320   321   322   323
324   325   326   327
328   329   330   331
332   333   334   335
336   337   338   339
340   341   342   343
344   345   346   347
348   349   350   351
352   353   354   355
356   357   358   359
360   361   362   363
364   365   366   367
368   369   370   371
372   373   374   375
376   377   378   379
380   381   382   383
384   385   386   387
388   389   390   391
392   393   394   395
396   397   398   399
400   401   402   403
404   405   406   407
408   409   410   411
412   413   414   415
416   417   418   419
420   421   422   423
424   425   426   427
428   429   430   431
432   433   434   435
436   437   438   439
440   441   442   443
444   445   446   447
448   449   450   451
452   453   454   455
456   457   458   459
460   461   462   463
464   465   466   467
468   469   470   471
472   473   474   475
476   477   478   479
480   481   482   483
484   485   486   487
488   489   490   491
492   493   494   495
496   497   498   499
500   501   502   503
504   505   506   507
508   509   510   511
512   513   514   515
516   517   518   519
520   521   522   523
524   525   526   527
528   529   530   531
532   533   534   535
536   537   538   539
540   541   542   543
544   545   546   547
548   549   550   551
552   553   554   555
556   557   558   559
560   561   562   563
564   565   566   567
568   569   570   571
572   573   574   575
576   577   578   579
580   581   582   583
584   585   586   587
588   589   590   591
592   593   594   595
596   597   598   599
600   601   602   603
604   605   606   607
608   609   610   611
612   613   614   615
616   617   618   619
620   621   622   623
624   625   626   627
628   629   630   631
632   633   634   635
636   637   638   639
640   641   642   643
644   645   646   647
648   649   650   651
652   653   654   655
656   657   658   659
660   661   662   663
664   665   666   667
668   669   670   671
672   673   674   675
676   677   678   679
680   681   682   683
684   685   686   687
688   689   690   691
692   693   694   695
696   697   698   699
700   701   702   703
704   705   706   707
708   709   710   711
712   713   714   715
716   717   718   719
720   721   722   723
724   725   726   727
728   729   730   731
732   733   734   735
736   737   738   739
740   741   742   743
744   745   746   747
748   749   750   751
752   753   754   755
756   757   758   759
760   761   762   763
764   765   766   767
768   769   770   771
772   773   774   775
776   777   778   779
780   781   782   783
784   785   786   787
788   789   790   791
792   793   794   795
796   797   798   799
800   801   802   803
804   805   806   807
808   809   810   811
812   813   814   815
816   817   818   819
820   821   822   823
824   825   826   827
828   829   830   831
832   833   834   835
836   837   838   839
840   841   842   843
844   845   846   847
848   849   850   851
852   853   854   855
856   857   858   859
860   861   862   863
864   865   866   867
868   869   870   871
872   873   874   875
876   877   878   879
880   881   882   883
884   885   886   887
888   889   890   891
892   893   894   895
896   897   898   899
900   901   902   903
904   905   906   907
908   909   910   911
912   913   914   915
916   917   918   919
920   921   922   923
924   925   926   927
928   929   930   931
932   933   934   935
936   937   938   939
940   941   942   943
944   945   946   947
948   949   950   951
952   953   954   955
956   957   958   959
960   961   962   963
964   965   966   967
968   969   970   971
972   973   974   975
976   977   978   979
980   981   982   983
984   985   986   987
988   989   990   991
992   993   994   995
996   997   998   999
1000   1001   1002   1003
1004   1005   1006   1007
1008   1009   1010   1011
1012   1013   1014   1015
1016   1017   1018   1019
1020   1021   1022   1023
1024   1025   1026   1027
1028   1029   1030   1031
1032   1033   1034   1035
1036   1037   1038   1039
1040   1041   1042   1043
1044   1045   1046   1047
1048   1049   1050   1051
1052   1053   1054   1055
1056   1057   1058   1059
1060   1061   1062   1063
1064   1065   1066   1067
1068   1069   1070   1071
1072   1073   1074   1075
1076   1077   1078   1079
1080   1081   1082   1083
1084   1085   1086   1087
1088   1089   1090   1091
1092   1093   1094   1095
1096   1097   1098   1099
1100   1101   1102   1103
1104   1105   1106   1107
1108   1109   1110   1111
1112   1113   1114   1115
1116   1117   1118   1119
1120   1121   1122   1123
1124   1125   1126   1127
1128   1129   1130   1131
1132   1133   1134   1135
1136   1137   1138   1139
1140   1141   1142   1143
1144   1145   1146   1147
1148   1149   1150   1151
1152   1153   1154   1155
1156   1157   1158   1159
1160   1161   1162   1163
1164   1165   1166   1167
1168   1169   1170   1171
1172   1173   1174   1175
1176   1177   1178   1179
1180   1181   1182   1183
1184   1185   1186   1187
1188   1189   1190   1191
1192   1193   1194   1195
1196   1197   1198   1199
1200   1201   1202   1203
1204   1205   1206   1207
1208   1209   1210   1211
1212   1213   1214   1215
1216   1217   1218   1219
1220   1221   1222   1223
1224   1225   1226   1227
1228   1229   1230   1231
1232   1233   1234   1235
1236   1237   1238   1239
1240   1241   1242   1243
1244   1245   1246   1247
1248   1249   1250   1251
1252   1253   1254   1255
1256   1257   1258   1259
1260   1261   1262   1263
1264   1265   1266   1267
1268   1269   1270   1271
1272   1273   1274   1275
1276   1277   1278   1279
1280   1281   1282   1283
1284   1285   1286   1287
1288   1289   1290   1291
1292   1293   1294   1295
1296   1297   1298   1299
1300   1301   1302   1303
1304   1305   1306   1307
1308   1309   1310   1311
1312   1313   1314   1315
1316   1317   1318   1319
1320   1321   1322   1323
1324   1325   1326   1327
1328   1329   1330   1331
1332   1333   1334   1335
1336   1337   1338   1339
1340   1341   1342   1343
1344   1345   1346   1347
1348   1349   1350   1351
1352   1353   1354   1355
1356   1357   1358   1359
1360   1361   1362   1363
1364   1365   1366   1367
1368   1369   1370   1371
1372   1373   1374   1375
1376   1377   1378   1379
1380   1381   1382   1383
1384   1385   1386   1387
1388   1389   1390   1391
1392   1393   1394   1395
1396   1397   1398   1399
1400   1401   1402   1403
1404   1405   1406   1407
1408   1409   1410   1411
1412   1413   1414   1415
1416   1417   1418   1419
1420   1421   1422   1423
1424   1425   1426   1427
1428   1429   1430   1431
1432   1433   1434   1435
1436   1437   1438   1439
1440   1441   1442   1443
1444   1445   1446   1447
1448   1449   1450   1451
1452   1453   1454   1455
1456   1457   1458   1459
1460   1461   1462   1463
1464   1465   1466   1467
1468   1469   1470   1471
1472   1473   1474   1475
1476   1477   1478   1479
1480   1481   1482   1483
1484   1485   1486   1487
1488   1489   1490   1491
1492   1493   1494   1495
1496   1497   1498   1499
1500   1501   1502   1503
1504   1505   1506   1507
1508   1509   1510   1511
1512   1513   1514   1515
1516   1517   1518   1519
1520   1521   1522   1523
1524   1525   1526   1527
1528   1529   1530   1531
1532   1533   1534   1535
1536   1537   1538   1539
1540   1541   1542   1543
1544   1545   1546   1547
1548   1549   1550   1551
1552   1553   1554   1555
1556   1557   1558   1559
1560   1561   1562   1563
1564   1565   1566   1567
1568   1569   1570   1571
1572   1573   1574   1575
1576   1577   1578   1579
1580   1581   1582   1583
1584   1585   1586   1587
1588   1589   1590   1591
1592   1593   1594   1595
1596   1597   1598   1599
1600   1601   1602   1603
1604   1605   1606   1607
1608   1609   1610   1611
1612   1613   1614   1615
1616   1617   1618   1619
1620   1621   1622   1623
1624   1625   1626   1627
1628   1629   1630   1631
1632   1633   1634   1635
1636   1637   1638   1639
1640   1641   1642   1643
1644   1645   1646   1647
1648   1649   1650   1651
1652   1653   1654   1655
1656   1657   1658   1659
1660   1661   1662   1663
1664   1665   1666   1667
1668   1669   1670   1671
1672   1673   1674   1675
1676   1677   1678   1679
1680   1681   1682   1683
1684   1685   1686   1687
1688   1689   1690   1691
1692   1693   1694   1695
1696   1697   1698   1699
1700   1701   1702   1703
1704   1705   1706   1707
1708   1709   1710   1711
1712   1713   1714   1715
1716   1717   1718   1719
1720   1721   1722   1723
1724   1725   1726   1727
1728   1729   1730   1731
1732   1733   1734   1735
1736   1737   1738   1739
1740   1741   1742   1743
1744   1745   1746   1747
1748   1749   1750   1751
1752   1753   1754   1755
1756   1757   1758   1759
1760   1761   1762   1763
1764   1765   1766   1767
1768   1769   1770   1771
1772   1773   1774   1775
1776   1777   1778   1779
1780   1781   1782   1783
1784   1785   1786   1787
1788   1789   1790   1791
1792   1793   1794   1795
1796   1797   1798   1799
1800   1801   1802   1803
1804   1805   1806   1807
1808   1809   1810   1811
1812   1813   1814   1815
1816   1817   1818   1819
1820   1821   1822   1823
1824   1825   1826   1827
1828   1829   1830   1831
1832   1833   1834   1835
1836   1837   1838   1839
1840   1841   1842   1843
1844   1845   1846   1847
1848   1849   1850   1851
1852   1853   1854   1855
1856   1857   1858   1859
1860   1861   1862   1863
1864   1865   1866   1867
1868   1869   1870   1871
1872   1873   1874   1875
1876   1877   1878   1879
1880   1881   1882   1883
1884   1885   1886   1887
1888   1889   1890   1891
1892   1893   1894   1895
1896   1897   1898   1899
1900   1901   1902   1903
1904   1905   1906   1907
1908   1909   1910   1911
1912   1913   1914   1915
1916   1917   1918   1919
1920   1921   1922   1923
1924   1925   1926   1927
1928   1929   1930   1931
1932   1933   1934   1935
1936   1937   1938   1939
1940   1941   1942   1943
1944   1945   1946   1947
1948   1949   1950   1951
1952   1953   1954   1955
1956   1957   1958   1959
1960   1961   1962   1963
1964   1965   1966   1967
1968   1969   1970   1971
1972   1973   1974   1975
1976   1977   1978   1979
1980   1981   1982   1983
1984   1985   1986   1987
1988   1989   1990   1991
1992   1993   1994   1995
1996   1997   1998   1999
2000   2001   2002   2003
2004   2005   2006   2007
2008   2009   2010   2011
2012   2013   2014   2015
2016   2017   2018   2019
2020   2021   2022   2023
2024   2025   2026   2027
2028   2029   2030   2031
2032   2033   2034   2035
2036   2037   2038   2039
2040   2041   2042   2043
2044   2045   2046   2047
2048   2049   2050   2051
2052   2053   2054   2055
2056   2057   2058   2059
2060   2061   2062   2063
2064   2065   2066   2067
2068   2069   2070   2071
2072   2073   2074   2075
2076   2077   2078   2079
2080   2081   2082   2083
2084   2085   2086   2087
2088   2089   2090   2091
2092   2093   2094   2095
2096   2097   2098   2099
2100   2101   2102   2103
2104   2105   2106   2107
2108   2109   2110   2111
2112   2113   2114   2115
2116   2117   2118   2119
2120   2121   2122   2123
2124   2125   2126   2127
2128   2129   2130   2131
2132   2133   2134   2135
2136   2137   2138   2139
2140   2141   2142   2143
2144   2145   2146   2147
2148   2149   2150   2151
2152   2153   2154   2155
2156   2157   2158   2159
2160   2161   2162   2163
2164   2165   2166   2167
2168   2169   2170   2171
2172   2173   2174   2175
2176   2177   2178   2179
2180   2181   2182   2183
2184   2185   2186   2187
2188   2189   2190   2191
2192   2193   2194   2195
2196   2197   2198   2199
2200   2201   2202   2203
2204   2205   2206   2207
2208   2209   2210   2211
2212   2213   2214   2215
2216   2217   2218   2219
2220   2221   2222   2223
2224   2225   2226   2227
2228   2229   2230   2231
2232   2233   2234   2235
2236   2237   2238   2239
2240   2241   2242   2243
2244   2245   2246   2247
2248   2249   2250   2251
2252   2253   2254   2255
2256   2257   2258   2259
2260   2261   2262   2263
2264   2265   2266   2267
2268   2269   2270   2271
2272   2273   2274   2275
2276   2277   2278   2279
2280   2281   2282   2283
2284   2285   2286   2287
2288   2289   2290   2291
2292   2293   2294   2295
2296   2297   2298   2299
2300   2301   2302   2303
2304   2305   2306   2307
2308   2309   2310   2311
2312   2313   2314   2315
2316   2317   2318   2319
2320   2321   2322   2323
2324   2325   2326   2327
2328   2329   2330   2331
2332   2333   2334   2335
2336   2337   2338   2339
2340   2341   2342   2343
2344   2345   2346   2347
2348   2349   2350   2351
2352   2353   2354   2355
2356   2357   2358   2359
2360   2361   2362   2363
2364   2365   2366   2367
2368   2369   2370   2371
2372   2373   2374   2375
2376   2377   2378   2379
2380   2381   2382   2383
2384   2385   2386   2387
2388   2389   2390   2391
2392   2393   2394   2395
2396   2397   2398   2399
2400   2401   2402   2403
2404   2405   2406   2407
2408   2409   2410   2411
2412   2413   2414   2415
2416   2417   2418   2419
2420   2421   2422   2423
2424   2425   2426   2427
2428   2429   2430   2431
2432   2433   2434   2435
2436   2437   2438   2439
2440   2441   2442   2443
2444   2445   2446   2447
2448   2449   2450   2451
2452   2453   2454   2455
2456   2457   2458   2459
2460   2461   2462   2463
2464   2465   2466   2467
2468   2469   2470   2471
2472   2473   2474   2475
2476   2477   2478   2479
2480   2481   2482   2483
2484   2485   2486   2487
2488   2489   2490   2491
2492   2493   2494   2495
2496   2497   2498   2499
2500   2501   2502   2503
2504   2505   2506   2507
2508   2509   2510   2511
2512   2513   2514   2515
2516   2517   2518   2519
2520   2521   2522   2523
2524   2525   2526   2527
2528   2529   2530   2531
2532   2533   2534   2535
2536   2537   2538   2539
2540   2541   2542   2543
2544   2545   2546   2547
2548   2549   2550   2551
2552   2553   2554   2555
2556   2557   2558   2559
2560   2561   2562   2563
2564   2565   2566   2567
2568   2569   2570   2571
2572   2573   2574   2575
2576   2577   2578   2579
2580   2581   2582   2583
2584   2585   2586   2587
2588   2589   2590   2591
2592   2593   2594   2595
2596   2597   2598   2599
2600   2601   2602   2603
2604   2605   2606   2607
2608   2609   2610   2611
2612   2613   2614   2615
2616   2617   2618   2619
2620   2621   2622   2623
2624   2625   2626   2627
2628   2629   2630   2631
2632   2633   2634   2635
2636   2637   2638   2639
2640   2641   2642   2643
2644   2645   2646   2647
2648   2649   2650   2651
2652   2653   2654   2655
2656   2657   2658   2659
2660   2661   2662   2663
2664   2665   2666   2667
2668   2669   2670   2671
2672   2673   2674   2675
2676   2677   2678   2679
2680   2681   2682   2683
2684   2685   2686   2687
2688   2689   2690   2691
2692   2693   2694   2695
2696   2697   2698   2699
2700   2701   2702   2703
2704   2705   2706   2707
2708   2709   2710   2711
2712   2713   2714   2715
2716   2717   2718   2719
2720   2721   2722   2723
2724   2725   2726   2727
2728   2729   2730   2731
2732   2733   2734   2735
2736   2737   2738   2739
2740   2741   2742   2743
2744   2745   2746   2747
2748   2749   2750   2751
2752   2753   2754   2755
2756   2757   2758   2759
2760   2761   2762   2763
2764   2765   2766   2767
2768   2769   2770   2771
2772   2773   2774   2775
2776   2777   2778   2779
2780   2781   2782   2783
2784   2785   2786   2787
2788   2789   2790   2791
2792   2793   2794   2795
2796   2797   2798   2799
2800   2801   2802   2803
2804   2805   2806   2807
2808   2809   2810   2811
2812   2813   2814   2815
2816   2817   2818   2819
2820   2821   2822   2823
2824   2825   2826   2827
2828   2829   2830   2831
2832   2833   2834   2835
2836   2837   2838   2839
2840   2841   2842   2843
2844   2845   2846   2847
2848   2849   2850   2851
2852   2853   2854   2855
2856   2857   2858   2859
2860   2861   2862   2863
2864   2865   2866   2867
2868   2869   2870   2871
2872   2873   2874   2875
2876   2877   2878   2879
2880   2881   2882   2883
2884   2885   2886   2887
2888   2889   2890   2891
2892   2893   2894   2895
2896   2897   2898   2899
2900   2901   2902   2903
2904   2905   2906   2907
2908   2909   2910   2911
2912   2913   2914   2915
2916   2917   2918   2919
2920   2921   2922   2923
2924   2925   2926   2927
2928   2929   2930   2931
2932   2933   2934   2935
2936   2937   2938   2939
2940   2941   2942   2943
2944   2945   2946   2947
2948   2949   2950   2951
2952   2953   2954   2955
2956   2957   2958   2959
2960   2961   2962   2963
2964   2965   2966   2967
2968   2969   2970   2971
2972   2973   2974   2975
2976   2977   2978   2979
2980   2981   2982   2983
2984   2985   2986   2987
2988   2989   2990   2991
2992   2993   2994   2995
2996   2997   2998   2999
3000   3001   3002   3003
3004   3005   3006   3007
3008   3009   3010   3011
3012   3013   3014   3015
3016   3017   3018   3019
3020   3021   3022   3023
3024   3025   3026   3027
3028   3029   3030   3031
3032   3033   3034   3035
3036   3037   3038   3039
3040   3041   3042   3043
3044   3045   3046   3047
3048   3049   3050   3051
3052   3053   3054   3055
3056   3057   3058   3059
3060   3061   3062   3063
3064   3065   3066   3067
3068   3069   3070   3071
3072   3073   3074   3075
3076   3077   3078   3079
3080   3081   3082   3083
3084   3085   3086   3087
3088   3089   3090   3091
3092   3093   3094   3095
3096   3097   3098   3099
3100   3101   3102   3103
3104   3105   3106   3107
3108   3109   3110   3111
3112   3113   3114   3115
3116   3117   3118   3119
3120   3121   3122   3123
3124   3125   3126   3127
3128   3129   3130   3131
3132   3133   3134   3135
3136   3137   3138   3139
3140   3141   3142   3143
3144   3145   3146   3147
3148   3149   3150   3151
3152   3153   3154   3155
3156   3157   3158   3159
3160   3161   3162   3163
3164   3165   3166   3167
3168   3169   3170   3171
3172   3173   3174   3175
3176   3177   3178   3179
3180   3181   3182   3183
3184   3185   3186   3187
3188   3189   3190   3191
3192   3193   3194   3195
3196   3197   3198   3199
3200   3201   3202   3203
3204   3205   3206   3207
3208   3209   3210   3211
3212   3213   3214   3215
3216   3217   3218   3219
3220   3221   3222   3223
3224   3225   3226   3227
3228   3229   3230   3231
3232   3233   3234   3235
3236   3237   3238   3239
3240   3241   3242   3243
3244   3245   3246   3247
3248   3249   3250   3251
3252   3253   3254   3255
3256   3257   3258   3259
3260   3261   3262   3263
3264   3265   3266   3267
3268   3269   3270   3271
3272   3273   3274   3275
3276   3277   3278   3279
3280   3281   3282   3283
3284   3285   3286   3287
3288   3289   3290   3291
3292   3293   3294   3295
3296   3297   3298   3299
3300   3301   3302   3303
3304   3305   3306   3307
3308   3309   3310   3311
3312   3313   3314   3315
3316   3317   3318   3319
3320   3321   3322   3323
3324   3325   3326   3327
3328   3329   3330   3331
3332   3333   3334   3335
3336   3337   3338   3339
3340   3341   3342   3343
3344   3345   3346   3347
3348   3349   3350   3351
3352   3353   3354   3355
3356   3357   3358   3359
3360   3361   3362   3363
3364   3365   3366   3367
3368   3369   3370   3371
3372   3373   3374   3375
3376   3377   3378   3379
3380   3381   3382   3383
3384   3385   3386   3387
3388   3389   3390   3391
3392   3393   3394   3395
3396   3397   3398   3399
3400   3401   3402   3403
3404   3405   3406   3407
3408   3409   3410   3411
3412   3413   3414   3415
3416   3417   3418   3419
3420   3421   3422   3423
3424   3425   3426   3427
3428   3429   3430   3431
3432   3433   3434   3435
3436   3437   3438   3439
3440   3441   3442   3443
3444   3445   3446   3447
3448   3449   3450   3451
3452   3453   3454   3455
3456   3457   3458   3459
3460   3461   3462   3463
3464   3465   3466   3467
3468   3469   3470   3471
3472   3473   3474   3475
3476   3477   3478   3479
3480   3481   3482   3483
3484   3485   3486   3487
3488   3489   3490   3491
3492   3493   3494   3495
3496   3497   3498   3499
3500   3501   3502   3503
3504   3505   3506   3507
3508   3509   3510   3511
3512   3513   3514   3515
3516   3517   3518   3519
3520   3521   3522   3523
3524   3525   3526   3527
3528   3529   3530   3531
3532   3533   3534   3535
3536   3537   3538   3539
3540   3541   3542   3543
3544   3545   3546   3547
3548   3549   3550   3551
3552   3553   3554   3555
3556   3557   3558   3559
3560   3561   3562   3563
3564   3565   3566   3567
3568   3569   3570   3571
3572   3573   3574   3575
3576   3577   3578   3579
3580   3581   3582   3583
3584   3585   3586   3587
3588   3589   3590   3591
3592   3593   3594   3595
3596   3597   3598   3599
3600   3601   3602   3603
3604   3605   3606   3607
3608   3609   3610   3611
3612   3613   3614   3615
3616   3617   3618   3619
3620   3621   3622   3623
3624   3625   3626   3627
3628   3629   3630   3631
3632   3633   3634   3635
3636   3637   3638   3639
3640   3641   3642   3643
3644   3645   3646   3647
3648   3649   3650   3651
3652   3653   3654   3655
3656   3657   3658   3659
3660   3661   3662   3663
3664   3665   3666   3667
3668   3669   3670   3671
3672   3673   3674   3675
3676   3677   3678   3679
3680   3681   3682   3683
3684   3685   3686   3687
3688   3689   3690   3691
3692   3693   3694   3695
3696   3697   3698   3699
3700   3701   3702   3703
3704   3705   3706   3707
3708   3709   3710   3711
3712   3713   3714   3715
3716   3717   3718   3719
3720   3721   3722   3723
3724   3725   3726   3727
3728   3729   3730   3731
3732   3733   3734   3735
3736   3737   3738   3739
3740   3741   3742   3743
3744   3745   3746   3747
3748   3749   3750   3751
3752   3753   3754   3755
3756   3757   3758   3759
3760   3761   3762   3763
3764   3765   3766   3767
3768   3769   3770   3771
3772   3773   3774   3775
3776   3777   3778   3779
3780   3781   3782   3783
3784   3785   3786   3787
3788   3789   3790   3791
3792   3793   3794   3795
3796   3797   3798   3799
3800   3801   3802   3803
3804   3805   3806   3807
3808   3809   3810   3811
3812   3813   3814   3815
3816   3817   3818   3819
3820   3821   3822   3823
3824   3825   3826   3827
3828   3829   3830   3831
3832   3833   3834   3835
3836   3837   3838   3839
3840   3841   3842   3843
3844   3845   3846   3847
3848   3849   3850   3851
3852   3853   3854   3855
3856   3857   3858   3859
3860   3861   3862   3863
3864   3865   3866   3867
3868   3869   3870   3871
3872   3873   3874   3875
3876   3877   3878   3879
3880   3881   3882   3883
3884   3885   3886   3887
3888   3889   3890   3891
3892   3893   3894   3895
3896   3897   3898   3899
3900   3901   3902   3903
3904   3905   3906   3907
3908   3909   3910   3911
3912   3913   3914   3915
3916   3917   3918   3919
3920   3921   3922   3923
3924   3925   3926   3927
3928   3929   3930   3931
3932   3933   3934   3935
3936   3937   3938   3939
3940   3941   3942   3943
3944   3945   3946   3947
3948   3949   3950   3951
3952   3953   3954   3955
3956   3957   3958   3959
3960   3961   3962   3963
3964   3965   3966   3967
3968   3969   3970   3971
3972   3973   3974   3975
3976   3977   3978   3979
3980   3981   3982   3983
3984   3985   3986   3987
3988   3989   3990   3991
3992   3993   3994   3995
3996   3997   3998   3999
4000   4001   4002   4003
4004   4005   4006   4007
4008   4009   4010   4011
4012   4013   4014   4015
4016   4017   4018   4019
4020   4021   4022   4023
4024   4025   4026   4027
4028   4029   4030   4031
4032   4033   4034   4035
4036   4037   4038   4039
4040   4041   4042   4043
4044   4045   4046   4047
4048   4049   4050   4051
4052   4053   4054   4055
4056   4057   4058   4059
4060   4061   4062   4063
4064   4065   4066   4067
4068   4069   4070   4071
4072   4073   4074   4075
4076   4077   4078   4079
4080   4081   4082   4083
4084   4085   4086   4087
4088   4089   4090   4091
4092   4093   4094   4095
4096   4097   4098   4099
4100   4101   4102   4103
4104   4105   4106   4107
4108   4109   4110   4111
4112   4113   4114   4115
4116   4117   4118   4119
4120   4121   4122   4123
4124   4125   4126   4127
4128   4129   4130   4131
4132   4133   4134   4135
4136   4137   4138   4139
4140   4141   4142   4143
4144   4145   4146   4147
4148   4149   4150   4151
4152   4153   4154   4155
4156   4157   4158   4159
4160   4161   4162   4163
4164   4165   4166   4167
4168   4169   4170   4171
4172   4173   4174   4175
4176   4177   4178   4179
4180   4181   4182   4183
4184   4185   4186   4187
4188   4189   4190   4191
4192   4193   4194   4195
4196   4197   4198   4199
4200   4201   4202   4203
4204   4205   4206   4207
4208   4209   4210   4211
4212   4213   4214   4215
4216   4217   4218   4219
4220   4221   4222   4223
4224   4225   4226   4227
4228   4229   4230   4231
4232   4233   4234   4235
4236   4237   4238   4239
4240   4241   4242   4243
4244   4245   4246   4247
4248   4249   4250   4251
4252   4253   4254   4255
4256   4257   4258   4259
4260   4261   4262   4263
4264   4265   4266   4267
4268   4269   4270   4271
4272   4273   4274   4275
4276   4277   4278   4279
4280   4281   4282   4283
4284   4285   4286   4287
4288   4289   4290   4291
4292   4293   4294   4295
4296   4297   4298   4299
4300   4301   4302   4303
4304   4305   4306   4307
4308   4309   4310   4311
4312   4313   4314   4315
4316   4317   4318   4319
4320   4321   4322   4323
4324   4325   4326   4327
4328   4329   4330   4331
4332   4333   4334   4335
4336   4337   4338   4339
4340   4341   4342   4343
4344   4345   4346   4347
4348   4349   4350   4351
4352   4353   4354   4355
4356   4357   4358   4359
4360   4361   4362   4363
4364   4365   4366   4367
4368   4369   4370   4371
4372   4373   4374   4375
4376   4377   4378   4379
4380   4381   4382   4383
4384   4385   4386   4387
4388   4389   4390   4391
4392   4393   4394   4395
4396   4397   4398   4399
4400   4401   4402   4403
4404   4405   4406   4407
4408   4409   4410   4411
4412   4413   4414   4415
4416   4417   4418   4419
4420   4421   4422   4423
4424   4425   4426   4427
4428   4429   4430   4431
4432   4433   4434   4435
4436   4437   4438   4439
4440   4441   4442   4443
4444   4445   4446   4447
4448   4449   4450   4451
4452   4453   4454   4455
4456   4457   4458   4459
4460   4461   4462   4463
4464   4465   4466   4467
4468   4469   4470   4471
4472   4473   4474   4475
4476   4477   4478   4479
4480   4481   4482   4483
4484   4485   4486   4487
4488   4489   4490   4491
4492   4493   4494   4495
4496   4497   4498   4499
4500   4501   4502   4503
4504   4505   4506   4507
4508   4509   4510   4511
4512   4513   4514   4515
4516   4517   4518   4519
4520   4521   4522   4523
4524   4525   4526   4527
4528   4529   4530   4531
4532   4533   4534   4535
4536   4537   4538   4539
4540   4541   4542   4543
4544   4545   4546   4547
4548   4549   4550   4551
4552   4553   4554   4555
4556   4557   4558   4559
4560   4561   4562   4563
4564   4565   4566   4567
4568   4569   4570   4571
4572   4573   4574   4575
4576   4577   4578   4579
4580   4581   4582   4583
4584   4585   4586   4587
4588   4589   4590   4591
4592   4593   4594   4595
4596   4597   4598   4599
4600   4601   4602   4603
4604   4605   4606   4607
4608   4609   4610   4611
4612   4613   4614   4615
4616   4617   4618   4619
4620   4621   4622   4623
4624   4625   4626   4627
4628   4629   4630   4631
4632   4633   4634   4635
4636   4637   4638   4639
4640   4641   4642   4643
4644   4645   4646   4647
4648   4649   4650   4651
4652   4653   4654   4655
4656   4657   4658   4659
4660   4661   4662   4663
4664   4665   4666   4667
4668   4669   4670   4671
4672   4673   4674   4675
4676   4677   4678   4679
4680   4681   4682   4683
4684   4685   4686   4687
4688   4689   4690   4691
4692   4693   4694   4695
4696   4697   4698   4699
4700   4701   4702   4703
4704   4705   4706   4707
4708   4709   4710   4711
4712   4713   4714   4715
4716   4717   4718   4719
4720   4721   4722   4723
4724   4725   4726   4727
4728   4729   4730   4731
4732   4733   4734   4735
4736   4737   4738   4739
4740   4741   4742   4743
4744   4745   4746   4747
4748   4749   4750   4751
4752   4753   4754   4755
4756   4757   4758   4759
4760   4761   4762   4763
4764   4765   4766   4767
4768   4769   4770   4771
4772   4773   4774   4775
4776   4777   4778   4779
4780   4781   4782   4783
4784   4785   4786   4787
4788   4789   4790   4791
4792   4793   4794   4795
4796   4797   4798   4799
4800   4801   4802   4803
4804   4805   4806   4807
4808   4809   4810   4811
4812   4813   4814   4815
4816   4817   4818   4819
4820   4821   4822   4823
4824   4825   4826   4827
4828   4829   4830   4831
4832   4833   4834   4835
4836   4837   4838   4839
4840   4841   4842   4843
4844   4845   4846   4847
4848   4849   4850   4851
4852   4853   4854   4855
4856   4857   4858   4859
4860   4861   4862   4863
4864   4865   4866   4867
4868   4869   4870   4871
4872   4873   4874   4875
4876   4877   4878   4879
4880   4881   4882   4883
4884   4885   4886   4887
4888   4889   4890   4891
4892   4893   4894   4895
4896   4897   4898   4899
4900   4901   4902   4903
4904   4905   4906   4907
4908   4909   4910   4911
4912   4913   4914   4915
4916   4917   4918   4919
4920   4921   4922   4923
4924   4925   4926   4927
4928   4929   4930   4931
4932   4933   4934   4935
4936   4937   4938   4939
4940   4941   4942   4943
4944   4945   4946   4947
4948   4949   4950   4951
4952   4953   4954   4955
4956   4957   4958   4959
4960   4961   4962   4963
4964   4965   4966   4967
4968   4969   4970   4971
4972   4973   4974   4975
4976   4977   4978   4979
4980   4981   4982   4983
4984   4985   4986   4987
4988   4989   4990   4991
4992   4993   4994   4995
4996   4997   4998   4999
5000   5001   5002   5003
5004   5005   5006   5007
5008   5009   5010   5011
5012   5013   5014   5015
5016   5017   5018   5019
5020   5021   5022   5023
5024   5025   5026   5027
5028   5029   5030   5031
5032   5033   5034   5035
5036   5037   5038   5039
5040   5041   5042   5043
5044   5045   5046   5047
5048   5049   5050   5051
5052   5053   5054   5055
5056   5057   5058   5059
5060   5061   5062   5063
5064   5065   5066   5067
5068   5069   5070   5071
5072   5073   5074   5075
5076   5077   5078   5079
5080   5081   5082   5083
5084   5085   5086   5087
5088   5089   5090   5091
5092   5093   5094   5095
5096   5097   5098   5099
5100   5101   5102   5103
5104   5105   5106   5107
5108   5109   5110   5111
5112   5113   5114   5115
5116   5117   5118   5119
5120   5121   5122   5123
5124   5125   5126   5127
5128   5129   5130   5131
5132   5133   5134   5135
5136   5137   5138   5139
5140   5141   5142   5143
5144   5145   5146   5147
5148   5149   5150   5151
5152   5153   5154   5155
5156   5157   5158   5159
5160   5161   5162   5163
5164   5165   5166   5167
5168   5169   5170   5171
5172   5173   5174   5175
5176   5177   5178   5179
5180   5181   5182   5183
5184   5185   5186   5187
5188   5189   5190   5191
5192   5193   5194   5195
5196   5197   5198   5199
5200   5201   5202   5203
5204   5205   5206   5207
5208   5209   5210   5211
5212   5213   5214   5215
5216   5217   5218   5219
5220   5221   5222   5223
5224   5225   5226   5227
5228   5229   5230   5231
5232   5233   5234   5235
5236   5237   5238   5239
5240   5241   5242   5243
5244   5245   5246   5247
5248   5249   5250   5251
5252   5253   5254   5255
5256   5257   5258   5259
5260   5261   5262   5263
5264   5265   5266   5267
5268   5269   5270   5271
5272   5273   5274   5275
5276   5277   5278   5279
5280   5281   5282   5283
5284   5285   5286   5287
5288   5289   5290   5291
5292   5293   5294   5295
5296   5297   5298   5299
5300   5301   5302   5303
5304   5305   5306   5307
5308   5309   5310   5311
5312   5313   5314   5315
5316   5317   5318   5319
5320   5321   5322   5323
5324   5325   5326   5327
5328   5329   5330   5331
5332   5333   5334   5335
5336   5337   5338   5339
5340   5341   5342   5343
5344   5345   5346   5347
5348   5349   5350   5351
5352   5353   5354   5355
5356   5357   5358   5359
5360   5361   5362   5363
5364   5365   5366   5367
5368   5369   5370   5371
5372   5373   5374   5375
5376   5377   5378   5379
5380   5381   5382   5383
5384   5385   5386   5387
5388   5389   5390   5391
5392   5393   5394   5395
5396   5397   5398   5399
5400   5401   5402   5403
5404   5405   5406   5407
5408   5409   5410   5411
5412   5413   5414   5415
5416   5417   5418   5419
5420   5421   5422   5423
5424   5425   5426   5427
5428   5429   5430   5431
5432   5433   5434   5435
5436   5437   5438   5439
5440   5441   5442   5443
5444   5445   5446   5447
5448   5449   5450   5451
5452   5453   5454   5455
5456   5457   5458   5459
5460   5461   5462   5463
5464   5465   5466   5467
5468   5469   5470   5471
5472   5473   5474   5475
5476   5477   5478   5479
5480   5481   5482   5483
5484   5485   5486   5487
5488   5489   5490   5491
5492   5493   5494   5495
5496   5497   5498   5499
5500   5501   5502   5503
5504   5505   5506   5507
5508   5509   5510   5511
5512   5513   5514   5515
5516   5517   5518   5519
5520   5521   5522   5523
5524   5525   5526   5527
5528   5529   5530   5531
5532   5533   5534   5535
5536   5537   5538   5539
5540   5541   5542   5543
5544   5545   5546   5547
5548   5549   5550   5551
5552   5553   5554   5555
5556   5557   5558   5559
5560   5561   5562   5563
5564   5565   5566   5567
5568   5569   5570   5571
5572   5573   5574   5575
5576   5577   5578   5579
5580   5581   5582   5583
5584   5585   5586   5587
5588   5589   5590   5591
5592   5593   5594   5595
5596   5597   5598   5599
5600   5601   5602   5603
5604   5605   5606   5607
5608   5609   5610   5611
5612   5613   5614   5615
5616   5617   5618   5619
5620   5621   5622   5623
5624   5625   5626   5627
5628   5629   5630   5631
5632   5633   5634   5635
5636   5637   5638   5639
5640   5641   5642   5643
5644   5645   5646   5647
5648   5649   5650   5651
5652   5653   5654   5655
5656   5657   5658   5659
5660   5661   5662   5663
5664   5665   5666   5667
5668   5669   5670   5671
5672   5673   5674   5675
5676   5677   5678   5679
5680   5681   5682   5683
5684   5685   5686   5687
5688   5689   5690   5691
5692   5693   5694   5695
5696   5697   5698   5699
5700   5701   5702   5703
5704   5705   5706   5707
5708   5709   5710   5711
5712   5713   5714   5715
5716   5717   5718   5719
5720   5721   5722   5723
5724   5725   5726   5727
5728   5729   5730   5731
5732   5733   5734   5735
5736   5737   5738   5739
5740   5741   5742   5743
5744   5745   5746   5747
5748   5749   5750   5751
5752   5753   5754   5755
5756   5757   5758   5759
5760   5761   5762   5763
5764   5765   5766   5767
5768   5769   5770   5771
5772   5773   5774   5775
5776   5777   5778   5779
5780   5781   5782   5783
5784   5785   5786   5787
5788   5789   5790   5791
5792   5793   5794   5795
5796   5797   5798   5799
5800   5801   5802   5803
5804   5805   5806   5807
5808   5809   5810   5811
5812   5813   5814   5815
5816   5817   5818   5819
5820   5821   5822   5823
5824   5825   5826   5827
5828   5829   5830   5831
5832   5833   5834   5835
5836   5837   5838   5839
5840   5841   5842   5843
5844   5845   5846   5847
5848   5849   5850   5851
5852   5853   5854   5855
5856   5857   5858   5859
5860   5861   5862   5863
5864   5865   5866   5867
5868   5869   5870   5871
5872   5873   5874   5875
5876   5877   5878   5879
5880   5881   5882   5883
5884   5885   5886   5887
5888   5889   5890   5891
5892   5893   5894   5895
5896   5897   5898   5899
5900   5901   5902   5903
5904   5905   5906   5907
5908   5909   5910   5911
5912   5913   5914   5915
5916   5917   5918   5919
5920   5921   5922   5923
5924   5925   5926   5927
5928   5929   5930   5931
5932   5933   5934   5935
5936   5937   5938   5939
5940   5941   5942   5943
5944   5945   5946   5947
5948   5949   5950   5951
5952   5953   5954   5955
5956   5957   5958   5959
5960   5961   5962   5963
5964   5965   5966   5967
5968   5969   5970   5971
5972   5973   5974   5975
5976   5977   5978   5979
5980   5981   5982   5983
5984   5985   5986   5987
5988   5989   5990   5991
5992   5993   5994   5995
5996   5997   5998   5999
              </DataArray>   
              <DataArray type="Int32" Name="offsets" format="ascii">   
4
8
12
16
20
24
28
32
36
40
44
48
52
56
60
64
68
72
76
80
84
88
92
96
100
104
108
112
116
120
124
128
132
136
140
144
148
152
156
160
164
168
172
176
180
184
188
192
196
200
204
208
212
216
220
224
228
232
236
240
244
248
252
256
260
264
268
272
276
280
284
288
292
296
300
304
308
312
316
320
324
328
332
336
340
344
348
352
356
360
364
368
372
376
380
384
388
392
396
400
404
408
412
416
420
424
428
432
436
440
444
448
452
456
460
464
468
472
476
480
484
488
492
496
500
504
508
512
516
520
524
528
532
536
540
544
548
552
556
560
564
568
572
576
580
584
588
592
596
600
604
608
612
616
620
624
628
632
636
640
644
648
652
656
660
664
668
672
676
680
684
688
692
696
700
704
708
712
716
720
724
728
732
736
740
744
748
752
756
760
764
768
772
776
780
784
788
792
796
800
804
808
812
816
820
824
828
832
836
840
844
848
852
856
860
864
868
872
876
880
884
888
892
896
900
904
908
912
916
920
924
928
932
936
940
944
948
952
956
960
964
968
972
976
980
984
988
992
996
1000
1004
1008
1012
1016
1020
1024
1028
1032
1036
1040
1044
1048
1052
1056
1060
1064
1068
1072
1076
1080
1084
1088
1092
1096
1100
1104
1108
1112
1116
1120
1124
1128
1132
1136
1140
1144
1148
1152
1156
1160
1164
1168
1172
1176
1180
1184
1188
1192
1196
1200
1204
1208
1212
1216
1220
1224
1228
1232
1236
1240
1244
1248
1252
1256
1260
1264
1268
1272
1276
1280
1284
1288
1292
1296
1300
1304
1308
1312
1316
1320
1324
1328
1332
1336
1340
1344
1348
1352
1356
1360
1364
1368
1372
1376
1380
1384
1388
1392
1396
1400
1404
1408
1412
1416
1420
1424
1428
1432
1436
1440
1444
1448
1452
1456
1460
1464
1468
1472
1476
1480
1484
1488
1492
1496
1500
1504
1508
1512
1516
1520
1524
1528
1532
1536
1540
1544
1548
1552
1556
1560
1564
1568
1572
1576
1580
1584
1588
1592
1596
1600
1604
1608
1612
1616
1620
1624
1628
1632
1636
1640
1644
1648
1652
1656
1660
1664
1668
1672
1676
1680
1684
1688
1692
1696
1700
1704
1708
1712
1716
1720
1724
1728
1732
1736
1740
1744
1748
1752
1756
1760
1764
1768
1772
1776
1780
1784
1788
1792
1796
1800
1804
1808
1812
1816
1820
1824
1828
1832
1836
1840
1844
1848
1852
1856
1860
1864
1868
1872
1876
1880
1884
1888
1892
1896
1900
1904
1908
1912
1916
1920
1924
1928
1932
1936
1940
1944
1948
1952
1956
1960
1964
1968
1972
1976
1980
1984
1988
1992
1996
2000
2004
2008
2012
2016
2020
2024
2028
2032
2036
2040
2044
2048
2052
2056
2060
2064
2068
2072
2076
2080
2084
2088
2092
2096
2100
2104
2108
2112
2116
2120
2124
2128
2132
2136
2140
2144
2148
2152
2156
2160
2164
2168
2172
2176
2180
2184
2188
2192
2196
2200
2204
2208
2212
2216
2220
2224
2228
2232
2236
2240
2244
2248
2252
2256
2260
2264
2268
2272
2276
2280
2284
2288
2292
2296
2300
2304
2308
2312
2316
2320
2324
2328
2332
2336
2340
2344
2348
2352
2356
2360
2364
2368
2372
2376
2380
2384
2388
2392
2396
2400
2404
2408
2412
2416
2420
2424
2428
2432
2436
2440
2444
2448
2452
2456
2460
2464
2468
2472
2476
2480
2484
2488
2492
2496
2500
2504
2508
2512
2516
2520
2524
2528
2532
2536
2540
2544
2548
2552
2556
2560
2564
2568
2572
2576
2580
2584
2588
2592
2596
2600
2604
2608
2612
2616
2620
2624
2628
2632
2636
2640
2644
2648
2652
2656
2660
2664
2668
2672
2676
2680
2684
2688
2692
2696
2700
2704
2708
2712
2716
2720
2724
2728
2732
2736
2740
2744
2748
2752
2756
2760
2764
2768
2772
2776
2780
2784
2788
2792
2796
2800
2804
2808
2812
2816
2820
2824
2828
2832
2836
2840
2844
2848
2852
2856
2860
2864
2868
2872
2876
2880
2884
2888
2892
2896
2900
2904
2908
2912
2916
2920
2924
2928
2932
2936
2940
2944
2948
2952
2956
2960
2964
2968
2972
2976
2980
2984
2988
2992
2996
3000
3004
3008
3012
3016
3020
3024
3028
3032
3036
3040
3044
3048
3052
3056
3060
3064
3068
3072
3076
3080
3084
3088
3092
3096
3100
3104
3108
3112
3116
3120
3124
3128
3132
3136
3140
3144
3148
3152
3156
3160
3164
3168
3172
3176
3180
3184
3188
3192
3196
3200
3204
3208
3212
3216
3220
3224
3228
3232
3236
3240
3244
3248
3252
3256
3260
3264
3268
3272
3276
3280
3284
3288
3292
3296
3300
3304
3308
3312
3316
3320
3324
3328
3332
3336
3340
3344
3348
3352
3356
3360
3364
3368
3372
3376
3380
3384
3388
3392
3396
3400
3404
3408
3412
3416
3420
3424
3428
3432
3436
3440
3444
3448
3452
3456
3460
3464
3468
3472
3476
3480
3484
3488
3492
3496
3500
3504
3508
3512
3516
3520
3524
3528
3532
3536
3540
3544
3548
3552
3556
3560
3564
3568
3572
3576
3580
3584
3588
3592
3596
3600
3604
3608
3612
3616
3620
3624
3628
3632
3636
3640
3644
3648
3652
3656
3660
3664
3668
3672
3676
3680
3684
3688
3692
3696
3700
3704
3708
3712
3716
3720
3724
3728
3732
3736
3740
3744
3748
3752
3756
3760
3764
3768
3772
3776
3780
3784
3788
3792
3796
3800
3804
3808
3812
3816
3820
3824
3828
3832
3836
3840
3844
3848
3852
3856
3860
3864
3868
3872
3876
3880
3884
3888
3892
3896
3900
3904
3908
3912
3916
3920
3924
3928
3932
3936
3940
3944
3948
3952
3956
3960
3964
3968
3972
3976
3980
3984
3988
3992
3996
4000
4004
4008
4012
4016
4020
4024
4028
4032
4036
4040
4044
4048
4052
4056
4060
4064
4068
4072
4076
4080
4084
4088
4092
4096
4100
4104
4108
4112
4116
4120
4124
4128
4132
4136
4140
4144
4148
4152
4156
4160
4164
4168
4172
4176
4180
4184
4188
4192
4196
4200
4204
4208
4212
4216
4220
4224
4228
4232
4236
4240
4244
4248
4252
4256
4260
4264
4268
4272
4276
4280
4284
4288
4292
4296
4300
4304
4308
4312
4316
4320
4324
4328
4332
4336
4340
4344
4348
4352
4356
4360
4364
4368
4372
4376
4380
4384
4388
4392
4396
4400
4404
4408
4412
4416
4420
4424
4428
4432
4436
4440
4444
4448
4452
4456
4460
4464
4468
4472
4476
4480
4484
4488
4492
4496
4500
4504
4508
4512
4516
4520
4524
4528
4532
4536
4540
4544
4548
4552
4556
4560
4564
4568
4572
4576
4580
4584
4588
4592
4596
4600
4604
4608
4612
4616
4620
4624
4628
4632
4636
4640
4644
4648
4652
4656
4660
4664
4668
4672
4676
4680
4684
4688
4692
4696
4700
4704
4708
4712
4716
4720
4724
4728
4732
4736
4740
4744
4748
4752
4756
4760
4764
4768
4772
4776
4780
4784
4788
4792
4796
4800
4804
4808
4812
4816
4820
4824
4828
4832
4836
4840
4844
4848
4852
4856
4860
4864
4868
4872
4876
4880
4884
4888
4892
4896
4900
4904
4908
4912
4916
4920
4924
4928
4932
4936
4940
4944
4948
4952
4956
4960
4964
4968
4972
4976
4980
4984
4988
4992
4996
5000
5004
5008
5012
5016
5020
5024
5028
5032
5036
5040
5044
5048
5052
5056
5060
5064
5068
5072
5076
5080
5084
5088
5092
5096
5100
5104
5108
5112
5116
5120
5124
5128
5132
5136
5140
5144
5148
5152
5156
5160
5164
5168
5172
5176
5180
5184
5188
5192
5196
5200
5204
5208
5212
5216
5220
5224
5228
5232
5236
5240
5244
5248
5252
5256
5260
5264
5268
5272
5276
5280
5284
5288
5292
5296
5300
5304
5308
5312
5316
5320
5324
5328
5332
5336
5340
5344
5348
5352
5356
5360
5364
5368
5372
5376
5380
5384
5388
5392
5396
5400
5404
5408
5412
5416
5420
5424
5428
5432
5436
5440
5444
5448
5452
5456
5460
5464
5468
5472
5476
5480
5484
5488
5492
5496
5500
5504
5508
5512
5516
5520
5524
5528
5532
5536
5540
5544
5548
5552
5556
5560
5564
5568
5572
5576
5580
5584
5588
5592
5596
5600
5604
5608
5612
5616
5620
5624
5628
5632
5636
5640
5644
5648
5652
5656
5660
5664
5668
5672
5676
5680
5684
5688
5692
5696
5700
5704
5708
5712
5716
5720
5724
5728
5732
5736
5740
5744
5748
5752
5756
5760
5764
5768
5772
5776
5780
5784
5788
5792
5796
5800
5804
5808
5812
5816
5820
5824
5828
5832
5836
5840
5844
5848
5852
5856
5860
5864
5868
5872
5876
5880
5884
5888
5892
5896
5900
5904
5908
5912
5916
5920
5924
5928
5932
5936
5940
5944
5948
5952
5956
5960
5964
5968
5972
5976
5980
5984
5988
5992
5996
6000
              </DataArray>   
              <DataArray type="UInt8" Name="types" format="ascii">   
10
10
10
10
10
10
10
10
10
10
10
10
10
10
10
10
10
10
10
10
10
10
10
10
10
10
10
10
10
10
10
10
10
10
10
10
10
10
10
10
10
10
10
10
10
10
10
10
10
10
10
10
10
10
10
10
10
10
10
10
10
10
10
10
10
10
10
10
10
10
10
10
10
10
10
10
10
10
10
10
10
10
10
10
10
10
10
10
10
10
10
10
10
10
10
10
10
10
10
10
10
10
10
10
10
10
10
10
10
10
10
10
10
10
10
10
10
10
10
10
10
10
10
10
10
10
10
10
10
10
10
10
10
10
10
10
10
10
10
10
10
10
10
10
10
10
10
10
10
10
10
10
10
10
10
10
10
10
10
10
10
10
10
10
10
10
10
10
10
10
10
10
10
10
10
10
10
10
10
10
10
10
10
10
10
10
10
10
10
10
10
10
10
10
10
10
10
10
10
10
10
10
10
10
10
10
10
10
10
10
10
10
10
10
10
10
10
10
10
10
10
10
10
10
10
10
10
10
10
10
10
10
10
10
10
10
10
10
10
10
10
10
10
10
10
10
10
10
10
10
10
10
10
10
10
10
10
10
10
10
10
10
10
10
10
10
10
10
10
10
10
10
10
10
10
10
10
10
10
10
10
10
10
10
10
10
10
10
10
10
10
10
10
10
10
10
10
10
10
10
10
10
10
10
10
10
10
10
10
10
10
10
10
10
10
10
10
10
10
10
10
10
10
10
10
10
10
10
10
10
10
10
10
10
10
10
10
10
10
10
10
10
10
10
10
10
10
10
10
10
10
10
10
10
10
10
10
10
10
10
10
10
10
10
10
10
10
10
10
10
10
10
10
10
10
10
10
10
10
10
10
10
10
10
10
10
10
10
10
10
10
10
10
10
10
10
10
10
10
10
10
10
10
10
10
10
10
10
10
10
10
10
10
10
10
10
10
10
10
10
10
10
10
10
10
10
10
10
10
10
10
10
10
10
10
10
10
10
10
10
10
10
10
10
10
10
10
10
10
10
10
10
10
10
10
10
10
10
10
10
10
10
10
10
10
10
10
10
10
10
10
10
10
10
10
10
10
10
10
10
10
10
10
10
10
10
10
10
10
10
10
10
10
10
10
10
10
10
10
10
10
10
10
10
10
10
10
10
10
10
10
10
10
10
10
10
10
10
10
10
10
10
10
10
10
10
10
10
10
10
10
10
10
10
10
10
10
10
10
10
10
10
10
10
10
10
10
10
10
10
10
10
10
10
10
10
10
10
10
10
10
10
10
10
10
10
10
10
10
10
10
10
10
10
10
10
10
10
10
10
10
10
10
10
10
10
10
10
10
10
10
10
10
10
10
10
10
10
10
10
10
10
10
10
10
10
10
10
10
10
10
10
10
10
10
10
10
10
10
10
10
10
10
10
10
10
10
10
10
10
10
10
10
10
10
10
10
10
10
10
10
10
10
10
10
10
10
10
10
10
10
10
10
10
10
10
10
10
10
10
10
10
10
10
10
10
10
10
10
10
10
10
10
10
10
10
10
10
10
10
10
10
10
10
10
10
10
10
10
10
10
10
10
10
10
10
10
10
10
10
10
10
10
10
10
10
10
10
10
10
10
10
10
10
10
10
10
10
10
10
10
10
10
10
10
10
10
10
10
10
10
10
10
10
10
10
10
10
10
10
10
10
10
10
10
10
10
10
10
10
10
10
10
10
10
10
10
10
10
10
10
10
10
10
10
10
10
10
10
10
10
10
10
10
10
10
10
10
10
10
10
10
10
10
10
10
10
10
10
10
10
10
10
10
10
10
10
10
10
10
10
10
10
10
10
10
10
10
10
10
10
10
10
10
10
10
10
10
10
10
10
10
10
10
10
10
10
10
10
10
10
10
10
10
10
10
10
10
10
10
10
10
10
10
10
10
10
10
10
10
10
10
10
10
10
10
10
10
10
10
10
10
10
10
10
10
10
10
10
10
10
10
10
10
10
10
10
10
10
10
10
10
10
10
10
10
10
10
10
10
10
10
10
10
10
10
10
10
10
10
10
10
10
10
10
10
10
10
10
10
10
10
10
10
10
10
10
10
10
10
10
10
10
10
10
10
10
10
10
10
10
10
10
10
10
10
10
10
10
10
10
10
10
10
10
10
10
10
10
10
10
10
10
10
10
10
10
10
10
10
10
10
10
10
10
10
10
10
10
10
10
10
10
10
10
10
10
10
10
10
10
10
10
10
10
10
10
10
10
10
10
10
10
10
10
10
10
10
10
10
10
10
10
10
10
10
10
10
10
10
10
10
10
10
10
10
10
10
10
10
10
10
10
10
10
10
10
10
10
10
10
10
10
10
10
10
10
10
10
10
10
10
10
10
10
10
10
10
10
10
10
10
10
10
10
10
10
10
10
10
10
10
10
10
10
10
10
10
10
10
10
10
10
10
10
10
10
10
10
10
10
10
10
10
10
10
10
10
10
10
10
10
10
10
10
10
10
10
10
10
10
10
10
10
10
10
10
10
10
10
10
10
10
10
10
10
10
10
10
10
10
10
10
10
10
10
10
10
10
10
10
10
10
10
10
10
10
10
10
10
10
10
10
10
10
10
10
10
10
10
10
10
10
10
10
10
10
10
10
10
10
10
10
10
10
10
10
10
10
10
10
10
10
10
10
10
10
10
10
10
10
10
10
10
10
10
10
10
10
10
10
10
10
10
10
10
10
10
10
10
10
10
10
10
10
10
10
10
10
10
10
10
10
10
10
10
10
10
10
10
10
10
10
10
10
10
10
10
10
10
10
10
10
10
10
10
10
10
10
10
10
10
10
10
10
10
10
10
10
10
10
10
10
10
10
10
10
10
10
10
10
10
10
10
10
10
10
10
10
10
10
10
10
10
10
10
10
10
10
10
10
10
10
10
10
10
10
10
10
10
10
10
10
10
10
10
10
10
10
10
10
10
10
10
10
10
10
10
10
10
10
10
10
10
10
10
10
10
10
10
10
10
10
10
10
10
10
10
10
10
10
10
10
10
10
10
10
10
10
10
10
10
10
10
10
10
10
10
10
10
10
10
10
10
10
10
10
10
10
10
10
10
10
10
10
10
10
10
10
10
10
10
10
10
10
10
10
10
10
10
10
10
10
10
10
10
10
10
10
10
10
10
10
10
10
10
10
10
10
10
10
10
10
10
10
10
10
10
10
10
10
10
10
10
10
10
10
10
10
10
10
10
10
10
10
10
10
10
10
10
10
10
10
10
10
10
10
10
10
10
10
10
10
10
10
10
10
10
10
10
10
10
10
10
10
10
10
10
10
10
10
10
10
10
10
10
10
10
10
10
10
10
10
10
10
10
10
10
10
10
10
10
10
10
10
10
10
10
10
10
10
10
10
10
10
10
10
10
10
10
              </DataArray>   
          </Cells>  
          <PointData>  
             <DataArray type="Float64" NumberOfComponents="3" Name="Strains" format="ascii">   
-6.308032811912798e-05   0.0   -4.1486880286653035e-05
-6.308032811912798e-05   0.0   -4.1486880286653035e-05
-6.308032811912798e-05   0.0   -4.1486880286653035e-05
-6.308032811912798e-05   0.0   -4.1486880286653035e-05
-4.01306142296494e-05   6.976526895806508e-06   9.485589999617489e-07
-4.01306142296494e-05   6.976526895806508e-06   9.485589999617489e-07
-4.01306142296494e-05   6.976526895806508e-06   9.485589999617489e-07
-4.01306142296494e-05   6.976526895806508e-06   9.485589999617489e-07
-3.933111155235689e-05   0.0   -3.9166908326481593e-05
-3.933111155235689e-05   0.0   -3.9166908326481593e-05
-3.933111155235689e-05   0.0   -3.9166908326481593e-05
-3.933111155235689e-05   0.0   -3.9166908326481593e-05
-6.600931584815005e-05   8.37770489969179e-06   2.7014256002546645e-07
-6.600931584815005e-05   8.37770489969179e-06   2.7014256002546645e-07
-6.600931584815005e-05   8.37770489969179e-06   2.7014256002546645e-07
-6.600931584815005e-05   8.37770489969179e-06   2.7014256002546645e-07
-5.1205719835742346e-05   1.9333099668095337e-06   -2.0535880500924687e-05
-5.1205719835742346e-05   1.9333099668095337e-06   -2.0535880500924687e-05
-5.1205719835742346e-05   1.9333099668095337e-06   -2.0535880500924687e-05
-5.1205719835742346e-05   1.9333099668095337e-06   -2.0535880500924687e-05
-6.600931584815018e-05   0.0   -4.419353126629668e-05
-6.600931584815018e-05   0.0   -4.419353126629668e-05
-6.600931584815018e-05   0.0   -4.419353126629668e-05
-6.600931584815018e-05   0.0   -4.419353126629668e-05
-3.933111155235689e-05   8.377704899691804e-06   5.29676549984053e-06
-3.933111155235689e-05   8.377704899691804e-06   5.29676549984053e-06
-3.933111155235689e-05   8.377704899691804e-06   5.29676549984053e-06
-3.933111155235689e-05   8.377704899691804e-06   5.29676549984053e-06
-3.943570756197195e-05   0.0   -4.01238742615021e-05
-3.943570756197195e-05   0.0   -4.01238742615021e-05
-3.943570756197195e-05   0.0   -4.01238742615021e-05
-3.943570756197195e-05   0.0   -4.01238742615021e-05
-6.806341169408849e-05   8.976950608332899e-06   2.202795593692574e-06
-6.806341169408849e-05   8.976950608332899e-06   2.202795593692574e-06
-6.806341169408849e-05   8.976950608332899e-06   2.202795593692574e-06
-6.806341169408849e-05   8.976950608332899e-06   2.202795593692574e-06
-5.272251170506097e-05   3.3913808373288107e-06   -2.001402919208415e-05
-5.272251170506097e-05   3.3913808373288107e-06   -2.001402919208415e-05
-5.272251170506097e-05   3.3913808373288107e-06   -2.001402919208415e-05
-5.272251170506097e-05   3.3913808373288107e-06   -2.001402919208415e-05
-6.806341169408861e-05   0.0   -4.551004462650185e-05
-6.806341169408861e-05   0.0   -4.551004462650185e-05
-6.806341169408861e-05   0.0   -4.551004462650185e-05
-6.806341169408861e-05   0.0   -4.551004462650185e-05
-3.943570756197188e-05   8.976950608332899e-06   7.588965958692316e-06
-3.943570756197188e-05   8.976950608332899e-06   7.588965958692316e-06
-3.943570756197188e-05   8.976950608332899e-06   7.588965958692316e-06
-3.943570756197188e-05   8.976950608332899e-06   7.588965958692316e-06
-3.940784959683282e-05   0.0   -4.0370773676897526e-05
-3.940784959683282e-05   0.0   -4.0370773676897526e-05
-3.940784959683282e-05   0.0   -4.0370773676897526e-05
-3.940784959683282e-05   0.0   -4.0370773676897526e-05
-7.249477659330416e-05   1.0231278383703707e-05   8.635337620332666e-06
-7.249477659330416e-05   1.0231278383703707e-05   8.635337620332666e-06
-7.249477659330416e-05   1.0231278383703707e-05   8.635337620332666e-06
-7.249477659330416e-05   1.0231278383703707e-05   8.635337620332666e-06
-5.373563064546062e-05   4.282725791336933e-06   -1.9060774070653147e-05
-5.373563064546062e-05   4.282725791336933e-06   -1.9060774070653147e-05
-5.373563064546062e-05   4.282725791336933e-06   -1.9060774070653147e-05
-5.373563064546062e-05   4.282725791336933e-06   -1.9060774070653147e-05
-4.0130614229649467e-05   0.0   -3.730096414916913e-05
-4.0130614229649467e-05   0.0   -3.730096414916913e-05
-4.0130614229649467e-05   0.0   -3.730096414916913e-05
-4.0130614229649467e-05   0.0   -3.730096414916913e-05
-1.8283012766769095e-05   2.556484581316006e-06   6.455957044210718e-07
-1.8283012766769095e-05   2.556484581316006e-06   6.455957044210718e-07
-1.8283012766769095e-05   2.556484581316006e-06   6.455957044210718e-07
-1.8283012766769095e-05   2.556484581316006e-06   6.455957044210718e-07
-1.7578178744415648e-05   0.0   -3.698083739319718e-05
-1.7578178744415648e-05   0.0   -3.698083739319718e-05
-1.7578178744415648e-05   0.0   -3.698083739319718e-05
-1.7578178744415648e-05   0.0   -3.698083739319718e-05
-3.933111155235689e-05   3.643451555473913e-06   -2.912020313246245e-06
-3.933111155235689e-05   3.643451555473913e-06   -2.912020313246245e-06
-3.933111155235689e-05   3.643451555473913e-06   -2.912020313246245e-06
-3.933111155235689e-05   3.643451555473913e-06   -2.912020313246245e-06
-2.8854396487032522e-05   2.66772296643236e-07   -1.8347204533488317e-05
-2.8854396487032522e-05   2.66772296643236e-07   -1.8347204533488317e-05
-2.8854396487032522e-05   2.66772296643236e-07   -1.8347204533488317e-05
-2.8854396487032522e-05   2.66772296643236e-07   -1.8347204533488317e-05
-3.9331111552356856e-05   0.0   -3.916690832648156e-05
-3.9331111552356856e-05   0.0   -3.916690832648156e-05
-3.9331111552356856e-05   0.0   -3.916690832648156e-05
-3.9331111552356856e-05   0.0   -3.916690832648156e-05
-1.7578178744415648e-05   3.643451555473913e-06   -7.259493799619073e-07
-1.7578178744415648e-05   3.643451555473913e-06   -7.259493799619073e-07
-1.7578178744415648e-05   3.643451555473913e-06   -7.259493799619073e-07
-1.7578178744415648e-05   3.643451555473913e-06   -7.259493799619073e-07
-1.7179736883791205e-05   0.0   -3.74437387167467e-05
-1.7179736883791205e-05   0.0   -3.74437387167467e-05
-1.7179736883791205e-05   0.0   -3.74437387167467e-05
-1.7179736883791205e-05   0.0   -3.74437387167467e-05
-3.943570756197195e-05   4.466892574592234e-06   -3.030589797867585e-06
-3.943570756197195e-05   4.466892574592234e-06   -3.030589797867585e-06
-3.943570756197195e-05   4.466892574592234e-06   -3.030589797867585e-06
-3.943570756197195e-05   4.466892574592234e-06   -3.030589797867585e-06
-2.8255424218074053e-05   1.435974674779026e-06   -1.9845844631142778e-05
-2.8255424218074053e-05   1.435974674779026e-06   -1.9845844631142778e-05
-2.8255424218074053e-05   1.435974674779026e-06   -1.9845844631142778e-05
-2.8255424218074053e-05   1.435974674779026e-06   -1.9845844631142778e-05
-3.943570756197195e-05   0.0   -4.01238742615021e-05
-3.943570756197195e-05   0.0   -4.01238742615021e-05
-3.943570756197195e-05   0.0   -4.01238742615021e-05
-3.943570756197195e-05   0.0   -4.01238742615021e-05
-1.7179736883791236e-05   4.466892574592234e-06   -3.5045425311224906e-07
-1.7179736883791236e-05   4.466892574592234e-06   -3.5045425311224906e-07
-1.7179736883791236e-05   4.466892574592234e-06   -3.5045425311224906e-07
-1.7179736883791236e-05   4.466892574592234e-06   -3.5045425311224906e-07
-1.6815879558096204e-05   0.0   -3.725122304629236e-05
-1.6815879558096204e-05   0.0   -3.725122304629236e-05
-1.6815879558096204e-05   0.0   -3.725122304629236e-05
-1.6815879558096204e-05   0.0   -3.725122304629236e-05
-3.9407849596832716e-05   5.199251051008543e-06   -2.717490279003154e-06
-3.9407849596832716e-05   5.199251051008543e-06   -2.717490279003154e-06
-3.9407849596832716e-05   5.199251051008543e-06   -2.717490279003154e-06
-3.9407849596832716e-05   5.199251051008543e-06   -2.717490279003154e-06
-2.8125793560034066e-05   2.3938760126747624e-06   -1.9837691984000774e-05
-2.8125793560034066e-05   2.3938760126747624e-06   -1.9837691984000774e-05
-2.8125793560034066e-05   2.3938760126747624e-06   -1.9837691984000774e-05
-2.8125793560034066e-05   2.3938760126747624e-06   -1.9837691984000774e-05
-1.828301276676913e-05   0.0   -3.576707340037952e-05
-1.828301276676913e-05   0.0   -3.576707340037952e-05
-1.828301276676913e-05   0.0   -3.576707340037952e-05
-1.828301276676913e-05   0.0   -3.576707340037952e-05
2.353461134118535e-06   -3.292025185593596e-07   -1.570471743368999e-06
2.353461134118535e-06   -3.292025185593596e-07   -1.570471743368999e-06
2.353461134118535e-06   -3.292025185593596e-07   -1.570471743368999e-06
2.353461134118535e-06   -3.292025185593596e-07   -1.570471743368999e-06
2.8062873733698412e-06   0.0   -3.659283592382812e-05
2.8062873733698412e-06   0.0   -3.659283592382812e-05
2.8062873733698412e-06   0.0   -3.659283592382812e-05
2.8062873733698412e-06   0.0   -3.659283592382812e-05
-1.7578178744415648e-05   6.466691156149865e-07   -3.0067271968880246e-06
-1.7578178744415648e-05   6.466691156149865e-07   -3.0067271968880246e-06
-1.7578178744415648e-05   6.466691156149865e-07   -3.0067271968880246e-06
-1.7578178744415648e-05   6.466691156149865e-07   -3.0067271968880246e-06
-7.738362696699625e-06   -6.881354362072703e-07   -1.860553787865469e-05
-7.738362696699625e-06   -6.881354362072703e-07   -1.860553787865469e-05
-7.738362696699625e-06   -6.881354362072703e-07   -1.860553787865469e-05
-7.738362696699625e-06   -6.881354362072703e-07   -1.860553787865469e-05
-1.757817874441568e-05   0.0   -3.6980837393197246e-05
-1.757817874441568e-05   0.0   -3.6980837393197246e-05
-1.757817874441568e-05   0.0   -3.6980837393197246e-05
-1.757817874441568e-05   0.0   -3.6980837393197246e-05
2.8062873733698463e-06   6.466691156149865e-07   -2.6187257275190295e-06
2.8062873733698463e-06   6.466691156149865e-07   -2.6187257275190295e-06
2.8062873733698463e-06   6.466691156149865e-07   -2.6187257275190295e-06
2.8062873733698463e-06   6.466691156149865e-07   -2.6187257275190295e-06
3.164522506274024e-06   0.0   -3.6539998659226505e-05
3.164522506274024e-06   0.0   -3.6539998659226505e-05
3.164522506274024e-06   0.0   -3.6539998659226505e-05
3.164522506274024e-06   0.0   -3.6539998659226505e-05
-1.7179736883791175e-05   1.506233429200315e-06   -3.536639733304655e-06
-1.7179736883791175e-05   1.506233429200315e-06   -3.536639733304655e-06
-1.7179736883791175e-05   1.506233429200315e-06   -3.536639733304655e-06
-1.7179736883791175e-05   1.506233429200315e-06   -3.536639733304655e-06
-7.206828119070812e-06   3.673656116422271e-07   -1.9474833650637105e-05
-7.206828119070812e-06   3.673656116422271e-07   -1.9474833650637105e-05
-7.206828119070812e-06   3.673656116422271e-07   -1.9474833650637105e-05
-7.206828119070812e-06   3.673656116422271e-07   -1.9474833650637105e-05
-1.7179736883791236e-05   0.0   -3.7443738716746763e-05
-1.7179736883791236e-05   0.0   -3.7443738716746763e-05
-1.7179736883791236e-05   0.0   -3.7443738716746763e-05
-1.7179736883791236e-05   0.0   -3.7443738716746763e-05
3.1645225062740296e-06   1.506233429200315e-06   -2.632899675784468e-06
3.1645225062740296e-06   1.506233429200315e-06   -2.632899675784468e-06
3.1645225062740296e-06   1.506233429200315e-06   -2.632899675784468e-06
3.1645225062740296e-06   1.506233429200315e-06   -2.632899675784468e-06
3.6444300714173303e-06   0.0   -3.575035188804288e-05
3.6444300714173303e-06   0.0   -3.575035188804288e-05
3.6444300714173303e-06   0.0   -3.575035188804288e-05
3.6444300714173303e-06   0.0   -3.575035188804288e-05
-1.6815879558096187e-05   2.501451930415747e-06   -3.1507069971031297e-06
-1.6815879558096187e-05   2.501451930415747e-06   -3.1507069971031297e-06
-1.6815879558096187e-05   2.501451930415747e-06   -3.1507069971031297e-06
-1.6815879558096187e-05   2.501451930415747e-06   -3.1507069971031297e-06
-6.767653406186938e-06   1.4111556905865188e-06   -1.9243572839721e-05
-6.767653406186938e-06   1.4111556905865188e-06   -1.9243572839721e-05
-6.767653406186938e-06   1.4111556905865188e-06   -1.9243572839721e-05
-6.767653406186938e-06   1.4111556905865188e-06   -1.9243572839721e-05
2.353461134118539e-06   0.0   -3.5964594911515134e-05
2.353461134118539e-06   0.0   -3.5964594911515134e-05
2.353461134118539e-06   0.0   -3.5964594911515134e-05
2.353461134118539e-06   0.0   -3.5964594911515134e-05
2.4759422192732832e-05   -2.904060653176605e-06   -3.6376287239711934e-07
2.4759422192732832e-05   -2.904060653176605e-06   -3.6376287239711934e-07
2.4759422192732832e-05   -2.904060653176605e-06   -3.6376287239711934e-07
2.4759422192732832e-05   -2.904060653176605e-06   -3.6376287239711934e-07
2.4811015237054504e-05   0.0   -3.7905332735747304e-05
2.4811015237054504e-05   0.0   -3.7905332735747304e-05
2.4811015237054504e-05   0.0   -3.7905332735747304e-05
2.4811015237054504e-05   0.0   -3.7905332735747304e-05
2.8062873733698463e-06   -2.187494686531753e-06   8.171051564617319e-08
2.8062873733698463e-06   -2.187494686531753e-06   8.171051564617319e-08
2.8062873733698463e-06   -2.187494686531753e-06   8.171051564617319e-08
2.8062873733698463e-06   -2.187494686531753e-06   8.171051564617319e-08
1.3582238185586522e-05   -1.6172815201934772e-06   -1.8220335404517902e-05
1.3582238185586522e-05   -1.6172815201934772e-06   -1.8220335404517902e-05
1.3582238185586522e-05   -1.6172815201934772e-06   -1.8220335404517902e-05
1.3582238185586522e-05   -1.6172815201934772e-06   -1.8220335404517902e-05
2.806287373369851e-06   0.0   -3.659283592382825e-05
2.806287373369851e-06   0.0   -3.659283592382825e-05
2.806287373369851e-06   0.0   -3.659283592382825e-05
2.806287373369851e-06   0.0   -3.659283592382825e-05
2.481101523705446e-05   -2.187494686531753e-06   -1.230786296272884e-06
2.481101523705446e-05   -2.187494686531753e-06   -1.230786296272884e-06
2.481101523705446e-05   -2.187494686531753e-06   -1.230786296272884e-06
2.481101523705446e-05   -2.187494686531753e-06   -1.230786296272884e-06
2.471127403164121e-05   0.0   -3.7364113104421794e-05
2.471127403164121e-05   0.0   -3.7364113104421794e-05
2.471127403164121e-05   0.0   -3.7364113104421794e-05
2.471127403164121e-05   0.0   -3.7364113104421794e-05
3.1645225062740296e-06   -1.373524075325368e-06   -6.28746116947943e-07
3.1645225062740296e-06   -1.373524075325368e-06   -6.28746116947943e-07
3.1645225062740296e-06   -1.373524075325368e-06   -6.28746116947943e-07
3.1645225062740296e-06   -1.373524075325368e-06   -6.28746116947943e-07
1.3758780702505531e-05   -6.42730983827957e-07   -1.8724318965565544e-05
1.3758780702505531e-05   -6.42730983827957e-07   -1.8724318965565544e-05
1.3758780702505531e-05   -6.42730983827957e-07   -1.8724318965565544e-05
1.3758780702505531e-05   -6.42730983827957e-07   -1.8724318965565544e-05
3.1645225062740296e-06   0.0   -3.653999865922657e-05
3.1645225062740296e-06   0.0   -3.653999865922657e-05
3.1645225062740296e-06   0.0   -3.653999865922657e-05
3.1645225062740296e-06   0.0   -3.653999865922657e-05
2.4711274031641167e-05   -1.3735240753253748e-06   -1.4528605621431646e-06
2.4711274031641167e-05   -1.3735240753253748e-06   -1.4528605621431646e-06
2.4711274031641167e-05   -1.3735240753253748e-06   -1.4528605621431646e-06
2.4711274031641167e-05   -1.3735240753253748e-06   -1.4528605621431646e-06
2.519612265091505e-05   0.0   -3.5918427898399314e-05
2.519612265091505e-05   0.0   -3.5918427898399314e-05
2.519612265091505e-05   0.0   -3.5918427898399314e-05
2.519612265091505e-05   0.0   -3.5918427898399314e-05
3.6444300714173367e-06   -2.801266839272889e-07   1.6913574445323786e-07
3.6444300714173367e-06   -2.801266839272889e-07   1.6913574445323786e-07
3.6444300714173367e-06   -2.801266839272889e-07   1.6913574445323786e-07
3.6444300714173367e-06   -2.801266839272889e-07   1.6913574445323786e-07
1.4180322578594539e-05   5.179756340227135e-07   -1.7869546491612083e-05
1.4180322578594539e-05   5.179756340227135e-07   -1.7869546491612083e-05
1.4180322578594539e-05   5.179756340227135e-07   -1.7869546491612083e-05
1.4180322578594539e-05   5.179756340227135e-07   -1.7869546491612083e-05
2.475942219273292e-05   0.0   -3.770703130342111e-05
2.475942219273292e-05   0.0   -3.770703130342111e-05
2.475942219273292e-05   0.0   -3.770703130342111e-05
2.475942219273292e-05   0.0   -3.770703130342111e-05
5.59379388763357e-05   -7.3668707103874545e-06   9.837040743017908e-06
5.59379388763357e-05   -7.3668707103874545e-06   9.837040743017908e-06
5.59379388763357e-05   -7.3668707103874545e-06   9.837040743017908e-06
5.59379388763357e-05   -7.3668707103874545e-06   9.837040743017908e-06
5.254458028626112e-05   0.0   -4.166375566320158e-05
5.254458028626112e-05   0.0   -4.166375566320158e-05
5.254458028626112e-05   0.0   -4.166375566320158e-05
5.254458028626112e-05   0.0   -4.166375566320158e-05
2.481101523705446e-05   -6.264038212423778e-06   8.317275679597018e-06
2.481101523705446e-05   -6.264038212423778e-06   8.317275679597018e-06
2.481101523705446e-05   -6.264038212423778e-06   8.317275679597018e-06
2.481101523705446e-05   -6.264038212423778e-06   8.317275679597018e-06
3.865200123949702e-05   -3.2972702998170604e-06   -1.6531095072037833e-05
3.865200123949702e-05   -3.2972702998170604e-06   -1.6531095072037833e-05
3.865200123949702e-05   -3.2972702998170604e-06   -1.6531095072037833e-05
3.865200123949702e-05   -3.2972702998170604e-06   -1.6531095072037833e-05
2.4811015237054484e-05   0.0   -3.790533273574728e-05
2.4811015237054484e-05   0.0   -3.790533273574728e-05
2.4811015237054484e-05   0.0   -3.790533273574728e-05
2.4811015237054484e-05   0.0   -3.790533273574728e-05
5.254458028626112e-05   -6.2640382124237915e-06   4.558852752142763e-06
5.254458028626112e-05   -6.2640382124237915e-06   4.558852752142763e-06
5.254458028626112e-05   -6.2640382124237915e-06   4.558852752142763e-06
5.254458028626112e-05   -6.2640382124237915e-06   4.558852752142763e-06
5.0982712326480984e-05   0.0   -4.0797614862809826e-05
5.0982712326480984e-05   0.0   -4.0797614862809826e-05
5.0982712326480984e-05   0.0   -4.0797614862809826e-05
5.0982712326480984e-05   0.0   -4.0797614862809826e-05
2.4711274031641167e-05   -5.722502930646697e-06   6.421617386977816e-06
2.4711274031641167e-05   -5.722502930646697e-06   6.421617386977816e-06
2.4711274031641167e-05   -5.722502930646697e-06   6.421617386977816e-06
2.4711274031641167e-05   -5.722502930646697e-06   6.421617386977816e-06
3.789686378176772e-05   -2.4102351058854357e-06   -1.7541726224756465e-05
3.789686378176772e-05   -2.4102351058854357e-06   -1.7541726224756465e-05
3.789686378176772e-05   -2.4102351058854357e-06   -1.7541726224756465e-05
3.789686378176772e-05   -2.4102351058854357e-06   -1.7541726224756465e-05
2.471127403164121e-05   0.0   -3.7364113104421794e-05
2.471127403164121e-05   0.0   -3.7364113104421794e-05
2.471127403164121e-05   0.0   -3.7364113104421794e-05
2.471127403164121e-05   0.0   -3.7364113104421794e-05
5.0982712326480896e-05   -5.722502930646697e-06   2.988115628589798e-06
5.0982712326480896e-05   -5.722502930646697e-06   2.988115628589798e-06
5.0982712326480896e-05   -5.722502930646697e-06   2.988115628589798e-06
5.0982712326480896e-05   -5.722502930646697e-06   2.988115628589798e-06
4.86529726038499e-05   0.0   -3.858420972337508e-05
4.86529726038499e-05   0.0   -3.858420972337508e-05
4.86529726038499e-05   0.0   -3.858420972337508e-05
4.86529726038499e-05   0.0   -3.858420972337508e-05
2.5196122650914982e-05   -4.442969708292928e-06   3.1763220231587877e-06
2.5196122650914982e-05   -4.442969708292928e-06   3.1763220231587877e-06
2.5196122650914982e-05   -4.442969708292928e-06   3.1763220231587877e-06
2.5196122650914982e-05   -4.442969708292928e-06   3.1763220231587877e-06
3.668212331774549e-05   -1.016747182461063e-06   -1.802274593705782e-05
3.668212331774549e-05   -1.016747182461063e-06   -1.802274593705782e-05
3.668212331774549e-05   -1.016747182461063e-06   -1.802274593705782e-05
3.668212331774549e-05   -1.016747182461063e-06   -1.802274593705782e-05
-5.4666632596673674e-05   6.976526895806485e-06   -3.592633094148709e-05
-5.4666632596673674e-05   6.976526895806485e-06   -3.592633094148709e-05
-5.4666632596673674e-05   6.976526895806485e-06   -3.592633094148709e-05
-5.4666632596673674e-05   6.976526895806485e-06   -3.592633094148709e-05
-3.5019333373232656e-05   6.269964815419009e-06   -3.604769483984521e-06
-3.5019333373232656e-05   6.269964815419009e-06   -3.604769483984521e-06
-3.5019333373232656e-05   6.269964815419009e-06   -3.604769483984521e-06
-3.5019333373232656e-05   6.269964815419009e-06   -3.604769483984521e-06
-3.589714516537956e-05   8.37770489969179e-06   -3.0177848306954812e-05
-3.589714516537956e-05   8.37770489969179e-06   -3.0177848306954812e-05
-3.589714516537956e-05   8.37770489969179e-06   -3.0177848306954812e-05
-3.589714516537956e-05   8.37770489969179e-06   -3.0177848306954812e-05
-5.525151555971794e-05   7.528937406489725e-06   2.588696179530429e-06
-5.525151555971794e-05   7.528937406489725e-06   2.588696179530429e-06
-5.525151555971794e-05   7.528937406489725e-06   2.588696179530429e-06
-5.525151555971794e-05   7.528937406489725e-06   2.588696179530429e-06
-4.3417643677869314e-05   7.289059195533326e-06   -1.6990496696976963e-05
-4.3417643677869314e-05   7.289059195533326e-06   -1.6990496696976963e-05
-4.3417643677869314e-05   7.289059195533326e-06   -1.6990496696976963e-05
-4.3417643677869314e-05   7.289059195533326e-06   -1.6990496696976963e-05
-5.525151555971794e-05   8.377704899691788e-06   -2.9668587811033573e-05
-5.525151555971794e-05   8.377704899691788e-06   -2.9668587811033573e-05
-5.525151555971794e-05   8.377704899691788e-06   -2.9668587811033573e-05
-5.525151555971794e-05   8.377704899691788e-06   -2.9668587811033573e-05
-3.5897145165379675e-05   7.528937406489752e-06   2.0794356836092715e-06
-3.5897145165379675e-05   7.528937406489752e-06   2.0794356836092715e-06
-3.5897145165379675e-05   7.528937406489752e-06   2.0794356836092715e-06
-3.5897145165379675e-05   7.528937406489752e-06   2.0794356836092715e-06
-3.6077571019824985e-05   8.976950608332885e-06   -2.71356163196016e-05
-3.6077571019824985e-05   8.976950608332885e-06   -2.71356163196016e-05
-3.6077571019824985e-05   8.976950608332885e-06   -2.71356163196016e-05
-3.6077571019824985e-05   8.976950608332885e-06   -2.71356163196016e-05
-5.5634409722608844e-05   8.097283780828982e-06   5.986914948207076e-06
-5.5634409722608844e-05   8.097283780828982e-06   5.986914948207076e-06
-5.5634409722608844e-05   8.097283780828982e-06   5.986914948207076e-06
-5.5634409722608844e-05   8.097283780828982e-06   5.986914948207076e-06
-4.4689793371609855e-05   8.080498668645457e-06   -1.2244041236147757e-05
-4.4689793371609855e-05   8.080498668645457e-06   -1.2244041236147757e-05
-4.4689793371609855e-05   8.080498668645457e-06   -1.2244041236147757e-05
-4.4689793371609855e-05   8.080498668645457e-06   -1.2244041236147757e-05
-5.563440972260875e-05   8.97695060833289e-06   -2.6607816223099266e-05
-5.563440972260875e-05   8.97695060833289e-06   -2.6607816223099266e-05
-5.563440972260875e-05   8.97695060833289e-06   -2.6607816223099266e-05
-5.563440972260875e-05   8.97695060833289e-06   -2.6607816223099266e-05
-3.607757101982504e-05   8.097283780828982e-06   5.459114851704647e-06
-3.607757101982504e-05   8.097283780828982e-06   5.459114851704647e-06
-3.607757101982504e-05   8.097283780828982e-06   5.459114851704647e-06
-3.607757101982504e-05   8.097283780828982e-06   5.459114851704647e-06
-3.5868776646632865e-05   1.0231278383703707e-05   -2.0062271325943835e-05
-3.5868776646632865e-05   1.0231278383703707e-05   -2.0062271325943835e-05
-3.5868776646632865e-05   1.0231278383703707e-05   -2.0062271325943835e-05
-3.5868776646632865e-05   1.0231278383703707e-05   -2.0062271325943835e-05
-5.408299002639042e-05   8.55112384248521e-06   1.1302843698383002e-05
-5.408299002639042e-05   8.55112384248521e-06   1.1302843698383002e-05
-5.408299002639042e-05   8.55112384248521e-06   1.1302843698383002e-05
-5.408299002639042e-05   8.55112384248521e-06   1.1302843698383002e-05
-4.3521981752443486e-05   8.865370154266143e-06   -6.487384545263749e-06
-4.3521981752443486e-05   8.865370154266143e-06   -6.487384545263749e-06
-4.3521981752443486e-05   8.865370154266143e-06   -6.487384545263749e-06
-4.3521981752443486e-05   8.865370154266143e-06   -6.487384545263749e-06
-3.5019333373232656e-05   2.5564845813160092e-06   -3.818712223404987e-05
-3.5019333373232656e-05   2.5564845813160092e-06   -3.818712223404987e-05
-3.5019333373232656e-05   2.5564845813160092e-06   -3.818712223404987e-05
-3.5019333373232656e-05   2.5564845813160092e-06   -3.818712223404987e-05
-1.660449844778809e-05   2.9176337840999215e-06   -7.279041169971841e-06
-1.660449844778809e-05   2.9176337840999215e-06   -7.279041169971841e-06
-1.660449844778809e-05   2.9176337840999215e-06   -7.279041169971841e-06
-1.660449844778809e-05   2.9176337840999215e-06   -7.279041169971841e-06
-1.6997707628682067e-05   3.643451555473913e-06   -3.8127550714480836e-05
-1.6997707628682067e-05   3.643451555473913e-06   -3.8127550714480836e-05
-1.6997707628682067e-05   3.643451555473913e-06   -3.8127550714480836e-05
-1.6997707628682067e-05   3.643451555473913e-06   -3.8127550714480836e-05
-3.589714516537956e-05   4.075257231408568e-06   -6.887571558879046e-06
-3.589714516537956e-05   4.075257231408568e-06   -6.887571558879046e-06
-3.589714516537956e-05   4.075257231408568e-06   -6.887571558879046e-06
-3.589714516537956e-05   4.075257231408568e-06   -6.887571558879046e-06
-2.6055854828426957e-05   3.2810952443402175e-06   -2.281322492822581e-05
-2.6055854828426957e-05   3.2810952443402175e-06   -2.281322492822581e-05
-2.6055854828426957e-05   3.2810952443402175e-06   -2.281322492822581e-05
-2.6055854828426957e-05   3.2810952443402175e-06   -2.281322492822581e-05
-3.5897145165379526e-05   3.643451555473906e-06   -3.838663412004153e-05
-3.5897145165379526e-05   3.643451555473906e-06   -3.838663412004153e-05
-3.5897145165379526e-05   3.643451555473906e-06   -3.838663412004153e-05
-3.5897145165379526e-05   3.643451555473906e-06   -3.838663412004153e-05
-1.6997707628682037e-05   4.075257231408595e-06   -6.628488153318152e-06
-1.6997707628682037e-05   4.075257231408595e-06   -6.628488153318152e-06
-1.6997707628682037e-05   4.075257231408595e-06   -6.628488153318152e-06
-1.6997707628682037e-05   4.075257231408595e-06   -6.628488153318152e-06
-1.7118801242894147e-05   4.466892574592221e-06   -3.741497461969066e-05
-1.7118801242894147e-05   4.466892574592221e-06   -3.741497461969066e-05
-1.7118801242894147e-05   4.466892574592221e-06   -3.741497461969066e-05
-1.7118801242894147e-05   4.466892574592221e-06   -3.741497461969066e-05
-3.607757101982498e-05   5.03388833537701e-06   -6.157222447943355e-06
-3.607757101982498e-05   5.03388833537701e-06   -6.157222447943355e-06
-3.607757101982498e-05   5.03388833537701e-06   -6.157222447943355e-06
-3.607757101982498e-05   5.03388833537701e-06   -6.157222447943355e-06
-2.6256454269017118e-05   4.166224606659606e-06   -2.200515212872601e-05
-2.6256454269017118e-05   4.166224606659606e-06   -2.200515212872601e-05
-2.6256454269017118e-05   4.166224606659606e-06   -2.200515212872601e-05
-2.6256454269017118e-05   4.166224606659606e-06   -2.200515212872601e-05
-3.6077571019824985e-05   4.466892574592221e-06   -3.7755172076161487e-05
-3.6077571019824985e-05   4.466892574592221e-06   -3.7755172076161487e-05
-3.6077571019824985e-05   4.466892574592221e-06   -3.7755172076161487e-05
-3.6077571019824985e-05   4.466892574592221e-06   -3.7755172076161487e-05
-1.7118801242894177e-05   5.033888335377037e-06   -5.817024991472539e-06
-1.7118801242894177e-05   5.033888335377037e-06   -5.817024991472539e-06
-1.7118801242894177e-05   5.033888335377037e-06   -5.817024991472539e-06
-1.7118801242894177e-05   5.033888335377037e-06   -5.817024991472539e-06
-1.707373512892674e-05   5.199251051008557e-06   -3.703399833852659e-05
-1.707373512892674e-05   5.199251051008557e-06   -3.703399833852659e-05
-1.707373512892674e-05   5.199251051008557e-06   -3.703399833852659e-05
-1.707373512892674e-05   5.199251051008557e-06   -3.703399833852659e-05
-3.586877664663283e-05   6.065697579300751e-06   -6.228797059325004e-06
-3.586877664663283e-05   6.065697579300751e-06   -6.228797059325004e-06
-3.586877664663283e-05   6.065697579300751e-06   -6.228797059325004e-06
-3.586877664663283e-05   6.065697579300751e-06   -6.228797059325004e-06
-2.6407653394097928e-05   4.967384148946277e-06   -2.1338347755337254e-05
-2.6407653394097928e-05   4.967384148946277e-06   -2.1338347755337254e-05
-2.6407653394097928e-05   4.967384148946277e-06   -2.1338347755337254e-05
-2.6407653394097928e-05   4.967384148946277e-06   -2.1338347755337254e-05
-1.6604498447788058e-05   -3.292025185593527e-07   -3.9988978649033974e-05
-1.6604498447788058e-05   -3.292025185593527e-07   -3.9988978649033974e-05
-1.6604498447788058e-05   -3.292025185593527e-07   -3.9988978649033974e-05
-1.6604498447788058e-05   -3.292025185593527e-07   -3.9988978649033974e-05
1.5774459694220241e-06   -8.793277527752402e-08   -9.540976107714723e-06
1.5774459694220241e-06   -8.793277527752402e-08   -9.540976107714723e-06
1.5774459694220241e-06   -8.793277527752402e-08   -9.540976107714723e-06
1.5774459694220241e-06   -8.793277527752402e-08   -9.540976107714723e-06
1.5058002393196802e-06   6.466691156150001e-07   -4.020902144001466e-05
1.5058002393196802e-06   6.466691156150001e-07   -4.020902144001466e-05
1.5058002393196802e-06   6.466691156150001e-07   -4.020902144001466e-05
1.5058002393196802e-06   6.466691156150001e-07   -4.020902144001466e-05
-1.699770762868204e-05   9.788476012687433e-07   -9.56914875140402e-06
-1.699770762868204e-05   9.788476012687433e-07   -9.56914875140402e-06
-1.699770762868204e-05   9.788476012687433e-07   -9.56914875140402e-06
-1.699770762868204e-05   9.788476012687433e-07   -9.56914875140402e-06
-7.675352995785258e-06   3.253751159080023e-07   -2.4714322981682216e-05
-7.675352995785258e-06   3.253751159080023e-07   -2.4714322981682216e-05
-7.675352995785258e-06   3.253751159080023e-07   -2.4714322981682216e-05
-7.675352995785258e-06   3.253751159080023e-07   -2.4714322981682216e-05
-1.6997707628682037e-05   6.466691156149985e-07   -4.040832853140691e-05
-1.6997707628682037e-05   6.466691156149985e-07   -4.040832853140691e-05
-1.6997707628682037e-05   6.466691156149985e-07   -4.040832853140691e-05
-1.6997707628682037e-05   6.466691156149985e-07   -4.040832853140691e-05
1.5058002393196827e-06   9.788476012687433e-07   -9.36984166001173e-06
1.5058002393196827e-06   9.788476012687433e-07   -9.36984166001173e-06
1.5058002393196827e-06   9.788476012687433e-07   -9.36984166001173e-06
1.5058002393196827e-06   9.788476012687433e-07   -9.36984166001173e-06
1.4074216188743215e-06   1.5062334292003217e-06   -4.029212291460998e-05
1.4074216188743215e-06   1.5062334292003217e-06   -4.029212291460998e-05
1.4074216188743215e-06   1.5062334292003217e-06   -4.029212291460998e-05
1.4074216188743215e-06   1.5062334292003217e-06   -4.029212291460998e-05
-1.7118801242894117e-05   2.021295404655381e-06   -9.724121996935595e-06
-1.7118801242894117e-05   2.021295404655381e-06   -9.724121996935595e-06
-1.7118801242894117e-05   2.021295404655381e-06   -9.724121996935595e-06
-1.7118801242894117e-05   2.021295404655381e-06   -9.724121996935595e-06
-7.815246368764003e-06   1.229131963794382e-06   -2.47547487226359e-05
-7.815246368764003e-06   1.229131963794382e-06   -2.47547487226359e-05
-7.815246368764003e-06   1.229131963794382e-06   -2.47547487226359e-05
-7.815246368764003e-06   1.229131963794382e-06   -2.47547487226359e-05
-1.7118801242894117e-05   1.50623342920032e-06   -4.0601160099883e-05
-1.7118801242894117e-05   1.50623342920032e-06   -4.0601160099883e-05
-1.7118801242894117e-05   1.50623342920032e-06   -4.0601160099883e-05
-1.7118801242894117e-05   1.50623342920032e-06   -4.0601160099883e-05
1.4074216188743215e-06   2.021295404655354e-06   -9.415084811662627e-06
1.4074216188743215e-06   2.021295404655354e-06   -9.415084811662627e-06
1.4074216188743215e-06   2.021295404655354e-06   -9.415084811662627e-06
1.4074216188743215e-06   2.021295404655354e-06   -9.415084811662627e-06
1.205508608541421e-06   2.5014519304157403e-06   -4.022327023356023e-05
1.205508608541421e-06   2.5014519304157403e-06   -4.022327023356023e-05
1.205508608541421e-06   2.5014519304157403e-06   -4.022327023356023e-05
1.205508608541421e-06   2.5014519304157403e-06   -4.022327023356023e-05
-1.7073735128926724e-05   3.1072776865347866e-06   -1.012135945811811e-05
-1.7073735128926724e-05   3.1072776865347866e-06   -1.012135945811811e-05
-1.7073735128926724e-05   3.1072776865347866e-06   -1.012135945811811e-05
-1.7073735128926724e-05   3.1072776865347866e-06   -1.012135945811811e-05
-7.898621197452203e-06   2.157570013621048e-06   -2.4843391406827386e-05
-7.898621197452203e-06   2.157570013621048e-06   -2.4843391406827386e-05
-7.898621197452203e-06   2.157570013621048e-06   -2.4843391406827386e-05
-7.898621197452203e-06   2.157570013621048e-06   -2.4843391406827386e-05
1.5774459694220241e-06   -2.90406065317661e-06   -3.689507154018704e-05
1.5774459694220241e-06   -2.90406065317661e-06   -3.689507154018704e-05
1.5774459694220241e-06   -2.90406065317661e-06   -3.689507154018704e-05
1.5774459694220241e-06   -2.90406065317661e-06   -3.689507154018704e-05
2.0314050468754002e-05   -2.9853573450678423e-06   -5.716175389768475e-06
2.0314050468754002e-05   -2.9853573450678423e-06   -5.716175389768475e-06
2.0314050468754002e-05   -2.9853573450678423e-06   -5.716175389768475e-06
2.0314050468754002e-05   -2.9853573450678423e-06   -5.716175389768475e-06
2.0484385814117398e-05   -2.1874946865317667e-06   -3.7405298178956825e-05
2.0484385814117398e-05   -2.1874946865317667e-06   -3.7405298178956825e-05
2.0484385814117398e-05   -2.1874946865317667e-06   -3.7405298178956825e-05
2.0484385814117398e-05   -2.1874946865317667e-06   -3.7405298178956825e-05
1.5058002393196825e-06   -2.015349656710717e-06   -5.877609238853248e-06
1.5058002393196825e-06   -2.015349656710717e-06   -5.877609238853248e-06
1.5058002393196825e-06   -2.015349656710717e-06   -5.877609238853248e-06
1.5058002393196825e-06   -2.015349656710717e-06   -5.877609238853248e-06
1.083029929430485e-05   -2.4136982092043933e-06   -2.1179431865665653e-05
1.083029929430485e-05   -2.4136982092043933e-06   -2.1179431865665653e-05
1.083029929430485e-05   -2.4136982092043933e-06   -2.1179431865665653e-05
1.083029929430485e-05   -2.4136982092043933e-06   -2.1179431865665653e-05
1.5058002393196802e-06   -2.187494686531761e-06   -3.750858519684946e-05
1.5058002393196802e-06   -2.187494686531761e-06   -3.750858519684946e-05
1.5058002393196802e-06   -2.187494686531761e-06   -3.750858519684946e-05
1.5058002393196802e-06   -2.187494686531761e-06   -3.750858519684946e-05
2.0484385814117398e-05   -2.01534965671069e-06   -5.774322220960528e-06
2.0484385814117398e-05   -2.01534965671069e-06   -5.774322220960528e-06
2.0484385814117398e-05   -2.01534965671069e-06   -5.774322220960528e-06
2.0484385814117398e-05   -2.01534965671069e-06   -5.774322220960528e-06
2.038713681713325e-05   -1.3735240753253816e-06   -3.810323710446294e-05
2.038713681713325e-05   -1.3735240753253816e-06   -3.810323710446294e-05
2.038713681713325e-05   -1.3735240753253816e-06   -3.810323710446294e-05
2.038713681713325e-05   -1.3735240753253816e-06   -3.810323710446294e-05
1.4074216188743217e-06   -1.0656369898077338e-06   -6.655110692008623e-06
1.4074216188743217e-06   -1.0656369898077338e-06   -6.655110692008623e-06
1.4074216188743217e-06   -1.0656369898077338e-06   -6.655110692008623e-06
1.4074216188743217e-06   -1.0656369898077338e-06   -6.655110692008623e-06
1.071748035906773e-05   -1.6399743896099075e-06   -2.182727281911633e-05
1.071748035906773e-05   -1.6399743896099075e-06   -2.182727281911633e-05
1.071748035906773e-05   -1.6399743896099075e-06   -2.182727281911633e-05
1.071748035906773e-05   -1.6399743896099075e-06   -2.182727281911633e-05
1.4074216188743215e-06   -1.3735240753253736e-06   -3.828796935577347e-05
1.4074216188743215e-06   -1.3735240753253736e-06   -3.828796935577347e-05
1.4074216188743215e-06   -1.3735240753253736e-06   -3.828796935577347e-05
1.4074216188743215e-06   -1.3735240753253736e-06   -3.828796935577347e-05
2.038713681713325e-05   -1.0656369898077338e-06   -6.470378440698101e-06
2.038713681713325e-05   -1.0656369898077338e-06   -6.470378440698101e-06
2.038713681713325e-05   -1.0656369898077338e-06   -6.470378440698101e-06
2.038713681713325e-05   -1.0656369898077338e-06   -6.470378440698101e-06
1.9793868926044204e-05   -2.801266839272889e-07   -3.817114122184493e-05
1.9793868926044204e-05   -2.801266839272889e-07   -3.817114122184493e-05
1.9793868926044204e-05   -2.801266839272889e-07   -3.817114122184493e-05
1.9793868926044204e-05   -2.801266839272889e-07   -3.817114122184493e-05
1.2055086085414205e-06   1.0846903008665358e-07   -7.423698121082035e-06
1.2055086085414205e-06   1.0846903008665358e-07   -7.423698121082035e-06
1.2055086085414205e-06   1.0846903008665358e-07   -7.423698121082035e-06
1.2055086085414205e-06   1.0846903008665358e-07   -7.423698121082035e-06
1.060311579952455e-05   -7.363311765338566e-07   -2.257949664874824e-05
1.060311579952455e-05   -7.363311765338566e-07   -2.257949664874824e-05
1.060311579952455e-05   -7.363311765338566e-07   -2.257949664874824e-05
1.060311579952455e-05   -7.363311765338566e-07   -2.257949664874824e-05
2.0314050468754002e-05   -7.366870710387449e-06   -2.232292351367432e-05
2.0314050468754002e-05   -7.366870710387449e-06   -2.232292351367432e-05
2.0314050468754002e-05   -7.366870710387449e-06   -2.232292351367432e-05
2.0314050468754002e-05   -7.366870710387449e-06   -2.232292351367432e-05
3.879887084289602e-05   -5.545402664324222e-06   9.577991270867019e-06
3.879887084289602e-05   -5.545402664324222e-06   9.577991270867019e-06
3.879887084289602e-05   -5.545402664324222e-06   9.577991270867019e-06
3.879887084289602e-05   -5.545402664324222e-06   9.577991270867019e-06
4.0283211910917735e-05   -6.2640382124237915e-06   -2.711527810366547e-05
4.0283211910917735e-05   -6.2640382124237915e-06   -2.711527810366547e-05
4.0283211910917735e-05   -6.2640382124237915e-06   -2.711527810366547e-05
4.0283211910917735e-05   -6.2640382124237915e-06   -2.711527810366547e-05
2.048438581411744e-05   -5.027441380054635e-06   5.140807291580246e-06
2.048438581411744e-05   -5.027441380054635e-06   5.140807291580246e-06
2.048438581411744e-05   -5.027441380054635e-06   5.140807291580246e-06
2.048438581411744e-05   -5.027441380054635e-06   5.140807291580246e-06
2.8576155372637755e-05   -6.02442823862564e-06   -7.747283190811057e-06
2.8576155372637755e-05   -6.02442823862564e-06   -7.747283190811057e-06
2.8576155372637755e-05   -6.02442823862564e-06   -7.747283190811057e-06
2.8576155372637755e-05   -6.02442823862564e-06   -7.747283190811057e-06
2.048438581411738e-05   -6.264038212423765e-06   -2.7857236203086862e-05
2.048438581411738e-05   -6.264038212423765e-06   -2.7857236203086862e-05
2.048438581411738e-05   -6.264038212423765e-06   -2.7857236203086862e-05
2.048438581411738e-05   -6.264038212423765e-06   -2.7857236203086862e-05
4.028321191091766e-05   -5.027441380054635e-06   5.882765391001794e-06
4.028321191091766e-05   -5.027441380054635e-06   5.882765391001794e-06
4.028321191091766e-05   -5.027441380054635e-06   5.882765391001794e-06
4.028321191091766e-05   -5.027441380054635e-06   5.882765391001794e-06
4.0137456747860235e-05   -5.722502930646697e-06   -2.9483855960096095e-05
4.0137456747860235e-05   -5.722502930646697e-06   -2.9483855960096095e-05
4.0137456747860235e-05   -5.722502930646697e-06   -2.9483855960096095e-05
4.0137456747860235e-05   -5.722502930646697e-06   -2.9483855960096095e-05
2.0387136817133252e-05   -4.48099760523701e-06   2.688440729203172e-06
2.0387136817133252e-05   -4.48099760523701e-06   2.688440729203172e-06
2.0387136817133252e-05   -4.48099760523701e-06   2.688440729203172e-06
2.0387136817133252e-05   -4.48099760523701e-06   2.688440729203172e-06
2.957985790380542e-05   -5.318055432422276e-06   -1.213052638560601e-05
2.957985790380542e-05   -5.318055432422276e-06   -1.213052638560601e-05
2.957985790380542e-05   -5.318055432422276e-06   -1.213052638560601e-05
2.957985790380542e-05   -5.318055432422276e-06   -1.213052638560601e-05
2.0387136817133215e-05   -5.722502930646696e-06   -3.022875915534191e-05
2.0387136817133215e-05   -5.722502930646696e-06   -3.022875915534191e-05
2.0387136817133215e-05   -5.722502930646696e-06   -3.022875915534191e-05
2.0387136817133215e-05   -5.722502930646696e-06   -3.022875915534191e-05
4.0137456747860235e-05   -4.48099760523701e-06   3.4333439244489032e-06
4.0137456747860235e-05   -4.48099760523701e-06   3.4333439244489032e-06
4.0137456747860235e-05   -4.48099760523701e-06   3.4333439244489032e-06
4.0137456747860235e-05   -4.48099760523701e-06   3.4333439244489032e-06
3.990056967010359e-05   -4.442969708292921e-06   -3.4313322421168684e-05
3.990056967010359e-05   -4.442969708292921e-06   -3.4313322421168684e-05
3.990056967010359e-05   -4.442969708292921e-06   -3.4313322421168684e-05
3.990056967010359e-05   -4.442969708292921e-06   -3.4313322421168684e-05
1.9793868926044224e-05   -3.3053755222690385e-06   -1.4847110260173755e-06
1.9793868926044224e-05   -3.3053755222690385e-06   -1.4847110260173755e-06
1.9793868926044224e-05   -3.3053755222690385e-06   -1.4847110260173755e-06
1.9793868926044224e-05   -3.3053755222690385e-06   -1.4847110260173755e-06
2.8736559072666014e-05   -4.577388566124203e-06   -1.5625986777407236e-05
2.8736559072666014e-05   -4.577388566124203e-06   -1.5625986777407236e-05
2.8736559072666014e-05   -4.577388566124203e-06   -1.5625986777407236e-05
2.8736559072666014e-05   -4.577388566124203e-06   -1.5625986777407236e-05
-4.349385453363546e-05   6.269964815419035e-06   -3.00607557071523e-05
-4.349385453363546e-05   6.269964815419035e-06   -3.00607557071523e-05
-4.349385453363546e-05   6.269964815419035e-06   -3.00607557071523e-05
-4.349385453363546e-05   6.269964815419035e-06   -3.00607557071523e-05
-2.8527012502681297e-05   4.78627508832761e-06   -6.006232825150194e-06
-2.8527012502681297e-05   4.78627508832761e-06   -6.006232825150194e-06
-2.8527012502681297e-05   4.78627508832761e-06   -6.006232825150194e-06
-2.8527012502681297e-05   4.78627508832761e-06   -6.006232825150194e-06
-2.866306971194384e-05   7.528937406489698e-06   -2.4961902610485046e-05
-2.866306971194384e-05   7.528937406489698e-06   -2.4961902610485046e-05
-2.866306971194384e-05   7.528937406489698e-06   -2.4961902610485046e-05
-2.866306971194384e-05   7.528937406489698e-06   -2.4961902610485046e-05
-4.2829383554508595e-05   5.792518312687056e-06   -3.095280832622182e-07
-4.2829383554508595e-05   5.792518312687056e-06   -3.095280832622182e-07
-4.2829383554508595e-05   5.792518312687056e-06   -3.095280832622182e-07
-4.2829383554508595e-05   5.792518312687056e-06   -3.095280832622182e-07
-3.436068133418364e-05   6.376882056493541e-06   -1.477465003008784e-05
-3.436068133418364e-05   6.376882056493541e-06   -1.477465003008784e-05
-3.436068133418364e-05   6.376882056493541e-06   -1.477465003008784e-05
-3.436068133418364e-05   6.376882056493541e-06   -1.477465003008784e-05
-4.282938355450861e-05   7.528937406489706e-06   -2.3920051154203474e-05
-4.282938355450861e-05   7.528937406489706e-06   -2.3920051154203474e-05
-4.282938355450861e-05   7.528937406489706e-06   -2.3920051154203474e-05
-4.282938355450861e-05   7.528937406489706e-06   -2.3920051154203474e-05
-2.866306971194384e-05   5.792518312687056e-06   -1.3513795395438238e-06
-2.866306971194384e-05   5.792518312687056e-06   -1.3513795395438238e-06
-2.866306971194384e-05   5.792518312687056e-06   -1.3513795395438238e-06
-2.866306971194384e-05   5.792518312687056e-06   -1.3513795395438238e-06
-2.8632060759795164e-05   8.097283780828982e-06   -2.135696610607794e-05
-2.8632060759795164e-05   8.097283780828982e-06   -2.135696610607794e-05
-2.8632060759795164e-05   8.097283780828982e-06   -2.135696610607794e-05
-2.8632060759795164e-05   8.097283780828982e-06   -2.135696610607794e-05
-4.21827470024515e-05   6.235056937897157e-06   2.3448470707750036e-06
-4.21827470024515e-05   6.235056937897157e-06   2.3448470707750036e-06
-4.21827470024515e-05   6.235056937897157e-06   2.3448470707750036e-06
-4.21827470024515e-05   6.235056937897157e-06   2.3448470707750036e-06
-3.46547380847675e-05   6.9601701549184495e-06   -1.0636902388911083e-05
-3.46547380847675e-05   6.9601701549184495e-06   -1.0636902388911083e-05
-3.46547380847675e-05   6.9601701549184495e-06   -1.0636902388911083e-05
-3.46547380847675e-05   6.9601701549184495e-06   -1.0636902388911083e-05
-4.21827470024515e-05   8.09728378082898e-06   -2.0239630000318888e-05
-4.21827470024515e-05   8.09728378082898e-06   -2.0239630000318888e-05
-4.21827470024515e-05   8.09728378082898e-06   -2.0239630000318888e-05
-4.21827470024515e-05   8.09728378082898e-06   -2.0239630000318888e-05
-2.8632060759795205e-05   6.235056937897211e-06   1.2275109650161143e-06
-2.8632060759795205e-05   6.235056937897211e-06   1.2275109650161143e-06
-2.8632060759795205e-05   6.235056937897211e-06   1.2275109650161143e-06
-2.8632060759795205e-05   6.235056937897211e-06   1.2275109650161143e-06
-2.86597865965646e-05   8.55112384248521e-06   -1.6312444448577594e-05
-2.86597865965646e-05   8.55112384248521e-06   -1.6312444448577594e-05
-2.86597865965646e-05   8.55112384248521e-06   -1.6312444448577594e-05
-2.86597865965646e-05   8.55112384248521e-06   -1.6312444448577594e-05
-4.1339850845697044e-05   6.6720883297371266e-06   5.948417274291866e-06
-4.1339850845697044e-05   6.6720883297371266e-06   5.948417274291866e-06
-4.1339850845697044e-05   6.6720883297371266e-06   5.948417274291866e-06
-4.1339850845697044e-05   6.6720883297371266e-06   5.948417274291866e-06
-3.38629680288438e-05   7.268250741818854e-06   -6.870751534378749e-06
-3.38629680288438e-05   7.268250741818854e-06   -6.870751534378749e-06
-3.38629680288438e-05   7.268250741818854e-06   -6.870751534378749e-06
-3.38629680288438e-05   7.268250741818854e-06   -6.870751534378749e-06
-2.8527012502681297e-05   2.9176337840999045e-06   -3.4841930751064803e-05
-2.8527012502681297e-05   2.9176337840999045e-06   -3.4841930751064803e-05
-2.8527012502681297e-05   2.9176337840999045e-06   -3.4841930751064803e-05
-2.8527012502681297e-05   2.9176337840999045e-06   -3.4841930751064803e-05
-1.4533156459640231e-05   2.3883287663091306e-06   -1.18364203566708e-05
-1.4533156459640231e-05   2.3883287663091306e-06   -1.18364203566708e-05
-1.4533156459640231e-05   2.3883287663091306e-06   -1.18364203566708e-05
-1.4533156459640231e-05   2.3883287663091306e-06   -1.18364203566708e-05
-1.470817902120067e-05   4.075257231408595e-06   -3.434706453782536e-05
-1.470817902120067e-05   4.075257231408595e-06   -3.434706453782536e-05
-1.470817902120067e-05   4.075257231408595e-06   -3.434706453782536e-05
-1.470817902120067e-05   4.075257231408595e-06   -3.434706453782536e-05
-2.8663069711943842e-05   3.378332756655191e-06   -1.0670758701734689e-05
-2.8663069711943842e-05   3.378332756655191e-06   -1.0670758701734689e-05
-2.8663069711943842e-05   3.378332756655191e-06   -1.0670758701734689e-05
-2.8663069711943842e-05   3.378332756655191e-06   -1.0670758701734689e-05
-2.1422628783784086e-05   3.367259079462416e-06   -2.273151604235194e-05
-2.1422628783784086e-05   3.367259079462416e-06   -2.273151604235194e-05
-2.1422628783784086e-05   3.367259079462416e-06   -2.273151604235194e-05
-2.1422628783784086e-05   3.367259079462416e-06   -2.273151604235194e-05
-2.8663069711943825e-05   4.075257231408603e-06   -3.3928909852973214e-05
-2.8663069711943825e-05   4.075257231408603e-06   -3.3928909852973214e-05
-2.8663069711943825e-05   4.075257231408603e-06   -3.3928909852973214e-05
-2.8663069711943825e-05   4.075257231408603e-06   -3.3928909852973214e-05
-1.4708179021200691e-05   3.378332756655191e-06   -1.1088913386586773e-05
-1.4708179021200691e-05   3.378332756655191e-06   -1.1088913386586773e-05
-1.4708179021200691e-05   3.378332756655191e-06   -1.1088913386586773e-05
-1.4708179021200691e-05   3.378332756655191e-06   -1.1088913386586773e-05
-1.4821162618151542e-05   5.03388833537701e-06   -3.3438581446027475e-05
-1.4821162618151542e-05   5.03388833537701e-06   -3.3438581446027475e-05
-1.4821162618151542e-05   5.03388833537701e-06   -3.3438581446027475e-05
-1.4821162618151542e-05   5.03388833537701e-06   -3.3438581446027475e-05
-2.8632060759795164e-05   4.258424934874599e-06   -9.955139836320009e-06
-2.8632060759795164e-05   4.258424934874599e-06   -9.955139836320009e-06
-2.8632060759795164e-05   4.258424934874599e-06   -9.955139836320009e-06
-2.8632060759795164e-05   4.258424934874599e-06   -9.955139836320009e-06
-2.1460931109811247e-05   4.182110191302028e-06   -2.1861233740149522e-05
-2.1460931109811247e-05   4.182110191302028e-06   -2.1861233740149522e-05
-2.1460931109811247e-05   4.182110191302028e-06   -2.1861233740149522e-05
-2.1460931109811247e-05   4.182110191302028e-06   -2.1861233740149522e-05
-2.8632060759795164e-05   5.033888335377018e-06   -3.297330340572601e-05
-2.8632060759795164e-05   5.033888335377018e-06   -3.297330340572601e-05
-2.8632060759795164e-05   5.033888335377018e-06   -3.297330340572601e-05
-2.8632060759795164e-05   5.033888335377018e-06   -3.297330340572601e-05
-1.4821162618151562e-05   4.258424934874599e-06   -1.0420417876621308e-05
-1.4821162618151562e-05   4.258424934874599e-06   -1.0420417876621308e-05
-1.4821162618151562e-05   4.258424934874599e-06   -1.0420417876621308e-05
-1.4821162618151562e-05   4.258424934874599e-06   -1.0420417876621308e-05
-1.4967916121517108e-05   6.065697579300751e-06   -3.335828383614346e-05
-1.4967916121517108e-05   6.065697579300751e-06   -3.335828383614346e-05
-1.4967916121517108e-05   6.065697579300751e-06   -3.335828383614346e-05
-1.4967916121517108e-05   6.065697579300751e-06   -3.335828383614346e-05
-2.8659786596564574e-05   5.195211988319145e-06   -1.0016208356475472e-05
-2.8659786596564574e-05   5.195211988319145e-06   -1.0016208356475472e-05
-2.8659786596564574e-05   5.195211988319145e-06   -1.0016208356475472e-05
-2.8659786596564574e-05   5.195211988319145e-06   -1.0016208356475472e-05
-2.1713852889990526e-05   4.989710513475694e-06   -2.146946364919245e-05
-2.1713852889990526e-05   4.989710513475694e-06   -2.146946364919245e-05
-2.1713852889990526e-05   4.989710513475694e-06   -2.146946364919245e-05
-2.1713852889990526e-05   4.989710513475694e-06   -2.146946364919245e-05
-1.4533156459640211e-05   -8.793277527752632e-08   -3.7566210545451244e-05
-1.4533156459640211e-05   -8.793277527752632e-08   -3.7566210545451244e-05
-1.4533156459640211e-05   -8.793277527752632e-08   -3.7566210545451244e-05
-1.4533156459640211e-05   -8.793277527752632e-08   -3.7566210545451244e-05
-6.942459957879021e-07   1.274970945403832e-07   -1.4372101850473331e-05
-6.942459957879021e-07   1.274970945403832e-07   -1.4372101850473331e-05
-6.942459957879021e-07   1.274970945403832e-07   -1.4372101850473331e-05
-6.942459957879021e-07   1.274970945403832e-07   -1.4372101850473331e-05
-8.344895708006163e-07   9.788476012687433e-07   -3.7213519949331146e-05
-8.344895708006163e-07   9.788476012687433e-07   -3.7213519949331146e-05
-8.344895708006163e-07   9.788476012687433e-07   -3.7213519949331146e-05
-8.344895708006163e-07   9.788476012687433e-07   -3.7213519949331146e-05
-1.4708179021200644e-05   1.1025229122354888e-06   -1.4164909385244417e-05
-1.4708179021200644e-05   1.1025229122354888e-06   -1.4164909385244417e-05
-1.4708179021200644e-05   1.1025229122354888e-06   -1.4164909385244417e-05
-1.4708179021200644e-05   1.1025229122354888e-06   -1.4164909385244417e-05
-7.649045181375662e-06   6.427611490825353e-07   -2.5654275393727637e-05
-7.649045181375662e-06   6.427611490825353e-07   -2.5654275393727637e-05
-7.649045181375662e-06   6.427611490825353e-07   -2.5654275393727637e-05
-7.649045181375662e-06   6.427611490825353e-07   -2.5654275393727637e-05
-1.470817902120067e-05   9.78847601268754e-07   -3.7287725135911194e-05
-1.470817902120067e-05   9.78847601268754e-07   -3.7287725135911194e-05
-1.470817902120067e-05   9.78847601268754e-07   -3.7287725135911194e-05
-1.470817902120067e-05   9.78847601268754e-07   -3.7287725135911194e-05
-8.344895708006163e-07   1.1025229122354888e-06   -1.4090704198664383e-05
-8.344895708006163e-07   1.1025229122354888e-06   -1.4090704198664383e-05
-8.344895708006163e-07   1.1025229122354888e-06   -1.4090704198664383e-05
-8.344895708006163e-07   1.1025229122354888e-06   -1.4090704198664383e-05
-9.353078385782224e-07   2.021295404655381e-06   -3.7313638498406084e-05
-9.353078385782224e-07   2.021295404655381e-06   -3.7313638498406084e-05
-9.353078385782224e-07   2.021295404655381e-06   -3.7313638498406084e-05
-9.353078385782224e-07   2.021295404655381e-06   -3.7313638498406084e-05
-1.482116261815154e-05   2.0746953264629323e-06   -1.4202587152201734e-05
-1.482116261815154e-05   2.0746953264629323e-06   -1.4202587152201734e-05
-1.482116261815154e-05   2.0746953264629323e-06   -1.4202587152201734e-05
-1.482116261815154e-05   2.0746953264629323e-06   -1.4202587152201734e-05
-7.830489296866217e-06   1.5027711091518056e-06   -2.5510554823957273e-05
-7.830489296866217e-06   1.5027711091518056e-06   -2.5510554823957273e-05
-7.830489296866217e-06   1.5027711091518056e-06   -2.5510554823957273e-05
-7.830489296866217e-06   1.5027711091518056e-06   -2.5510554823957273e-05
-1.4821162618151542e-05   2.02129540465537e-06   -3.73456784514906e-05
-1.4821162618151542e-05   2.02129540465537e-06   -3.73456784514906e-05
-1.4821162618151542e-05   2.02129540465537e-06   -3.73456784514906e-05
-1.4821162618151542e-05   2.02129540465537e-06   -3.73456784514906e-05
-9.353078385782224e-07   2.0746953264629323e-06   -1.4170547199117081e-05
-9.353078385782224e-07   2.0746953264629323e-06   -1.4170547199117081e-05
-9.353078385782224e-07   2.0746953264629323e-06   -1.4170547199117081e-05
-9.353078385782224e-07   2.0746953264629323e-06   -1.4170547199117081e-05
-1.094564736982394e-06   3.1072776865347866e-06   -3.779343418014477e-05
-1.094564736982394e-06   3.1072776865347866e-06   -3.779343418014477e-05
-1.094564736982394e-06   3.1072776865347866e-06   -3.779343418014477e-05
-1.094564736982394e-06   3.1072776865347866e-06   -3.779343418014477e-05
-1.4967916121517124e-05   3.0694109728134186e-06   -1.4648461844354169e-05
-1.4967916121517124e-05   3.0694109728134186e-06   -1.4648461844354169e-05
-1.4967916121517124e-05   3.0694109728134186e-06   -1.4648461844354169e-05
-1.4967916121517124e-05   3.0694109728134186e-06   -1.4648461844354169e-05
-8.02332811999297e-06   2.373002445122405e-06   -2.5804930063612862e-05
-8.02332811999297e-06   2.373002445122405e-06   -2.5804930063612862e-05
-8.02332811999297e-06   2.373002445122405e-06   -2.5804930063612862e-05
-8.02332811999297e-06   2.373002445122405e-06   -2.5804930063612862e-05
-6.942459957879034e-07   -2.985357345067856e-06   -3.356337389047951e-05
-6.942459957879034e-07   -2.985357345067856e-06   -3.356337389047951e-05
-6.942459957879034e-07   -2.985357345067856e-06   -3.356337389047951e-05
-6.942459957879034e-07   -2.985357345067856e-06   -3.356337389047951e-05
1.3071624864780521e-05   -1.9987512051598344e-06   -1.0028292105587365e-05
1.3071624864780521e-05   -1.9987512051598344e-06   -1.0028292105587365e-05
1.3071624864780521e-05   -1.9987512051598344e-06   -1.0028292105587365e-05
1.3071624864780521e-05   -1.9987512051598344e-06   -1.0028292105587365e-05
1.3063080063022435e-05   -2.01534965671069e-06   -3.317464829898625e-05
1.3063080063022435e-05   -2.01534965671069e-06   -3.317464829898625e-05
1.3063080063022435e-05   -2.01534965671069e-06   -3.317464829898625e-05
1.3063080063022435e-05   -2.01534965671069e-06   -3.317464829898625e-05
-8.344895708006165e-07   -1.1042842747335086e-06   -1.0558671471800823e-05
-8.344895708006165e-07   -1.1042842747335086e-06   -1.0558671471800823e-05
-8.344895708006165e-07   -1.1042842747335086e-06   -1.0558671471800823e-05
-8.344895708006165e-07   -1.1042842747335086e-06   -1.0558671471800823e-05
6.104790973885277e-06   -1.955232008722717e-06   -2.161357040588378e-05
6.104790973885277e-06   -1.955232008722717e-06   -2.161357040588378e-05
6.104790973885277e-06   -1.955232008722717e-06   -2.161357040588378e-05
6.104790973885277e-06   -1.955232008722717e-06   -2.161357040588378e-05
-8.344895708006163e-07   -2.0153496567106947e-06   -3.3721287528172615e-05
-8.344895708006163e-07   -2.0153496567106947e-06   -3.3721287528172615e-05
-8.344895708006163e-07   -2.0153496567106947e-06   -3.3721287528172615e-05
-8.344895708006163e-07   -2.0153496567106947e-06   -3.3721287528172615e-05
1.3063080063022462e-05   -1.1042842747335086e-06   -1.0012032242614501e-05
1.3063080063022462e-05   -1.1042842747335086e-06   -1.0012032242614501e-05
1.3063080063022462e-05   -1.1042842747335086e-06   -1.0012032242614501e-05
1.3063080063022462e-05   -1.1042842747335086e-06   -1.0012032242614501e-05
1.3127102020748056e-05   -1.0656369898077338e-06   -3.404987186980617e-05
1.3127102020748056e-05   -1.0656369898077338e-06   -3.404987186980617e-05
1.3127102020748056e-05   -1.0656369898077338e-06   -3.404987186980617e-05
1.3127102020748056e-05   -1.0656369898077338e-06   -3.404987186980617e-05
-9.353078385782236e-07   -2.259828082310845e-07   -1.111631461320837e-05
-9.353078385782236e-07   -2.259828082310845e-07   -1.111631461320837e-05
-9.353078385782236e-07   -2.259828082310845e-07   -1.111631461320837e-05
-9.353078385782236e-07   -2.259828082310845e-07   -1.111631461320837e-05
5.917882867545579e-06   -1.1798042817645301e-06   -2.1966006239294616e-05
5.917882867545579e-06   -1.1798042817645301e-06   -2.1966006239294616e-05
5.917882867545579e-06   -1.1798042817645301e-06   -2.1966006239294616e-05
5.917882867545579e-06   -1.1798042817645301e-06   -2.1966006239294616e-05
-9.353078385782224e-07   -1.0656369898077353e-06   -3.455366437875215e-05
-9.353078385782224e-07   -1.0656369898077353e-06   -3.455366437875215e-05
-9.353078385782224e-07   -1.0656369898077353e-06   -3.455366437875215e-05
-9.353078385782224e-07   -1.0656369898077353e-06   -3.455366437875215e-05
1.3127102020748076e-05   -2.259828082310845e-07   -1.0612522104262235e-05
1.3127102020748076e-05   -2.259828082310845e-07   -1.0612522104262235e-05
1.3127102020748076e-05   -2.259828082310845e-07   -1.0612522104262235e-05
1.3127102020748076e-05   -2.259828082310845e-07   -1.0612522104262235e-05
1.3028021600460066e-05   1.0846903008665358e-07   -3.504417340506381e-05
1.3028021600460066e-05   1.0846903008665358e-07   -3.504417340506381e-05
1.3028021600460066e-05   1.0846903008665358e-07   -3.504417340506381e-05
1.3028021600460066e-05   1.0846903008665358e-07   -3.504417340506381e-05
-1.0945647369823956e-06   8.002938496139318e-07   -1.1921624401042843e-05
-1.0945647369823956e-06   8.002938496139318e-07   -1.1921624401042843e-05
-1.0945647369823956e-06   8.002938496139318e-07   -1.1921624401042843e-05
-1.0945647369823956e-06   8.002938496139318e-07   -1.1921624401042843e-05
5.85314996762813e-06   -3.5065563147330123e-07   -2.2810579220074485e-05
5.85314996762813e-06   -3.5065563147330123e-07   -2.2810579220074485e-05
5.85314996762813e-06   -3.5065563147330123e-07   -2.2810579220074485e-05
5.85314996762813e-06   -3.5065563147330123e-07   -2.2810579220074485e-05
1.3071624864780501e-05   -5.545402664324206e-06   -1.877012437353713e-05
1.3071624864780501e-05   -5.545402664324206e-06   -1.877012437353713e-05
1.3071624864780501e-05   -5.545402664324206e-06   -1.877012437353713e-05
1.3071624864780501e-05   -5.545402664324206e-06   -1.877012437353713e-05
2.5948474883395712e-05   -3.62037670553788e-06   3.846307899426716e-06
2.5948474883395712e-05   -3.62037670553788e-06   3.846307899426716e-06
2.5948474883395712e-05   -3.62037670553788e-06   3.846307899426716e-06
2.5948474883395712e-05   -3.62037670553788e-06   3.846307899426716e-06
2.68296578245911e-05   -5.0274413800546075e-06   -2.1105317286614756e-05
2.68296578245911e-05   -5.0274413800546075e-06   -2.1105317286614756e-05
2.68296578245911e-05   -5.0274413800546075e-06   -2.1105317286614756e-05
2.68296578245911e-05   -5.0274413800546075e-06   -2.1105317286614756e-05
1.3063080063022437e-05   -3.1037722136701925e-06   6.847774828357708e-07
1.3063080063022437e-05   -3.1037722136701925e-06   6.847774828357708e-07
1.3063080063022437e-05   -3.1037722136701925e-06   6.847774828357708e-07
1.3063080063022437e-05   -3.1037722136701925e-06   6.847774828357708e-07
1.8885168388816813e-05   -4.272769016784648e-06   -8.317304978286205e-06
1.8885168388816813e-05   -4.272769016784648e-06   -8.317304978286205e-06
1.8885168388816813e-05   -4.272769016784648e-06   -8.317304978286205e-06
1.8885168388816813e-05   -4.272769016784648e-06   -8.317304978286205e-06
1.3063080063022428e-05   -5.027441380054626e-06   -2.2259518786445353e-05
1.3063080063022428e-05   -5.027441380054626e-06   -2.2259518786445353e-05
1.3063080063022428e-05   -5.027441380054626e-06   -2.2259518786445353e-05
1.3063080063022428e-05   -5.027441380054626e-06   -2.2259518786445353e-05
2.68296578245911e-05   -3.1037722136702467e-06   1.8389789826663548e-06
2.68296578245911e-05   -3.1037722136702467e-06   1.8389789826663548e-06
2.68296578245911e-05   -3.1037722136702467e-06   1.8389789826663548e-06
2.68296578245911e-05   -3.1037722136702467e-06   1.8389789826663548e-06
2.7508188754534106e-05   -4.48099760523701e-06   -2.3799684346301877e-05
2.7508188754534106e-05   -4.48099760523701e-06   -2.3799684346301877e-05
2.7508188754534106e-05   -4.48099760523701e-06   -2.3799684346301877e-05
2.7508188754534106e-05   -4.48099760523701e-06   -2.3799684346301877e-05
1.3127102020748029e-05   -2.6620503492319003e-06   -9.225748102615521e-07
1.3127102020748029e-05   -2.6620503492319003e-06   -9.225748102615521e-07
1.3127102020748029e-05   -2.6620503492319003e-06   -9.225748102615521e-07
1.3127102020748029e-05   -2.6620503492319003e-06   -9.225748102615521e-07
1.9530317948558182e-05   -3.939589514137163e-06   -1.082807785766858e-05
1.9530317948558182e-05   -3.939589514137163e-06   -1.082807785766858e-05
1.9530317948558182e-05   -3.939589514137163e-06   -1.082807785766858e-05
1.9530317948558182e-05   -3.939589514137163e-06   -1.082807785766858e-05
1.3127102020748056e-05   -4.480997605237011e-06   -2.4891052699904976e-05
1.3127102020748056e-05   -4.480997605237011e-06   -2.4891052699904976e-05
1.3127102020748056e-05   -4.480997605237011e-06   -2.4891052699904976e-05
1.3127102020748056e-05   -4.480997605237011e-06   -2.4891052699904976e-05
2.7508188754534065e-05   -2.662050349231846e-06   1.687935433417032e-07
2.7508188754534065e-05   -2.662050349231846e-06   1.687935433417032e-07
2.7508188754534065e-05   -2.662050349231846e-06   1.687935433417032e-07
2.7508188754534065e-05   -2.662050349231846e-06   1.687935433417032e-07
2.823231447863657e-05   -3.3053755222690114e-06   -2.8386848577395745e-05
2.823231447863657e-05   -3.3053755222690114e-06   -2.8386848577395745e-05
2.823231447863657e-05   -3.3053755222690114e-06   -2.8386848577395745e-05
2.823231447863657e-05   -3.3053755222690114e-06   -2.8386848577395745e-05
1.302802160046001e-05   -1.7195502539161232e-06   -3.997855608113191e-06
1.302802160046001e-05   -1.7195502539161232e-06   -3.997855608113191e-06
1.302802160046001e-05   -1.7195502539161232e-06   -3.997855608113191e-06
1.302802160046001e-05   -1.7195502539161232e-06   -3.997855608113191e-06
1.94506044854061e-05   -3.392172671977693e-06   -1.369858696551969e-05
1.94506044854061e-05   -3.392172671977693e-06   -1.369858696551969e-05
1.94506044854061e-05   -3.392172671977693e-06   -1.369858696551969e-05
1.94506044854061e-05   -3.392172671977693e-06   -1.369858696551969e-05
-3.120920690008038e-05   4.786275088327615e-06   -2.3773795216313254e-05
-3.120920690008038e-05   4.786275088327615e-06   -2.3773795216313254e-05
-3.120920690008038e-05   4.786275088327615e-06   -2.3773795216313254e-05
-3.120920690008038e-05   4.786275088327615e-06   -2.3773795216313254e-05
-2.1268370553639097e-05   3.040310235806823e-06   -8.253313550423602e-06
-2.1268370553639097e-05   3.040310235806823e-06   -8.253313550423602e-06
-2.1268370553639097e-05   3.040310235806823e-06   -8.253313550423602e-06
-2.1268370553639097e-05   3.040310235806823e-06   -8.253313550423602e-06
-2.119059595462451e-05   5.792518312687056e-06   -2.0197691674136487e-05
-2.119059595462451e-05   5.792518312687056e-06   -2.0197691674136487e-05
-2.119059595462451e-05   5.792518312687056e-06   -2.0197691674136487e-05
-2.119059595462451e-05   5.792518312687056e-06   -2.0197691674136487e-05
-3.0271421505862808e-05   3.872210534106566e-06   -3.910797754924438e-06
-3.0271421505862808e-05   3.872210534106566e-06   -3.910797754924438e-06
-3.0271421505862808e-05   3.872210534106566e-06   -3.910797754924438e-06
-3.0271421505862808e-05   3.872210534106566e-06   -3.910797754924438e-06
-2.4882384732941072e-05   4.609714390067538e-06   -1.333502802337055e-05
-2.4882384732941072e-05   4.609714390067538e-06   -1.333502802337055e-05
-2.4882384732941072e-05   4.609714390067538e-06   -1.333502802337055e-05
-2.4882384732941072e-05   4.609714390067538e-06   -1.333502802337055e-05
-3.02714215058628e-05   5.7925183126870695e-06   -1.9045507006988264e-05
-3.02714215058628e-05   5.7925183126870695e-06   -1.9045507006988264e-05
-3.02714215058628e-05   5.7925183126870695e-06   -1.9045507006988264e-05
-3.02714215058628e-05   5.7925183126870695e-06   -1.9045507006988264e-05
-2.119059595462455e-05   3.872210534106566e-06   -5.062982422072732e-06
-2.119059595462455e-05   3.872210534106566e-06   -5.062982422072732e-06
-2.119059595462455e-05   3.872210534106566e-06   -5.062982422072732e-06
-2.119059595462455e-05   3.872210534106566e-06   -5.062982422072732e-06
-2.102965051176085e-05   6.235056937897157e-06   -1.7612631539587844e-05
-2.102965051176085e-05   6.235056937897157e-06   -1.7612631539587844e-05
-2.102965051176085e-05   6.235056937897157e-06   -1.7612631539587844e-05
-2.102965051176085e-05   6.235056937897157e-06   -1.7612631539587844e-05
-2.957116878283212e-05   4.2604549617105206e-06   -2.1920065687570218e-06
-2.957116878283212e-05   4.2604549617105206e-06   -2.1920065687570218e-06
-2.957116878283212e-05   4.2604549617105206e-06   -2.1920065687570218e-06
-2.957116878283212e-05   4.2604549617105206e-06   -2.1920065687570218e-06
-2.4882365736381708e-05   5.074044202486546e-06   -1.0494831857306696e-05
-2.4882365736381708e-05   5.074044202486546e-06   -1.0494831857306696e-05
-2.4882365736381708e-05   5.074044202486546e-06   -1.0494831857306696e-05
-2.4882365736381708e-05   5.074044202486546e-06   -1.0494831857306696e-05
-2.957116878283213e-05   6.235056937897171e-06   -1.642787035387576e-05
-2.957116878283213e-05   6.235056937897171e-06   -1.642787035387576e-05
-2.957116878283213e-05   6.235056937897171e-06   -1.642787035387576e-05
-2.957116878283213e-05   6.235056937897171e-06   -1.642787035387576e-05
-2.102965051176089e-05   4.2604549617105206e-06   -3.3767677544689608e-06
-2.102965051176089e-05   4.2604549617105206e-06   -3.3767677544689608e-06
-2.102965051176089e-05   4.2604549617105206e-06   -3.3767677544689608e-06
-2.102965051176089e-05   4.2604549617105206e-06   -3.3767677544689608e-06
-2.0965724475609238e-05   6.6720883297371266e-06   -1.4036627265557461e-05
-2.0965724475609238e-05   6.6720883297371266e-06   -1.4036627265557461e-05
-2.0965724475609238e-05   6.6720883297371266e-06   -1.4036627265557461e-05
-2.0965724475609238e-05   6.6720883297371266e-06   -1.4036627265557461e-05
-2.8655837859207998e-05   4.7496501523565035e-06   -6.630871979783608e-08
-2.8655837859207998e-05   4.7496501523565035e-06   -6.630871979783608e-08
-2.8655837859207998e-05   4.7496501523565035e-06   -6.630871979783608e-08
-2.8655837859207998e-05   4.7496501523565035e-06   -6.630871979783608e-08
-2.414545885531838e-05   5.32686472435375e-06   -7.92993580281222e-06
-2.414545885531838e-05   5.32686472435375e-06   -7.92993580281222e-06
-2.414545885531838e-05   5.32686472435375e-06   -7.92993580281222e-06
-2.414545885531838e-05   5.32686472435375e-06   -7.92993580281222e-06
-2.1268370553639056e-05   2.388328766309131e-06   -3.033397864867185e-05
-2.1268370553639056e-05   2.388328766309131e-06   -3.033397864867185e-05
-2.1268370553639056e-05   2.388328766309131e-06   -3.033397864867185e-05
-2.1268370553639056e-05   2.388328766309131e-06   -3.033397864867185e-05
-1.2252283170807722e-05   1.5748375044731706e-06   -1.5795261101054508e-05
-1.2252283170807722e-05   1.5748375044731706e-06   -1.5795261101054508e-05
-1.2252283170807722e-05   1.5748375044731706e-06   -1.5795261101054508e-05
-1.2252283170807722e-05   1.5748375044731706e-06   -1.5795261101054508e-05
-1.2258409788808603e-05   3.378332756655191e-06   -3.0071947574664083e-05
-1.2258409788808603e-05   3.378332756655191e-06   -3.0071947574664083e-05
-1.2258409788808603e-05   3.378332756655191e-06   -3.0071947574664083e-05
-1.2258409788808603e-05   3.378332756655191e-06   -3.0071947574664083e-05
-2.119059595462451e-05   2.453538192760782e-06   -1.4630093893300863e-05
-2.119059595462451e-05   2.453538192760782e-06   -1.4630093893300863e-05
-2.119059595462451e-05   2.453538192760782e-06   -1.4630093893300863e-05
-2.119059595462451e-05   2.453538192760782e-06   -1.4630093893300863e-05
-1.6587905869215918e-05   2.614233595355528e-06   -2.239766127720542e-05
-1.6587905869215918e-05   2.614233595355528e-06   -2.239766127720542e-05
-1.6587905869215918e-05   2.614233595355528e-06   -2.239766127720542e-05
-1.6587905869215918e-05   2.614233595355528e-06   -2.239766127720542e-05
-2.119059595462448e-05   3.378332756655174e-06   -2.951707083632732e-05
-2.119059595462448e-05   3.378332756655174e-06   -2.951707083632732e-05
-2.119059595462448e-05   3.378332756655174e-06   -2.951707083632732e-05
-2.119059595462448e-05   3.378332756655174e-06   -2.951707083632732e-05
-1.2258409788808555e-05   2.453538192760782e-06   -1.5184970631637452e-05
-1.2258409788808555e-05   2.453538192760782e-06   -1.5184970631637452e-05
-1.2258409788808555e-05   2.453538192760782e-06   -1.5184970631637452e-05
-1.2258409788808555e-05   2.453538192760782e-06   -1.5184970631637452e-05
-1.2249593441221962e-05   4.258424934874599e-06   -2.9398095070922142e-05
-1.2249593441221962e-05   4.258424934874599e-06   -2.9398095070922142e-05
-1.2249593441221962e-05   4.258424934874599e-06   -2.9398095070922142e-05
-1.2249593441221962e-05   4.258424934874599e-06   -2.9398095070922142e-05
-2.1029650511760853e-05   3.253737051543866e-06   -1.4161853890025557e-05
-2.1029650511760853e-05   3.253737051543866e-06   -1.4161853890025557e-05
-2.1029650511760853e-05   3.253737051543866e-06   -1.4161853890025557e-05
-2.1029650511760853e-05   3.253737051543866e-06   -1.4161853890025557e-05
-1.651090591723656e-05   3.336445370584159e-06   -2.174271987232334e-05
-1.651090591723656e-05   3.336445370584159e-06   -2.174271987232334e-05
-1.651090591723656e-05   3.336445370584159e-06   -2.174271987232334e-05
-1.651090591723656e-05   3.336445370584159e-06   -2.174271987232334e-05
-2.102965051176085e-05   4.258424934874609e-06   -2.879528234092375e-05
-2.102965051176085e-05   4.258424934874609e-06   -2.879528234092375e-05
-2.102965051176085e-05   4.258424934874609e-06   -2.879528234092375e-05
-2.102965051176085e-05   4.258424934874609e-06   -2.879528234092375e-05
-1.2249593441221962e-05   3.2537370515439744e-06   -1.4764666620023894e-05
-1.2249593441221962e-05   3.2537370515439744e-06   -1.4764666620023894e-05
-1.2249593441221962e-05   3.2537370515439744e-06   -1.4764666620023894e-05
-1.2249593441221962e-05   3.2537370515439744e-06   -1.4764666620023894e-05
-1.2259759146514157e-05   5.195211988319145e-06   -2.951681198480328e-05
-1.2259759146514157e-05   5.195211988319145e-06   -2.951681198480328e-05
-1.2259759146514157e-05   5.195211988319145e-06   -2.951681198480328e-05
-1.2259759146514157e-05   5.195211988319145e-06   -2.951681198480328e-05
-2.0965724475609214e-05   4.123577994773545e-06   -1.4363889373517416e-05
-2.0965724475609214e-05   4.123577994773545e-06   -1.4363889373517416e-05
-2.0965724475609214e-05   4.123577994773545e-06   -1.4363889373517416e-05
-2.0965724475609214e-05   4.123577994773545e-06   -1.4363889373517416e-05
-1.6618083111769964e-05   4.0515945434540525e-06   -2.1566768242457866e-05
-1.6618083111769964e-05   4.0515945434540525e-06   -2.1566768242457866e-05
-1.6618083111769964e-05   4.0515945434540525e-06   -2.1566768242457866e-05
-1.6618083111769964e-05   4.0515945434540525e-06   -2.1566768242457866e-05
-1.2252283170807743e-05   1.2749709454035473e-07   -3.3487012821466694e-05
-1.2252283170807743e-05   1.2749709454035473e-07   -3.3487012821466694e-05
-1.2252283170807743e-05   1.2749709454035473e-07   -3.3487012821466694e-05
-1.2252283170807743e-05   1.2749709454035473e-07   -3.3487012821466694e-05
-3.3587262326432834e-06   2.729936308849823e-07   -1.8577120002719196e-05
-3.3587262326432834e-06   2.729936308849823e-07   -1.8577120002719196e-05
-3.3587262326432834e-06   2.729936308849823e-07   -1.8577120002719196e-05
-3.3587262326432834e-06   2.729936308849823e-07   -1.8577120002719196e-05
-3.3653982310813686e-06   1.1025229122354888e-06   -3.3115178409862144e-05
-3.3653982310813686e-06   1.1025229122354888e-06   -3.3115178409862144e-05
-3.3653982310813686e-06   1.1025229122354888e-06   -3.3115178409862144e-05
-3.3653982310813686e-06   1.1025229122354888e-06   -3.3115178409862144e-05
-1.2258409788808555e-05   1.1571315180014616e-06   -1.8326257643776336e-05
-1.2258409788808555e-05   1.1571315180014616e-06   -1.8326257643776336e-05
-1.2258409788808555e-05   1.1571315180014616e-06   -1.8326257643776336e-05
-1.2258409788808555e-05   1.1571315180014616e-06   -1.8326257643776336e-05
-7.756673373825932e-06   7.799627710622153e-07   -2.560285042058387e-05
-7.756673373825932e-06   7.799627710622153e-07   -2.560285042058387e-05
-7.756673373825932e-06   7.799627710622153e-07   -2.560285042058387e-05
-7.756673373825932e-06   7.799627710622153e-07   -2.560285042058387e-05
-1.2258409788808576e-05   1.102522912235475e-06   -3.314794357332172e-05
-1.2258409788808576e-05   1.102522912235475e-06   -3.314794357332172e-05
-1.2258409788808576e-05   1.102522912235475e-06   -3.314794357332172e-05
-1.2258409788808576e-05   1.102522912235475e-06   -3.314794357332172e-05
-3.3653982310813686e-06   1.1571315180014616e-06   -1.8293492480316763e-05
-3.3653982310813686e-06   1.1571315180014616e-06   -1.8293492480316763e-05
-3.3653982310813686e-06   1.1571315180014616e-06   -1.8293492480316763e-05
-3.3653982310813686e-06   1.1571315180014616e-06   -1.8293492480316763e-05
-3.353870097968477e-06   2.0746953264629323e-06   -3.319861769669551e-05
-3.353870097968477e-06   2.0746953264629323e-06   -3.319861769669551e-05
-3.353870097968477e-06   2.0746953264629323e-06   -3.319861769669551e-05
-3.353870097968477e-06   2.0746953264629323e-06   -3.319861769669551e-05
-1.2249593441221966e-05   2.0441064094744218e-06   -1.835405877441328e-05
-1.2249593441221966e-05   2.0441064094744218e-06   -1.835405877441328e-05
-1.2249593441221966e-05   2.0441064094744218e-06   -1.835405877441328e-05
-1.2249593441221966e-05   2.0441064094744218e-06   -1.835405877441328e-05
-7.808803145778665e-06   1.5537784676214234e-06   -2.546117916837363e-05
-7.808803145778665e-06   1.5537784676214234e-06   -2.546117916837363e-05
-7.808803145778665e-06   1.5537784676214234e-06   -2.546117916837363e-05
-7.808803145778665e-06   1.5537784676214234e-06   -2.546117916837363e-05
-1.2249593441221962e-05   2.0746953264629077e-06   -3.31802643465024e-05
-1.2249593441221962e-05   2.0746953264629077e-06   -3.31802643465024e-05
-1.2249593441221962e-05   2.0746953264629077e-06   -3.31802643465024e-05
-1.2249593441221962e-05   2.0746953264629077e-06   -3.31802643465024e-05
-3.353870097968477e-06   2.0441064094744218e-06   -1.8372412124606258e-05
-3.353870097968477e-06   2.0441064094744218e-06   -1.8372412124606258e-05
-3.353870097968477e-06   2.0441064094744218e-06   -1.8372412124606258e-05
-3.353870097968477e-06   2.0441064094744218e-06   -1.8372412124606258e-05
-3.359232906467108e-06   3.0694109728134186e-06   -3.370046742522738e-05
-3.359232906467108e-06   3.0694109728134186e-06   -3.370046742522738e-05
-3.359232906467108e-06   3.0694109728134186e-06   -3.370046742522738e-05
-3.359232906467108e-06   3.0694109728134186e-06   -3.370046742522738e-05
-1.2259759146514174e-05   2.9465887942562797e-06   -1.8792563718014548e-05
-1.2259759146514174e-05   2.9465887942562797e-06   -1.8792563718014548e-05
-1.2259759146514174e-05   2.9465887942562797e-06   -1.8792563718014548e-05
-1.2259759146514174e-05   2.9465887942562797e-06   -1.8792563718014548e-05
-7.876129313789837e-06   2.337762083882099e-06   -2.573331741299732e-05
-7.876129313789837e-06   2.337762083882099e-06   -2.573331741299732e-05
-7.876129313789837e-06   2.337762083882099e-06   -2.573331741299732e-05
-7.876129313789837e-06   2.337762083882099e-06   -2.573331741299732e-05
-3.3587262326432775e-06   -1.998751205159786e-06   -2.9647868838718767e-05
-3.3587262326432775e-06   -1.998751205159786e-06   -2.9647868838718767e-05
-3.3587262326432775e-06   -1.998751205159786e-06   -2.9647868838718767e-05
-3.3587262326432775e-06   -1.998751205159786e-06   -2.9647868838718767e-05
5.401118536399627e-06   -9.170787428282486e-07   -1.4399124079581634e-05
5.401118536399627e-06   -9.170787428282486e-07   -1.4399124079581634e-05
5.401118536399627e-06   -9.170787428282486e-07   -1.4399124079581634e-05
5.401118536399627e-06   -9.170787428282486e-07   -1.4399124079581634e-05
5.472488414333904e-06   -1.1042842747335086e-06   -2.8970755509422888e-05
5.472488414333904e-06   -1.1042842747335086e-06   -2.8970755509422888e-05
5.472488414333904e-06   -1.1042842747335086e-06   -2.8970755509422888e-05
5.472488414333904e-06   -1.1042842747335086e-06   -2.8970755509422888e-05
-3.3653982310813622e-06   -8.363398544075726e-08   -1.485333460730642e-05
-3.3653982310813622e-06   -8.363398544075726e-08   -1.485333460730642e-05
-3.3653982310813622e-06   -8.363398544075726e-08   -1.485333460730642e-05
-3.3653982310813622e-06   -8.363398544075726e-08   -1.485333460730642e-05
1.0431044177406484e-06   -9.489880957982348e-07   -2.1681626555795282e-05
1.0431044177406484e-06   -9.489880957982348e-07   -2.1681626555795282e-05
1.0431044177406484e-06   -9.489880957982348e-07   -2.1681626555795282e-05
1.0431044177406484e-06   -9.489880957982348e-07   -2.1681626555795282e-05
-3.3653982310813686e-06   -1.1042842747334893e-06   -2.9583145682998533e-05
-3.3653982310813686e-06   -1.1042842747334893e-06   -2.9583145682998533e-05
-3.3653982310813686e-06   -1.1042842747334893e-06   -2.9583145682998533e-05
-3.3653982310813686e-06   -1.1042842747334893e-06   -2.9583145682998533e-05
5.472488414333904e-06   -8.363398544064884e-08   -1.4240944433730818e-05
5.472488414333904e-06   -8.363398544064884e-08   -1.4240944433730818e-05
5.472488414333904e-06   -8.363398544064884e-08   -1.4240944433730818e-05
5.472488414333904e-06   -8.363398544064884e-08   -1.4240944433730818e-05
5.641777576702058e-06   -2.259828082311387e-07   -2.9578268804803632e-05
5.641777576702058e-06   -2.259828082311387e-07   -2.9578268804803632e-05
5.641777576702058e-06   -2.259828082311387e-07   -2.9578268804803632e-05
5.641777576702058e-06   -2.259828082311387e-07   -2.9578268804803632e-05
-3.3538700979684712e-06   7.175443684072445e-07   -1.5151638986335713e-05
-3.3538700979684712e-06   7.175443684072445e-07   -1.5151638986335713e-05
-3.3538700979684712e-06   7.175443684072445e-07   -1.5151638986335713e-05
-3.3538700979684712e-06   7.175443684072445e-07   -1.5151638986335713e-05
9.921864281338053e-07   -2.5550490777390567e-07   -2.181123696413086e-05
9.921864281338053e-07   -2.5550490777390567e-07   -2.181123696413086e-05
9.921864281338053e-07   -2.5550490777390567e-07   -2.181123696413086e-05
9.921864281338053e-07   -2.5550490777390567e-07   -2.181123696413086e-05
-3.353870097968477e-06   -2.259828082311125e-07   -3.0144385110786646e-05
-3.353870097968477e-06   -2.259828082311125e-07   -3.0144385110786646e-05
-3.353870097968477e-06   -2.259828082311125e-07   -3.0144385110786646e-05
-3.353870097968477e-06   -2.259828082311125e-07   -3.0144385110786646e-05
5.641777576702065e-06   7.175443684072445e-07   -1.4585522680352677e-05
5.641777576702065e-06   7.175443684072445e-07   -1.4585522680352677e-05
5.641777576702065e-06   7.175443684072445e-07   -1.4585522680352677e-05
5.641777576702065e-06   7.175443684072445e-07   -1.4585522680352677e-05
5.724906013488613e-06   8.00293849613986e-07   -3.0450021510676874e-05
5.724906013488613e-06   8.00293849613986e-07   -3.0450021510676874e-05
5.724906013488613e-06   8.00293849613986e-07   -3.0450021510676874e-05
5.724906013488613e-06   8.00293849613986e-07   -3.0450021510676874e-05
-3.359232906467108e-06   1.6351079212910923e-06   -1.5810678420423547e-05
-3.359232906467108e-06   1.6351079212910923e-06   -1.5810678420423547e-05
-3.359232906467108e-06   1.6351079212910923e-06   -1.5810678420423547e-05
-3.359232906467108e-06   1.6351079212910923e-06   -1.5810678420423547e-05
1.0223992835053623e-06   4.855659492681284e-07   -2.2423673553830622e-05
1.0223992835053623e-06   4.855659492681284e-07   -2.2423673553830622e-05
1.0223992835053623e-06   4.855659492681284e-07   -2.2423673553830622e-05
1.0223992835053623e-06   4.855659492681284e-07   -2.2423673553830622e-05
5.40111853639962e-06   -3.6203767055379025e-06   -1.6279280931577464e-05
5.40111853639962e-06   -3.6203767055379025e-06   -1.6279280931577464e-05
5.40111853639962e-06   -3.6203767055379025e-06   -1.6279280931577464e-05
5.40111853639962e-06   -3.6203767055379025e-06   -1.6279280931577464e-05
1.3164961548122345e-05   -1.6813311532166237e-06   -2.1761152473133752e-06
1.3164961548122345e-05   -1.6813311532166237e-06   -2.1761152473133752e-06
1.3164961548122345e-05   -1.6813311532166237e-06   -2.1761152473133752e-06
1.3164961548122345e-05   -1.6813311532166237e-06   -2.1761152473133752e-06
1.4092868929694284e-05   -3.1037722136701925e-06   -1.708125129311775e-05
1.4092868929694284e-05   -3.1037722136701925e-06   -1.708125129311775e-05
1.4092868929694284e-05   -3.1037722136701925e-06   -1.708125129311775e-05
1.4092868929694284e-05   -3.1037722136701925e-06   -1.708125129311775e-05
5.472488414333902e-06   -1.1159480622454547e-06   -3.906644925038625e-06
5.472488414333902e-06   -1.1159480622454547e-06   -3.906644925038625e-06
5.472488414333902e-06   -1.1159480622454547e-06   -3.906644925038625e-06
5.472488414333902e-06   -1.1159480622454547e-06   -3.906644925038625e-06
9.12638464865467e-06   -2.306468970909078e-06   -9.282159437041718e-06
9.12638464865467e-06   -2.306468970909078e-06   -9.282159437041718e-06
9.12638464865467e-06   -2.306468970909078e-06   -9.282159437041718e-06
9.12638464865467e-06   -2.306468970909078e-06   -9.282159437041718e-06
5.472488414333897e-06   -3.1037722136702044e-06   -1.8273945783972562e-05
5.472488414333897e-06   -3.1037722136702044e-06   -1.8273945783972562e-05
5.472488414333897e-06   -3.1037722136702044e-06   -1.8273945783972562e-05
5.472488414333897e-06   -3.1037722136702044e-06   -1.8273945783972562e-05
1.4092868929694284e-05   -1.1159480622453463e-06   -2.713950434183774e-06
1.4092868929694284e-05   -1.1159480622453463e-06   -2.713950434183774e-06
1.4092868929694284e-05   -1.1159480622453463e-06   -2.713950434183774e-06
1.4092868929694284e-05   -1.1159480622453463e-06   -2.713950434183774e-06
1.4807807146151967e-05   -2.662050349231846e-06   -1.8726933436343353e-05
1.4807807146151967e-05   -2.662050349231846e-06   -1.8726933436343353e-05
1.4807807146151967e-05   -2.662050349231846e-06   -1.8726933436343353e-05
1.4807807146151967e-05   -2.662050349231846e-06   -1.8726933436343353e-05
5.641777576702066e-06   -7.264035584662052e-07   -4.6116055617196114e-06
5.641777576702066e-06   -7.264035584662052e-07   -4.6116055617196114e-06
5.641777576702066e-06   -7.264035584662052e-07   -4.6116055617196114e-06
5.641777576702066e-06   -7.264035584662052e-07   -4.6116055617196114e-06
9.692085806131516e-06   -2.0157843970061294e-06   -1.0588490774311287e-05
9.692085806131516e-06   -2.0157843970061294e-06   -1.0588490774311287e-05
9.692085806131516e-06   -2.0157843970061294e-06   -1.0588490774311287e-05
9.692085806131516e-06   -2.0157843970061294e-06   -1.0588490774311287e-05
5.641777576702058e-06   -2.6620503492318512e-06   -1.9888321510802787e-05
5.641777576702058e-06   -2.6620503492318512e-06   -1.9888321510802787e-05
5.641777576702058e-06   -2.6620503492318512e-06   -1.9888321510802787e-05
5.641777576702058e-06   -2.6620503492318512e-06   -1.9888321510802787e-05
1.4807807146151954e-05   -7.264035584660967e-07   -3.450217487260083e-06
1.4807807146151954e-05   -7.264035584660967e-07   -3.450217487260083e-06
1.4807807146151954e-05   -7.264035584660967e-07   -3.450217487260083e-06
1.4807807146151954e-05   -7.264035584660967e-07   -3.450217487260083e-06
1.5758932187856238e-05   -1.7195502539161232e-06   -2.1886872251046253e-05
1.5758932187856238e-05   -1.7195502539161232e-06   -2.1886872251046253e-05
1.5758932187856238e-05   -1.7195502539161232e-06   -2.1886872251046253e-05
1.5758932187856238e-05   -1.7195502539161232e-06   -2.1886872251046253e-05
5.724906013488623e-06   3.790867677991132e-08   -6.217970652184292e-06
5.724906013488623e-06   3.790867677991132e-08   -6.217970652184292e-06
5.724906013488623e-06   3.790867677991132e-08   -6.217970652184292e-06
5.724906013488623e-06   3.790867677991132e-08   -6.217970652184292e-06
9.88285419018819e-06   -1.5854239959684543e-06   -1.2173884676368085e-05
9.88285419018819e-06   -1.5854239959684543e-06   -1.2173884676368085e-05
9.88285419018819e-06   -1.5854239959684543e-06   -1.2173884676368085e-05
9.88285419018819e-06   -1.5854239959684543e-06   -1.2173884676368085e-05
-1.885002871836926e-05   3.0403102358068013e-06   -1.7693503327570264e-05
-1.885002871836926e-05   3.0403102358068013e-06   -1.7693503327570264e-05
-1.885002871836926e-05   3.0403102358068013e-06   -1.7693503327570264e-05
-1.885002871836926e-05   3.0403102358068013e-06   -1.7693503327570264e-05
-1.3943821148818469e-05   1.234486346828826e-06   -1.0599985045039011e-05
-1.3943821148818469e-05   1.234486346828826e-06   -1.0599985045039011e-05
-1.3943821148818469e-05   1.234486346828826e-06   -1.0599985045039011e-05
-1.3943821148818469e-05   1.234486346828826e-06   -1.0599985045039011e-05
-1.3740143210645613e-05   3.872210534106566e-06   -1.5609031477838327e-05
-1.3740143210645613e-05   3.872210534106566e-06   -1.5609031477838327e-05
-1.3740143210645613e-05   3.872210534106566e-06   -1.5609031477838327e-05
-1.3740143210645613e-05   3.872210534106566e-06   -1.5609031477838327e-05
-1.782264432859059e-05   1.925806377174946e-06   -7.637020453770901e-06
-1.782264432859059e-05   1.925806377174946e-06   -7.637020453770901e-06
-1.782264432859059e-05   1.925806377174946e-06   -7.637020453770901e-06
-1.782264432859059e-05   1.925806377174946e-06   -7.637020453770901e-06
-1.5407574667697604e-05   2.7280111019275556e-06   -1.2143459390111559e-05
-1.5407574667697604e-05   2.7280111019275556e-06   -1.2143459390111559e-05
-1.5407574667697604e-05   2.7280111019275556e-06   -1.2143459390111559e-05
-1.5407574667697604e-05   2.7280111019275556e-06   -1.2143459390111559e-05
-1.7822644328590584e-05   3.8722105341065596e-06   -1.444118898367942e-05
-1.7822644328590584e-05   3.8722105341065596e-06   -1.444118898367942e-05
-1.7822644328590584e-05   3.8722105341065596e-06   -1.444118898367942e-05
-1.7822644328590584e-05   3.8722105341065596e-06   -1.444118898367942e-05
-1.374014321064564e-05   1.925806377174946e-06   -8.80486294792993e-06
-1.374014321064564e-05   1.925806377174946e-06   -8.80486294792993e-06
-1.374014321064564e-05   1.925806377174946e-06   -8.80486294792993e-06
-1.374014321064564e-05   1.925806377174946e-06   -8.80486294792993e-06
-1.3449014601228361e-05   4.2604549617105206e-06   -1.3937425226198544e-05
-1.3449014601228361e-05   4.2604549617105206e-06   -1.3937425226198544e-05
-1.3449014601228361e-05   4.2604549617105206e-06   -1.3937425226198544e-05
-1.3449014601228361e-05   4.2604549617105206e-06   -1.3937425226198544e-05
-1.700439964454759e-05   2.275894133954093e-06   -6.8210469906792594e-06
-1.700439964454759e-05   2.275894133954093e-06   -6.8210469906792594e-06
-1.700439964454759e-05   2.275894133954093e-06   -6.8210469906792594e-06
-1.700439964454759e-05   2.275894133954093e-06   -6.8210469906792594e-06
-1.5137312832562857e-05   3.1013674559575172e-06   -1.0428142337189225e-05
-1.5137312832562857e-05   3.1013674559575172e-06   -1.0428142337189225e-05
-1.5137312832562857e-05   3.1013674559575172e-06   -1.0428142337189225e-05
-1.5137312832562857e-05   3.1013674559575172e-06   -1.0428142337189225e-05
-1.7004399644547587e-05   4.260454961710483e-06   -1.2746688729544698e-05
-1.7004399644547587e-05   4.260454961710483e-06   -1.2746688729544698e-05
-1.7004399644547587e-05   4.260454961710483e-06   -1.2746688729544698e-05
-1.7004399644547587e-05   4.260454961710483e-06   -1.2746688729544698e-05
-1.3449014601228388e-05   2.275894133954093e-06   -8.01178348733305e-06
-1.3449014601228388e-05   2.275894133954093e-06   -8.01178348733305e-06
-1.3449014601228388e-05   2.275894133954093e-06   -8.01178348733305e-06
-1.3449014601228388e-05   2.275894133954093e-06   -8.01178348733305e-06
-1.3251807472562107e-05   4.749650152356395e-06   -1.1794703135057966e-05
-1.3251807472562107e-05   4.749650152356395e-06   -1.1794703135057966e-05
-1.3251807472562107e-05   4.749650152356395e-06   -1.1794703135057966e-05
-1.3251807472562107e-05   4.749650152356395e-06   -1.1794703135057966e-05
-1.5962790692567438e-05   2.8308415972046847e-06   -6.125112635291447e-06
-1.5962790692567438e-05   2.8308415972046847e-06   -6.125112635291447e-06
-1.5962790692567438e-05   2.8308415972046847e-06   -6.125112635291447e-06
-1.5962790692567438e-05   2.8308415972046847e-06   -6.125112635291447e-06
-1.4430818228388848e-05   3.361470190866721e-06   -8.996777231786302e-06
-1.4430818228388848e-05   3.361470190866721e-06   -8.996777231786302e-06
-1.4430818228388848e-05   3.361470190866721e-06   -8.996777231786302e-06
-1.4430818228388848e-05   3.361470190866721e-06   -8.996777231786302e-06
-1.3943821148818469e-05   1.5748375044731728e-06   -2.5830850454486418e-05
-1.3943821148818469e-05   1.5748375044731728e-06   -2.5830850454486418e-05
-1.3943821148818469e-05   1.5748375044731728e-06   -2.5830850454486418e-05
-1.3943821148818469e-05   1.5748375044731728e-06   -2.5830850454486418e-05
-9.954338311754458e-06   7.130459468210597e-07   -1.969878732730444e-05
-9.954338311754458e-06   7.130459468210597e-07   -1.969878732730444e-05
-9.954338311754458e-06   7.130459468210597e-07   -1.969878732730444e-05
-9.954338311754458e-06   7.130459468210597e-07   -1.969878732730444e-05
-9.821949825440779e-06   2.453538192760782e-06   -2.574455309575861e-05
-9.821949825440779e-06   2.453538192760782e-06   -2.574455309575861e-05
-9.821949825440779e-06   2.453538192760782e-06   -2.574455309575861e-05
-9.821949825440779e-06   2.453538192760782e-06   -2.574455309575861e-05
-1.3740143210645657e-05   1.5061879482740998e-06   -1.86458206403916e-05
-1.3740143210645657e-05   1.5061879482740998e-06   -1.86458206403916e-05
-1.3740143210645657e-05   1.5061879482740998e-06   -1.86458206403916e-05
-1.3740143210645657e-05   1.5061879482740998e-06   -1.86458206403916e-05
-1.1749351793629387e-05   1.7151753878333863e-06   -2.2089198799154938e-05
-1.1749351793629387e-05   1.7151753878333863e-06   -2.2089198799154938e-05
-1.1749351793629387e-05   1.7151753878333863e-06   -2.2089198799154938e-05
-1.1749351793629387e-05   1.7151753878333863e-06   -2.2089198799154938e-05
-1.3740143210645586e-05   2.4535381927607744e-06   -2.517614294906634e-05
-1.3740143210645586e-05   2.4535381927607744e-06   -2.517614294906634e-05
-1.3740143210645586e-05   2.4535381927607744e-06   -2.517614294906634e-05
-1.3740143210645586e-05   2.4535381927607744e-06   -2.517614294906634e-05
-9.821949825440792e-06   1.5061879482740998e-06   -1.9214230787083762e-05
-9.821949825440792e-06   1.5061879482740998e-06   -1.9214230787083762e-05
-9.821949825440792e-06   1.5061879482740998e-06   -1.9214230787083762e-05
-9.821949825440792e-06   1.5061879482740998e-06   -1.9214230787083762e-05
-9.675605885365335e-06   3.2537370515439744e-06   -2.5328140185036348e-05
-9.675605885365335e-06   3.2537370515439744e-06   -2.5328140185036348e-05
-9.675605885365335e-06   3.2537370515439744e-06   -2.5328140185036348e-05
-9.675605885365335e-06   3.2537370515439744e-06   -2.5328140185036348e-05
-1.3449014601228405e-05   2.2443556794085476e-06   -1.8433496835316586e-05
-1.3449014601228405e-05   2.2443556794085476e-06   -1.8433496835316586e-05
-1.3449014601228405e-05   2.2443556794085476e-06   -1.8433496835316586e-05
-1.3449014601228405e-05   2.2443556794085476e-06   -1.8433496835316586e-05
-1.1574750314957346e-05   2.3571837225994487e-06   -2.1624967471682664e-05
-1.1574750314957346e-05   2.3571837225994487e-06   -2.1624967471682664e-05
-1.1574750314957346e-05   2.3571837225994487e-06   -2.1624967471682664e-05
-1.1574750314957346e-05   2.3571837225994487e-06   -2.1624967471682664e-05
-1.3449014601228361e-05   3.253737051543876e-06   -2.472251136175505e-05
-1.3449014601228361e-05   3.253737051543876e-06   -2.472251136175505e-05
-1.3449014601228361e-05   3.253737051543876e-06   -2.472251136175505e-05
-1.3449014601228361e-05   3.253737051543876e-06   -2.472251136175505e-05
-9.675605885365321e-06   2.2443556794085476e-06   -1.9039125658597722e-05
-9.675605885365321e-06   2.2443556794085476e-06   -1.9039125658597722e-05
-9.675605885365321e-06   2.2443556794085476e-06   -1.9039125658597722e-05
-9.675605885365321e-06   2.2443556794085476e-06   -1.9039125658597722e-05
-9.545838609302732e-06   4.123577994773545e-06   -2.5573821890725813e-05
-9.545838609302732e-06   4.123577994773545e-06   -2.5573821890725813e-05
-9.545838609302732e-06   4.123577994773545e-06   -2.5573821890725813e-05
-9.545838609302732e-06   4.123577994773545e-06   -2.5573821890725813e-05
-1.3251807472562136e-05   3.0652429808126743e-06   -1.8762206110250172e-05
-1.3251807472562136e-05   3.0652429808126743e-06   -1.8762206110250172e-05
-1.3251807472562136e-05   3.0652429808126743e-06   -1.8762206110250172e-05
-1.3251807472562136e-05   3.0652429808126743e-06   -1.8762206110250172e-05
-1.1507850758619916e-05   3.008188063889747e-06   -2.1634567683333423e-05
-1.1507850758619916e-05   3.008188063889747e-06   -2.1634567683333423e-05
-1.1507850758619916e-05   3.008188063889747e-06   -2.1634567683333423e-05
-1.1507850758619916e-05   3.008188063889747e-06   -2.1634567683333423e-05
-9.954338311754418e-06   2.729936308849836e-07   -2.921708221254916e-05
-9.954338311754418e-06   2.729936308849836e-07   -2.921708221254916e-05
-9.954338311754418e-06   2.729936308849836e-07   -2.921708221254916e-05
-9.954338311754418e-06   2.729936308849836e-07   -2.921708221254916e-05
-6.06411757488043e-06   4.115165713078307e-07   -2.2650267220172132e-05
-6.06411757488043e-06   4.115165713078307e-07   -2.2650267220172132e-05
-6.06411757488043e-06   4.115165713078307e-07   -2.2650267220172132e-05
-6.06411757488043e-06   4.115165713078307e-07   -2.2650267220172132e-05
-5.935328439093619e-06   1.1571315180014616e-06   -2.8848059927812596e-05
-5.935328439093619e-06   1.1571315180014616e-06   -2.8848059927812596e-05
-5.935328439093619e-06   1.1571315180014616e-06   -2.8848059927812596e-05
-5.935328439093619e-06   1.1571315180014616e-06   -2.8848059927812596e-05
-9.821949825440782e-06   1.2200984848096275e-06   -2.2408137797318674e-05
-9.821949825440782e-06   1.2200984848096275e-06   -2.2408137797318674e-05
-9.821949825440782e-06   1.2200984848096275e-06   -2.2408137797318674e-05
-9.821949825440782e-06   1.2200984848096275e-06   -2.2408137797318674e-05
-7.892938738524041e-06   8.784293758899329e-07   -2.5418154810161922e-05
-7.892938738524041e-06   8.784293758899329e-07   -2.5418154810161922e-05
-7.892938738524041e-06   8.784293758899329e-07   -2.5418154810161922e-05
-7.892938738524041e-06   8.784293758899329e-07   -2.5418154810161922e-05
-9.821949825440765e-06   1.1571315180014648e-06   -2.8885840107897452e-05
-9.821949825440765e-06   1.1571315180014648e-06   -2.8885840107897452e-05
-9.821949825440765e-06   1.1571315180014648e-06   -2.8885840107897452e-05
-9.821949825440765e-06   1.1571315180014648e-06   -2.8885840107897452e-05
-5.935328439093609e-06   1.2200984848096275e-06   -2.2370357617233858e-05
-5.935328439093609e-06   1.2200984848096275e-06   -2.2370357617233858e-05
-5.935328439093609e-06   1.2200984848096275e-06   -2.2370357617233858e-05
-5.935328439093609e-06   1.2200984848096275e-06   -2.2370357617233858e-05
-5.79000453004468e-06   2.0441064094744218e-06   -2.8922558473702632e-05
-5.79000453004468e-06   2.0441064094744218e-06   -2.8922558473702632e-05
-5.79000453004468e-06   2.0441064094744218e-06   -2.8922558473702632e-05
-5.79000453004468e-06   2.0441064094744218e-06   -2.8922558473702632e-05
-9.675605885365321e-06   2.0357295190126393e-06   -2.2441530080557692e-05
-9.675605885365321e-06   2.0357295190126393e-06   -2.2441530080557692e-05
-9.675605885365321e-06   2.0357295190126393e-06   -2.2441530080557692e-05
-9.675605885365321e-06   2.0357295190126393e-06   -2.2441530080557692e-05
-7.807284487369726e-06   1.5736517411975163e-06   -2.5278152410528016e-05
-7.807284487369726e-06   1.5736517411975163e-06   -2.5278152410528016e-05
-7.807284487369726e-06   1.5736517411975163e-06   -2.5278152410528016e-05
-7.807284487369726e-06   1.5736517411975163e-06   -2.5278152410528016e-05
-9.675605885365308e-06   2.044106409474411e-06   -2.891753233942552e-05
-9.675605885365308e-06   2.044106409474411e-06   -2.891753233942552e-05
-9.675605885365308e-06   2.044106409474411e-06   -2.891753233942552e-05
-9.675605885365308e-06   2.044106409474411e-06   -2.891753233942552e-05
-5.7900045300446596e-06   2.0357295190127477e-06   -2.2446556214834738e-05
-5.7900045300446596e-06   2.0357295190127477e-06   -2.2446556214834738e-05
-5.7900045300446596e-06   2.0357295190127477e-06   -2.2446556214834738e-05
-5.7900045300446596e-06   2.0357295190127477e-06   -2.2446556214834738e-05
-5.659565000892114e-06   2.9465887942562797e-06   -2.9409243321102784e-05
-5.659565000892114e-06   2.9465887942562797e-06   -2.9409243321102784e-05
-5.659565000892114e-06   2.9465887942562797e-06   -2.9409243321102784e-05
-5.659565000892114e-06   2.9465887942562797e-06   -2.9409243321102784e-05
-9.545838609302749e-06   2.8637096575774698e-06   -2.2882393158411062e-05
-9.545838609302749e-06   2.8637096575774698e-06   -2.2882393158411062e-05
-9.545838609302749e-06   2.8637096575774698e-06   -2.2882393158411062e-05
-9.545838609302749e-06   2.8637096575774698e-06   -2.2882393158411062e-05
-7.736900134677228e-06   2.2781292603246467e-06   -2.554594237776858e-05
-7.736900134677228e-06   2.2781292603246467e-06   -2.554594237776858e-05
-7.736900134677228e-06   2.2781292603246467e-06   -2.554594237776858e-05
-7.736900134677228e-06   2.2781292603246467e-06   -2.554594237776858e-05
-6.064117574880409e-06   -9.170787428281576e-07   -2.5604976002556858e-05
-6.064117574880409e-06   -9.170787428281576e-07   -2.5604976002556858e-05
-6.064117574880409e-06   -9.170787428281576e-07   -2.5604976002556858e-05
-6.064117574880409e-06   -9.170787428281576e-07   -2.5604976002556858e-05
-2.2965752149221413e-06   1.8103900321702823e-07   -1.8666868088332744e-05
-2.2965752149221413e-06   1.8103900321702823e-07   -1.8666868088332744e-05
-2.2965752149221413e-06   1.8103900321702823e-07   -1.8666868088332744e-05
-2.2965752149221413e-06   1.8103900321702823e-07   -1.8666868088332744e-05
-2.1031227221677043e-06   -8.363398544064884e-08   -2.4778803008789927e-05
-2.1031227221677043e-06   -8.363398544064884e-08   -2.4778803008789927e-05
-2.1031227221677043e-06   -8.363398544064884e-08   -2.4778803008789927e-05
-2.1031227221677043e-06   -8.363398544064884e-08   -2.4778803008789927e-05
-5.935328439093608e-06   9.648644245799842e-07   -1.902089252659216e-05
-5.935328439093608e-06   9.648644245799842e-07   -1.902089252659216e-05
-5.935328439093608e-06   9.648644245799842e-07   -1.902089252659216e-05
-5.935328439093608e-06   9.648644245799842e-07   -1.902089252659216e-05
-4.058375883442538e-06   1.1799817211115456e-07   -2.1641027034529805e-05
-4.058375883442538e-06   1.1799817211115456e-07   -2.1641027034529805e-05
-4.058375883442538e-06   1.1799817211115456e-07   -2.1641027034529805e-05
-4.058375883442538e-06   1.1799817211115456e-07   -2.1641027034529805e-05
-5.935328439093598e-06   -8.36339854406743e-08   -2.5407902054802242e-05
-5.935328439093598e-06   -8.36339854406743e-08   -2.5407902054802242e-05
-5.935328439093598e-06   -8.36339854406743e-08   -2.5407902054802242e-05
-5.935328439093598e-06   -8.36339854406743e-08   -2.5407902054802242e-05
-2.1031227221677043e-06   9.648644245798758e-07   -1.839179348057994e-05
-2.1031227221677043e-06   9.648644245798758e-07   -1.839179348057994e-05
-2.1031227221677043e-06   9.648644245798758e-07   -1.839179348057994e-05
-2.1031227221677043e-06   9.648644245798758e-07   -1.839179348057994e-05
-1.814238316001949e-06   7.175443684072445e-07   -2.5110555873246096e-05
-1.814238316001949e-06   7.175443684072445e-07   -2.5110555873246096e-05
-1.814238316001949e-06   7.175443684072445e-07   -2.5110555873246096e-05
-1.814238316001949e-06   7.175443684072445e-07   -2.5110555873246096e-05
-5.79000453004467e-06   1.7029268053838677e-06   -1.907550831202738e-05
-5.79000453004467e-06   1.7029268053838677e-06   -1.907550831202738e-05
-5.79000453004467e-06   1.7029268053838677e-06   -1.907550831202738e-05
-5.79000453004467e-06   1.7029268053838677e-06   -1.907550831202738e-05
-3.9419061075966844e-06   7.511957040269926e-07   -2.15846336886267e-05
-3.9419061075966844e-06   7.511957040269926e-07   -2.15846336886267e-05
-3.9419061075966844e-06   7.511957040269926e-07   -2.15846336886267e-05
-3.9419061075966844e-06   7.511957040269926e-07   -2.15846336886267e-05
-5.7900045300446596e-06   7.175443684072459e-07   -2.570178533543193e-05
-5.7900045300446596e-06   7.175443684072459e-07   -2.570178533543193e-05
-5.7900045300446596e-06   7.175443684072459e-07   -2.570178533543193e-05
-5.7900045300446596e-06   7.175443684072459e-07   -2.570178533543193e-05
-1.814238316001949e-06   1.7029268053838677e-06   -1.8484278849841473e-05
-1.814238316001949e-06   1.7029268053838677e-06   -1.8484278849841473e-05
-1.814238316001949e-06   1.7029268053838677e-06   -1.8484278849841473e-05
-1.814238316001949e-06   1.7029268053838677e-06   -1.8484278849841473e-05
-1.6128218848139337e-06   1.6351079212910923e-06   -2.5812681885176202e-05
-1.6128218848139337e-06   1.6351079212910923e-06   -2.5812681885176202e-05
-1.6128218848139337e-06   1.6351079212910923e-06   -2.5812681885176202e-05
-1.6128218848139337e-06   1.6351079212910923e-06   -2.5812681885176202e-05
-5.659565000892115e-06   2.5367459732932593e-06   -1.960909285624708e-05
-5.659565000892115e-06   2.5367459732932593e-06   -1.960909285624708e-05
-5.659565000892115e-06   2.5367459732932593e-06   -1.960909285624708e-05
-5.659565000892115e-06   2.5367459732932593e-06   -1.960909285624708e-05
-3.820286259041414e-06   1.4141152745404933e-06   -2.2000979006746595e-05
-3.820286259041414e-06   1.4141152745404933e-06   -2.2000979006746595e-05
-3.820286259041414e-06   1.4141152745404933e-06   -2.2000979006746595e-05
-3.820286259041414e-06   1.4141152745404933e-06   -2.2000979006746595e-05
-2.2965752149221413e-06   -1.6813311532165708e-06   -1.3886523854054382e-05
-2.2965752149221413e-06   -1.6813311532165708e-06   -1.3886523854054382e-05
-2.2965752149221413e-06   -1.6813311532165708e-06   -1.3886523854054382e-05
-2.2965752149221413e-06   -1.6813311532165708e-06   -1.3886523854054382e-05
4.6888883927959936e-07   2.567857008148669e-07   -8.114546984632539e-06
4.6888883927959936e-07   2.567857008148669e-07   -8.114546984632539e-06
4.6888883927959936e-07   2.567857008148669e-07   -8.114546984632539e-06
4.6888883927959936e-07   2.567857008148669e-07   -8.114546984632539e-06
1.500425309371769e-06   -1.1159480622453463e-06   -1.3248713202660333e-05
1.500425309371769e-06   -1.1159480622453463e-06   -1.3248713202660333e-05
1.500425309371769e-06   -1.1159480622453463e-06   -1.3248713202660333e-05
1.500425309371769e-06   -1.1159480622453463e-06   -1.3248713202660333e-05
-2.103122722167699e-06   8.770357668169563e-07   -8.438590114198408e-06
-2.103122722167699e-06   8.770357668169563e-07   -8.438590114198408e-06
-2.103122722167699e-06   8.770357668169563e-07   -8.438590114198408e-06
-2.103122722167699e-06   8.770357668169563e-07   -8.438590114198408e-06
-5.904152853486557e-07   -3.3285202997676046e-07   -1.0233836497487551e-05
-5.904152853486557e-07   -3.3285202997676046e-07   -1.0233836497487551e-05
-5.904152853486557e-07   -3.3285202997676046e-07   -1.0233836497487551e-05
-5.904152853486557e-07   -3.3285202997676046e-07   -1.0233836497487551e-05
-2.103122722167691e-06   -1.1159480622454262e-06   -1.4444503500097639e-05
-2.103122722167691e-06   -1.1159480622454262e-06   -1.4444503500097639e-05
-2.103122722167691e-06   -1.1159480622454262e-06   -1.4444503500097639e-05
-2.103122722167691e-06   -1.1159480622454262e-06   -1.4444503500097639e-05
1.500425309371769e-06   8.770357668169563e-07   -7.242799816761076e-06
1.500425309371769e-06   8.770357668169563e-07   -7.242799816761076e-06
1.500425309371769e-06   8.770357668169563e-07   -7.242799816761076e-06
1.500425309371769e-06   8.770357668169563e-07   -7.242799816761076e-06
2.3151724899502955e-06   -7.264035584660967e-07   -1.3965501400560806e-05
2.3151724899502955e-06   -7.264035584660967e-07   -1.3965501400560806e-05
2.3151724899502955e-06   -7.264035584660967e-07   -1.3965501400560806e-05
2.3151724899502955e-06   -7.264035584660967e-07   -1.3965501400560806e-05
-1.8142383160019503e-06   1.2254920316208395e-06   -8.254287411359163e-06
-1.8142383160019503e-06   1.2254920316208395e-06   -8.254287411359163e-06
-1.8142383160019503e-06   1.2254920316208395e-06   -8.254287411359163e-06
-1.8142383160019503e-06   1.2254920316208395e-06   -8.254287411359163e-06
-6.921256317536383e-08   -3.5236707778820917e-08   -1.0406226422430279e-05
-6.921256317536383e-08   -3.5236707778820917e-08   -1.0406226422430279e-05
-6.921256317536383e-08   -3.5236707778820917e-08   -1.0406226422430279e-05
-6.921256317536383e-08   -3.5236707778820917e-08   -1.0406226422430279e-05
-1.814238316001949e-06   -7.264035584661218e-07   -1.5136638754612909e-05
-1.814238316001949e-06   -7.264035584661218e-07   -1.5136638754612909e-05
-1.814238316001949e-06   -7.264035584661218e-07   -1.5136638754612909e-05
-1.814238316001949e-06   -7.264035584661218e-07   -1.5136638754612909e-05
2.3151724899502955e-06   1.2254920316208395e-06   -7.0831500573069256e-06
2.3151724899502955e-06   1.2254920316208395e-06   -7.0831500573069256e-06
2.3151724899502955e-06   1.2254920316208395e-06   -7.0831500573069256e-06
2.3151724899502955e-06   1.2254920316208395e-06   -7.0831500573069256e-06
3.344740499344284e-06   3.79086767798029e-08   -1.5638586402301393e-05
3.344740499344284e-06   3.79086767798029e-08   -1.5638586402301393e-05
3.344740499344284e-06   3.79086767798029e-08   -1.5638586402301393e-05
3.344740499344284e-06   3.79086767798029e-08   -1.5638586402301393e-05
-1.612821884813938e-06   1.8417022728497209e-06   -8.458258586346054e-06
-1.612821884813938e-06   1.8417022728497209e-06   -8.458258586346054e-06
-1.612821884813938e-06   1.8417022728497209e-06   -8.458258586346054e-06
-1.612821884813938e-06   1.8417022728497209e-06   -8.458258586346054e-06
3.8174870203904286e-07   3.027472683948254e-07   -1.0859169895094953e-05
3.8174870203904286e-07   3.027472683948254e-07   -1.0859169895094953e-05
3.8174870203904286e-07   3.027472683948254e-07   -1.0859169895094953e-05
3.8174870203904286e-07   3.027472683948254e-07   -1.0859169895094953e-05
-6.5214456037483725e-06   1.2344863468288328e-06   -1.175887482857352e-05
-6.5214456037483725e-06   1.2344863468288328e-06   -1.175887482857352e-05
-6.5214456037483725e-06   1.2344863468288328e-06   -1.175887482857352e-05
-6.5214456037483725e-06   1.2344863468288328e-06   -1.175887482857352e-05
-6.652958623565866e-06   -5.808263037810658e-07   -1.3067250785301965e-05
-6.652958623565866e-06   -5.808263037810658e-07   -1.3067250785301965e-05
-6.652958623565866e-06   -5.808263037810658e-07   -1.3067250785301965e-05
-6.652958623565866e-06   -5.808263037810658e-07   -1.3067250785301965e-05
-6.322275801935094e-06   1.925806377174946e-06   -1.1049397474252468e-05
-6.322275801935094e-06   1.925806377174946e-06   -1.1049397474252468e-05
-6.322275801935094e-06   1.925806377174946e-06   -1.1049397474252468e-05
-6.322275801935094e-06   1.925806377174946e-06   -1.1049397474252468e-05
-5.3744510269549136e-06   -2.2437807332617576e-08   -1.1460158921848204e-05
-5.3744510269549136e-06   -2.2437807332617576e-08   -1.1460158921848204e-05
-5.3744510269549136e-06   -2.2437807332617576e-08   -1.1460158921848204e-05
-5.3744510269549136e-06   -2.2437807332617576e-08   -1.1460158921848204e-05
-5.946202631834808e-06   8.50105071138578e-07   -1.1030765307464897e-05
-5.946202631834808e-06   8.50105071138578e-07   -1.1030765307464897e-05
-5.946202631834808e-06   8.50105071138578e-07   -1.1030765307464897e-05
-5.946202631834808e-06   8.50105071138578e-07   -1.1030765307464897e-05
-5.374451026954926e-06   1.9258063771749157e-06   -9.880450963547951e-06
-5.374451026954926e-06   1.9258063771749157e-06   -9.880450963547951e-06
-5.374451026954926e-06   1.9258063771749157e-06   -9.880450963547951e-06
-5.374451026954926e-06   1.9258063771749157e-06   -9.880450963547951e-06
-6.322275801935121e-06   -2.2437807332617576e-08   -1.2629105432552829e-05
-6.322275801935121e-06   -2.2437807332617576e-08   -1.2629105432552829e-05
-6.322275801935121e-06   -2.2437807332617576e-08   -1.2629105432552829e-05
-6.322275801935121e-06   -2.2437807332617576e-08   -1.2629105432552829e-05
-5.904608489474075e-06   2.275894133954093e-06   -1.0253520377807141e-05
-5.904608489474075e-06   2.275894133954093e-06   -1.0253520377807141e-05
-5.904608489474075e-06   2.275894133954093e-06   -1.0253520377807141e-05
-5.904608489474075e-06   2.275894133954093e-06   -1.0253520377807141e-05
-4.427431527124423e-06   2.9435498071959075e-07   -1.1526558489782345e-05
-4.427431527124423e-06   2.9435498071959075e-07   -1.1526558489782345e-05
-4.427431527124423e-06   2.9435498071959075e-07   -1.1526558489782345e-05
-4.427431527124423e-06   2.9435498071959075e-07   -1.1526558489782345e-05
-5.404571163180759e-06   1.1372963130320667e-06   -1.0403757229076618e-05
-5.404571163180759e-06   1.1372963130320667e-06   -1.0403757229076618e-05
-5.404571163180759e-06   1.1372963130320667e-06   -1.0403757229076618e-05
-5.404571163180759e-06   1.1372963130320667e-06   -1.0403757229076618e-05
-4.427431527124408e-06   2.2758941339541118e-06   -9.064596885866342e-06
-4.427431527124408e-06   2.2758941339541118e-06   -9.064596885866342e-06
-4.427431527124408e-06   2.2758941339541118e-06   -9.064596885866342e-06
-4.427431527124408e-06   2.2758941339541118e-06   -9.064596885866342e-06
-5.904608489474102e-06   2.9435498071959075e-07   -1.2715481981723144e-05
-5.904608489474102e-06   2.9435498071959075e-07   -1.2715481981723144e-05
-5.904608489474102e-06   2.9435498071959075e-07   -1.2715481981723144e-05
-5.904608489474102e-06   2.9435498071959075e-07   -1.2715481981723144e-05
-5.580073903022927e-06   2.8308415972046847e-06   -9.515274669517578e-06
-5.580073903022927e-06   2.8308415972046847e-06   -9.515274669517578e-06
-5.580073903022927e-06   2.8308415972046847e-06   -9.515274669517578e-06
-5.580073903022927e-06   2.8308415972046847e-06   -9.515274669517578e-06
-3.2581646024738117e-06   9.258584090592568e-07   -1.2242133590878901e-05
-3.2581646024738117e-06   9.258584090592568e-07   -1.2242133590878901e-05
-3.2581646024738117e-06   9.258584090592568e-07   -1.2242133590878901e-05
-3.2581646024738117e-06   9.258584090592568e-07   -1.2242133590878901e-05
-4.728668296564625e-06   1.4136796611230852e-06   -1.0083986851965358e-05
-4.728668296564625e-06   1.4136796611230852e-06   -1.0083986851965358e-05
-4.728668296564625e-06   1.4136796611230852e-06   -1.0083986851965358e-05
-4.728668296564625e-06   1.4136796611230852e-06   -1.0083986851965358e-05
-6.652958623565839e-06   7.13045946820992e-07   -2.142978976661349e-05
-6.652958623565839e-06   7.13045946820992e-07   -2.142978976661349e-05
-6.652958623565839e-06   7.13045946820992e-07   -2.142978976661349e-05
-6.652958623565839e-06   7.13045946820992e-07   -2.142978976661349e-05
-7.699532924761336e-06   -1.2281757894657026e-07   -2.36755983840666e-05
-7.699532924761336e-06   -1.2281757894657026e-07   -2.36755983840666e-05
-7.699532924761336e-06   -1.2281757894657026e-07   -2.36755983840666e-05
-7.699532924761336e-06   -1.2281757894657026e-07   -2.36755983840666e-05
-7.433333912390842e-06   1.5061879482739914e-06   -2.144467242854852e-05
-7.433333912390842e-06   1.5061879482739914e-06   -2.144467242854852e-05
-7.433333912390842e-06   1.5061879482739914e-06   -2.144467242854852e-05
-7.433333912390842e-06   1.5061879482739914e-06   -2.144467242854852e-05
-6.3222758019351195e-06   5.823258452167506e-07   -2.274211868414031e-05
-6.3222758019351195e-06   5.823258452167506e-07   -2.274211868414031e-05
-6.3222758019351195e-06   5.823258452167506e-07   -2.274211868414031e-05
-6.3222758019351195e-06   5.823258452167506e-07   -2.274211868414031e-05
-6.945257300407698e-06   8.253009304606514e-07   -2.1849601237832714e-05
-6.945257300407698e-06   8.253009304606514e-07   -2.1849601237832714e-05
-6.945257300407698e-06   8.253009304606514e-07   -2.1849601237832714e-05
-6.945257300407698e-06   8.253009304606514e-07   -2.1849601237832714e-05
-6.322275801935121e-06   1.5061879482739997e-06   -2.0890355166714044e-05
-6.322275801935121e-06   1.5061879482739997e-06   -2.0890355166714044e-05
-6.322275801935121e-06   1.5061879482739997e-06   -2.0890355166714044e-05
-6.322275801935121e-06   1.5061879482739997e-06   -2.0890355166714044e-05
-7.4333339123908284e-06   5.823258452167506e-07   -2.3296435945974647e-05
-7.4333339123908284e-06   5.823258452167506e-07   -2.3296435945974647e-05
-7.4333339123908284e-06   5.823258452167506e-07   -2.3296435945974647e-05
-7.4333339123908284e-06   5.823258452167506e-07   -2.3296435945974647e-05
-7.15638787853319e-06   2.244355679408656e-06   -2.126475025787135e-05
-7.15638787853319e-06   2.244355679408656e-06   -2.126475025787135e-05
-7.15638787853319e-06   2.244355679408656e-06   -2.126475025787135e-05
-7.15638787853319e-06   2.244355679408656e-06   -2.126475025787135e-05
-5.904608489474096e-06   1.2618281259408823e-06   -2.2761532707555687e-05
-5.904608489474096e-06   1.2618281259408823e-06   -2.2761532707555687e-05
-5.904608489474096e-06   1.2618281259408823e-06   -2.2761532707555687e-05
-5.904608489474096e-06   1.2618281259408823e-06   -2.2761532707555687e-05
-6.678599941856891e-06   1.3945761868287658e-06   -2.155119579011727e-05
-6.678599941856891e-06   1.3945761868287658e-06   -2.155119579011727e-05
-6.678599941856891e-06   1.3945761868287658e-06   -2.155119579011727e-05
-6.678599941856891e-06   1.3945761868287658e-06   -2.155119579011727e-05
-5.904608489474075e-06   2.2443556794085955e-06   -2.0675233725790567e-05
-5.904608489474075e-06   2.2443556794085955e-06   -2.0675233725790567e-05
-5.904608489474075e-06   2.2443556794085955e-06   -2.0675233725790567e-05
-5.904608489474075e-06   2.2443556794085955e-06   -2.0675233725790567e-05
-7.156387878533163e-06   1.2618281259408823e-06   -2.3351049239636254e-05
-7.156387878533163e-06   1.2618281259408823e-06   -2.3351049239636254e-05
-7.156387878533163e-06   1.2618281259408823e-06   -2.3351049239636254e-05
-7.156387878533163e-06   1.2618281259408823e-06   -2.3351049239636254e-05
-6.895899383873956e-06   3.0652429808126743e-06   -2.1617206905252297e-05
-6.895899383873956e-06   3.0652429808126743e-06   -2.1617206905252297e-05
-6.895899383873956e-06   3.0652429808126743e-06   -2.1617206905252297e-05
-6.895899383873956e-06   3.0652429808126743e-06   -2.1617206905252297e-05
-5.580073903022937e-06   2.0383698243677407e-06   -2.319412547947033e-05
-5.580073903022937e-06   2.0383698243677407e-06   -2.319412547947033e-05
-5.580073903022937e-06   2.0383698243677407e-06   -2.319412547947033e-05
-5.580073903022937e-06   2.0383698243677407e-06   -2.319412547947033e-05
-6.444398016330241e-06   1.9924441240492e-06   -2.1726029870433345e-05
-6.444398016330241e-06   1.9924441240492e-06   -2.1726029870433345e-05
-6.444398016330241e-06   1.9924441240492e-06   -2.1726029870433345e-05
-6.444398016330241e-06   1.9924441240492e-06   -2.1726029870433345e-05
-7.699532924761323e-06   4.1151657130792064e-07   -2.4965901539195513e-05
-7.699532924761323e-06   4.1151657130792064e-07   -2.4965901539195513e-05
-7.699532924761323e-06   4.1151657130792064e-07   -2.4965901539195513e-05
-7.699532924761323e-06   4.1151657130792064e-07   -2.4965901539195513e-05
-8.796951713105219e-06   5.889352011432397e-07   -2.6688481675200728e-05
-8.796951713105219e-06   5.889352011432397e-07   -2.6688481675200728e-05
-8.796951713105219e-06   5.889352011432397e-07   -2.6688481675200728e-05
-8.796951713105219e-06   5.889352011432397e-07   -2.6688481675200728e-05
-8.53557467822381e-06   1.220098484809736e-06   -2.4579513360228618e-05
-8.53557467822381e-06   1.220098484809736e-06   -2.4579513360228618e-05
-8.53557467822381e-06   1.220098484809736e-06   -2.4579513360228618e-05
-8.53557467822381e-06   1.220098484809736e-06   -2.4579513360228618e-05
-7.433333912390826e-06   1.3185419490675896e-06   -2.6475647381838437e-05
-7.433333912390826e-06   1.3185419490675896e-06   -2.6475647381838437e-05
-7.433333912390826e-06   1.3185419490675896e-06   -2.6475647381838437e-05
-7.433333912390826e-06   1.3185419490675896e-06   -2.6475647381838437e-05
-8.067458839855999e-06   9.986450059847052e-07   -2.5226834336880324e-05
-8.067458839855999e-06   9.986450059847052e-07   -2.5226834336880324e-05
-8.067458839855999e-06   9.986450059847052e-07   -2.5226834336880324e-05
-8.067458839855999e-06   9.986450059847052e-07   -2.5226834336880324e-05
-7.433333912390815e-06   1.2200984848097044e-06   -2.4638579438783525e-05
-7.433333912390815e-06   1.2200984848097044e-06   -2.4638579438783525e-05
-7.433333912390815e-06   1.2200984848097044e-06   -2.4638579438783525e-05
-7.433333912390815e-06   1.2200984848097044e-06   -2.4638579438783525e-05
-8.53557467822381e-06   1.3185419490678064e-06   -2.6416581303283693e-05
-8.53557467822381e-06   1.3185419490678064e-06   -2.6416581303283693e-05
-8.53557467822381e-06   1.3185419490678064e-06   -2.6416581303283693e-05
-8.53557467822381e-06   1.3185419490678064e-06   -2.6416581303283693e-05
-8.260311913967618e-06   2.0357295190126393e-06   -2.4650154195922066e-05
-8.260311913967618e-06   2.0357295190126393e-06   -2.4650154195922066e-05
-8.260311913967618e-06   2.0357295190126393e-06   -2.4650154195922066e-05
-8.260311913967618e-06   2.0357295190126393e-06   -2.4650154195922066e-05
-7.156387878533182e-06   2.0640636588615743e-06   -2.6507028072221816e-05
-7.156387878533182e-06   2.0640636588615743e-06   -2.6507028072221816e-05
-7.156387878533182e-06   2.0640636588615743e-06   -2.6507028072221816e-05
-7.156387878533182e-06   2.0640636588615743e-06   -2.6507028072221816e-05
-7.84864023831949e-06   1.6233164963516634e-06   -2.508882584173922e-05
-7.84864023831949e-06   1.6233164963516634e-06   -2.508882584173922e-05
-7.84864023831949e-06   1.6233164963516634e-06   -2.508882584173922e-05
-7.84864023831949e-06   1.6233164963516634e-06   -2.508882584173922e-05
-7.156387878533163e-06   2.035729519012717e-06   -2.46671546798312e-05
-7.156387878533163e-06   2.035729519012717e-06   -2.46671546798312e-05
-7.156387878533163e-06   2.035729519012717e-06   -2.46671546798312e-05
-7.156387878533163e-06   2.035729519012717e-06   -2.46671546798312e-05
-8.260311913967603e-06   2.0640636588615743e-06   -2.64900275883126e-05
-8.260311913967603e-06   2.0640636588615743e-06   -2.64900275883126e-05
-8.260311913967603e-06   2.0640636588615743e-06   -2.64900275883126e-05
-8.260311913967603e-06   2.0640636588615743e-06   -2.64900275883126e-05
-8.000793965214361e-06   2.8637096575774698e-06   -2.51286408010971e-05
-8.000793965214361e-06   2.8637096575774698e-06   -2.51286408010971e-05
-8.000793965214361e-06   2.8637096575774698e-06   -2.51286408010971e-05
-8.000793965214361e-06   2.8637096575774698e-06   -2.51286408010971e-05
-6.895899383873969e-06   2.819963230810043e-06   -2.6943883913937327e-05
-6.895899383873969e-06   2.819963230810043e-06   -2.6943883913937327e-05
-6.895899383873969e-06   2.819963230810043e-06   -2.6943883913937327e-05
-6.895899383873969e-06   2.819963230810043e-06   -2.6943883913937327e-05
-7.647569486877292e-06   2.256754945583763e-06   -2.535317543779565e-05
-7.647569486877292e-06   2.256754945583763e-06   -2.535317543779565e-05
-7.647569486877292e-06   2.256754945583763e-06   -2.535317543779565e-05
-7.647569486877292e-06   2.256754945583763e-06   -2.535317543779565e-05
-8.796951713105203e-06   1.810390032169803e-07   -2.153492187708186e-05
-8.796951713105203e-06   1.810390032169803e-07   -2.153492187708186e-05
-8.796951713105203e-06   1.810390032169803e-07   -2.153492187708186e-05
-8.796951713105203e-06   1.810390032169803e-07   -2.153492187708186e-05
-9.959039571124112e-06   1.3073071357748e-06   -2.279597409424552e-05
-9.959039571124112e-06   1.3073071357748e-06   -2.279597409424552e-05
-9.959039571124112e-06   1.3073071357748e-06   -2.279597409424552e-05
-9.959039571124112e-06   1.3073071357748e-06   -2.279597409424552e-05
-9.64208594261829e-06   9.648644245798758e-07   -2.0585092360141284e-05
-9.64208594261829e-06   9.648644245798758e-07   -2.0585092360141284e-05
-9.64208594261829e-06   9.648644245798758e-07   -2.0585092360141284e-05
-9.64208594261829e-06   9.648644245798758e-07   -2.0585092360141284e-05
-8.535574678223811e-06   2.039790940323123e-06   -2.30742337102445e-05
-8.535574678223811e-06   2.039790940323123e-06   -2.30742337102445e-05
-8.535574678223811e-06   2.039790940323123e-06   -2.30742337102445e-05
-8.535574678223811e-06   2.039790940323123e-06   -2.30742337102445e-05
-9.161942884296425e-06   1.2045431347782387e-06   -2.152913801679692e-05
-9.161942884296425e-06   1.2045431347782387e-06   -2.152913801679692e-05
-9.161942884296425e-06   1.2045431347782387e-06   -2.152913801679692e-05
-9.161942884296425e-06   1.2045431347782387e-06   -2.152913801679692e-05
-8.535574678223796e-06   9.648644245798554e-07   -2.1230048269587178e-05
-8.535574678223796e-06   9.648644245798554e-07   -2.1230048269587178e-05
-8.535574678223796e-06   9.648644245798554e-07   -2.1230048269587178e-05
-8.535574678223796e-06   9.648644245798554e-07   -2.1230048269587178e-05
-9.64208594261829e-06   2.039790940323123e-06   -2.2429277800798775e-05
-9.64208594261829e-06   2.039790940323123e-06   -2.2429277800798775e-05
-9.64208594261829e-06   2.039790940323123e-06   -2.2429277800798775e-05
-9.64208594261829e-06   2.039790940323123e-06   -2.2429277800798775e-05
-9.2308916337554e-06   1.7029268053837593e-06   -2.067185153169259e-05
-9.2308916337554e-06   1.7029268053837593e-06   -2.067185153169259e-05
-9.2308916337554e-06   1.7029268053837593e-06   -2.067185153169259e-05
-9.2308916337554e-06   1.7029268053837593e-06   -2.067185153169259e-05
-8.260311913967603e-06   2.715018074420355e-06   -2.289673915942746e-05
-8.260311913967603e-06   2.715018074420355e-06   -2.289673915942746e-05
-8.260311913967603e-06   2.715018074420355e-06   -2.289673915942746e-05
-8.260311913967603e-06   2.715018074420355e-06   -2.289673915942746e-05
-8.878575637480106e-06   1.7861220118117185e-06   -2.130896198267501e-05
-8.878575637480106e-06   1.7861220118117185e-06   -2.130896198267501e-05
-8.878575637480106e-06   1.7861220118117185e-06   -2.130896198267501e-05
-8.878575637480106e-06   1.7861220118117185e-06   -2.130896198267501e-05
-8.260311913967588e-06   1.7029268053837449e-06   -2.1279106293114526e-05
-8.260311913967588e-06   1.7029268053837449e-06   -2.1279106293114526e-05
-8.260311913967588e-06   1.7029268053837449e-06   -2.1279106293114526e-05
-8.260311913967588e-06   1.7029268053837449e-06   -2.1279106293114526e-05
-9.230891633755413e-06   2.715018074420355e-06   -2.228948439800553e-05
-9.230891633755413e-06   2.715018074420355e-06   -2.228948439800553e-05
-9.230891633755413e-06   2.715018074420355e-06   -2.228948439800553e-05
-9.230891633755413e-06   2.715018074420355e-06   -2.228948439800553e-05
-8.908263856784292e-06   2.5367459732932593e-06   -2.124508877883593e-05
-8.908263856784292e-06   2.5367459732932593e-06   -2.124508877883593e-05
-8.908263856784292e-06   2.5367459732932593e-06   -2.124508877883593e-05
-8.908263856784292e-06   2.5367459732932593e-06   -2.124508877883593e-05
-8.000793965214361e-06   3.470953036776442e-06   -2.331806283620912e-05
-8.000793965214361e-06   3.470953036776442e-06   -2.331806283620912e-05
-8.000793965214361e-06   3.470953036776442e-06   -2.331806283620912e-05
-8.000793965214361e-06   3.470953036776442e-06   -2.331806283620912e-05
-8.667672485970329e-06   2.37980820844445e-06   -2.1551911737949652e-05
-8.667672485970329e-06   2.37980820844445e-06   -2.1551911737949652e-05
-8.667672485970329e-06   2.37980820844445e-06   -2.1551911737949652e-05
-8.667672485970329e-06   2.37980820844445e-06   -2.1551911737949652e-05
-9.959039571124078e-06   2.5678570081487595e-07   -1.146971000626619e-05
-9.959039571124078e-06   2.5678570081487595e-07   -1.146971000626619e-05
-9.959039571124078e-06   2.5678570081487595e-07   -1.146971000626619e-05
-9.959039571124078e-06   2.5678570081487595e-07   -1.146971000626619e-05
-1.2091143568948603e-05   2.199929631456054e-06   -1.3857330310922318e-05
-1.2091143568948603e-05   2.199929631456054e-06   -1.3857330310922318e-05
-1.2091143568948603e-05   2.199929631456054e-06   -1.3857330310922318e-05
-1.2091143568948603e-05   2.199929631456054e-06   -1.3857330310922318e-05
-1.09551699468569e-05   8.770357668169563e-07   -9.43929708136247e-06
-1.09551699468569e-05   8.770357668169563e-07   -9.43929708136247e-06
-1.09551699468569e-05   8.770357668169563e-07   -9.43929708136247e-06
-1.09551699468569e-05   8.770357668169563e-07   -9.43929708136247e-06
-9.642085942618275e-06   2.864688954145895e-06   -1.2820362334157364e-05
-9.642085942618275e-06   2.864688954145895e-06   -1.2820362334157364e-05
-9.642085942618275e-06   2.864688954145895e-06   -1.2820362334157364e-05
-9.642085942618275e-06   2.864688954145895e-06   -1.2820362334157364e-05
-1.023040310289508e-05   1.6291946820813901e-06   -1.1098537170457578e-05
-1.023040310289508e-05   1.6291946820813901e-06   -1.1098537170457578e-05
-1.023040310289508e-05   1.6291946820813901e-06   -1.1098537170457578e-05
-1.023040310289508e-05   1.6291946820813901e-06   -1.1098537170457578e-05
-9.642085942618263e-06   8.770357668169694e-07   -1.0631888993759724e-05
-9.642085942618263e-06   8.770357668169694e-07   -1.0631888993759724e-05
-9.642085942618263e-06   8.770357668169694e-07   -1.0631888993759724e-05
-9.642085942618263e-06   8.770357668169694e-07   -1.0631888993759724e-05
-1.09551699468569e-05   2.8646889541461117e-06   -1.162777042176019e-05
-1.09551699468569e-05   2.8646889541461117e-06   -1.162777042176019e-05
-1.09551699468569e-05   2.8646889541461117e-06   -1.162777042176019e-05
-1.09551699468569e-05   2.8646889541461117e-06   -1.162777042176019e-05
-1.0031215441443032e-05   1.2254920316208395e-06   -9.275755450610808e-06
-1.0031215441443032e-05   1.2254920316208395e-06   -9.275755450610808e-06
-1.0031215441443032e-05   1.2254920316208395e-06   -9.275755450610808e-06
-1.0031215441443032e-05   1.2254920316208395e-06   -9.275755450610808e-06
-9.230891633755396e-06   3.16899976928668e-06   -1.1775733106022857e-05
-9.230891633755396e-06   3.16899976928668e-06   -1.1775733106022857e-05
-9.230891633755396e-06   3.16899976928668e-06   -1.1775733106022857e-05
-9.230891633755396e-06   3.16899976928668e-06   -1.1775733106022857e-05
-9.748956751890933e-06   1.9377809070098787e-06   -1.0173559925097728e-05
-9.748956751890933e-06   1.9377809070098787e-06   -1.0173559925097728e-05
-9.748956751890933e-06   1.9377809070098787e-06   -1.0173559925097728e-05
-9.748956751890933e-06   1.9377809070098787e-06   -1.0173559925097728e-05
-9.23089163375538e-06   1.2254920316208213e-06   -1.0441860093210226e-05
-9.23089163375538e-06   1.2254920316208213e-06   -1.0441860093210226e-05
-9.23089163375538e-06   1.2254920316208213e-06   -1.0441860093210226e-05
-9.23089163375538e-06   1.2254920316208213e-06   -1.0441860093210226e-05
-1.003121544144306e-05   3.16899976928668e-06   -1.060962846342352e-05
-1.003121544144306e-05   3.16899976928668e-06   -1.060962846342352e-05
-1.003121544144306e-05   3.16899976928668e-06   -1.060962846342352e-05
-1.003121544144306e-05   3.16899976928668e-06   -1.060962846342352e-05
-8.899440713092767e-06   1.8417022728497209e-06   -9.55709127755766e-06
-8.899440713092767e-06   1.8417022728497209e-06   -9.55709127755766e-06
-8.899440713092767e-06   1.8417022728497209e-06   -9.55709127755766e-06
-8.899440713092767e-06   1.8417022728497209e-06   -9.55709127755766e-06
-8.908263856784287e-06   3.638612377147507e-06   -1.062053210065026e-05
-8.908263856784287e-06   3.638612377147507e-06   -1.062053210065026e-05
-8.908263856784287e-06   3.638612377147507e-06   -1.062053210065026e-05
-8.908263856784287e-06   3.638612377147507e-06   -1.062053210065026e-05
-9.034592773953206e-06   2.185978388971762e-06   -9.538403512463368e-06
-9.034592773953206e-06   2.185978388971762e-06   -9.538403512463368e-06
-9.034592773953206e-06   2.185978388971762e-06   -9.538403512463368e-06
-9.034592773953206e-06   2.185978388971762e-06   -9.538403512463368e-06
5.8804328001312825e-06   -5.808263037809698e-07   -5.912941900789847e-06
5.8804328001312825e-06   -5.808263037809698e-07   -5.912941900789847e-06
5.8804328001312825e-06   -5.808263037809698e-07   -5.912941900789847e-06
5.8804328001312825e-06   -5.808263037809698e-07   -5.912941900789847e-06
6.114421031978531e-07   -2.424441411374035e-06   -1.5800762126901306e-05
6.114421031978531e-07   -2.424441411374035e-06   -1.5800762126901306e-05
6.114421031978531e-07   -2.424441411374035e-06   -1.5800762126901306e-05
6.114421031978531e-07   -2.424441411374035e-06   -1.5800762126901306e-05
1.064191089854852e-06   -2.2437807332400736e-08   -6.5421723036820706e-06
1.064191089854852e-06   -2.2437807332400736e-08   -6.5421723036820706e-06
1.064191089854852e-06   -2.2437807332400736e-08   -6.5421723036820706e-06
1.064191089854852e-06   -2.2437807332400736e-08   -6.5421723036820706e-06
7.15358074050849e-06   -1.9934498375763065e-06   -1.5508547836625092e-05
7.15358074050849e-06   -1.9934498375763065e-06   -1.5508547836625092e-05
7.15358074050849e-06   -1.9934498375763065e-06   -1.5508547836625092e-05
7.15358074050849e-06   -1.9934498375763065e-06   -1.5508547836625092e-05
3.5398141384186408e-06   -1.0134968174823483e-06   -1.007357531186508e-05
3.5398141384186408e-06   -1.0134968174823483e-06   -1.007357531186508e-05
3.5398141384186408e-06   -1.0134968174823483e-06   -1.007357531186508e-05
3.5398141384186408e-06   -1.0134968174823483e-06   -1.007357531186508e-05
7.153580740508475e-06   -2.243780733248023e-08   -5.359565085535792e-06
7.153580740508475e-06   -2.243780733248023e-08   -5.359565085535792e-06
7.153580740508475e-06   -2.243780733248023e-08   -5.359565085535792e-06
7.153580740508475e-06   -2.243780733248023e-08   -5.359565085535792e-06
1.064191089854852e-06   -1.9934498375763065e-06   -1.6691155054771533e-05
1.064191089854852e-06   -1.9934498375763065e-06   -1.6691155054771533e-05
1.064191089854852e-06   -1.9934498375763065e-06   -1.6691155054771533e-05
1.064191089854852e-06   -1.9934498375763065e-06   -1.6691155054771533e-05
1.5983778856769944e-06   2.9435498071959075e-07   -6.595509917397451e-06
1.5983778856769944e-06   2.9435498071959075e-07   -6.595509917397451e-06
1.5983778856769944e-06   2.9435498071959075e-07   -6.595509917397451e-06
1.5983778856769944e-06   2.9435498071959075e-07   -6.595509917397451e-06
8.228150083107183e-06   -1.7050524426351528e-06   -1.6445485792435056e-05
8.228150083107183e-06   -1.7050524426351528e-06   -1.6445485792435056e-05
8.228150083107183e-06   -1.7050524426351528e-06   -1.6445485792435056e-05
8.228150083107183e-06   -1.7050524426351528e-06   -1.6445485792435056e-05
4.346261814441755e-06   -8.114468324947003e-07   -1.0511835377410741e-05
4.346261814441755e-06   -8.114468324947003e-07   -1.0511835377410741e-05
4.346261814441755e-06   -8.114468324947003e-07   -1.0511835377410741e-05
4.346261814441755e-06   -8.114468324947003e-07   -1.0511835377410741e-05
8.2281500831072e-06   2.943549807195668e-07   -5.395865463384713e-06
8.2281500831072e-06   2.943549807195668e-07   -5.395865463384713e-06
8.2281500831072e-06   2.943549807195668e-07   -5.395865463384713e-06
8.2281500831072e-06   2.943549807195668e-07   -5.395865463384713e-06
1.5983778856769673e-06   -1.7050524426351528e-06   -1.7645130246447848e-05
1.5983778856769673e-06   -1.7050524426351528e-06   -1.7645130246447848e-05
1.5983778856769673e-06   -1.7050524426351528e-06   -1.7645130246447848e-05
1.5983778856769673e-06   -1.7050524426351528e-06   -1.7645130246447848e-05
2.0369063595132044e-06   9.258584090592568e-07   -7.235503645616282e-06
2.0369063595132044e-06   9.258584090592568e-07   -7.235503645616282e-06
2.0369063595132044e-06   9.258584090592568e-07   -7.235503645616282e-06
2.0369063595132044e-06   9.258584090592568e-07   -7.235503645616282e-06
9.519113830919723e-06   -9.79400505995683e-07   -1.8562694082260758e-05
9.519113830919723e-06   -9.79400505995683e-07   -1.8562694082260758e-05
9.519113830919723e-06   -9.79400505995683e-07   -1.8562694082260758e-05
9.519113830919723e-06   -9.79400505995683e-07   -1.8562694082260758e-05
4.9852464707195184e-06   -5.138091497740391e-07   -1.1285603295660212e-05
4.9852464707195184e-06   -5.138091497740391e-07   -1.1285603295660212e-05
4.9852464707195184e-06   -5.138091497740391e-07   -1.1285603295660212e-05
4.9852464707195184e-06   -5.138091497740391e-07   -1.1285603295660212e-05
6.114421031978802e-07   -1.2281757894654668e-07   -1.7125940448649724e-05
6.114421031978802e-07   -1.2281757894654668e-07   -1.7125940448649724e-05
6.114421031978802e-07   -1.2281757894654668e-07   -1.7125940448649724e-05
6.114421031978802e-07   -1.2281757894654668e-07   -1.7125940448649724e-05
-5.517788407988927e-06   -9.546163312400095e-07   -2.784040388533707e-05
-5.517788407988927e-06   -9.546163312400095e-07   -2.784040388533707e-05
-5.517788407988927e-06   -9.546163312400095e-07   -2.784040388533707e-05
-5.517788407988927e-06   -9.546163312400095e-07   -2.784040388533707e-05
-5.121561655224466e-06   5.823258452167506e-07   -1.7222114906210637e-05
-5.121561655224466e-06   5.823258452167506e-07   -1.7222114906210637e-05
-5.121561655224466e-06   5.823258452167506e-07   -1.7222114906210637e-05
-5.121561655224466e-06   5.823258452167506e-07   -1.7222114906210637e-05
1.064191089854847e-06   -3.6255640635161034e-07   -2.6964773463735152e-05
1.064191089854847e-06   -3.6255640635161034e-07   -2.6964773463735152e-05
1.064191089854847e-06   -3.6255640635161034e-07   -2.6964773463735152e-05
1.064191089854847e-06   -3.6255640635161034e-07   -2.6964773463735152e-05
-2.18941271307277e-06   -3.274420077811237e-08   -2.1739987782199815e-05
-2.18941271307277e-06   -3.274420077811237e-08   -2.1739987782199815e-05
-2.18941271307277e-06   -3.274420077811237e-08   -2.1739987782199815e-05
-2.18941271307277e-06   -3.274420077811237e-08   -2.1739987782199815e-05
1.0641910898548249e-06   5.823258452167152e-07   -1.6655185555269577e-05
1.0641910898548249e-06   5.823258452167152e-07   -1.6655185555269577e-05
1.0641910898548249e-06   5.823258452167152e-07   -1.6655185555269577e-05
1.0641910898548249e-06   5.823258452167152e-07   -1.6655185555269577e-05
-5.1215616552244796e-06   -3.6255640635161034e-07   -2.7531702814676266e-05
-5.1215616552244796e-06   -3.6255640635161034e-07   -2.7531702814676266e-05
-5.1215616552244796e-06   -3.6255640635161034e-07   -2.7531702814676266e-05
-5.1215616552244796e-06   -3.6255640635161034e-07   -2.7531702814676266e-05
-4.723036626748565e-06   1.2618281259406654e-06   -1.7248645378641243e-05
-4.723036626748565e-06   1.2618281259406654e-06   -1.7248645378641243e-05
-4.723036626748565e-06   1.2618281259406654e-06   -1.7248645378641243e-05
-4.723036626748565e-06   1.2618281259406654e-06   -1.7248645378641243e-05
1.5983778856769925e-06   2.5002023358870924e-07   -2.7177251497272688e-05
1.5983778856769925e-06   2.5002023358870924e-07   -2.7177251497272688e-05
1.5983778856769925e-06   2.5002023358870924e-07   -2.7177251497272688e-05
1.5983778856769925e-06   2.5002023358870924e-07   -2.7177251497272688e-05
-1.839051509371283e-06   4.5427363533660434e-07   -2.15707545465742e-05
-1.839051509371283e-06   4.5427363533660434e-07   -2.15707545465742e-05
-1.839051509371283e-06   4.5427363533660434e-07   -2.15707545465742e-05
-1.839051509371283e-06   4.5427363533660434e-07   -2.15707545465742e-05
1.5983778856769944e-06   1.261828125940802e-06   -1.6641560643230048e-05
1.5983778856769944e-06   1.261828125940802e-06   -1.6641560643230048e-05
1.5983778856769944e-06   1.261828125940802e-06   -1.6641560643230048e-05
1.5983778856769944e-06   1.261828125940802e-06   -1.6641560643230048e-05
-4.723036626748565e-06   2.500202335889261e-07   -2.778433623268372e-05
-4.723036626748565e-06   2.500202335889261e-07   -2.778433623268372e-05
-4.723036626748565e-06   2.500202335889261e-07   -2.778433623268372e-05
-4.723036626748565e-06   2.500202335889261e-07   -2.778433623268372e-05
-4.342577230033066e-06   2.0383698243677407e-06   -1.768190289514642e-05
-4.342577230033066e-06   2.0383698243677407e-06   -1.768190289514642e-05
-4.342577230033066e-06   2.0383698243677407e-06   -1.768190289514642e-05
-4.342577230033066e-06   2.0383698243677407e-06   -1.768190289514642e-05
2.0369063595131785e-06   9.760410346576313e-07   -2.7676978270564244e-05
2.0369063595131785e-06   9.760410346576313e-07   -2.7676978270564244e-05
2.0369063595131785e-06   9.760410346576313e-07   -2.7676978270564244e-05
2.0369063595131785e-06   9.760410346576313e-07   -2.7676978270564244e-05
-1.448266797730209e-06   9.947224473131656e-07   -2.187956518941858e-05
-1.448266797730209e-06   9.947224473131656e-07   -2.187956518941858e-05
-1.448266797730209e-06   9.947224473131656e-07   -2.187956518941858e-05
-1.448266797730209e-06   9.947224473131656e-07   -2.187956518941858e-05
-5.5177884079889405e-06   5.889352011433797e-07   -2.0744354169061324e-05
-5.5177884079889405e-06   5.889352011433797e-07   -2.0744354169061324e-05
-5.5177884079889405e-06   5.889352011433797e-07   -2.0744354169061324e-05
-5.5177884079889405e-06   5.889352011433797e-07   -2.0744354169061324e-05
-1.1592112140929203e-05   7.421288554646834e-07   -3.07763108647023e-05
-1.1592112140929203e-05   7.421288554646834e-07   -3.07763108647023e-05
-1.1592112140929203e-05   7.421288554646834e-07   -3.07763108647023e-05
-1.1592112140929203e-05   7.421288554646834e-07   -3.07763108647023e-05
-1.1193275889753774e-05   1.3185419490675896e-06   -2.037087874761376e-05
-1.1193275889753774e-05   1.3185419490675896e-06   -2.037087874761376e-05
-1.1193275889753774e-05   1.3185419490675896e-06   -2.037087874761376e-05
-1.1193275889753774e-05   1.3185419490675896e-06   -2.037087874761376e-05
-5.121561655224485e-06   1.369287939835583e-06   -3.052085006628993e-05
-5.121561655224485e-06   1.369287939835583e-06   -3.052085006628993e-05
-5.121561655224485e-06   1.369287939835583e-06   -3.052085006628993e-05
-5.121561655224485e-06   1.369287939835583e-06   -3.052085006628993e-05
-8.307848175979333e-06   1.1325126127227116e-06   -2.5068307335430906e-05
-8.307848175979333e-06   1.1325126127227116e-06   -2.5068307335430906e-05
-8.307848175979333e-06   1.1325126127227116e-06   -2.5068307335430906e-05
-8.307848175979333e-06   1.1325126127227116e-06   -2.5068307335430906e-05
-5.1215616552244796e-06   1.318541949067686e-06   -2.0401326342074427e-05
-5.1215616552244796e-06   1.318541949067686e-06   -2.0401326342074427e-05
-5.1215616552244796e-06   1.318541949067686e-06   -2.0401326342074427e-05
-5.1215616552244796e-06   1.318541949067686e-06   -2.0401326342074427e-05
-1.1193275889753755e-05   1.369287939835583e-06   -3.0490402471829397e-05
-1.1193275889753755e-05   1.369287939835583e-06   -3.0490402471829397e-05
-1.1193275889753755e-05   1.369287939835583e-06   -3.0490402471829397e-05
-1.1193275889753755e-05   1.369287939835583e-06   -3.0490402471829397e-05
-1.0787738303745462e-05   2.0640636588613575e-06   -2.042330095789076e-05
-1.0787738303745462e-05   2.0640636588613575e-06   -2.042330095789076e-05
-1.0787738303745462e-05   2.0640636588613575e-06   -2.042330095789076e-05
-1.0787738303745462e-05   2.0640636588613575e-06   -2.042330095789076e-05
-4.723036626748575e-06   2.0329357477547917e-06   -3.0512460339554923e-05
-4.723036626748575e-06   2.0329357477547917e-06   -3.0512460339554923e-05
-4.723036626748575e-06   2.0329357477547917e-06   -3.0512460339554923e-05
-4.723036626748575e-06   2.0329357477547917e-06   -3.0512460339554923e-05
-7.957308939425954e-06   1.680376623953159e-06   -2.4910471010812117e-05
-7.957308939425954e-06   1.680376623953159e-06   -2.4910471010812117e-05
-7.957308939425954e-06   1.680376623953159e-06   -2.4910471010812117e-05
-7.957308939425954e-06   1.680376623953159e-06   -2.4910471010812117e-05
-4.723036626748579e-06   2.064063658861323e-06   -2.0404624211226778e-05
-4.723036626748579e-06   2.064063658861323e-06   -2.0404624211226778e-05
-4.723036626748579e-06   2.064063658861323e-06   -2.0404624211226778e-05
-4.723036626748579e-06   2.064063658861323e-06   -2.0404624211226778e-05
-1.0787738303745446e-05   2.032935747754575e-06   -3.053113708621888e-05
-1.0787738303745446e-05   2.032935747754575e-06   -3.053113708621888e-05
-1.0787738303745446e-05   2.032935747754575e-06   -3.053113708621888e-05
-1.0787738303745446e-05   2.032935747754575e-06   -3.053113708621888e-05
-1.0401089922463136e-05   2.819963230810043e-06   -2.0882659809838013e-05
-1.0401089922463136e-05   2.819963230810043e-06   -2.0882659809838013e-05
-1.0401089922463136e-05   2.819963230810043e-06   -2.0882659809838013e-05
-1.0401089922463136e-05   2.819963230810043e-06   -2.0882659809838013e-05
-4.3425772300330744e-06   2.7080926073242903e-06   -3.091305858979665e-05
-4.3425772300330744e-06   2.7080926073242903e-06   -3.091305858979665e-05
-4.3425772300330744e-06   2.7080926073242903e-06   -3.091305858979665e-05
-4.3425772300330744e-06   2.7080926073242903e-06   -3.091305858979665e-05
-7.631527112562364e-06   2.236605551427656e-06   -2.5148583218709882e-05
-7.631527112562364e-06   2.236605551427656e-06   -2.5148583218709882e-05
-7.631527112562364e-06   2.236605551427656e-06   -2.5148583218709882e-05
-7.631527112562364e-06   2.236605551427656e-06   -2.5148583218709882e-05
-1.1592112140929221e-05   1.3073071357745368e-06   -1.7435691275047836e-05
-1.1592112140929221e-05   1.3073071357745368e-06   -1.7435691275047836e-05
-1.1592112140929221e-05   1.3073071357745368e-06   -1.7435691275047836e-05
-1.1592112140929221e-05   1.3073071357745368e-06   -1.7435691275047836e-05
-1.7600695676870095e-05   2.3908704990924148e-06   -2.679985915029202e-05
-1.7600695676870095e-05   2.3908704990924148e-06   -2.679985915029202e-05
-1.7600695676870095e-05   2.3908704990924148e-06   -2.679985915029202e-05
-1.7600695676870095e-05   2.3908704990924148e-06   -2.679985915029202e-05
-1.7144469841801367e-05   2.039790940323123e-06   -1.6416188743198805e-05
-1.7144469841801367e-05   2.039790940323123e-06   -1.6416188743198805e-05
-1.7144469841801367e-05   2.039790940323123e-06   -1.6416188743198805e-05
-1.7144469841801367e-05   2.039790940323123e-06   -1.6416188743198805e-05
-1.1193275889753754e-05   3.0603616259497132e-06   -2.6947187741320758e-05
-1.1193275889753754e-05   3.0603616259497132e-06   -2.6947187741320758e-05
-1.1193275889753754e-05   3.0603616259497132e-06   -2.6947187741320758e-05
-1.1193275889753754e-05   3.0603616259497132e-06   -2.6947187741320758e-05
-1.4282926750987744e-05   2.2860115913188317e-06   -2.133315961848557e-05
-1.4282926750987744e-05   2.2860115913188317e-06   -2.133315961848557e-05
-1.4282926750987744e-05   2.2860115913188317e-06   -2.133315961848557e-05
-1.4282926750987744e-05   2.2860115913188317e-06   -2.133315961848557e-05
-1.1193275889753774e-05   2.039790940323265e-06   -1.7028531154574737e-05
-1.1193275889753774e-05   2.039790940323265e-06   -1.7028531154574737e-05
-1.1193275889753774e-05   2.039790940323265e-06   -1.7028531154574737e-05
-1.1193275889753774e-05   2.039790940323265e-06   -1.7028531154574737e-05
-1.71444698418014e-05   3.0603616259494964e-06   -2.6334845329944968e-05
-1.71444698418014e-05   3.0603616259494964e-06   -2.6334845329944968e-05
-1.71444698418014e-05   3.0603616259494964e-06   -2.6334845329944968e-05
-1.71444698418014e-05   3.0603616259494964e-06   -2.6334845329944968e-05
-1.6596782084765393e-05   2.715018074420355e-06   -1.6261219155462386e-05
-1.6596782084765393e-05   2.715018074420355e-06   -1.6261219155462386e-05
-1.6596782084765393e-05   2.715018074420355e-06   -1.6261219155462386e-05
-1.6596782084765393e-05   2.715018074420355e-06   -1.6261219155462386e-05
-1.0787738303745463e-05   3.663007030325861e-06   -2.6511752164038848e-05
-1.0787738303745463e-05   3.663007030325861e-06   -2.6511752164038848e-05
-1.0787738303745463e-05   3.663007030325861e-06   -2.6511752164038848e-05
-1.0787738303745463e-05   3.663007030325861e-06   -2.6511752164038848e-05
-1.3822405696446744e-05   2.8150998099291807e-06   -2.094522884396568e-05
-1.3822405696446744e-05   2.8150998099291807e-06   -2.094522884396568e-05
-1.3822405696446744e-05   2.8150998099291807e-06   -2.094522884396568e-05
-1.3822405696446744e-05   2.8150998099291807e-06   -2.094522884396568e-05
-1.0787738303745462e-05   2.715018074420411e-06   -1.6830012529005624e-05
-1.0787738303745462e-05   2.715018074420411e-06   -1.6830012529005624e-05
-1.0787738303745462e-05   2.715018074420411e-06   -1.6830012529005624e-05
-1.0787738303745462e-05   2.715018074420411e-06   -1.6830012529005624e-05
-1.6596782084765393e-05   3.663007030325861e-06   -2.594295879049561e-05
-1.6596782084765393e-05   3.663007030325861e-06   -2.594295879049561e-05
-1.6596782084765393e-05   3.663007030325861e-06   -2.594295879049561e-05
-1.6596782084765393e-05   3.663007030325861e-06   -2.594295879049561e-05
-1.6140860916439874e-05   3.470953036776442e-06   -1.6711324149525347e-05
-1.6140860916439874e-05   3.470953036776442e-06   -1.6711324149525347e-05
-1.6140860916439874e-05   3.470953036776442e-06   -1.6711324149525347e-05
-1.6140860916439874e-05   3.470953036776442e-06   -1.6711324149525347e-05
-1.0401089922463138e-05   4.336397580983293e-06   -2.6796875866010543e-05
-1.0401089922463138e-05   4.336397580983293e-06   -2.6796875866010543e-05
-1.0401089922463138e-05   4.336397580983293e-06   -2.6796875866010543e-05
-1.0401089922463138e-05   4.336397580983293e-06   -2.6796875866010543e-05
-1.3516129296578119e-05   3.3358638898471713e-06   -2.1004823361137358e-05
-1.3516129296578119e-05   3.3358638898471713e-06   -2.1004823361137358e-05
-1.3516129296578119e-05   3.3358638898471713e-06   -2.1004823361137358e-05
-1.3516129296578119e-05   3.3358638898471713e-06   -2.1004823361137358e-05
-1.7600695676870095e-05   2.199929631456097e-06   -9.012795832118604e-06
-1.7600695676870095e-05   2.199929631456097e-06   -9.012795832118604e-06
-1.7600695676870095e-05   2.199929631456097e-06   -9.012795832118604e-06
-1.7600695676870095e-05   2.199929631456097e-06   -9.012795832118604e-06
-2.445580845772215e-05   4.1117406745238855e-06   -1.9290897174365005e-05
-2.445580845772215e-05   4.1117406745238855e-06   -1.9290897174365005e-05
-2.445580845772215e-05   4.1117406745238855e-06   -1.9290897174365005e-05
-2.445580845772215e-05   4.1117406745238855e-06   -1.9290897174365005e-05
-2.3193002479951824e-05   2.864688954145895e-06   -5.641568195162818e-06
-2.3193002479951824e-05   2.864688954145895e-06   -5.641568195162818e-06
-2.3193002479951824e-05   2.864688954145895e-06   -5.641568195162818e-06
-2.3193002479951824e-05   2.864688954145895e-06   -5.641568195162818e-06
-1.714446984180137e-05   4.807530756470576e-06   -1.6888161006808287e-05
-1.714446984180137e-05   4.807530756470576e-06   -1.6888161006808287e-05
-1.714446984180137e-05   4.807530756470576e-06   -1.6888161006808287e-05
-1.714446984180137e-05   4.807530756470576e-06   -1.6888161006808287e-05
-1.976063742552261e-05   3.5744110655744864e-06   -1.1788009886068651e-05
-1.976063742552261e-05   3.5744110655744864e-06   -1.1788009886068651e-05
-1.976063742552261e-05   3.5744110655744864e-06   -1.1788009886068651e-05
-1.976063742552261e-05   3.5744110655744864e-06   -1.1788009886068651e-05
-1.7144469841801387e-05   2.8646889541458525e-06   -6.807273276557475e-06
-1.7144469841801387e-05   2.8646889541458525e-06   -6.807273276557475e-06
-1.7144469841801387e-05   2.8646889541458525e-06   -6.807273276557475e-06
-1.7144469841801387e-05   2.8646889541458525e-06   -6.807273276557475e-06
-2.319300247995173e-05   4.807530756470576e-06   -1.572245592541355e-05
-2.319300247995173e-05   4.807530756470576e-06   -1.572245592541355e-05
-2.319300247995173e-05   4.807530756470576e-06   -1.572245592541355e-05
-2.319300247995173e-05   4.807530756470576e-06   -1.572245592541355e-05
-2.2149342203097802e-05   3.16899976928668e-06   -4.614622336869111e-06
-2.2149342203097802e-05   3.16899976928668e-06   -4.614622336869111e-06
-2.2149342203097802e-05   3.16899976928668e-06   -4.614622336869111e-06
-2.2149342203097802e-05   3.16899976928668e-06   -4.614622336869111e-06
-1.659678208476536e-05   5.057075646971044e-06   -1.5001734727367014e-05
-1.659678208476536e-05   5.057075646971044e-06   -1.5001734727367014e-05
-1.659678208476536e-05   5.057075646971044e-06   -1.5001734727367014e-05
-1.659678208476536e-05   5.057075646971044e-06   -1.5001734727367014e-05
-1.9302831984034342e-05   3.888292260302616e-06   -9.790381529917739e-06
-1.9302831984034342e-05   3.888292260302616e-06   -9.790381529917739e-06
-1.9302831984034342e-05   3.888292260302616e-06   -9.790381529917739e-06
-1.9302831984034342e-05   3.888292260302616e-06   -9.790381529917739e-06
-1.6596782084765393e-05   3.1689997692866673e-06   -5.747467863479795e-06
-1.6596782084765393e-05   3.1689997692866673e-06   -5.747467863479795e-06
-1.6596782084765393e-05   3.1689997692866673e-06   -5.747467863479795e-06
-1.6596782084765393e-05   3.1689997692866673e-06   -5.747467863479795e-06
-2.214934220309772e-05   5.057075646971044e-06   -1.3868889200756318e-05
-2.214934220309772e-05   5.057075646971044e-06   -1.3868889200756318e-05
-2.214934220309772e-05   5.057075646971044e-06   -1.3868889200756318e-05
-2.214934220309772e-05   5.057075646971044e-06   -1.3868889200756318e-05
-2.0913233383096697e-05   3.638612377147507e-06   -3.5346055177698467e-06
-2.0913233383096697e-05   3.638612377147507e-06   -3.5346055177698467e-06
-2.0913233383096697e-05   3.638612377147507e-06   -3.5346055177698467e-06
-2.0913233383096697e-05   3.638612377147507e-06   -3.5346055177698467e-06
-1.614086091643986e-05   5.371465934292125e-06   -1.2528271763151052e-05
-1.614086091643986e-05   5.371465934292125e-06   -1.2528271763151052e-05
-1.614086091643986e-05   5.371465934292125e-06   -1.2528271763151052e-05
-1.614086091643986e-05   5.371465934292125e-06   -1.2528271763151052e-05
-1.8319860858770572e-05   4.0391167080854225e-06   -8.09719565687624e-06
-1.8319860858770572e-05   4.0391167080854225e-06   -8.09719565687624e-06
-1.8319860858770572e-05   4.0391167080854225e-06   -8.09719565687624e-06
-1.8319860858770572e-05   4.0391167080854225e-06   -8.09719565687624e-06
1.850449981495315e-05   -2.424441411374129e-06   -7.038590246603339e-08
1.850449981495315e-05   -2.424441411374129e-06   -7.038590246603339e-08
1.850449981495315e-05   -2.424441411374129e-06   -7.038590246603339e-08
1.850449981495315e-05   -2.424441411374129e-06   -7.038590246603339e-08
7.874205314280957e-06   -4.3641767405540235e-06   -1.895138460109437e-05
7.874205314280957e-06   -4.3641767405540235e-06   -1.895138460109437e-05
7.874205314280957e-06   -4.3641767405540235e-06   -1.895138460109437e-05
7.874205314280957e-06   -4.3641767405540235e-06   -1.895138460109437e-05
8.425972171583282e-06   -1.9934498375763065e-06   -2.0169863064625846e-06
8.425972171583282e-06   -1.9934498375763065e-06   -2.0169863064625846e-06
8.425972171583282e-06   -1.9934498375763065e-06   -2.0169863064625846e-06
8.425972171583282e-06   -1.9934498375763065e-06   -2.0169863064625846e-06
1.9893652753369007e-05   -4.059759102602225e-06   -1.989000171708985e-05
1.9893652753369007e-05   -4.059759102602225e-06   -1.989000171708985e-05
1.9893652753369007e-05   -4.059759102602225e-06   -1.989000171708985e-05
1.9893652753369007e-05   -4.059759102602225e-06   -1.989000171708985e-05
1.3122538709833656e-05   -2.8791757293764823e-06   -9.313161668466534e-06
1.3122538709833656e-05   -2.8791757293764823e-06   -9.313161668466534e-06
1.3122538709833656e-05   -2.8791757293764823e-06   -9.313161668466534e-06
1.3122538709833656e-05   -2.8791757293764823e-06   -9.313161668466534e-06
1.9893652753369065e-05   -1.993449837576344e-06   -7.772007474470769e-07
1.9893652753369065e-05   -1.993449837576344e-06   -7.772007474470769e-07
1.9893652753369065e-05   -1.993449837576344e-06   -7.772007474470769e-07
1.9893652753369065e-05   -1.993449837576344e-06   -7.772007474470769e-07
8.425972171583254e-06   -4.059759102602225e-06   -2.1129787276105466e-05
8.425972171583254e-06   -4.059759102602225e-06   -2.1129787276105466e-05
8.425972171583254e-06   -4.059759102602225e-06   -2.1129787276105466e-05
8.425972171583254e-06   -4.059759102602225e-06   -2.1129787276105466e-05
9.037544570286992e-06   -1.7050524426351528e-06   -2.872265853327751e-06
9.037544570286992e-06   -1.7050524426351528e-06   -2.872265853327751e-06
9.037544570286992e-06   -1.7050524426351528e-06   -2.872265853327751e-06
9.037544570286992e-06   -1.7050524426351528e-06   -2.872265853327751e-06
2.105927238764183e-05   -3.7968380480432086e-06   -2.1653407519007584e-05
2.105927238764183e-05   -3.7968380480432086e-06   -2.1653407519007584e-05
2.105927238764183e-05   -3.7968380480432086e-06   -2.1653407519007584e-05
2.105927238764183e-05   -3.7968380480432086e-06   -2.1653407519007584e-05
1.4165689889788753e-05   -2.7620588060083603e-06   -1.078497090114004e-05
1.4165689889788753e-05   -2.7620588060083603e-06   -1.078497090114004e-05
1.4165689889788753e-05   -2.7620588060083603e-06   -1.078497090114004e-05
1.4165689889788753e-05   -2.7620588060083603e-06   -1.078497090114004e-05
2.105927238764185e-05   -1.7050524426352506e-06   -1.6171944900828742e-06
2.105927238764185e-05   -1.7050524426352506e-06   -1.6171944900828742e-06
2.105927238764185e-05   -1.7050524426352506e-06   -1.6171944900828742e-06
2.105927238764185e-05   -1.7050524426352506e-06   -1.6171944900828742e-06
9.037544570286992e-06   -3.7968380480429918e-06   -2.2908478882252407e-05
9.037544570286992e-06   -3.7968380480429918e-06   -2.2908478882252407e-05
9.037544570286992e-06   -3.7968380480429918e-06   -2.2908478882252407e-05
9.037544570286992e-06   -3.7968380480429918e-06   -2.2908478882252407e-05
9.542014150190891e-06   -9.79400505995683e-07   -4.8419665382949326e-06
9.542014150190891e-06   -9.79400505995683e-07   -4.8419665382949326e-06
9.542014150190891e-06   -9.79400505995683e-07   -4.8419665382949326e-06
9.542014150190891e-06   -9.79400505995683e-07   -4.8419665382949326e-06
2.2412878596482777e-05   -2.96683621903702e-06   -2.5100945854289816e-05
2.2412878596482777e-05   -2.96683621903702e-06   -2.5100945854289816e-05
2.2412878596482777e-05   -2.96683621903702e-06   -2.5100945854289816e-05
2.2412878596482777e-05   -2.96683621903702e-06   -2.5100945854289816e-05
1.4727143881337535e-05   -2.436482660106952e-06   -1.2609600131072943e-05
1.4727143881337535e-05   -2.436482660106952e-06   -1.2609600131072943e-05
1.4727143881337535e-05   -2.436482660106952e-06   -1.2609600131072943e-05
1.4727143881337535e-05   -2.436482660106952e-06   -1.2609600131072943e-05
7.874205314280957e-06   -9.54616331240076e-07   -1.2774789607033848e-05
7.874205314280957e-06   -9.54616331240076e-07   -1.2774789607033848e-05
7.874205314280957e-06   -9.54616331240076e-07   -1.2774789607033848e-05
7.874205314280957e-06   -9.54616331240076e-07   -1.2774789607033848e-05
-3.365587153738179e-06   -2.037015910604737e-06   -3.2157216801351174e-05
-3.365587153738179e-06   -2.037015910604737e-06   -3.2157216801351174e-05
-3.365587153738179e-06   -2.037015910604737e-06   -3.2157216801351174e-05
-3.365587153738179e-06   -2.037015910604737e-06   -3.2157216801351174e-05
-2.852966467439206e-06   -3.6255640635161034e-07   -1.304032603056547e-05
-2.852966467439206e-06   -3.6255640635161034e-07   -1.304032603056547e-05
-2.852966467439206e-06   -3.6255640635161034e-07   -1.304032603056547e-05
-2.852966467439206e-06   -3.6255640635161034e-07   -1.304032603056547e-05
8.425972171583283e-06   -1.6120919315836674e-06   -3.108883578046388e-05
8.425972171583283e-06   -1.6120919315836674e-06   -3.108883578046388e-05
8.425972171583283e-06   -1.6120919315836674e-06   -3.108883578046388e-05
8.425972171583283e-06   -1.6120919315836674e-06   -3.108883578046388e-05
2.548005369415148e-06   -9.837165717231557e-07   -2.166924965943333e-05
2.548005369415148e-06   -9.837165717231557e-07   -2.166924965943333e-05
2.548005369415148e-06   -9.837165717231557e-07   -2.166924965943333e-05
2.548005369415148e-06   -9.837165717231557e-07   -2.166924965943333e-05
8.425972171583282e-06   -3.6255640635163416e-07   -1.2290604715426258e-05
8.425972171583282e-06   -3.6255640635163416e-07   -1.2290604715426258e-05
8.425972171583282e-06   -3.6255640635163416e-07   -1.2290604715426258e-05
8.425972171583282e-06   -3.6255640635163416e-07   -1.2290604715426258e-05
-2.8529664674391926e-06   -1.6120919315836674e-06   -3.183855709560301e-05
-2.8529664674391926e-06   -1.6120919315836674e-06   -3.183855709560301e-05
-2.8529664674391926e-06   -1.6120919315836674e-06   -3.183855709560301e-05
-2.8529664674391926e-06   -1.6120919315836674e-06   -3.183855709560301e-05
-2.3635468970874084e-06   2.500202335889261e-07   -1.3210125095138936e-05
-2.3635468970874084e-06   2.500202335889261e-07   -1.3210125095138936e-05
-2.3635468970874084e-06   2.500202335889261e-07   -1.3210125095138936e-05
-2.3635468970874084e-06   2.500202335889261e-07   -1.3210125095138936e-05
9.037544570286992e-06   -1.092876418055163e-06   -3.1406206216443055e-05
9.037544570286992e-06   -1.092876418055163e-06   -3.1406206216443055e-05
9.037544570286992e-06   -1.092876418055163e-06   -3.1406206216443055e-05
9.037544570286992e-06   -1.092876418055163e-06   -3.1406206216443055e-05
2.953753012650394e-06   -6.073694455929497e-07   -2.1557857803858988e-05
2.953753012650394e-06   -6.073694455929497e-07   -2.1557857803858988e-05
2.953753012650394e-06   -6.073694455929497e-07   -2.1557857803858988e-05
2.953753012650394e-06   -6.073694455929497e-07   -2.1557857803858988e-05
9.037544570286992e-06   2.5002023358879966e-07   -1.2404387104152483e-05
9.037544570286992e-06   2.5002023358879966e-07   -1.2404387104152483e-05
9.037544570286992e-06   2.5002023358879966e-07   -1.2404387104152483e-05
9.037544570286992e-06   2.5002023358879966e-07   -1.2404387104152483e-05
-2.3635468970874084e-06   -1.0928764180553798e-06   -3.221194420742967e-05
-2.3635468970874084e-06   -1.0928764180553798e-06   -3.221194420742967e-05
-2.3635468970874084e-06   -1.0928764180553798e-06   -3.221194420742967e-05
-2.3635468970874084e-06   -1.0928764180553798e-06   -3.221194420742967e-05
-1.9041078339458479e-06   9.760410346576313e-07   -1.3662199527998404e-05
-1.9041078339458479e-06   9.760410346576313e-07   -1.3662199527998404e-05
-1.9041078339458479e-06   9.760410346576313e-07   -1.3662199527998404e-05
-1.9041078339458479e-06   9.760410346576313e-07   -1.3662199527998404e-05
9.542014150190894e-06   -4.3913254939753794e-07   -3.188996535112646e-05
9.542014150190894e-06   -4.3913254939753794e-07   -3.188996535112646e-05
9.542014150190894e-06   -4.3913254939753794e-07   -3.188996535112646e-05
9.542014150190894e-06   -4.3913254939753794e-07   -3.188996535112646e-05
3.461516704058028e-06   -1.4291954099202898e-07   -2.1933530745948948e-05
3.461516704058028e-06   -1.4291954099202898e-07   -2.1933530745948948e-05
3.461516704058028e-06   -1.4291954099202898e-07   -2.1933530745948948e-05
3.461516704058028e-06   -1.4291954099202898e-07   -2.1933530745948948e-05
-3.365587153738179e-06   7.421288554645311e-07   -1.645205252661058e-05
-3.365587153738179e-06   7.421288554645311e-07   -1.645205252661058e-05
-3.365587153738179e-06   7.421288554645311e-07   -1.645205252661058e-05
-3.365587153738179e-06   7.421288554645311e-07   -1.645205252661058e-05
-1.4407352043437515e-05   3.841172762973719e-07   -3.506980095694312e-05
-1.4407352043437515e-05   3.841172762973719e-07   -3.506980095694312e-05
-1.4407352043437515e-05   3.841172762973719e-07   -3.506980095694312e-05
-1.4407352043437515e-05   3.841172762973719e-07   -3.506980095694312e-05
-1.385569149617796e-05   1.369287939835583e-06   -1.633391326618381e-05
-1.385569149617796e-05   1.369287939835583e-06   -1.633391326618381e-05
-1.385569149617796e-05   1.369287939835583e-06   -1.633391326618381e-05
-1.385569149617796e-05   1.369287939835583e-06   -1.633391326618381e-05
-2.852966467439191e-06   8.618879664948256e-07   -3.436734833007715e-05
-2.852966467439191e-06   8.618879664948256e-07   -3.436734833007715e-05
-2.852966467439191e-06   8.618879664948256e-07   -3.436734833007715e-05
-2.852966467439191e-06   8.618879664948256e-07   -3.436734833007715e-05
-8.561650602860548e-06   1.0180779977349893e-06   -2.4946588789785687e-05
-8.561650602860548e-06   1.0180779977349893e-06   -2.4946588789785687e-05
-8.561650602860548e-06   1.0180779977349893e-06   -2.4946588789785687e-05
-8.561650602860548e-06   1.0180779977349893e-06   -2.4946588789785687e-05
-2.852966467439206e-06   1.3692879398355175e-06   -1.6029473282179376e-05
-2.852966467439206e-06   1.3692879398355175e-06   -1.6029473282179376e-05
-2.852966467439206e-06   1.3692879398355175e-06   -1.6029473282179376e-05
-2.852966467439206e-06   1.3692879398355175e-06   -1.6029473282179376e-05
-1.385569149617796e-05   8.618879664948256e-07   -3.467178831408166e-05
-1.385569149617796e-05   8.618879664948256e-07   -3.467178831408166e-05
-1.385569149617796e-05   8.618879664948256e-07   -3.467178831408166e-05
-1.385569149617796e-05   8.618879664948256e-07   -3.467178831408166e-05
-1.3323426515497431e-05   2.032935747754575e-06   -1.630937016459976e-05
-1.3323426515497431e-05   2.032935747754575e-06   -1.630937016459976e-05
-1.3323426515497431e-05   2.032935747754575e-06   -1.630937016459976e-05
-1.3323426515497431e-05   2.032935747754575e-06   -1.630937016459976e-05
-2.3635468970874075e-06   1.4144008101050869e-06   -3.420471523269352e-05
-2.3635468970874075e-06   1.4144008101050869e-06   -3.420471523269352e-05
-2.3635468970874075e-06   1.4144008101050869e-06   -3.420471523269352e-05
-2.3635468970874075e-06   1.4144008101050869e-06   -3.420471523269352e-05
-8.087349172643096e-06   1.4655107783746475e-06   -2.46957107543956e-05
-8.087349172643096e-06   1.4655107783746475e-06   -2.46957107543956e-05
-8.087349172643096e-06   1.4655107783746475e-06   -2.46957107543956e-05
-8.087349172643096e-06   1.4655107783746475e-06   -2.46957107543956e-05
-2.3635468970874084e-06   2.032935747754798e-06   -1.5938249202010002e-05
-2.3635468970874084e-06   2.032935747754798e-06   -1.5938249202010002e-05
-2.3635468970874084e-06   2.032935747754798e-06   -1.5938249202010002e-05
-2.3635468970874084e-06   2.032935747754798e-06   -1.5938249202010002e-05
-1.3323426515497431e-05   1.4144008101050869e-06   -3.457583619528317e-05
-1.3323426515497431e-05   1.4144008101050869e-06   -3.457583619528317e-05
-1.3323426515497431e-05   1.4144008101050869e-06   -3.457583619528317e-05
-1.3323426515497431e-05   1.4144008101050869e-06   -3.457583619528317e-05
-1.2831615615830685e-05   2.708092607324507e-06   -1.6694581224365335e-05
-1.2831615615830685e-05   2.708092607324507e-06   -1.6694581224365335e-05
-1.2831615615830685e-05   2.708092607324507e-06   -1.6694581224365335e-05
-1.2831615615830685e-05   2.708092607324507e-06   -1.6694581224365335e-05
-1.9041078339458568e-06   1.985261522390036e-06   -3.4473395543212746e-05
-1.9041078339458568e-06   1.985261522390036e-06   -3.4473395543212746e-05
-1.9041078339458568e-06   1.985261522390036e-06   -3.4473395543212746e-05
-1.9041078339458568e-06   1.985261522390036e-06   -3.4473395543212746e-05
-7.663950602132142e-06   1.9245967857791507e-06   -2.4837258754269563e-05
-7.663950602132142e-06   1.9245967857791507e-06   -2.4837258754269563e-05
-7.663950602132142e-06   1.9245967857791507e-06   -2.4837258754269563e-05
-7.663950602132142e-06   1.9245967857791507e-06   -2.4837258754269563e-05
-1.440735204343754e-05   2.390870499092352e-06   -1.3340545777691302e-05
-1.440735204343754e-05   2.390870499092352e-06   -1.3340545777691302e-05
-1.440735204343754e-05   2.390870499092352e-06   -1.3340545777691302e-05
-1.440735204343754e-05   2.390870499092352e-06   -1.3340545777691302e-05
-2.5252320263250573e-05   2.892150118992973e-06   -3.111472503877267e-05
-2.5252320263250573e-05   2.892150118992973e-06   -3.111472503877267e-05
-2.5252320263250573e-05   2.892150118992973e-06   -3.111472503877267e-05
-2.5252320263250573e-05   2.892150118992973e-06   -3.111472503877267e-05
-2.458690700828949e-05   3.0603616259494964e-06   -1.2528163808898777e-05
-2.458690700828949e-05   3.0603616259494964e-06   -1.2528163808898777e-05
-2.458690700828949e-05   3.0603616259494964e-06   -1.2528163808898777e-05
-2.458690700828949e-05   3.0603616259494964e-06   -1.2528163808898777e-05
-1.3855691496177984e-05   3.4979195039103878e-06   -3.0676057722527715e-05
-1.3855691496177984e-05   3.4979195039103878e-06   -3.0676057722527715e-05
-1.3855691496177984e-05   3.4979195039103878e-06   -3.0676057722527715e-05
-1.3855691496177984e-05   3.4979195039103878e-06   -3.0676057722527715e-05
-1.9383070493539348e-05   3.0857703911698047e-06   -2.121646992594774e-05
-1.9383070493539348e-05   3.0857703911698047e-06   -2.121646992594774e-05
-1.9383070493539348e-05   3.0857703911698047e-06   -2.121646992594774e-05
-1.9383070493539348e-05   3.0857703911698047e-06   -2.121646992594774e-05
-1.3855691496177984e-05   3.060361625949594e-06   -1.2790698535675203e-05
-1.3855691496177984e-05   3.060361625949594e-06   -1.2790698535675203e-05
-1.3855691496177984e-05   3.060361625949594e-06   -1.2790698535675203e-05
-1.3855691496177984e-05   3.060361625949594e-06   -1.2790698535675203e-05
-2.458690700828949e-05   3.4979195039103878e-06   -3.0413522995751275e-05
-2.458690700828949e-05   3.4979195039103878e-06   -3.0413522995751275e-05
-2.458690700828949e-05   3.4979195039103878e-06   -3.0413522995751275e-05
-2.458690700828949e-05   3.4979195039103878e-06   -3.0413522995751275e-05
-2.3849515998096507e-05   3.663007030325861e-06   -1.2076111170047639e-05
-2.3849515998096507e-05   3.663007030325861e-06   -1.2076111170047639e-05
-2.3849515998096507e-05   3.663007030325861e-06   -1.2076111170047639e-05
-2.3849515998096507e-05   3.663007030325861e-06   -1.2076111170047639e-05
-1.3323426515497456e-05   4.01946381761286e-06   -2.983346771341819e-05
-1.3323426515497456e-05   4.01946381761286e-06   -2.983346771341819e-05
-1.3323426515497456e-05   4.01946381761286e-06   -2.983346771341819e-05
-1.3323426515497456e-05   4.01946381761286e-06   -2.983346771341819e-05
-1.870890537081056e-05   3.558011643031234e-06   -2.0580798316480704e-05
-1.870890537081056e-05   3.558011643031234e-06   -2.0580798316480704e-05
-1.870890537081056e-05   3.558011643031234e-06   -2.0580798316480704e-05
-1.870890537081056e-05   3.558011643031234e-06   -2.0580798316480704e-05
-1.3323426515497458e-05   3.663007030325915e-06   -1.228998524241973e-05
-1.3323426515497458e-05   3.663007030325915e-06   -1.228998524241973e-05
-1.3323426515497458e-05   3.663007030325915e-06   -1.228998524241973e-05
-1.3323426515497458e-05   3.663007030325915e-06   -1.228998524241973e-05
-2.3849515998096507e-05   4.01946381761286e-06   -2.9619593641046086e-05
-2.3849515998096507e-05   4.01946381761286e-06   -2.9619593641046086e-05
-2.3849515998096507e-05   4.01946381761286e-06   -2.9619593641046086e-05
-2.3849515998096507e-05   4.01946381761286e-06   -2.9619593641046086e-05
-2.3226705909551432e-05   4.336397580983293e-06   -1.2355700476927574e-05
-2.3226705909551432e-05   4.336397580983293e-06   -1.2355700476927574e-05
-2.3226705909551432e-05   4.336397580983293e-06   -1.2355700476927574e-05
-2.3226705909551432e-05   4.336397580983293e-06   -1.2355700476927574e-05
-1.2831615615830707e-05   4.595690330250462e-06   -2.983642661602252e-05
-1.2831615615830707e-05   4.595690330250462e-06   -2.983642661602252e-05
-1.2831615615830707e-05   4.595690330250462e-06   -2.983642661602252e-05
-1.2831615615830707e-05   4.595690330250462e-06   -2.983642661602252e-05
-1.8292259505488323e-05   3.992698757352732e-06   -2.0373558522854823e-05
-1.8292259505488323e-05   3.992698757352732e-06   -2.0373558522854823e-05
-1.8292259505488323e-05   3.992698757352732e-06   -2.0373558522854823e-05
-1.8292259505488323e-05   3.992698757352732e-06   -2.0373558522854823e-05
-2.5252320263250573e-05   4.111740674523669e-06   -6.677902655664587e-06
-2.5252320263250573e-05   4.111740674523669e-06   -6.677902655664587e-06
-2.5252320263250573e-05   4.111740674523669e-06   -6.677902655664587e-06
-2.5252320263250573e-05   4.111740674523669e-06   -6.677902655664587e-06
-3.6686112098230174e-05   5.673370571155018e-06   -2.4797244442651897e-05
-3.6686112098230174e-05   5.673370571155018e-06   -2.4797244442651897e-05
-3.6686112098230174e-05   5.673370571155018e-06   -2.4797244442651897e-05
-3.6686112098230174e-05   5.673370571155018e-06   -2.4797244442651897e-05
-3.5150182942486654e-05   4.807530756470576e-06   -2.0789674167427186e-06
-3.5150182942486654e-05   4.807530756470576e-06   -2.0789674167427186e-06
-3.5150182942486654e-05   4.807530756470576e-06   -2.0789674167427186e-06
-3.5150182942486654e-05   4.807530756470576e-06   -2.0789674167427186e-06
-2.4586907008289446e-05   6.478384204836431e-06   -2.0686939376090943e-05
-2.4586907008289446e-05   6.478384204836431e-06   -2.0686939376090943e-05
-2.4586907008289446e-05   6.478384204836431e-06   -2.0686939376090943e-05
-2.4586907008289446e-05   6.478384204836431e-06   -2.0686939376090943e-05
-2.9161749878629377e-05   5.404576958378728e-06   -1.2417916910982999e-05
-2.9161749878629377e-05   5.404576958378728e-06   -1.2417916910982999e-05
-2.9161749878629377e-05   5.404576958378728e-06   -1.2417916910982999e-05
-2.9161749878629377e-05   5.404576958378728e-06   -1.2417916910982999e-05
-2.4586907008289463e-05   4.80753075647078e-06   -3.081479485762123e-06
-2.4586907008289463e-05   4.80753075647078e-06   -3.081479485762123e-06
-2.4586907008289463e-05   4.80753075647078e-06   -3.081479485762123e-06
-2.4586907008289463e-05   4.80753075647078e-06   -3.081479485762123e-06
-3.5150182942486586e-05   6.478384204836431e-06   -1.96844273070713e-05
-3.5150182942486586e-05   6.478384204836431e-06   -1.96844273070713e-05
-3.5150182942486586e-05   6.478384204836431e-06   -1.96844273070713e-05
-3.5150182942486586e-05   6.478384204836431e-06   -1.96844273070713e-05
-3.3886431946837084e-05   5.057075646971044e-06   -1.5479727882210335e-07
-3.3886431946837084e-05   5.057075646971044e-06   -1.5479727882210335e-07
-3.3886431946837084e-05   5.057075646971044e-06   -1.5479727882210335e-07
-3.3886431946837084e-05   5.057075646971044e-06   -1.5479727882210335e-07
-2.3849515998096507e-05   6.6905586937992916e-06   -1.786308035482011e-05
-2.3849515998096507e-05   6.6905586937992916e-06   -1.786308035482011e-05
-2.3849515998096507e-05   6.6905586937992916e-06   -1.786308035482011e-05
-2.3849515998096507e-05   6.6905586937992916e-06   -1.786308035482011e-05
-2.8644609179239048e-05   5.7265931010480435e-06   -9.29287903059799e-06
-2.8644609179239048e-05   5.7265931010480435e-06   -9.29287903059799e-06
-2.8644609179239048e-05   5.7265931010480435e-06   -9.29287903059799e-06
-2.8644609179239048e-05   5.7265931010480435e-06   -9.29287903059799e-06
-2.3849515998096507e-05   5.057075646971133e-06   -1.1348871069192471e-06
-2.3849515998096507e-05   5.057075646971133e-06   -1.1348871069192471e-06
-2.3849515998096507e-05   5.057075646971133e-06   -1.1348871069192471e-06
-2.3849515998096507e-05   5.057075646971133e-06   -1.1348871069192471e-06
-3.3886431946836975e-05   6.690558693799508e-06   -1.688299052672311e-05
-3.3886431946836975e-05   6.690558693799508e-06   -1.688299052672311e-05
-3.3886431946836975e-05   6.690558693799508e-06   -1.688299052672311e-05
-3.3886431946836975e-05   6.690558693799508e-06   -1.688299052672311e-05
-3.2521140410307495e-05   5.371465934292125e-06   2.2933690120519263e-06
-3.2521140410307495e-05   5.371465934292125e-06   2.2933690120519263e-06
-3.2521140410307495e-05   5.371465934292125e-06   2.2933690120519263e-06
-3.2521140410307495e-05   5.371465934292125e-06   2.2933690120519263e-06
-2.3226705909551415e-05   6.8710194553657945e-06   -1.4097087268518959e-05
-2.3226705909551415e-05   6.8710194553657945e-06   -1.4097087268518959e-05
-2.3226705909551415e-05   6.8710194553657945e-06   -1.4097087268518959e-05
-2.3226705909551415e-05   6.8710194553657945e-06   -1.4097087268518959e-05
-2.7360087503203748e-05   5.778815609223074e-06   -6.552795638080079e-06
-2.7360087503203748e-05   5.778815609223074e-06   -6.552795638080079e-06
-2.7360087503203748e-05   5.778815609223074e-06   -6.552795638080079e-06
-2.7360087503203748e-05   5.778815609223074e-06   -6.552795638080079e-06
3.132579160973587e-05   -4.364176740554153e-06   6.278237783322298e-06
3.132579160973587e-05   -4.364176740554153e-06   6.278237783322298e-06
3.132579160973587e-05   -4.364176740554153e-06   6.278237783322298e-06
3.132579160973587e-05   -4.364176740554153e-06   6.278237783322298e-06
1.5081215818823411e-05   -6.45183150415978e-06   -2.204864805969509e-05
1.5081215818823411e-05   -6.45183150415978e-06   -2.204864805969509e-05
1.5081215818823411e-05   -6.45183150415978e-06   -2.204864805969509e-05
1.5081215818823411e-05   -6.45183150415978e-06   -2.204864805969509e-05
1.5692295626062663e-05   -4.059759102602442e-06   3.0632559343702487e-06
1.5692295626062663e-05   -4.059759102602442e-06   3.0632559343702487e-06
1.5692295626062663e-05   -4.059759102602442e-06   3.0632559343702487e-06
1.5692295626062663e-05   -4.059759102602442e-06   3.0632559343702487e-06
3.275043886714621e-05   -6.302363697260156e-06   -2.4021420043974313e-05
3.275043886714621e-05   -6.302363697260156e-06   -2.4021420043974313e-05
3.275043886714621e-05   -6.302363697260156e-06   -2.4021420043974313e-05
3.275043886714621e-05   -6.302363697260156e-06   -2.4021420043974313e-05
2.2747653293907907e-05   -4.776146340173442e-06   -8.26584116949585e-06
2.2747653293907907e-05   -4.776146340173442e-06   -8.26584116949585e-06
2.2747653293907907e-05   -4.776146340173442e-06   -8.26584116949585e-06
2.2747653293907907e-05   -4.776146340173442e-06   -8.26584116949585e-06
3.275043886714625e-05   -4.059759102602383e-06   4.408818691165116e-06
3.275043886714625e-05   -4.059759102602383e-06   4.408818691165116e-06
3.275043886714625e-05   -4.059759102602383e-06   4.408818691165116e-06
3.275043886714625e-05   -4.059759102602383e-06   4.408818691165116e-06
1.569229562606265e-05   -6.302363697260156e-06   -2.5366982800769018e-05
1.569229562606265e-05   -6.302363697260156e-06   -2.5366982800769018e-05
1.569229562606265e-05   -6.302363697260156e-06   -2.5366982800769018e-05
1.569229562606265e-05   -6.302363697260156e-06   -2.5366982800769018e-05
1.6300350324015094e-05   -3.7968380480429918e-06   1.487536668362847e-06
1.6300350324015094e-05   -3.7968380480429918e-06   1.487536668362847e-06
1.6300350324015094e-05   -3.7968380480429918e-06   1.487536668362847e-06
1.6300350324015094e-05   -3.7968380480429918e-06   1.487536668362847e-06
3.384304831727125e-05   -6.083157708155389e-06   -2.6378501524330228e-05
3.384304831727125e-05   -6.083157708155389e-06   -2.6378501524330228e-05
3.384304831727125e-05   -6.083157708155389e-06   -2.6378501524330228e-05
3.384304831727125e-05   -6.083157708155389e-06   -2.6378501524330228e-05
2.3948462205756838e-05   -4.760110289258332e-06   -1.068135312314432e-05
2.3948462205756838e-05   -4.760110289258332e-06   -1.068135312314432e-05
2.3948462205756838e-05   -4.760110289258332e-06   -1.068135312314432e-05
2.3948462205756838e-05   -4.760110289258332e-06   -1.068135312314432e-05
3.384304831727125e-05   -3.7968380480430646e-06   2.8593284644301553e-06
3.384304831727125e-05   -3.7968380480430646e-06   2.8593284644301553e-06
3.384304831727125e-05   -3.7968380480430646e-06   2.8593284644301553e-06
3.384304831727125e-05   -3.7968380480430646e-06   2.8593284644301553e-06
1.6300350324015094e-05   -6.083157708155389e-06   -2.775029332039759e-05
1.6300350324015094e-05   -6.083157708155389e-06   -2.775029332039759e-05
1.6300350324015094e-05   -6.083157708155389e-06   -2.775029332039759e-05
1.6300350324015094e-05   -6.083157708155389e-06   -2.775029332039759e-05
1.671231438417856e-05   -2.966836219036803e-06   -1.681533847039179e-06
1.671231438417856e-05   -2.966836219036803e-06   -1.681533847039179e-06
1.671231438417856e-05   -2.966836219036803e-06   -1.681533847039179e-06
1.671231438417856e-05   -2.966836219036803e-06   -1.681533847039179e-06
3.499875020054444e-05   -5.229623403861126e-06   -3.080125456342113e-05
3.499875020054444e-05   -5.229623403861126e-06   -3.080125456342113e-05
3.499875020054444e-05   -5.229623403861126e-06   -3.080125456342113e-05
3.499875020054444e-05   -5.229623403861126e-06   -3.080125456342113e-05
2.4279613648677583e-05   -4.393478776300178e-06   -1.3437713753513338e-05
2.4279613648677583e-05   -4.393478776300178e-06   -1.3437713753513338e-05
2.4279613648677583e-05   -4.393478776300178e-06   -1.3437713753513338e-05
2.4279613648677583e-05   -4.393478776300178e-06   -1.3437713753513338e-05
1.5081215818823452e-05   -2.037015910604564e-06   -7.5307475274789945e-06
1.5081215818823452e-05   -2.037015910604564e-06   -7.5307475274789945e-06
1.5081215818823452e-05   -2.037015910604564e-06   -7.5307475274789945e-06
1.5081215818823452e-05   -2.037015910604564e-06   -7.5307475274789945e-06
-9.396663337600726e-07   -4.164977937519236e-06   -3.550899499793372e-05
-9.396663337600726e-07   -4.164977937519236e-06   -3.550899499793372e-05
-9.396663337600726e-07   -4.164977937519236e-06   -3.550899499793372e-05
-9.396663337600726e-07   -4.164977937519236e-06   -3.550899499793372e-05
-3.1298334053214965e-07   -1.6120919315834505e-06   -8.306544639609913e-06
-3.1298334053214965e-07   -1.6120919315834505e-06   -8.306544639609913e-06
-3.1298334053214965e-07   -1.6120919315834505e-06   -8.306544639609913e-06
-3.1298334053214965e-07   -1.6120919315834505e-06   -8.306544639609913e-06
1.569229562606266e-05   -3.963345380953061e-06   -3.35712575143127e-05
1.569229562606266e-05   -3.963345380953061e-06   -3.35712575143127e-05
1.569229562606266e-05   -3.963345380953061e-06   -3.35712575143127e-05
1.569229562606266e-05   -3.963345380953061e-06   -3.35712575143127e-05
7.401929099638246e-06   -2.52053168257123e-06   -2.061966818930105e-05
7.401929099638246e-06   -2.52053168257123e-06   -2.061966818930105e-05
7.401929099638246e-06   -2.52053168257123e-06   -2.061966818930105e-05
7.401929099638246e-06   -2.52053168257123e-06   -2.061966818930105e-05
1.569229562606265e-05   -1.6120919315834944e-06   -6.895792569987973e-06
1.569229562606265e-05   -1.6120919315834944e-06   -6.895792569987973e-06
1.569229562606265e-05   -1.6120919315834944e-06   -6.895792569987973e-06
1.569229562606265e-05   -1.6120919315834944e-06   -6.895792569987973e-06
-3.1298334053214965e-07   -3.963345380953061e-06   -3.4982009583934474e-05
-3.1298334053214965e-07   -3.963345380953061e-06   -3.4982009583934474e-05
-3.1298334053214965e-07   -3.963345380953061e-06   -3.4982009583934474e-05
-3.1298334053214965e-07   -3.963345380953061e-06   -3.4982009583934474e-05
2.3902076042335097e-07   -1.0928764180553798e-06   -8.508220058639233e-06
2.3902076042335097e-07   -1.0928764180553798e-06   -8.508220058639233e-06
2.3902076042335097e-07   -1.0928764180553798e-06   -8.508220058639233e-06
2.3902076042335097e-07   -1.0928764180553798e-06   -8.508220058639233e-06
1.63003503240151e-05   -3.589592072740684e-06   -3.3779073271814156e-05
1.63003503240151e-05   -3.589592072740684e-06   -3.3779073271814156e-05
1.63003503240151e-05   -3.589592072740684e-06   -3.3779073271814156e-05
1.63003503240151e-05   -3.589592072740684e-06   -3.3779073271814156e-05
7.827122154469487e-06   -2.311351418768934e-06   -2.0423970714954155e-05
7.827122154469487e-06   -2.311351418768934e-06   -2.0423970714954155e-05
7.827122154469487e-06   -2.311351418768934e-06   -2.0423970714954155e-05
7.827122154469487e-06   -2.311351418768934e-06   -2.0423970714954155e-05
1.6300350324015094e-05   -1.0928764180553229e-06   -7.010190665827855e-06
1.6300350324015094e-05   -1.0928764180553229e-06   -7.010190665827855e-06
1.6300350324015094e-05   -1.0928764180553229e-06   -7.010190665827855e-06
1.6300350324015094e-05   -1.0928764180553229e-06   -7.010190665827855e-06
2.3902076042335097e-07   -3.589592072740684e-06   -3.527710266462551e-05
2.3902076042335097e-07   -3.589592072740684e-06   -3.527710266462551e-05
2.3902076042335097e-07   -3.589592072740684e-06   -3.527710266462551e-05
2.3902076042335097e-07   -3.589592072740684e-06   -3.527710266462551e-05
6.315367072935995e-07   -4.391325493977548e-07   -8.849231235421879e-06
6.315367072935995e-07   -4.391325493977548e-07   -8.849231235421879e-06
6.315367072935995e-07   -4.391325493977548e-07   -8.849231235421879e-06
6.315367072935995e-07   -4.391325493977548e-07   -8.849231235421879e-06
1.671231438417858e-05   -3.05769808168219e-06   -3.4079388044192926e-05
1.671231438417858e-05   -3.05769808168219e-06   -3.4079388044192926e-05
1.671231438417858e-05   -3.05769808168219e-06   -3.4079388044192926e-05
1.671231438417858e-05   -3.05769808168219e-06   -3.4079388044192926e-05
8.338226593160616e-06   -1.9437690625728667e-06   -2.0790932470629e-05
8.338226593160616e-06   -1.9437690625728667e-06   -2.0790932470629e-05
8.338226593160616e-06   -1.9437690625728667e-06   -2.0790932470629e-05
8.338226593160616e-06   -1.9437690625728667e-06   -2.0790932470629e-05
-9.396663337600726e-07   3.8411727629722714e-07   -1.1505301951719358e-05
-9.396663337600726e-07   3.8411727629722714e-07   -1.1505301951719358e-05
-9.396663337600726e-07   3.8411727629722714e-07   -1.1505301951719358e-05
-9.396663337600726e-07   3.8411727629722714e-07   -1.1505301951719358e-05
-1.672396107770321e-05   -2.162127028857482e-06   -3.934020644138418e-05
-1.672396107770321e-05   -2.162127028857482e-06   -3.934020644138418e-05
-1.672396107770321e-05   -2.162127028857482e-06   -3.934020644138418e-05
-1.672396107770321e-05   -2.162127028857482e-06   -3.934020644138418e-05
-1.597184176296248e-05   8.618879664946087e-07   -1.2506780335739404e-05
-1.597184176296248e-05   8.618879664946087e-07   -1.2506780335739404e-05
-1.597184176296248e-05   8.618879664946087e-07   -1.2506780335739404e-05
-1.597184176296248e-05   8.618879664946087e-07   -1.2506780335739404e-05
-3.129833405321451e-07   -1.923852802931383e-06   -3.693343324480118e-05
-3.129833405321451e-07   -1.923852802931383e-06   -3.693343324480118e-05
-3.129833405321451e-07   -1.923852802931383e-06   -3.693343324480118e-05
-3.129833405321451e-07   -1.923852802931383e-06   -3.693343324480118e-05
-8.387245395783471e-06   -4.0186451133700056e-07   -2.4389522794338893e-05
-8.387245395783471e-06   -4.0186451133700056e-07   -2.4389522794338893e-05
-8.387245395783471e-06   -4.0186451133700056e-07   -2.4389522794338893e-05
-8.387245395783471e-06   -4.0186451133700056e-07   -2.4389522794338893e-05
-3.1298334053214965e-07   8.61887966494652e-07   -1.0835335874084025e-05
-3.1298334053214965e-07   8.61887966494652e-07   -1.0835335874084025e-05
-3.1298334053214965e-07   8.61887966494652e-07   -1.0835335874084025e-05
-3.1298334053214965e-07   8.61887966494652e-07   -1.0835335874084025e-05
-1.597184176296248e-05   -1.923852802931383e-06   -3.8604877706456694e-05
-1.597184176296248e-05   -1.923852802931383e-06   -3.8604877706456694e-05
-1.597184176296248e-05   -1.923852802931383e-06   -3.8604877706456694e-05
-1.597184176296248e-05   -1.923852802931383e-06   -3.8604877706456694e-05
-1.5281837068604994e-05   1.4144008101050869e-06   -1.2282800011798956e-05
-1.5281837068604994e-05   1.4144008101050869e-06   -1.2282800011798956e-05
-1.5281837068604994e-05   1.4144008101050869e-06   -1.2282800011798956e-05
-1.5281837068604994e-05   1.4144008101050869e-06   -1.2282800011798956e-05
2.390207604233483e-07   -1.5552807363882187e-06   -3.6369087465616906e-05
2.390207604233483e-07   -1.5552807363882187e-06   -3.6369087465616906e-05
2.390207604233483e-07   -1.5552807363882187e-06   -3.6369087465616906e-05
2.390207604233483e-07   -1.5552807363882187e-06   -3.6369087465616906e-05
-7.775140180578982e-06   -1.299369042115188e-07   -2.386735886325234e-05
-7.775140180578982e-06   -1.299369042115188e-07   -2.386735886325234e-05
-7.775140180578982e-06   -1.299369042115188e-07   -2.386735886325234e-05
-7.775140180578982e-06   -1.299369042115188e-07   -2.386735886325234e-05
2.3902076042335097e-07   1.4144008101051155e-06   -1.0500991083902973e-05
2.3902076042335097e-07   1.4144008101051155e-06   -1.0500991083902973e-05
2.3902076042335097e-07   1.4144008101051155e-06   -1.0500991083902973e-05
2.3902076042335097e-07   1.4144008101051155e-06   -1.0500991083902973e-05
-1.5281837068604994e-05   -1.5552807363882187e-06   -3.8150896393512835e-05
-1.5281837068604994e-05   -1.5552807363882187e-06   -3.8150896393512835e-05
-1.5281837068604994e-05   -1.5552807363882187e-06   -3.8150896393512835e-05
-1.5281837068604994e-05   -1.5552807363882187e-06   -3.8150896393512835e-05
-1.4816798208182807e-05   1.985261522390036e-06   -1.2497974219853646e-05
-1.4816798208182807e-05   1.985261522390036e-06   -1.2497974219853646e-05
-1.4816798208182807e-05   1.985261522390036e-06   -1.2497974219853646e-05
-1.4816798208182807e-05   1.985261522390036e-06   -1.2497974219853646e-05
6.315367072935858e-07   -1.205433382240684e-06   -3.633078213620248e-05
6.315367072935858e-07   -1.205433382240684e-06   -3.633078213620248e-05
6.315367072935858e-07   -1.205433382240684e-06   -3.633078213620248e-05
6.315367072935858e-07   -1.205433382240684e-06   -3.633078213620248e-05
-7.339072151290226e-06   1.7507696242844567e-07   -2.3874740245364702e-05
-7.339072151290226e-06   1.7507696242844567e-07   -2.3874740245364702e-05
-7.339072151290226e-06   1.7507696242844567e-07   -2.3874740245364702e-05
-7.339072151290226e-06   1.7507696242844567e-07   -2.3874740245364702e-05
-1.672396107770321e-05   2.892150118992945e-06   -9.378740388581923e-06
-1.672396107770321e-05   2.892150118992945e-06   -9.378740388581923e-06
-1.672396107770321e-05   2.892150118992945e-06   -9.378740388581923e-06
-1.672396107770321e-05   2.892150118992945e-06   -9.378740388581923e-06
-3.2731630439976356e-05   6.021761277405849e-07   -3.743217372045534e-05
-3.2731630439976356e-05   6.021761277405849e-07   -3.743217372045534e-05
-3.2731630439976356e-05   6.021761277405849e-07   -3.743217372045534e-05
-3.2731630439976356e-05   6.021761277405849e-07   -3.743217372045534e-05
-3.166063943305966e-05   3.4979195039106046e-06   -9.986121852546305e-06
-3.166063943305966e-05   3.4979195039106046e-06   -9.986121852546305e-06
-3.166063943305966e-05   3.4979195039106046e-06   -9.986121852546305e-06
-3.166063943305966e-05   3.4979195039106046e-06   -9.986121852546305e-06
-1.5971841762962485e-05   1.0394659899759778e-06   -3.465904586101412e-05
-1.5971841762962485e-05   1.0394659899759778e-06   -3.465904586101412e-05
-1.5971841762962485e-05   1.0394659899759778e-06   -3.465904586101412e-05
-1.5971841762962485e-05   1.0394659899759778e-06   -3.465904586101412e-05
-2.402136486920651e-05   2.2140630743289116e-06   -2.1947932267885887e-05
-2.402136486920651e-05   2.2140630743289116e-06   -2.1947932267885887e-05
-2.402136486920651e-05   2.2140630743289116e-06   -2.1947932267885887e-05
-2.402136486920651e-05   2.2140630743289116e-06   -2.1947932267885887e-05
-1.597184176296248e-05   3.4979195039105483e-06   -8.511049744185442e-06
-1.597184176296248e-05   3.4979195039105483e-06   -8.511049744185442e-06
-1.597184176296248e-05   3.4979195039105483e-06   -8.511049744185442e-06
-1.597184176296248e-05   3.4979195039105483e-06   -8.511049744185442e-06
-3.1660639433059716e-05   1.0394659899759778e-06   -3.6134117969374995e-05
-3.1660639433059716e-05   1.0394659899759778e-06   -3.6134117969374995e-05
-3.1660639433059716e-05   1.0394659899759778e-06   -3.6134117969374995e-05
-3.1660639433059716e-05   1.0394659899759778e-06   -3.6134117969374995e-05
-3.062420438080294e-05   4.01946381761286e-06   -9.087105058887225e-06
-3.062420438080294e-05   4.01946381761286e-06   -9.087105058887225e-06
-3.062420438080294e-05   4.01946381761286e-06   -9.087105058887225e-06
-3.062420438080294e-05   4.01946381761286e-06   -9.087105058887225e-06
-1.528183706860502e-05   1.4416746026905784e-06   -3.311104371693056e-05
-1.528183706860502e-05   1.4416746026905784e-06   -3.311104371693056e-05
-1.528183706860502e-05   1.4416746026905784e-06   -3.311104371693056e-05
-1.528183706860502e-05   1.4416746026905784e-06   -3.311104371693056e-05
-2.3051761680799806e-05   2.594586145502004e-06   -2.0852916288959417e-05
-2.3051761680799806e-05   2.594586145502004e-06   -2.0852916288959417e-05
-2.3051761680799806e-05   2.594586145502004e-06   -2.0852916288959417e-05
-2.3051761680799806e-05   2.594586145502004e-06   -2.0852916288959417e-05
-1.5281837068604994e-05   4.019463817612832e-06   -7.540431529933856e-06
-1.5281837068604994e-05   4.019463817612832e-06   -7.540431529933856e-06
-1.5281837068604994e-05   4.019463817612832e-06   -7.540431529933856e-06
-1.5281837068604994e-05   4.019463817612832e-06   -7.540431529933856e-06
-3.0624204380802996e-05   1.4416746026905784e-06   -3.465771724588389e-05
-3.0624204380802996e-05   1.4416746026905784e-06   -3.465771724588389e-05
-3.0624204380802996e-05   1.4416746026905784e-06   -3.465771724588389e-05
-3.0624204380802996e-05   1.4416746026905784e-06   -3.465771724588389e-05
-2.9839615732747134e-05   4.595690330250462e-06   -9.116023047360013e-06
-2.9839615732747134e-05   4.595690330250462e-06   -9.116023047360013e-06
-2.9839615732747134e-05   4.595690330250462e-06   -9.116023047360013e-06
-2.9839615732747134e-05   4.595690330250462e-06   -9.116023047360013e-06
-1.4816798208182838e-05   1.7811629874880507e-06   -3.2465335849309865e-05
-1.4816798208182838e-05   1.7811629874880507e-06   -3.2465335849309865e-05
-1.4816798208182838e-05   1.7811629874880507e-06   -3.2465335849309865e-05
-1.4816798208182838e-05   1.7811629874880507e-06   -3.2465335849309865e-05
-2.2512420099200778e-05   2.8603999719779925e-06   -2.02868415549741e-05
-2.2512420099200778e-05   2.8603999719779925e-06   -2.02868415549741e-05
-2.2512420099200778e-05   2.8603999719779925e-06   -2.02868415549741e-05
-2.2512420099200778e-05   2.8603999719779925e-06   -2.02868415549741e-05
-3.2731630439976356e-05   5.673370571155072e-06   -5.37222212519152e-06
-3.2731630439976356e-05   5.673370571155072e-06   -5.37222212519152e-06
-3.2731630439976356e-05   5.673370571155072e-06   -5.37222212519152e-06
-3.2731630439976356e-05   5.673370571155072e-06   -5.37222212519152e-06
-4.9465851246710146e-05   5.366472773765804e-06   -3.3446728814848334e-05
-4.9465851246710146e-05   5.366472773765804e-06   -3.3446728814848334e-05
-4.9465851246710146e-05   5.366472773765804e-06   -3.3446728814848334e-05
-4.9465851246710146e-05   5.366472773765804e-06   -3.3446728814848334e-05
-4.734414120686621e-05   6.478384204836431e-06   -7.896188444062296e-08
-4.734414120686621e-05   6.478384204836431e-06   -7.896188444062296e-08
-4.734414120686621e-05   6.478384204836431e-06   -7.896188444062296e-08
-4.734414120686621e-05   6.478384204836431e-06   -7.896188444062296e-08
-3.166063943305961e-05   6.779344785578937e-06   -2.639870785589691e-05
-3.166063943305961e-05   6.779344785578937e-06   -2.639870785589691e-05
-3.166063943305961e-05   6.779344785578937e-06   -2.639870785589691e-05
-3.166063943305961e-05   6.779344785578937e-06   -2.639870785589691e-05
-3.856312614879079e-05   6.390372936870186e-06   -1.4661180220453257e-05
-3.856312614879079e-05   6.390372936870186e-06   -1.4661180220453257e-05
-3.856312614879079e-05   6.390372936870186e-06   -1.4661180220453257e-05
-3.856312614879079e-05   6.390372936870186e-06   -1.4661180220453257e-05
-3.166063943305969e-05   6.478384204836518e-06   -2.595382328858444e-07
-3.166063943305969e-05   6.478384204836518e-06   -2.595382328858444e-07
-3.166063943305969e-05   6.478384204836518e-06   -2.595382328858444e-07
-3.166063943305969e-05   6.478384204836518e-06   -2.595382328858444e-07
-4.734414120686614e-05   6.779344785578937e-06   -2.6218131507451466e-05
-4.734414120686614e-05   6.779344785578937e-06   -2.6218131507451466e-05
-4.734414120686614e-05   6.779344785578937e-06   -2.6218131507451466e-05
-4.734414120686614e-05   6.779344785578937e-06   -2.6218131507451466e-05
-4.558575609077356e-05   6.690558693799508e-06   2.9135838987310193e-06
-4.558575609077356e-05   6.690558693799508e-06   2.9135838987310193e-06
-4.558575609077356e-05   6.690558693799508e-06   2.9135838987310193e-06
-4.558575609077356e-05   6.690558693799508e-06   2.9135838987310193e-06
-3.062420438080294e-05   7.0975181461201565e-06   -2.226651128927902e-05
-3.062420438080294e-05   7.0975181461201565e-06   -2.226651128927902e-05
-3.062420438080294e-05   7.0975181461201565e-06   -2.226651128927902e-05
-3.062420438080294e-05   7.0975181461201565e-06   -2.226651128927902e-05
-3.7767957470864034e-05   6.853072417186204e-06   -1.02135887018164e-05
-3.7767957470864034e-05   6.853072417186204e-06   -1.02135887018164e-05
-3.7767957470864034e-05   6.853072417186204e-06   -1.02135887018164e-05
-3.7767957470864034e-05   6.853072417186204e-06   -1.02135887018164e-05
-3.0624204380802996e-05   6.690558693799538e-06   2.669408227338717e-06
-3.0624204380802996e-05   6.690558693799538e-06   2.669408227338717e-06
-3.0624204380802996e-05   6.690558693799538e-06   2.669408227338717e-06
-3.0624204380802996e-05   6.690558693799538e-06   2.669408227338717e-06
-4.558575609077364e-05   7.0975181461201565e-06   -2.2022335617886794e-05
-4.558575609077364e-05   7.0975181461201565e-06   -2.2022335617886794e-05
-4.558575609077364e-05   7.0975181461201565e-06   -2.2022335617886794e-05
-4.558575609077364e-05   7.0975181461201565e-06   -2.2022335617886794e-05
-4.374530723408794e-05   6.8710194553657945e-06   6.928947479094868e-06
-4.374530723408794e-05   6.8710194553657945e-06   6.928947479094868e-06
-4.374530723408794e-05   6.8710194553657945e-06   6.928947479094868e-06
-4.374530723408794e-05   6.8710194553657945e-06   6.928947479094868e-06
-2.983961573274716e-05   7.63969750288535e-06   -1.6708411851651494e-05
-2.983961573274716e-05   7.63969750288535e-06   -1.6708411851651494e-05
-2.983961573274716e-05   7.63969750288535e-06   -1.6708411851651494e-05
-2.983961573274716e-05   7.63969750288535e-06   -1.6708411851651494e-05
-3.598827438245499e-05   7.006845603849902e-06   -6.080936296051212e-06
-3.598827438245499e-05   7.006845603849902e-06   -6.080936296051212e-06
-3.598827438245499e-05   7.006845603849902e-06   -6.080936296051212e-06
-3.598827438245499e-05   7.006845603849902e-06   -6.080936296051212e-06
4.300553922089504e-05   -6.45183150415962e-06   1.4724737214615448e-05
4.300553922089504e-05   -6.45183150415962e-06   1.4724737214615448e-05
4.300553922089504e-05   -6.45183150415962e-06   1.4724737214615448e-05
4.300553922089504e-05   -6.45183150415962e-06   1.4724737214615448e-05
2.160099872397331e-05   -8.151396586968422e-06   -2.19692359966062e-05
2.160099872397331e-05   -8.151396586968422e-06   -2.19692359966062e-05
2.160099872397331e-05   -8.151396586968422e-06   -2.19692359966062e-05
2.160099872397331e-05   -8.151396586968422e-06   -2.19692359966062e-05
2.2123404015105528e-05   -6.302363697260156e-06   1.0575208877417613e-05
2.2123404015105528e-05   -6.302363697260156e-06   1.0575208877417613e-05
2.2123404015105528e-05   -6.302363697260156e-06   1.0575208877417613e-05
2.2123404015105528e-05   -6.302363697260156e-06   1.0575208877417613e-05
4.4070222190978734e-05   -8.355367429721669e-06   -2.4771019176227592e-05
4.4070222190978734e-05   -8.355367429721669e-06   -2.4771019176227592e-05
4.4070222190978734e-05   -8.355367429721669e-06   -2.4771019176227592e-05
4.4070222190978734e-05   -8.355367429721669e-06   -2.4771019176227592e-05
3.139629756892338e-05   -6.5901099676056625e-06   -4.706965950071576e-06
3.139629756892338e-05   -6.5901099676056625e-06   -4.706965950071576e-06
3.139629756892338e-05   -6.5901099676056625e-06   -4.706965950071576e-06
3.139629756892338e-05   -6.5901099676056625e-06   -4.706965950071576e-06
4.407022219097873e-05   -6.302363697260198e-06   1.180701111689437e-05
4.407022219097873e-05   -6.302363697260198e-06   1.180701111689437e-05
4.407022219097873e-05   -6.302363697260198e-06   1.180701111689437e-05
4.407022219097873e-05   -6.302363697260198e-06   1.180701111689437e-05
2.2123404015105528e-05   -8.355367429721669e-06   -2.6002821415704457e-05
2.2123404015105528e-05   -8.355367429721669e-06   -2.6002821415704457e-05
2.2123404015105528e-05   -8.355367429721669e-06   -2.6002821415704457e-05
2.2123404015105528e-05   -8.355367429721669e-06   -2.6002821415704457e-05
2.2564839231140483e-05   -6.083157708155389e-06   8.351254318473807e-06
2.2564839231140483e-05   -6.083157708155389e-06   8.351254318473807e-06
2.2564839231140483e-05   -6.083157708155389e-06   8.351254318473807e-06
2.2564839231140483e-05   -6.083157708155389e-06   8.351254318473807e-06
4.473319665518279e-05   -8.278624617262444e-06   -2.7278727909465768e-05
4.473319665518279e-05   -8.278624617262444e-06   -2.7278727909465768e-05
4.473319665518279e-05   -8.278624617262444e-06   -2.7278727909465768e-05
4.473319665518279e-05   -8.278624617262444e-06   -2.7278727909465768e-05
3.2498320945149525e-05   -6.796975351641352e-06   -7.776257952116374e-06
3.2498320945149525e-05   -6.796975351641352e-06   -7.776257952116374e-06
3.2498320945149525e-05   -6.796975351641352e-06   -7.776257952116374e-06
3.2498320945149525e-05   -6.796975351641352e-06   -7.776257952116374e-06
4.47331966551828e-05   -6.083157708155431e-06   9.66853446393817e-06
4.47331966551828e-05   -6.083157708155431e-06   9.66853446393817e-06
4.47331966551828e-05   -6.083157708155431e-06   9.66853446393817e-06
4.47331966551828e-05   -6.083157708155431e-06   9.66853446393817e-06
2.2564839231140483e-05   -8.278624617262444e-06   -2.8596008054930077e-05
2.2564839231140483e-05   -8.278624617262444e-06   -2.8596008054930077e-05
2.2564839231140483e-05   -8.278624617262444e-06   -2.8596008054930077e-05
2.2564839231140483e-05   -8.278624617262444e-06   -2.8596008054930077e-05
2.3025248007020306e-05   -5.229623403861343e-06   4.042143166862371e-06
2.3025248007020306e-05   -5.229623403861343e-06   4.042143166862371e-06
2.3025248007020306e-05   -5.229623403861343e-06   4.042143166862371e-06
2.3025248007020306e-05   -5.229623403861343e-06   4.042143166862371e-06
4.538606271530073e-05   -7.815031575066555e-06   -3.16746364442151e-05
4.538606271530073e-05   -7.815031575066555e-06   -3.16746364442151e-05
4.538606271530073e-05   -7.815031575066555e-06   -3.16746364442151e-05
4.538606271530073e-05   -7.815031575066555e-06   -3.16746364442151e-05
3.2509285717499325e-05   -6.539670488009798e-06   -1.0978558100113598e-05
3.2509285717499325e-05   -6.539670488009798e-06   -1.0978558100113598e-05
3.2509285717499325e-05   -6.539670488009798e-06   -1.0978558100113598e-05
3.2509285717499325e-05   -6.539670488009798e-06   -1.0978558100113598e-05
2.160099872397331e-05   -4.1649779375192336e-06   1.5214284428402211e-06
2.160099872397331e-05   -4.1649779375192336e-06   1.5214284428402211e-06
2.160099872397331e-05   -4.1649779375192336e-06   1.5214284428402211e-06
2.160099872397331e-05   -4.1649779375192336e-06   1.5214284428402211e-06
2.519827797061076e-06   -8.139480179842826e-06   -3.266522444740757e-05
2.519827797061076e-06   -8.139480179842826e-06   -3.266522444740757e-05
2.519827797061076e-06   -8.139480179842826e-06   -3.266522444740757e-05
2.519827797061076e-06   -8.139480179842826e-06   -3.266522444740757e-05
3.1281773935239166e-06   -3.963345380953061e-06   -1.0840102313328624e-07
3.1281773935239166e-06   -3.963345380953061e-06   -1.0840102313328624e-07
3.1281773935239166e-06   -3.963345380953061e-06   -1.0840102313328624e-07
3.1281773935239166e-06   -3.963345380953061e-06   -1.0840102313328624e-07
2.212340401510558e-05   -8.095570692631887e-06   -2.9287776872095455e-05
2.212340401510558e-05   -8.095570692631887e-06   -2.9287776872095455e-05
2.212340401510558e-05   -8.095570692631887e-06   -2.9287776872095455e-05
2.212340401510558e-05   -8.095570692631887e-06   -2.9287776872095455e-05
1.2390202512235563e-05   -5.49350414056661e-06   -1.4627014298551242e-05
1.2390202512235563e-05   -5.49350414056661e-06   -1.4627014298551242e-05
1.2390202512235563e-05   -5.49350414056661e-06   -1.4627014298551242e-05
1.2390202512235563e-05   -5.49350414056661e-06   -1.4627014298551242e-05
2.2123404015105515e-05   -3.963345380953159e-06   2.370934163873988e-06
2.2123404015105515e-05   -3.963345380953159e-06   2.370934163873988e-06
2.2123404015105515e-05   -3.963345380953159e-06   2.370934163873988e-06
2.2123404015105515e-05   -3.963345380953159e-06   2.370934163873988e-06
3.1281773935239166e-06   -8.095570692631887e-06   -3.1767112059102594e-05
3.1281773935239166e-06   -8.095570692631887e-06   -3.1767112059102594e-05
3.1281773935239166e-06   -8.095570692631887e-06   -3.1767112059102594e-05
3.1281773935239166e-06   -8.095570692631887e-06   -3.1767112059102594e-05
3.677248850702291e-06   -3.589592072740684e-06   -3.1417105692964527e-07
3.677248850702291e-06   -3.589592072740684e-06   -3.1417105692964527e-07
3.677248850702291e-06   -3.589592072740684e-06   -3.1417105692964527e-07
3.677248850702291e-06   -3.589592072740684e-06   -3.1417105692964527e-07
2.2564839231140486e-05   -7.9840011127188e-06   -2.9156842933673156e-05
2.2564839231140486e-05   -7.9840011127188e-06   -2.9156842933673156e-05
2.2564839231140486e-05   -7.9840011127188e-06   -2.9156842933673156e-05
2.2564839231140486e-05   -7.9840011127188e-06   -2.9156842933673156e-05
1.2733765095631962e-05   -5.5513860295387536e-06   -1.4231288424399727e-05
1.2733765095631962e-05   -5.5513860295387536e-06   -1.4231288424399727e-05
1.2733765095631962e-05   -5.5513860295387536e-06   -1.4231288424399727e-05
1.2733765095631962e-05   -5.5513860295387536e-06   -1.4231288424399727e-05
2.2564839231140483e-05   -3.5895920727407823e-06   2.3224743670571596e-06
2.2564839231140483e-05   -3.5895920727407823e-06   2.3224743670571596e-06
2.2564839231140483e-05   -3.5895920727407823e-06   2.3224743670571596e-06
2.2564839231140483e-05   -3.5895920727407823e-06   2.3224743670571596e-06
3.6772488507022777e-06   -7.9840011127188e-06   -3.179348835765999e-05
3.6772488507022777e-06   -7.9840011127188e-06   -3.179348835765999e-05
3.6772488507022777e-06   -7.9840011127188e-06   -3.179348835765999e-05
3.6772488507022777e-06   -7.9840011127188e-06   -3.179348835765999e-05
4.497156380933045e-06   -3.05769808168219e-06   -7.014892901772551e-07
4.497156380933045e-06   -3.05769808168219e-06   -7.014892901772551e-07
4.497156380933045e-06   -3.05769808168219e-06   -7.014892901772551e-07
4.497156380933045e-06   -3.05769808168219e-06   -7.014892901772551e-07
2.3025248007020316e-05   -7.762983560286301e-06   -2.8758470713160193e-05
2.3025248007020316e-05   -7.762983560286301e-06   -2.8758470713160193e-05
2.3025248007020316e-05   -7.762983560286301e-06   -2.8758470713160193e-05
2.3025248007020316e-05   -7.762983560286301e-06   -2.8758470713160193e-05
1.3393556826896419e-05   -5.461834293961397e-06   -1.4086341639415258e-05
1.3393556826896419e-05   -5.461834293961397e-06   -1.4086341639415258e-05
1.3393556826896419e-05   -5.461834293961397e-06   -1.4086341639415258e-05
1.3393556826896419e-05   -5.461834293961397e-06   -1.4086341639415258e-05
2.519827797061076e-06   -2.162127028857565e-06   -3.1667377629115024e-06
2.519827797061076e-06   -2.162127028857565e-06   -3.1667377629115024e-06
2.519827797061076e-06   -2.162127028857565e-06   -3.1667377629115024e-06
2.519827797061076e-06   -2.162127028857565e-06   -3.1667377629115024e-06
-1.636224752736562e-05   -9.778651993721165e-06   -3.920677828254081e-05
-1.636224752736562e-05   -9.778651993721165e-06   -3.920677828254081e-05
-1.636224752736562e-05   -9.778651993721165e-06   -3.920677828254081e-05
-1.636224752736562e-05   -9.778651993721165e-06   -3.920677828254081e-05
-1.5414156652073913e-05   -1.923852802931383e-06   -6.900504595095964e-06
-1.5414156652073913e-05   -1.923852802931383e-06   -6.900504595095964e-06
-1.5414156652073913e-05   -1.923852802931383e-06   -6.900504595095964e-06
-1.5414156652073913e-05   -1.923852802931383e-06   -6.900504595095964e-06
3.1281773935239212e-06   -9.991652654757705e-06   -3.2963714759996445e-05
3.1281773935239212e-06   -9.991652654757705e-06   -3.2963714759996445e-05
3.1281773935239212e-06   -9.991652654757705e-06   -3.2963714759996445e-05
3.1281773935239212e-06   -9.991652654757705e-06   -3.2963714759996445e-05
-6.315937614172206e-06   -5.518981201976586e-06   -1.9907125952171623e-05
-6.315937614172206e-06   -5.518981201976586e-06   -1.9907125952171623e-05
-6.315937614172206e-06   -5.518981201976586e-06   -1.9907125952171623e-05
-6.315937614172206e-06   -5.518981201976586e-06   -1.9907125952171623e-05
3.1281773935239166e-06   -1.923852802931351e-06   -2.0598246840001274e-06
3.1281773935239166e-06   -1.923852802931351e-06   -2.0598246840001274e-06
3.1281773935239166e-06   -1.923852802931351e-06   -2.0598246840001274e-06
3.1281773935239166e-06   -1.923852802931351e-06   -2.0598246840001274e-06
-1.5414156652073934e-05   -9.991652654757705e-06   -3.780439467109236e-05
-1.5414156652073934e-05   -9.991652654757705e-06   -3.780439467109236e-05
-1.5414156652073934e-05   -9.991652654757705e-06   -3.780439467109236e-05
-1.5414156652073934e-05   -9.991652654757705e-06   -3.780439467109236e-05
-1.459662640141285e-05   -1.5552807363882187e-06   -6.437575620070902e-06
-1.459662640141285e-05   -1.5552807363882187e-06   -6.437575620070902e-06
-1.459662640141285e-05   -1.5552807363882187e-06   -6.437575620070902e-06
-1.459662640141285e-05   -1.5552807363882187e-06   -6.437575620070902e-06
3.6772488507022836e-06   -9.94098033997126e-06   -3.186261461144644e-05
3.6772488507022836e-06   -9.94098033997126e-06   -3.186261461144644e-05
3.6772488507022836e-06   -9.94098033997126e-06   -3.186261461144644e-05
3.6772488507022836e-06   -9.94098033997126e-06   -3.186261461144644e-05
-5.642954183253898e-06   -5.641221218303681e-06   -1.8908798361186584e-05
-5.642954183253898e-06   -5.641221218303681e-06   -1.8908798361186584e-05
-5.642954183253898e-06   -5.641221218303681e-06   -1.8908798361186584e-05
-5.642954183253898e-06   -5.641221218303681e-06   -1.8908798361186584e-05
3.6772488507022777e-06   -1.555280736388244e-06   -1.4061558579212072e-06
3.6772488507022777e-06   -1.555280736388244e-06   -1.4061558579212072e-06
3.6772488507022777e-06   -1.555280736388244e-06   -1.4061558579212072e-06
3.6772488507022777e-06   -1.555280736388244e-06   -1.4061558579212072e-06
-1.4596626401412911e-05   -9.940980339971043e-06   -3.689403437359619e-05
-1.4596626401412911e-05   -9.940980339971043e-06   -3.689403437359619e-05
-1.4596626401412911e-05   -9.940980339971043e-06   -3.689403437359619e-05
-1.4596626401412911e-05   -9.940980339971043e-06   -3.689403437359619e-05
-1.3185749133696797e-05   -1.205433382240684e-06   -6.411160601649821e-06
-1.3185749133696797e-05   -1.205433382240684e-06   -6.411160601649821e-06
-1.3185749133696797e-05   -1.205433382240684e-06   -6.411160601649821e-06
-1.3185749133696797e-05   -1.205433382240684e-06   -6.411160601649821e-06
4.497156380933061e-06   -9.587794280297053e-06   -3.0853253253865806e-05
4.497156380933061e-06   -9.587794280297053e-06   -3.0853253253865806e-05
4.497156380933061e-06   -9.587794280297053e-06   -3.0853253253865806e-05
4.497156380933061e-06   -9.587794280297053e-06   -3.0853253253865806e-05
-4.768172112131793e-06   -5.5125222051036465e-06   -1.785620234387378e-05
-4.768172112131793e-06   -5.5125222051036465e-06   -1.785620234387378e-05
-4.768172112131793e-06   -5.5125222051036465e-06   -1.785620234387378e-05
-4.768172112131793e-06   -5.5125222051036465e-06   -1.785620234387378e-05
-1.6362247527365585e-05   6.021761277405594e-07   -4.454635626149352e-06
-1.6362247527365585e-05   6.021761277405594e-07   -4.454635626149352e-06
-1.6362247527365585e-05   6.021761277405594e-07   -4.454635626149352e-06
-1.6362247527365585e-05   6.021761277405594e-07   -4.454635626149352e-06
-3.7412243237756936e-05   -1.215303834660713e-05   -4.719109049474367e-05
-3.7412243237756936e-05   -1.215303834660713e-05   -4.719109049474367e-05
-3.7412243237756936e-05   -1.215303834660713e-05   -4.719109049474367e-05
-3.7412243237756936e-05   -1.215303834660713e-05   -4.719109049474367e-05
-3.6276859494642914e-05   1.0394659899759778e-06   -1.173006940766966e-05
-3.6276859494642914e-05   1.0394659899759778e-06   -1.173006940766966e-05
-3.6276859494642914e-05   1.0394659899759778e-06   -1.173006940766966e-05
-3.6276859494642914e-05   1.0394659899759778e-06   -1.173006940766966e-05
-1.5414156652073917e-05   -1.3586195106718001e-05   -3.7725844153935036e-05
-1.5414156652073917e-05   -1.3586195106718001e-05   -3.7725844153935036e-05
-1.5414156652073917e-05   -1.3586195106718001e-05   -3.7725844153935036e-05
-1.5414156652073917e-05   -1.3586195106718001e-05   -3.7725844153935036e-05
-2.5989182278741368e-05   -6.15973829313902e-06   -2.455667553097003e-05
-2.5989182278741368e-05   -6.15973829313902e-06   -2.455667553097003e-05
-2.5989182278741368e-05   -6.15973829313902e-06   -2.455667553097003e-05
-2.5989182278741368e-05   -6.15973829313902e-06   -2.455667553097003e-05
-1.5414156652073913e-05   1.0394659899759373e-06   -2.954672749653402e-06
-1.5414156652073913e-05   1.0394659899759373e-06   -2.954672749653402e-06
-1.5414156652073913e-05   1.0394659899759373e-06   -2.954672749653402e-06
-1.5414156652073913e-05   1.0394659899759373e-06   -2.954672749653402e-06
-3.627685949464298e-05   -1.3586195106718001e-05   -4.650124081195144e-05
-3.627685949464298e-05   -1.3586195106718001e-05   -4.650124081195144e-05
-3.627685949464298e-05   -1.3586195106718001e-05   -4.650124081195144e-05
-3.627685949464298e-05   -1.3586195106718001e-05   -4.650124081195144e-05
-3.518883871955316e-05   1.4416746026905784e-06   -1.0457541413353777e-05
-3.518883871955316e-05   1.4416746026905784e-06   -1.0457541413353777e-05
-3.518883871955316e-05   1.4416746026905784e-06   -1.0457541413353777e-05
-3.518883871955316e-05   1.4416746026905784e-06   -1.0457541413353777e-05
-1.4596626401412882e-05   -1.3658022847084844e-05   -3.5718076807055723e-05
-1.4596626401412882e-05   -1.3658022847084844e-05   -3.5718076807055723e-05
-1.4596626401412882e-05   -1.3658022847084844e-05   -3.5718076807055723e-05
-1.4596626401412882e-05   -1.3658022847084844e-05   -3.5718076807055723e-05
-2.488202111578101e-05   -6.177032951285369e-06   -2.3064346220588624e-05
-2.488202111578101e-05   -6.177032951285369e-06   -2.3064346220588624e-05
-2.488202111578101e-05   -6.177032951285369e-06   -2.3064346220588624e-05
-2.488202111578101e-05   -6.177032951285369e-06   -2.3064346220588624e-05
-1.4596626401412884e-05   1.4416746026905234e-06   -1.397722943488589e-06
-1.4596626401412884e-05   1.4416746026905234e-06   -1.397722943488589e-06
-1.4596626401412884e-05   1.4416746026905234e-06   -1.397722943488589e-06
-1.4596626401412884e-05   1.4416746026905234e-06   -1.397722943488589e-06
-3.5188838719553216e-05   -1.3658022847084844e-05   -4.4777895276921034e-05
-3.5188838719553216e-05   -1.3658022847084844e-05   -4.4777895276921034e-05
-3.5188838719553216e-05   -1.3658022847084844e-05   -4.4777895276921034e-05
-3.5188838719553216e-05   -1.3658022847084844e-05   -4.4777895276921034e-05
-3.340304978921883e-05   1.7811629874880507e-06   -9.164453363676552e-06
-3.340304978921883e-05   1.7811629874880507e-06   -9.164453363676552e-06
-3.340304978921883e-05   1.7811629874880507e-06   -9.164453363676552e-06
-3.340304978921883e-05   1.7811629874880507e-06   -9.164453363676552e-06
-1.3185749133696838e-05   -1.2440763665341964e-05   -3.432679846451534e-05
-1.3185749133696838e-05   -1.2440763665341964e-05   -3.432679846451534e-05
-1.3185749133696838e-05   -1.2440763665341964e-05   -3.432679846451534e-05
-1.3185749133696838e-05   -1.2440763665341964e-05   -3.432679846451534e-05
-2.379175690002376e-05   -5.438859875323259e-06   -2.085126112798155e-05
-2.379175690002376e-05   -5.438859875323259e-06   -2.085126112798155e-05
-2.379175690002376e-05   -5.438859875323259e-06   -2.085126112798155e-05
-2.379175690002376e-05   -5.438859875323259e-06   -2.085126112798155e-05
-3.7412243237756936e-05   5.366472773765669e-06   -7.938180726717748e-06
-3.7412243237756936e-05   5.366472773765669e-06   -7.938180726717748e-06
-3.7412243237756936e-05   5.366472773765669e-06   -7.938180726717748e-06
-3.7412243237756936e-05   5.366472773765669e-06   -7.938180726717748e-06
-6.43243943399647e-05   0.0   -5.6011649561323474e-05
-6.43243943399647e-05   0.0   -5.6011649561323474e-05
-6.43243943399647e-05   0.0   -5.6011649561323474e-05
-6.43243943399647e-05   0.0   -5.6011649561323474e-05
-6.266602531426128e-05   6.77934478557872e-06   -6.062266165538974e-06
-6.266602531426128e-05   6.77934478557872e-06   -6.062266165538974e-06
-6.266602531426128e-05   6.77934478557872e-06   -6.062266165538974e-06
-6.266602531426128e-05   6.77934478557872e-06   -6.062266165538974e-06
-3.627685949464292e-05   0.0   -4.5976602326888895e-05
-3.627685949464292e-05   0.0   -4.5976602326888895e-05
-3.627685949464292e-05   0.0   -4.5976602326888895e-05
-3.627685949464292e-05   0.0   -4.5976602326888895e-05
-4.803901508491492e-05   2.0802842720594582e-06   -2.7621180239671338e-05
-4.803901508491492e-05   2.0802842720594582e-06   -2.7621180239671338e-05
-4.803901508491492e-05   2.0802842720594582e-06   -2.7621180239671338e-05
-4.803901508491492e-05   2.0802842720594582e-06   -2.7621180239671338e-05
-3.6276859494642954e-05   6.77934478557882e-06   -1.9946592941916773e-06
-3.6276859494642954e-05   6.77934478557882e-06   -1.9946592941916773e-06
-3.6276859494642954e-05   6.77934478557882e-06   -1.9946592941916773e-06
-3.6276859494642954e-05   6.77934478557882e-06   -1.9946592941916773e-06
-6.266602531426117e-05   0.0   -5.0044209198236165e-05
-6.266602531426117e-05   0.0   -5.0044209198236165e-05
-6.266602531426117e-05   0.0   -5.0044209198236165e-05
-6.266602531426117e-05   0.0   -5.0044209198236165e-05
-6.126125292332352e-05   7.0975181461201565e-06   -2.3248463444210327e-06
-6.126125292332352e-05   7.0975181461201565e-06   -2.3248463444210327e-06
-6.126125292332352e-05   7.0975181461201565e-06   -2.3248463444210327e-06
-6.126125292332352e-05   7.0975181461201565e-06   -2.3248463444210327e-06
-3.518883871955322e-05   0.0   -4.152035912969969e-05
-3.518883871955322e-05   0.0   -4.152035912969969e-05
-3.518883871955322e-05   0.0   -4.152035912969969e-05
-3.518883871955322e-05   0.0   -4.152035912969969e-05
-4.7552840886012644e-05   3.2848996935179193e-06   -2.288462866837737e-05
-4.7552840886012644e-05   3.2848996935179193e-06   -2.288462866837737e-05
-4.7552840886012644e-05   3.2848996935179193e-06   -2.288462866837737e-05
-4.7552840886012644e-05   3.2848996935179193e-06   -2.288462866837737e-05
-3.5188838719553216e-05   7.097518146120084e-06   1.933664543251018e-06
-3.5188838719553216e-05   7.097518146120084e-06   1.933664543251018e-06
-3.5188838719553216e-05   7.097518146120084e-06   1.933664543251018e-06
-3.5188838719553216e-05   7.097518146120084e-06   1.933664543251018e-06
-6.126125292332341e-05   0.0   -4.577887001737152e-05
-6.126125292332341e-05   0.0   -4.577887001737152e-05
-6.126125292332341e-05   0.0   -4.577887001737152e-05
-6.126125292332341e-05   0.0   -4.577887001737152e-05
-5.845653214308581e-05   7.63969750288535e-06   3.6973685379077534e-06
-5.845653214308581e-05   7.63969750288535e-06   3.6973685379077534e-06
-5.845653214308581e-05   7.63969750288535e-06   3.6973685379077534e-06
-5.845653214308581e-05   7.63969750288535e-06   3.6973685379077534e-06
-3.340304978921886e-05   0.0   -3.3474616883472674e-05
-3.340304978921886e-05   0.0   -3.3474616883472674e-05
-3.340304978921886e-05   0.0   -3.3474616883472674e-05
-3.340304978921886e-05   0.0   -3.3474616883472674e-05
-4.5098273902014155e-05   4.048329127535107e-06   -1.641157417200199e-05
-4.5098273902014155e-05   4.048329127535107e-06   -1.641157417200199e-05
-4.5098273902014155e-05   4.048329127535107e-06   -1.641157417200199e-05
-4.5098273902014155e-05   4.048329127535107e-06   -1.641157417200199e-05
4.7577348234789334e-05   -8.151396586968527e-06   2.836633461096832e-05
4.7577348234789334e-05   -8.151396586968527e-06   2.836633461096832e-05
4.7577348234789334e-05   -8.151396586968527e-06   2.836633461096832e-05
4.7577348234789334e-05   -8.151396586968527e-06   2.836633461096832e-05
2.4663263884529494e-05   -6.297932362664231e-06   -8.711727438215464e-06
2.4663263884529494e-05   -6.297932362664231e-06   -8.711727438215464e-06
2.4663263884529494e-05   -6.297932362664231e-06   -8.711727438215464e-06
2.4663263884529494e-05   -6.297932362664231e-06   -8.711727438215464e-06
2.4047179980599308e-05   -8.355367429721669e-06   2.5033326980657437e-05
2.4047179980599308e-05   -8.355367429721669e-06   2.5033326980657437e-05
2.4047179980599308e-05   -8.355367429721669e-06   2.5033326980657437e-05
2.4047179980599308e-05   -8.355367429721669e-06   2.5033326980657437e-05
4.707456678515181e-05   -6.921234496063636e-06   -1.4206130787124788e-05
4.707456678515181e-05   -6.921234496063636e-06   -1.4206130787124788e-05
4.707456678515181e-05   -6.921234496063636e-06   -1.4206130787124788e-05
4.707456678515181e-05   -6.921234496063636e-06   -1.4206130787124788e-05
3.4372951219141684e-05   -7.032797009846924e-06   7.0301659978286475e-06
3.4372951219141684e-05   -7.032797009846924e-06   7.0301659978286475e-06
3.4372951219141684e-05   -7.032797009846924e-06   7.0301659978286475e-06
3.4372951219141684e-05   -7.032797009846924e-06   7.0301659978286475e-06
4.70745667851518e-05   -8.355367429721601e-06   2.417284722046266e-05
4.70745667851518e-05   -8.355367429721601e-06   2.417284722046266e-05
4.70745667851518e-05   -8.355367429721601e-06   2.417284722046266e-05
4.70745667851518e-05   -8.355367429721601e-06   2.417284722046266e-05
2.4047179980599308e-05   -6.921234496063636e-06   -1.3345651026930067e-05
2.4047179980599308e-05   -6.921234496063636e-06   -1.3345651026930067e-05
2.4047179980599308e-05   -6.921234496063636e-06   -1.3345651026930067e-05
2.4047179980599308e-05   -6.921234496063636e-06   -1.3345651026930067e-05
2.3489443587235037e-05   -8.278624617262444e-06   2.2465891821932434e-05
2.3489443587235037e-05   -8.278624617262444e-06   2.2465891821932434e-05
2.3489443587235037e-05   -8.278624617262444e-06   2.2465891821932434e-05
2.3489443587235037e-05   -8.278624617262444e-06   2.2465891821932434e-05
4.6491501906190924e-05   -6.977316765983694e-06   -1.6651656753761306e-05
4.6491501906190924e-05   -6.977316765983694e-06   -1.6651656753761306e-05
4.6491501906190924e-05   -6.977316765983694e-06   -1.6651656753761306e-05
4.6491501906190924e-05   -6.977316765983694e-06   -1.6651656753761306e-05
3.4352025796198774e-05   -7.156182772282034e-06   3.688123033338003e-06
3.4352025796198774e-05   -7.156182772282034e-06   3.688123033338003e-06
3.4352025796198774e-05   -7.156182772282034e-06   3.688123033338003e-06
3.4352025796198774e-05   -7.156182772282034e-06   3.688123033338003e-06
4.6491501906191005e-05   -8.278624617262454e-06   2.1685107111165227e-05
4.6491501906191005e-05   -8.278624617262454e-06   2.1685107111165227e-05
4.6491501906191005e-05   -8.278624617262454e-06   2.1685107111165227e-05
4.6491501906191005e-05   -8.278624617262454e-06   2.1685107111165227e-05
2.3489443587235037e-05   -6.977316765983694e-06   -1.587087204299399e-05
2.3489443587235037e-05   -6.977316765983694e-06   -1.587087204299399e-05
2.3489443587235037e-05   -6.977316765983694e-06   -1.587087204299399e-05
2.3489443587235037e-05   -6.977316765983694e-06   -1.587087204299399e-05
2.2808767611348416e-05   -7.815031575066338e-06   1.8288852889360033e-05
2.2808767611348416e-05   -7.815031575066338e-06   1.8288852889360033e-05
2.2808767611348416e-05   -7.815031575066338e-06   1.8288852889360033e-05
2.2808767611348416e-05   -7.815031575066338e-06   1.8288852889360033e-05
4.557779670160757e-05   -6.827403341249554e-06   -2.0252105868028816e-05
4.557779670160757e-05   -6.827403341249554e-06   -2.0252105868028816e-05
4.557779670160757e-05   -6.827403341249554e-06   -2.0252105868028816e-05
4.557779670160757e-05   -6.827403341249554e-06   -2.0252105868028816e-05
3.3183969503048444e-05   -6.804358681776566e-06   3.9044600055261245e-07
3.3183969503048444e-05   -6.804358681776566e-06   3.9044600055261245e-07
3.3183969503048444e-05   -6.804358681776566e-06   3.9044600055261245e-07
3.3183969503048444e-05   -6.804358681776566e-06   3.9044600055261245e-07
2.4663263884529494e-05   -8.139480179842812e-06   2.1167126040143596e-05
2.4663263884529494e-05   -8.139480179842812e-06   2.1167126040143596e-05
2.4663263884529494e-05   -8.139480179842812e-06   2.1167126040143596e-05
2.4663263884529494e-05   -8.139480179842812e-06   2.1167126040143596e-05
5.192563537515413e-06   -3.8750672804012745e-06   -8.725393465214954e-06
5.192563537515413e-06   -3.8750672804012745e-06   -8.725393465214954e-06
5.192563537515413e-06   -3.8750672804012745e-06   -8.725393465214954e-06
5.192563537515413e-06   -3.8750672804012745e-06   -8.725393465214954e-06
4.217624732419229e-06   -8.095570692631887e-06   2.414048123409833e-05
4.217624732419229e-06   -8.095570692631887e-06   2.414048123409833e-05
4.217624732419229e-06   -8.095570692631887e-06   2.414048123409833e-05
4.217624732419229e-06   -8.095570692631887e-06   2.414048123409833e-05
2.4047179980599308e-05   -4.108721176245304e-06   -1.1300887222700286e-05
2.4047179980599308e-05   -4.108721176245304e-06   -1.1300887222700286e-05
2.4047179980599308e-05   -4.108721176245304e-06   -1.1300887222700286e-05
2.4047179980599308e-05   -4.108721176245304e-06   -1.1300887222700286e-05
1.4509030914626622e-05   -5.830247791697822e-06   5.628943856525687e-06
1.4509030914626622e-05   -5.830247791697822e-06   5.628943856525687e-06
1.4509030914626622e-05   -5.830247791697822e-06   5.628943856525687e-06
1.4509030914626622e-05   -5.830247791697822e-06   5.628943856525687e-06
2.4047179980599294e-05   -8.095570692631832e-06   2.1748371524266466e-05
2.4047179980599294e-05   -8.095570692631832e-06   2.1748371524266466e-05
2.4047179980599294e-05   -8.095570692631832e-06   2.1748371524266466e-05
2.4047179980599294e-05   -8.095570692631832e-06   2.1748371524266466e-05
4.217624732419229e-06   -4.108721176245521e-06   -8.908777512868504e-06
4.217624732419229e-06   -4.108721176245521e-06   -8.908777512868504e-06
4.217624732419229e-06   -4.108721176245521e-06   -8.908777512868504e-06
4.217624732419229e-06   -4.108721176245521e-06   -8.908777512868504e-06
3.5217136949988878e-06   -7.9840011127188e-06   2.4168909983940607e-05
3.5217136949988878e-06   -7.9840011127188e-06   2.4168909983940607e-05
3.5217136949988878e-06   -7.9840011127188e-06   2.4168909983940607e-05
3.5217136949988878e-06   -7.9840011127188e-06   2.4168909983940607e-05
2.348944358723504e-05   -4.210912711466452e-06   -1.1374492877204304e-05
2.348944358723504e-05   -4.210912711466452e-06   -1.1374492877204304e-05
2.348944358723504e-05   -4.210912711466452e-06   -1.1374492877204304e-05
2.348944358723504e-05   -4.210912711466452e-06   -1.1374492877204304e-05
1.3671703621098835e-05   -5.709494917668272e-06   5.887556390077585e-06
1.3671703621098835e-05   -5.709494917668272e-06   5.887556390077585e-06
1.3671703621098835e-05   -5.709494917668272e-06   5.887556390077585e-06
1.3671703621098835e-05   -5.709494917668272e-06   5.887556390077585e-06
2.3489443587235078e-05   -7.984001112718734e-06   2.1905056943189436e-05
2.3489443587235078e-05   -7.984001112718734e-06   2.1905056943189436e-05
2.3489443587235078e-05   -7.984001112718734e-06   2.1905056943189436e-05
2.3489443587235078e-05   -7.984001112718734e-06   2.1905056943189436e-05
3.5217136949988878e-06   -4.210912711466452e-06   -9.110639836453025e-06
3.5217136949988878e-06   -4.210912711466452e-06   -9.110639836453025e-06
3.5217136949988878e-06   -4.210912711466452e-06   -9.110639836453025e-06
3.5217136949988878e-06   -4.210912711466452e-06   -9.110639836453025e-06
2.747856400107601e-06   -7.762983560286301e-06   2.4946299170602437e-05
2.747856400107601e-06   -7.762983560286301e-06   2.4946299170602437e-05
2.747856400107601e-06   -7.762983560286301e-06   2.4946299170602437e-05
2.747856400107601e-06   -7.762983560286301e-06   2.4946299170602437e-05
2.2808767611348436e-05   -4.112924147845181e-06   -1.0678588495596867e-05
2.2808767611348436e-05   -4.112924147845181e-06   -1.0678588495596867e-05
2.2808767611348436e-05   -4.112924147845181e-06   -1.0678588495596867e-05
2.2808767611348436e-05   -4.112924147845181e-06   -1.0678588495596867e-05
1.3160958391706456e-05   -5.4566471415333235e-06   6.207327333352796e-06
1.3160958391706456e-05   -5.4566471415333235e-06   6.207327333352796e-06
1.3160958391706456e-05   -5.4566471415333235e-06   6.207327333352796e-06
1.3160958391706456e-05   -5.4566471415333235e-06   6.207327333352796e-06
5.1925635375154266e-06   -9.778651993721069e-06   2.1754134923593588e-05
5.1925635375154266e-06   -9.778651993721069e-06   2.1754134923593588e-05
5.1925635375154266e-06   -9.778651993721069e-06   2.1754134923593588e-05
5.1925635375154266e-06   -9.778651993721069e-06   2.1754134923593588e-05
-1.3515857356027368e-05   -1.600010878619008e-06   -4.519381896583071e-06
-1.3515857356027368e-05   -1.600010878619008e-06   -4.519381896583071e-06
-1.3515857356027368e-05   -1.600010878619008e-06   -4.519381896583071e-06
-1.3515857356027368e-05   -1.600010878619008e-06   -4.519381896583071e-06
-1.5031983984744663e-05   -9.991652654757705e-06   2.792571726837386e-05
-1.5031983984744663e-05   -9.991652654757705e-06   2.792571726837386e-05
-1.5031983984744663e-05   -9.991652654757705e-06   2.792571726837386e-05
-1.5031983984744663e-05   -9.991652654757705e-06   2.792571726837386e-05
4.2176247324192224e-06   -1.6885880961422205e-06   -9.138802662068626e-06
4.2176247324192224e-06   -1.6885880961422205e-06   -9.138802662068626e-06
4.2176247324192224e-06   -1.6885880961422205e-06   -9.138802662068626e-06
4.2176247324192224e-06   -1.6885880961422205e-06   -9.138802662068626e-06
-4.618612770865984e-06   -5.578548850113151e-06   7.922236295789355e-06
-4.618612770865984e-06   -5.578548850113151e-06   7.922236295789355e-06
-4.618612770865984e-06   -5.578548850113151e-06   7.922236295789355e-06
-4.618612770865984e-06   -5.578548850113151e-06   7.922236295789355e-06
4.217624732419229e-06   -9.991652654757659e-06   2.2943878533204722e-05
4.217624732419229e-06   -9.991652654757659e-06   2.2943878533204722e-05
4.217624732419229e-06   -9.991652654757659e-06   2.2943878533204722e-05
4.217624732419229e-06   -9.991652654757659e-06   2.2943878533204722e-05
-1.5031983984744636e-05   -1.6885880961424373e-06   -4.156963926899297e-06
-1.5031983984744636e-05   -1.6885880961424373e-06   -4.156963926899297e-06
-1.5031983984744636e-05   -1.6885880961424373e-06   -4.156963926899297e-06
-1.5031983984744636e-05   -1.6885880961424373e-06   -4.156963926899297e-06
-1.595976702888671e-05   -9.940980339971043e-06   2.8985848271761462e-05
-1.595976702888671e-05   -9.940980339971043e-06   2.8985848271761462e-05
-1.595976702888671e-05   -9.940980339971043e-06   2.8985848271761462e-05
-1.595976702888671e-05   -9.940980339971043e-06   2.8985848271761462e-05
3.5217136949988873e-06   -1.7975394372921408e-06   -8.369350809655075e-06
3.5217136949988873e-06   -1.7975394372921408e-06   -8.369350809655075e-06
3.5217136949988873e-06   -1.7975394372921408e-06   -8.369350809655075e-06
3.5217136949988873e-06   -1.7975394372921408e-06   -8.369350809655075e-06
-5.645571430801818e-06   -5.5577298192111425e-06   9.165571962497409e-06
-5.645571430801818e-06   -5.5577298192111425e-06   9.165571962497409e-06
-5.645571430801818e-06   -5.5577298192111425e-06   9.165571962497409e-06
-5.645571430801818e-06   -5.5577298192111425e-06   9.165571962497409e-06
3.521713694998874e-06   -9.940980339971138e-06   2.40997837301541e-05
3.521713694998874e-06   -9.940980339971138e-06   2.40997837301541e-05
3.521713694998874e-06   -9.940980339971138e-06   2.40997837301541e-05
3.521713694998874e-06   -9.940980339971138e-06   2.40997837301541e-05
-1.5959767028886696e-05   -1.7975394372921408e-06   -3.4832862680476582e-06
-1.5959767028886696e-05   -1.7975394372921408e-06   -3.4832862680476582e-06
-1.5959767028886696e-05   -1.7975394372921408e-06   -3.4832862680476582e-06
-1.5959767028886696e-05   -1.7975394372921408e-06   -3.4832862680476582e-06
-1.704964222709005e-05   -9.587794280297053e-06   3.0356668428745126e-05
-1.704964222709005e-05   -9.587794280297053e-06   3.0356668428745126e-05
-1.704964222709005e-05   -9.587794280297053e-06   3.0356668428745126e-05
-1.704964222709005e-05   -9.587794280297053e-06   3.0356668428745126e-05
2.7478564001076073e-06   -1.784493427488005e-06   -7.321143128269836e-06
2.7478564001076073e-06   -1.784493427488005e-06   -7.321143128269836e-06
2.7478564001076073e-06   -1.784493427488005e-06   -7.321143128269836e-06
2.7478564001076073e-06   -1.784493427488005e-06   -7.321143128269836e-06
-6.482401367937452e-06   -5.3324358893866875e-06   1.0191385295611115e-05
-6.482401367937452e-06   -5.3324358893866875e-06   1.0191385295611115e-05
-6.482401367937452e-06   -5.3324358893866875e-06   1.0191385295611115e-05
-6.482401367937452e-06   -5.3324358893866875e-06   1.0191385295611115e-05
-1.3515857356027382e-05   -1.2153038346607223e-05   2.6330136065060776e-05
-1.3515857356027382e-05   -1.2153038346607223e-05   2.6330136065060776e-05
-1.3515857356027382e-05   -1.2153038346607223e-05   2.6330136065060776e-05
-1.3515857356027382e-05   -1.2153038346607223e-05   2.6330136065060776e-05
-3.478662163303651e-05   1.804800454841514e-06   -7.464344490851422e-07
-3.478662163303651e-05   1.804800454841514e-06   -7.464344490851422e-07
-3.478662163303651e-05   1.804800454841514e-06   -7.464344490851422e-07
-3.478662163303651e-05   1.804800454841514e-06   -7.464344490851422e-07
-3.6612693672232686e-05   -1.3586195106718001e-05   3.7178800946317207e-05
-3.6612693672232686e-05   -1.3586195106718001e-05   3.7178800946317207e-05
-3.6612693672232686e-05   -1.3586195106718001e-05   3.7178800946317207e-05
-3.6612693672232686e-05   -1.3586195106718001e-05   3.7178800946317207e-05
-1.503198398474463e-05   1.704693494591989e-06   -7.96358169361563e-06
-1.503198398474463e-05   1.704693494591989e-06   -7.96358169361563e-06
-1.503198398474463e-05   1.704693494591989e-06   -7.96358169361563e-06
-1.503198398474463e-05   1.704693494591989e-06   -7.96358169361563e-06
-2.4640257847956014e-05   -5.006889509432582e-06   1.2077157880818052e-05
-2.4640257847956014e-05   -5.006889509432582e-06   1.2077157880818052e-05
-2.4640257847956014e-05   -5.006889509432582e-06   1.2077157880818052e-05
-2.4640257847956014e-05   -5.006889509432582e-06   1.2077157880818052e-05
-1.5031983984744636e-05   -1.358619510671792e-05   2.800426778553104e-05
-1.5031983984744636e-05   -1.358619510671792e-05   2.800426778553104e-05
-1.5031983984744636e-05   -1.358619510671792e-05   2.800426778553104e-05
-1.5031983984744636e-05   -1.358619510671792e-05   2.800426778553104e-05
-3.6612693672232625e-05   1.704693494591989e-06   1.2109514671703207e-06
-3.6612693672232625e-05   1.704693494591989e-06   1.2109514671703207e-06
-3.6612693672232625e-05   1.704693494591989e-06   1.2109514671703207e-06
-3.6612693672232625e-05   1.704693494591989e-06   1.2109514671703207e-06
-3.772487558760879e-05   -1.3658022847084844e-05   3.926553208826659e-05
-3.772487558760879e-05   -1.3658022847084844e-05   3.926553208826659e-05
-3.772487558760879e-05   -1.3658022847084844e-05   3.926553208826659e-05
-3.772487558760879e-05   -1.3658022847084844e-05   3.926553208826659e-05
-1.5959767028886692e-05   1.5148542361893662e-06   -6.1133750929012656e-06
-1.5959767028886692e-05   1.5148542361893662e-06   -6.1133750929012656e-06
-1.5959767028886692e-05   1.5148542361893662e-06   -6.1133750929012656e-06
-1.5959767028886692e-05   1.5148542361893662e-06   -6.1133750929012656e-06
-2.5823707953929787e-05   -5.7786160364186115e-06   1.4702608612402048e-05
-2.5823707953929787e-05   -5.7786160364186115e-06   1.4702608612402048e-05
-2.5823707953929787e-05   -5.7786160364186115e-06   1.4702608612402048e-05
-2.5823707953929787e-05   -5.7786160364186115e-06   1.4702608612402048e-05
-1.5959767028886696e-05   -1.3658022847084762e-05   3.016180583830213e-05
-1.5959767028886696e-05   -1.3658022847084762e-05   3.016180583830213e-05
-1.5959767028886696e-05   -1.3658022847084762e-05   3.016180583830213e-05
-1.5959767028886696e-05   -1.3658022847084762e-05   3.016180583830213e-05
-3.7724875587608724e-05   1.5148542361893662e-06   2.990351157063304e-06
-3.7724875587608724e-05   1.5148542361893662e-06   2.990351157063304e-06
-3.7724875587608724e-05   1.5148542361893662e-06   2.990351157063304e-06
-3.7724875587608724e-05   1.5148542361893662e-06   2.990351157063304e-06
-3.892415814520875e-05   -1.2440763665341964e-05   4.0156532875837815e-05
-3.892415814520875e-05   -1.2440763665341964e-05   4.0156532875837815e-05
-3.892415814520875e-05   -1.2440763665341964e-05   4.0156532875837815e-05
-3.892415814520875e-05   -1.2440763665341964e-05   4.0156532875837815e-05
-1.7049642227090057e-05   1.2992248661723022e-06   -4.544986773268581e-06
-1.7049642227090057e-05   1.2992248661723022e-06   -4.544986773268581e-06
-1.7049642227090057e-05   1.2992248661723022e-06   -4.544986773268581e-06
-1.7049642227090057e-05   1.2992248661723022e-06   -4.544986773268581e-06
-2.704642556044646e-05   -5.819168021048253e-06   1.6387354514657787e-05
-2.704642556044646e-05   -5.819168021048253e-06   1.6387354514657787e-05
-2.704642556044646e-05   -5.819168021048253e-06   1.6387354514657787e-05
-2.704642556044646e-05   -5.819168021048253e-06   1.6387354514657787e-05
-3.4786621633036376e-05   -4.915049848600932e-20   2.9104163943609405e-05
-3.4786621633036376e-05   -4.915049848600932e-20   2.9104163943609405e-05
-3.4786621633036376e-05   -4.915049848600932e-20   2.9104163943609405e-05
-3.4786621633036376e-05   -4.915049848600932e-20   2.9104163943609405e-05
-6.116832304068161e-05   8.031716468453933e-06   -1.0046308521393754e-05
-6.116832304068161e-05   8.031716468453933e-06   -1.0046308521393754e-05
-6.116832304068161e-05   8.031716468453933e-06   -1.0046308521393754e-05
-6.116832304068161e-05   8.031716468453933e-06   -1.0046308521393754e-05
-6.367881278215433e-05   0.0   4.236022203051265e-05
-6.367881278215433e-05   0.0   4.236022203051265e-05
-6.367881278215433e-05   0.0   4.236022203051265e-05
-6.367881278215433e-05   0.0   4.236022203051265e-05
-3.6612693672232625e-05   7.761304331888692e-06   -7.406759085156904e-06
-3.6612693672232625e-05   7.761304331888692e-06   -7.406759085156904e-06
-3.6612693672232625e-05   7.761304331888692e-06   -7.406759085156904e-06
-3.6612693672232625e-05   7.761304331888692e-06   -7.406759085156904e-06
-4.6971105375206494e-05   4.7644599824501165e-06   1.1655367029462713e-05
-4.6971105375206494e-05   4.7644599824501165e-06   1.1655367029462713e-05
-4.6971105375206494e-05   4.7644599824501165e-06   1.1655367029462713e-05
-4.6971105375206494e-05   4.7644599824501165e-06   1.1655367029462713e-05
-3.661269367223259e-05   8.095376221225104e-20   3.7703439431379456e-05
-3.661269367223259e-05   8.095376221225104e-20   3.7703439431379456e-05
-3.661269367223259e-05   8.095376221225104e-20   3.7703439431379456e-05
-3.661269367223259e-05   8.095376221225104e-20   3.7703439431379456e-05
-6.367881278215444e-05   7.761304331888692e-06   -2.7499764860236834e-06
-6.367881278215444e-05   7.761304331888692e-06   -2.7499764860236834e-06
-6.367881278215444e-05   7.761304331888692e-06   -2.7499764860236834e-06
-6.367881278215444e-05   7.761304331888692e-06   -2.7499764860236834e-06
-6.494221021532558e-05   0.0   4.706252529073436e-05
-6.494221021532558e-05   0.0   4.706252529073436e-05
-6.494221021532558e-05   0.0   4.706252529073436e-05
-6.494221021532558e-05   0.0   4.706252529073436e-05
-3.772487558760873e-05   7.56576175874415e-06   -2.8391561440402476e-06
-3.772487558760873e-05   7.56576175874415e-06   -2.8391561440402476e-06
-3.772487558760873e-05   7.56576175874415e-06   -2.8391561440402476e-06
-3.772487558760873e-05   7.56576175874415e-06   -2.8391561440402476e-06
-4.9402860812884555e-05   3.980929519200108e-06   1.8775051908479843e-05
-4.9402860812884555e-05   3.980929519200108e-06   1.8775051908479843e-05
-4.9402860812884555e-05   3.980929519200108e-06   1.8775051908479843e-05
-4.9402860812884555e-05   3.980929519200108e-06   1.8775051908479843e-05
-3.7724875587608724e-05   8.095376221225104e-20   4.2523068235488046e-05
-3.7724875587608724e-05   8.095376221225104e-20   4.2523068235488046e-05
-3.7724875587608724e-05   8.095376221225104e-20   4.2523068235488046e-05
-3.7724875587608724e-05   8.095376221225104e-20   4.2523068235488046e-05
-6.494221021532569e-05   7.56576175874415e-06   1.7003009112062043e-06
-6.494221021532569e-05   7.56576175874415e-06   1.7003009112062043e-06
-6.494221021532569e-05   7.56576175874415e-06   1.7003009112062043e-06
-6.494221021532569e-05   7.56576175874415e-06   1.7003009112062043e-06
-6.634538422978006e-05   0.0   5.3331030031334836e-05
-6.634538422978006e-05   0.0   5.3331030031334836e-05
-6.634538422978006e-05   0.0   5.3331030031334836e-05
-6.634538422978006e-05   0.0   5.3331030031334836e-05
-3.892415814520871e-05   6.315265971261084e-06   3.8398269742925405e-06
-3.892415814520871e-05   6.315265971261084e-06   3.8398269742925405e-06
-3.892415814520871e-05   6.315265971261084e-06   3.8398269742925405e-06
-3.892415814520871e-05   6.315265971261084e-06   3.8398269742925405e-06
-4.980125245443746e-05   2.801419679158588e-06   2.40766252649349e-05
-4.980125245443746e-05   2.801419679158588e-06   2.40766252649349e-05
-4.980125245443746e-05   2.801419679158588e-06   2.40766252649349e-05
-4.980125245443746e-05   2.801419679158588e-06   2.40766252649349e-05
4.191934674783674e-05   -6.29793236266411e-06   2.969735643196746e-05
4.191934674783674e-05   -6.29793236266411e-06   2.969735643196746e-05
4.191934674783674e-05   -6.29793236266411e-06   2.969735643196746e-05
4.191934674783674e-05   -6.29793236266411e-06   2.969735643196746e-05
2.118595914896016e-05   -4.7635768898582256e-06   -3.937676282476823e-06
2.118595914896016e-05   -4.7635768898582256e-06   -3.937676282476823e-06
2.118595914896016e-05   -4.7635768898582256e-06   -3.937676282476823e-06
2.118595914896016e-05   -4.7635768898582256e-06   -3.937676282476823e-06
2.063109867173412e-05   -6.921234496063636e-06   2.5907917143502563e-05
2.063109867173412e-05   -6.921234496063636e-06   2.5907917143502563e-05
2.063109867173412e-05   -6.921234496063636e-06   2.5907917143502563e-05
2.063109867173412e-05   -6.921234496063636e-06   2.5907917143502563e-05
4.093057375840691e-05   -5.395307601690049e-06   -8.840097470909392e-06
4.093057375840691e-05   -5.395307601690049e-06   -8.840097470909392e-06
4.093057375840691e-05   -5.395307601690049e-06   -8.840097470909392e-06
4.093057375840691e-05   -5.395307601690049e-06   -8.840097470909392e-06
2.977925859408648e-05   -5.611993626143154e-06   9.87543941762968e-06
2.977925859408648e-05   -5.611993626143154e-06   9.87543941762968e-06
2.977925859408648e-05   -5.611993626143154e-06   9.87543941762968e-06
2.977925859408648e-05   -5.611993626143154e-06   9.87543941762968e-06
4.0930573758406837e-05   -6.921234496063613e-06   2.499236100687852e-05
4.0930573758406837e-05   -6.921234496063613e-06   2.499236100687852e-05
4.0930573758406837e-05   -6.921234496063613e-06   2.499236100687852e-05
4.0930573758406837e-05   -6.921234496063613e-06   2.499236100687852e-05
2.063109867173416e-05   -5.395307601690049e-06   -7.924541334285314e-06
2.063109867173416e-05   -5.395307601690049e-06   -7.924541334285314e-06
2.063109867173416e-05   -5.395307601690049e-06   -7.924541334285314e-06
2.063109867173416e-05   -5.395307601690049e-06   -7.924541334285314e-06
1.99162099021265e-05   -6.977316765983694e-06   2.324634624205086e-05
1.99162099021265e-05   -6.977316765983694e-06   2.324634624205086e-05
1.99162099021265e-05   -6.977316765983694e-06   2.324634624205086e-05
1.99162099021265e-05   -6.977316765983694e-06   2.324634624205086e-05
3.992969504092297e-05   -5.488332789886034e-06   -1.100285270826862e-05
3.992969504092297e-05   -5.488332789886034e-06   -1.100285270826862e-05
3.992969504092297e-05   -5.488332789886034e-06   -1.100285270826862e-05
3.992969504092297e-05   -5.488332789886034e-06   -1.100285270826862e-05
2.9506076683070313e-05   -5.856190303945609e-06   6.590559063254935e-06
2.9506076683070313e-05   -5.856190303945609e-06   6.590559063254935e-06
2.9506076683070313e-05   -5.856190303945609e-06   6.590559063254935e-06
2.9506076683070313e-05   -5.856190303945609e-06   6.590559063254935e-06
3.992969504092297e-05   -6.9773167659837125e-06   2.2352955856392307e-05
3.992969504092297e-05   -6.9773167659837125e-06   2.2352955856392307e-05
3.992969504092297e-05   -6.9773167659837125e-06   2.2352955856392307e-05
3.992969504092297e-05   -6.9773167659837125e-06   2.2352955856392307e-05
1.99162099021265e-05   -5.488332789886034e-06   -1.010946232260989e-05
1.99162099021265e-05   -5.488332789886034e-06   -1.010946232260989e-05
1.99162099021265e-05   -5.488332789886034e-06   -1.010946232260989e-05
1.99162099021265e-05   -5.488332789886034e-06   -1.010946232260989e-05
1.9165843967176795e-05   -6.827403341249337e-06   1.929504477269587e-05
1.9165843967176795e-05   -6.827403341249337e-06   1.929504477269587e-05
1.9165843967176795e-05   -6.827403341249337e-06   1.929504477269587e-05
1.9165843967176795e-05   -6.827403341249337e-06   1.929504477269587e-05
3.867654257491301e-05   -5.449728460631478e-06   -1.4049391168568755e-05
3.867654257491301e-05   -5.449728460631478e-06   -1.4049391168568755e-05
3.867654257491301e-05   -5.449728460631478e-06   -1.4049391168568755e-05
3.867654257491301e-05   -5.449728460631478e-06   -1.4049391168568755e-05
2.8198118862677035e-05   -5.7015897306606726e-06   3.565765113842519e-06
2.8198118862677035e-05   -5.7015897306606726e-06   3.565765113842519e-06
2.8198118862677035e-05   -5.7015897306606726e-06   3.565765113842519e-06
2.8198118862677035e-05   -5.7015897306606726e-06   3.565765113842519e-06
2.118595914896016e-05   -3.8750672804014295e-06   2.8045655948986405e-05
2.118595914896016e-05   -3.8750672804014295e-06   2.8045655948986405e-05
2.118595914896016e-05   -3.8750672804014295e-06   2.8045655948986405e-05
2.118595914896016e-05   -3.8750672804014295e-06   2.8045655948986405e-05
2.286123506235849e-06   -1.67602677228788e-06   -2.134645817352711e-06
2.286123506235849e-06   -1.67602677228788e-06   -2.134645817352711e-06
2.286123506235849e-06   -1.67602677228788e-06   -2.134645817352711e-06
2.286123506235849e-06   -1.67602677228788e-06   -2.134645817352711e-06
1.7345033594059084e-06   -4.108721176245521e-06   2.920912867620932e-05
1.7345033594059084e-06   -4.108721176245521e-06   2.920912867620932e-05
1.7345033594059084e-06   -4.108721176245521e-06   2.920912867620932e-05
1.7345033594059084e-06   -4.108721176245521e-06   2.920912867620932e-05
2.0631098671734164e-05   -2.0146416287833598e-06   -3.541644572814881e-06
2.0631098671734164e-05   -2.0146416287833598e-06   -3.541644572814881e-06
2.0631098671734164e-05   -2.0146416287833598e-06   -3.541644572814881e-06
2.0631098671734164e-05   -2.0146416287833598e-06   -3.541644572814881e-06
1.1349390409752276e-05   -2.7144423877744316e-06   1.2347749652549437e-05
1.1349390409752276e-05   -2.7144423877744316e-06   1.2347749652549437e-05
1.1349390409752276e-05   -2.7144423877744316e-06   1.2347749652549437e-05
1.1349390409752276e-05   -2.7144423877744316e-06   1.2347749652549437e-05
2.063109867173414e-05   -4.108721176245473e-06   2.7952680947732154e-05
2.063109867173414e-05   -4.108721176245473e-06   2.7952680947732154e-05
2.063109867173414e-05   -4.108721176245473e-06   2.7952680947732154e-05
2.063109867173414e-05   -4.108721176245473e-06   2.7952680947732154e-05
1.7345033594059084e-06   -2.0146416287833598e-06   -2.285196844337687e-06
1.7345033594059084e-06   -2.0146416287833598e-06   -2.285196844337687e-06
1.7345033594059084e-06   -2.0146416287833598e-06   -2.285196844337687e-06
1.7345033594059084e-06   -2.0146416287833598e-06   -2.285196844337687e-06
1.0308053755479177e-06   -4.210912711466452e-06   2.8927972879084357e-05
1.0308053755479177e-06   -4.210912711466452e-06   2.8927972879084357e-05
1.0308053755479177e-06   -4.210912711466452e-06   2.8927972879084357e-05
1.0308053755479177e-06   -4.210912711466452e-06   2.8927972879084357e-05
1.9916209902126496e-05   -2.2355002593935427e-06   -3.732948803123631e-06
1.9916209902126496e-05   -2.2355002593935427e-06   -3.732948803123631e-06
1.9916209902126496e-05   -2.2355002593935427e-06   -3.732948803123631e-06
1.9916209902126496e-05   -2.2355002593935427e-06   -3.732948803123631e-06
1.0649121484912746e-05   -2.841988837928378e-06   1.2076091706020528e-05
1.0649121484912746e-05   -2.841988837928378e-06   1.2076091706020528e-05
1.0649121484912746e-05   -2.841988837928378e-06   1.2076091706020528e-05
1.0649121484912746e-05   -2.841988837928378e-06   1.2076091706020528e-05
1.9916209902126466e-05   -4.210912711466431e-06   2.7742725407840655e-05
1.9916209902126466e-05   -4.210912711466431e-06   2.7742725407840655e-05
1.9916209902126466e-05   -4.210912711466431e-06   2.7742725407840655e-05
1.9916209902126466e-05   -4.210912711466431e-06   2.7742725407840655e-05
1.0308053755479177e-06   -2.2355002593935427e-06   -2.5477013318800368e-06
1.0308053755479177e-06   -2.2355002593935427e-06   -2.5477013318800368e-06
1.0308053755479177e-06   -2.2355002593935427e-06   -2.5477013318800368e-06
1.0308053755479177e-06   -2.2355002593935427e-06   -2.5477013318800368e-06
2.534919669124519e-07   -4.112924147845181e-06   2.9346704254541375e-05
2.534919669124519e-07   -4.112924147845181e-06   2.9346704254541375e-05
2.534919669124519e-07   -4.112924147845181e-06   2.9346704254541375e-05
2.534919669124519e-07   -4.112924147845181e-06   2.9346704254541375e-05
1.9165843967176788e-05   -2.3283923983386575e-06   -3.244601462269717e-06
1.9165843967176788e-05   -2.3283923983386575e-06   -3.244601462269717e-06
1.9165843967176788e-05   -2.3283923983386575e-06   -3.244601462269717e-06
1.9165843967176788e-05   -2.3283923983386575e-06   -3.244601462269717e-06
1.0080568673052258e-05   -2.8133742199954338e-06   1.2188513120932489e-05
1.0080568673052258e-05   -2.8133742199954338e-06   1.2188513120932489e-05
1.0080568673052258e-05   -2.8133742199954338e-06   1.2188513120932489e-05
1.0080568673052258e-05   -2.8133742199954338e-06   1.2188513120932489e-05
2.286123506235849e-06   -1.6000108786188967e-06   2.866390715342514e-05
2.286123506235849e-06   -1.6000108786188967e-06   2.866390715342514e-05
2.286123506235849e-06   -1.6000108786188967e-06   2.866390715342514e-05
2.286123506235849e-06   -1.6000108786188967e-06   2.866390715342514e-05
-1.6027218439337583e-05   1.49993863766398e-06   1.640287239151536e-09
-1.6027218439337583e-05   1.49993863766398e-06   1.640287239151536e-09
-1.6027218439337583e-05   1.49993863766398e-06   1.640287239151536e-09
-1.6027218439337583e-05   1.49993863766398e-06   1.640287239151536e-09
-1.6648914095552093e-05   -1.6885880961422205e-06   3.073767350541255e-05
-1.6648914095552093e-05   -1.6885880961422205e-06   3.073767350541255e-05
-1.6648914095552093e-05   -1.6885880961422205e-06   3.073767350541255e-05
-1.6648914095552093e-05   -1.6885880961422205e-06   3.073767350541255e-05
1.7345033594059036e-06   1.2423618678627547e-06   -1.6599255645872047e-06
1.7345033594059036e-06   1.2423618678627547e-06   -1.6599255645872047e-06
1.7345033594059036e-06   1.2423618678627547e-06   -1.6599255645872047e-06
1.7345033594059036e-06   1.2423618678627547e-06   -1.6599255645872047e-06
-7.150891753720034e-06   -8.929188857493414e-10   1.3895019162671817e-05
-7.150891753720034e-06   -8.929188857493414e-10   1.3895019162671817e-05
-7.150891753720034e-06   -8.929188857493414e-10   1.3895019162671817e-05
-7.150891753720034e-06   -8.929188857493414e-10   1.3895019162671817e-05
1.7345033594059084e-06   -1.68858809614226e-06   2.8979103527009497e-05
1.7345033594059084e-06   -1.68858809614226e-06   2.8979103527009497e-05
1.7345033594059084e-06   -1.68858809614226e-06   2.8979103527009497e-05
1.7345033594059084e-06   -1.68858809614226e-06   2.8979103527009497e-05
-1.6648914095552093e-05   1.2423618678627547e-06   9.864441381584547e-08
-1.6648914095552093e-05   1.2423618678627547e-06   9.864441381584547e-08
-1.6648914095552093e-05   1.2423618678627547e-06   9.864441381584547e-08
-1.6648914095552093e-05   1.2423618678627547e-06   9.864441381584547e-08
-1.7481337260480737e-05   -1.7975394372923576e-06   3.1349345785538834e-05
-1.7481337260480737e-05   -1.7975394372923576e-06   3.1349345785538834e-05
-1.7481337260480737e-05   -1.7975394372923576e-06   3.1349345785538834e-05
-1.7481337260480737e-05   -1.7975394372923576e-06   3.1349345785538834e-05
1.0308053755479156e-06   1.002600362135387e-06   -1.1843091541654778e-06
1.0308053755479156e-06   1.002600362135387e-06   -1.1843091541654778e-06
1.0308053755479156e-06   1.002600362135387e-06   -1.1843091541654778e-06
1.0308053755479156e-06   1.002600362135387e-06   -1.1843091541654778e-06
-7.763853236466362e-06   -7.220553480688854e-08   1.4118338737356987e-05
-7.763853236466362e-06   -7.220553480688854e-08   1.4118338737356987e-05
-7.763853236466362e-06   -7.220553480688854e-08   1.4118338737356987e-05
-7.763853236466362e-06   -7.220553480688854e-08   1.4118338737356987e-05
1.0308053755479177e-06   -1.7975394372922147e-06   2.9669261905882253e-05
1.0308053755479177e-06   -1.7975394372922147e-06   2.9669261905882253e-05
1.0308053755479177e-06   -1.7975394372922147e-06   2.9669261905882253e-05
1.0308053755479177e-06   -1.7975394372922147e-06   2.9669261905882253e-05
-1.7481337260480737e-05   1.002600362135387e-06   4.957747254909954e-07
-1.7481337260480737e-05   1.002600362135387e-06   4.957747254909954e-07
-1.7481337260480737e-05   1.002600362135387e-06   4.957747254909954e-07
-1.7481337260480737e-05   1.002600362135387e-06   4.957747254909954e-07
-1.8368197377943224e-05   -1.784493427488005e-06   3.208298841557303e-05
-1.8368197377943224e-05   -1.784493427488005e-06   3.208298841557303e-05
-1.8368197377943224e-05   -1.784493427488005e-06   3.208298841557303e-05
-1.8368197377943224e-05   -1.784493427488005e-06   3.208298841557303e-05
2.534919669124561e-07   8.302973077938935e-07   -5.220349336888959e-07
2.534919669124561e-07   8.302973077938935e-07   -5.220349336888959e-07
2.534919669124561e-07   8.302973077938935e-07   -5.220349336888959e-07
2.534919669124561e-07   8.302973077938935e-07   -5.220349336888959e-07
-8.54514205474554e-06   -1.2278308112530396e-07   1.471420333575967e-05
-8.54514205474554e-06   -1.2278308112530396e-07   1.471420333575967e-05
-8.54514205474554e-06   -1.2278308112530396e-07   1.471420333575967e-05
-8.54514205474554e-06   -1.2278308112530396e-07   1.471420333575967e-05
-1.602721843933753e-05   1.8048004548415315e-06   2.5922121029823587e-05
-1.602721843933753e-05   1.8048004548415315e-06   2.5922121029823587e-05
-1.602721843933753e-05   1.8048004548415315e-06   2.5922121029823587e-05
-1.602721843933753e-05   1.8048004548415315e-06   2.5922121029823587e-05
-3.39804471366916e-05   4.8727697512288524e-06   -2.1591452212675784e-06
-3.39804471366916e-05   4.8727697512288524e-06   -2.1591452212675784e-06
-3.39804471366916e-05   4.8727697512288524e-06   -2.1591452212675784e-06
-3.39804471366916e-05   4.8727697512288524e-06   -2.1591452212675784e-06
-3.488365727131666e-05   1.704693494591989e-06   2.8677498384311424e-05
-3.488365727131666e-05   1.704693494591989e-06   2.8677498384311424e-05
-3.488365727131666e-05   1.704693494591989e-06   2.8677498384311424e-05
-3.488365727131666e-05   1.704693494591989e-06   2.8677498384311424e-05
-1.664891409555207e-05   4.615431237283861e-06   -3.4601828875779905e-06
-1.664891409555207e-05   4.615431237283861e-06   -3.4601828875779905e-06
-1.664891409555207e-05   4.615431237283861e-06   -3.4601828875779905e-06
-1.664891409555207e-05   4.615431237283861e-06   -3.4601828875779905e-06
-2.5186392894392512e-05   3.30354765641595e-06   1.1556078592343404e-05
-2.5186392894392512e-05   3.30354765641595e-06   1.1556078592343404e-05
-2.5186392894392512e-05   3.30354765641595e-06   1.1556078592343404e-05
-2.5186392894392512e-05   3.30354765641595e-06   1.1556078592343404e-05
-1.6648914095552093e-05   1.7046934945918633e-06   2.6931055738696214e-05
-1.6648914095552093e-05   1.7046934945918633e-06   2.6931055738696214e-05
-1.6648914095552093e-05   1.7046934945918633e-06   2.6931055738696214e-05
-1.6648914095552093e-05   1.7046934945918633e-06   2.6931055738696214e-05
-3.488365727131661e-05   4.615431237283861e-06   -1.7137402419628621e-06
-3.488365727131661e-05   4.615431237283861e-06   -1.7137402419628621e-06
-3.488365727131661e-05   4.615431237283861e-06   -1.7137402419628621e-06
-3.488365727131661e-05   4.615431237283861e-06   -1.7137402419628621e-06
-3.599131721200581e-05   1.5148542361893662e-06   3.0436315344122564e-05
-3.599131721200581e-05   1.5148542361893662e-06   3.0436315344122564e-05
-3.599131721200581e-05   1.5148542361893662e-06   3.0436315344122564e-05
-3.599131721200581e-05   1.5148542361893662e-06   3.0436315344122564e-05
-1.7481337260480737e-05   4.376618208585181e-06   -2.1307096251898085e-06
-1.7481337260480737e-05   4.376618208585181e-06   -2.1307096251898085e-06
-1.7481337260480737e-05   4.376618208585181e-06   -2.1307096251898085e-06
-1.7481337260480737e-05   4.376618208585181e-06   -2.1307096251898085e-06
-2.5857593257149105e-05   3.246039101496281e-06   1.2508064500177385e-05
-2.5857593257149105e-05   3.246039101496281e-06   1.2508064500177385e-05
-2.5857593257149105e-05   3.246039101496281e-06   1.2508064500177385e-05
-2.5857593257149105e-05   3.246039101496281e-06   1.2508064500177385e-05
-1.7481337260480737e-05   1.5148542361892626e-06   2.8719256960685227e-05
-1.7481337260480737e-05   1.5148542361892626e-06   2.8719256960685227e-05
-1.7481337260480737e-05   1.5148542361892626e-06   2.8719256960685227e-05
-1.7481337260480737e-05   1.5148542361892626e-06   2.8719256960685227e-05
-3.5991317212005755e-05   4.376618208585181e-06   -4.1365124175236304e-07
-3.5991317212005755e-05   4.376618208585181e-06   -4.1365124175236304e-07
-3.5991317212005755e-05   4.376618208585181e-06   -4.1365124175236304e-07
-3.5991317212005755e-05   4.376618208585181e-06   -4.1365124175236304e-07
-3.716244614106838e-05   1.2992248661720853e-06   3.1830420084281866e-05
-3.716244614106838e-05   1.2992248661720853e-06   3.1830420084281866e-05
-3.716244614106838e-05   1.2992248661720853e-06   3.1830420084281866e-05
-3.716244614106838e-05   1.2992248661720853e-06   3.1830420084281866e-05
-1.8368197377943143e-05   4.054651241827039e-06   -1.1465836796531318e-06
-1.8368197377943143e-05   4.054651241827039e-06   -1.1465836796531318e-06
-1.8368197377943143e-05   4.054651241827039e-06   -1.1465836796531318e-06
-1.8368197377943143e-05   4.054651241827039e-06   -1.1465836796531318e-06
-2.6981058353871602e-05   3.052916190559316e-06   1.3809225644322064e-05
-2.6981058353871602e-05   3.052916190559316e-06   1.3809225644322064e-05
-2.6981058353871602e-05   3.052916190559316e-06   1.3809225644322064e-05
-2.6981058353871602e-05   3.052916190559316e-06   1.3809225644322064e-05
-3.39804471366916e-05   8.031716468453794e-06   1.3643998654274975e-05
-3.39804471366916e-05   8.031716468453794e-06   1.3643998654274975e-05
-3.39804471366916e-05   8.031716468453794e-06   1.3643998654274975e-05
-3.39804471366916e-05   8.031716468453794e-06   1.3643998654274975e-05
-5.1189453198098245e-05   7.924741303708387e-06   -1.5101863213583299e-05
-5.1189453198098245e-05   7.924741303708387e-06   -1.5101863213583299e-05
-5.1189453198098245e-05   7.924741303708387e-06   -1.5101863213583299e-05
-5.1189453198098245e-05   7.924741303708387e-06   -1.5101863213583299e-05
-5.281211023601165e-05   7.761304331888692e-06   2.025153061138642e-05
-5.281211023601165e-05   7.761304331888692e-06   2.025153061138642e-05
-5.281211023601165e-05   7.761304331888692e-06   2.025153061138642e-05
-5.281211023601165e-05   7.761304331888692e-06   2.025153061138642e-05
-3.488365727131661e-05   8.0808756308926e-06   -9.820967109174438e-06
-3.488365727131661e-05   8.0808756308926e-06   -9.820967109174438e-06
-3.488365727131661e-05   8.0808756308926e-06   -9.820967109174438e-06
-3.488365727131661e-05   8.0808756308926e-06   -9.820967109174438e-06
-4.147687570510104e-05   8.071112083178796e-06   1.173588409094544e-06
-4.147687570510104e-05   8.071112083178796e-06   1.173588409094544e-06
-4.147687570510104e-05   8.071112083178796e-06   1.173588409094544e-06
-4.147687570510104e-05   8.071112083178796e-06   1.173588409094544e-06
-3.488365727131658e-05   7.76130433188883e-06   2.0059787831984118e-05
-3.488365727131658e-05   7.76130433188883e-06   2.0059787831984118e-05
-3.488365727131658e-05   7.76130433188883e-06   2.0059787831984118e-05
-3.488365727131658e-05   7.76130433188883e-06   2.0059787831984118e-05
-5.281211023601165e-05   8.0808756308926e-06   -9.629224329772137e-06
-5.281211023601165e-05   8.0808756308926e-06   -9.629224329772137e-06
-5.281211023601165e-05   8.0808756308926e-06   -9.629224329772137e-06
-5.281211023601165e-05   8.0808756308926e-06   -9.629224329772137e-06
-5.440327731627632e-05   7.56576175874415e-06   2.4881756088700798e-05
-5.440327731627632e-05   7.56576175874415e-06   2.4881756088700798e-05
-5.440327731627632e-05   7.56576175874415e-06   2.4881756088700798e-05
-5.440327731627632e-05   7.56576175874415e-06   2.4881756088700798e-05
-3.599131721200575e-05   8.024008501547261e-06   -6.079792130765367e-06
-3.599131721200575e-05   8.024008501547261e-06   -6.079792130765367e-06
-3.599131721200575e-05   8.024008501547261e-06   -6.079792130765367e-06
-3.599131721200575e-05   8.024008501547261e-06   -6.079792130765367e-06
-4.3344483921799466e-05   8.073552781477861e-06   6.145759150933051e-06
-4.3344483921799466e-05   8.073552781477861e-06   6.145759150933051e-06
-4.3344483921799466e-05   8.073552781477861e-06   6.145759150933051e-06
-4.3344483921799466e-05   8.073552781477861e-06   6.145759150933051e-06
-3.5991317212005755e-05   7.5657617587440575e-06   2.4606808043019148e-05
-3.5991317212005755e-05   7.5657617587440575e-06   2.4606808043019148e-05
-3.5991317212005755e-05   7.5657617587440575e-06   2.4606808043019148e-05
-3.5991317212005755e-05   7.5657617587440575e-06   2.4606808043019148e-05
-5.4403277316276416e-05   8.024008501547261e-06   -5.8048440850836085e-06
-5.4403277316276416e-05   8.024008501547261e-06   -5.8048440850836085e-06
-5.4403277316276416e-05   8.024008501547261e-06   -5.8048440850836085e-06
-5.4403277316276416e-05   8.024008501547261e-06   -5.8048440850836085e-06
-5.6280515941864735e-05   6.315265971261301e-06   3.261653425072554e-05
-5.6280515941864735e-05   6.315265971261301e-06   3.261653425072554e-05
-5.6280515941864735e-05   6.315265971261301e-06   3.261653425072554e-05
-5.6280515941864735e-05   6.315265971261301e-06   3.261653425072554e-05
-3.7162446141068344e-05   7.390755200913654e-06   1.0779104493981542e-07
-3.7162446141068344e-05   7.390755200913654e-06   1.0779104493981542e-07
-3.7162446141068344e-05   7.390755200913654e-06   1.0779104493981542e-07
-3.7162446141068344e-05   7.390755200913654e-06   1.0779104493981542e-07
-4.400398485110558e-05   7.693253133009585e-06   1.1328856802411284e-05
-4.400398485110558e-05   7.693253133009585e-06   1.1328856802411284e-05
-4.400398485110558e-05   7.693253133009585e-06   1.1328856802411284e-05
-4.400398485110558e-05   7.693253133009585e-06   1.1328856802411284e-05
3.407721947406159e-05   -4.763576889858309e-06   2.6230385688729894e-05
3.407721947406159e-05   -4.763576889858309e-06   2.6230385688729894e-05
3.407721947406159e-05   -4.763576889858309e-06   2.6230385688729894e-05
3.407721947406159e-05   -4.763576889858309e-06   2.6230385688729894e-05
1.685911451476146e-05   -3.5030811019619214e-06   -1.7101584373659107e-06
1.685911451476146e-05   -3.5030811019619214e-06   -1.7101584373659107e-06
1.685911451476146e-05   -3.5030811019619214e-06   -1.7101584373659107e-06
1.685911451476146e-05   -3.5030811019619214e-06   -1.7101584373659107e-06
1.6219732310454506e-05   -5.3953076016902655e-06   2.2800078475547687e-05
1.6219732310454506e-05   -5.3953076016902655e-06   2.2800078475547687e-05
1.6219732310454506e-05   -5.3953076016902655e-06   2.2800078475547687e-05
1.6219732310454506e-05   -5.3953076016902655e-06   2.2800078475547687e-05
3.2901910445428e-05   -4.061277867084892e-06   -5.80396959017113e-06
3.2901910445428e-05   -4.061277867084892e-06   -5.80396959017113e-06
3.2901910445428e-05   -4.061277867084892e-06   -5.80396959017113e-06
3.2901910445428e-05   -4.061277867084892e-06   -5.80396959017113e-06
2.3869468032660975e-05   -4.3852319801009065e-06   9.444473565583306e-06
2.3869468032660975e-05   -4.3852319801009065e-06   9.444473565583306e-06
2.3869468032660975e-05   -4.3852319801009065e-06   9.444473565583306e-06
2.3869468032660975e-05   -4.3852319801009065e-06   9.444473565583306e-06
3.290191044542794e-05   -5.3953076016900944e-06   2.1999660634784484e-05
3.290191044542794e-05   -5.3953076016900944e-06   2.1999660634784484e-05
3.290191044542794e-05   -5.3953076016900944e-06   2.1999660634784484e-05
3.290191044542794e-05   -5.3953076016900944e-06   2.1999660634784484e-05
1.621973231045456e-05   -4.061277867084892e-06   -5.003551749407941e-06
1.621973231045456e-05   -4.061277867084892e-06   -5.003551749407941e-06
1.621973231045456e-05   -4.061277867084892e-06   -5.003551749407941e-06
1.621973231045456e-05   -4.061277867084892e-06   -5.003551749407941e-06
1.5508902677197714e-05   -5.488332789886034e-06   2.042658278147817e-05
1.5508902677197714e-05   -5.488332789886034e-06   2.042658278147817e-05
1.5508902677197714e-05   -5.488332789886034e-06   2.042658278147817e-05
1.5508902677197714e-05   -5.488332789886034e-06   2.042658278147817e-05
3.183689221952661e-05   -4.1728274529316805e-06   -7.576036324575924e-06
3.183689221952661e-05   -4.1728274529316805e-06   -7.576036324575924e-06
3.183689221952661e-05   -4.1728274529316805e-06   -7.576036324575924e-06
3.183689221952661e-05   -4.1728274529316805e-06   -7.576036324575924e-06
2.3431086388054624e-05   -4.601829036715273e-06   6.691041011480786e-06
2.3431086388054624e-05   -4.601829036715273e-06   6.691041011480786e-06
2.3431086388054624e-05   -4.601829036715273e-06   6.691041011480786e-06
2.3431086388054624e-05   -4.601829036715273e-06   6.691041011480786e-06
3.1836892219526496e-05   -5.48833278988603e-06   1.9637279579305428e-05
3.1836892219526496e-05   -5.48833278988603e-06   1.9637279579305428e-05
3.1836892219526496e-05   -5.48833278988603e-06   1.9637279579305428e-05
3.1836892219526496e-05   -5.48833278988603e-06   1.9637279579305428e-05
1.5508902677197748e-05   -4.1728274529316805e-06   -6.786733122403224e-06
1.5508902677197748e-05   -4.1728274529316805e-06   -6.786733122403224e-06
1.5508902677197748e-05   -4.1728274529316805e-06   -6.786733122403224e-06
1.5508902677197748e-05   -4.1728274529316805e-06   -6.786733122403224e-06
1.482489608643443e-05   -5.449728460631478e-06   1.7111857806012738e-05
1.482489608643443e-05   -5.449728460631478e-06   1.7111857806012738e-05
1.482489608643443e-05   -5.449728460631478e-06   1.7111857806012738e-05
1.482489608643443e-05   -5.449728460631478e-06   1.7111857806012738e-05
3.062997385442957e-05   -4.21491256749249e-06   -9.970828009862463e-06
3.062997385442957e-05   -4.21491256749249e-06   -9.970828009862463e-06
3.062997385442957e-05   -4.21491256749249e-06   -9.970828009862463e-06
3.062997385442957e-05   -4.21491256749249e-06   -9.970828009862463e-06
2.2232636777137753e-05   -4.522833836772058e-06   4.209486547192035e-06
2.2232636777137753e-05   -4.522833836772058e-06   4.209486547192035e-06
2.2232636777137753e-05   -4.522833836772058e-06   4.209486547192035e-06
2.2232636777137753e-05   -4.522833836772058e-06   4.209486547192035e-06
1.685911451476146e-05   -1.676026772287936e-06   2.7470289321723622e-05
1.685911451476146e-05   -1.676026772287936e-06   2.7470289321723622e-05
1.685911451476146e-05   -1.676026772287936e-06   2.7470289321723622e-05
1.685911451476146e-05   -1.676026772287936e-06   2.7470289321723622e-05
6.96710297297157e-07   -6.712170489190337e-07   1.1358347933043429e-06
6.96710297297157e-07   -6.712170489190337e-07   1.1358347933043429e-06
6.96710297297157e-07   -6.712170489190337e-07   1.1358347933043429e-06
6.96710297297157e-07   -6.712170489190337e-07   1.1358347933043429e-06
8.254798075676257e-08   -2.0146416287833598e-06   2.7751995944404976e-05
8.254798075676257e-08   -2.0146416287833598e-06   2.7751995944404976e-05
8.254798075676257e-08   -2.0146416287833598e-06   2.7751995944404976e-05
8.254798075676257e-08   -2.0146416287833598e-06   2.7751995944404976e-05
1.6219732310454564e-05   -1.0662737831388259e-06   2.8766802085528585e-07
1.6219732310454564e-05   -1.0662737831388259e-06   2.8766802085528585e-07
1.6219732310454564e-05   -1.0662737831388259e-06   2.8766802085528585e-07
1.6219732310454564e-05   -1.0662737831388259e-06   2.8766802085528585e-07
8.361610568526389e-06   -1.307187905988166e-06   1.3529086064445066e-05
8.361610568526389e-06   -1.307187905988166e-06   1.3529086064445066e-05
8.361610568526389e-06   -1.307187905988166e-06   1.3529086064445066e-05
8.361610568526389e-06   -1.307187905988166e-06   1.3529086064445066e-05
1.6219732310454547e-05   -2.0146416287834563e-06   2.7182975237018147e-05
1.6219732310454547e-05   -2.0146416287834563e-06   2.7182975237018147e-05
1.6219732310454547e-05   -2.0146416287834563e-06   2.7182975237018147e-05
1.6219732310454547e-05   -2.0146416287834563e-06   2.7182975237018147e-05
8.254798075676257e-08   -1.0662737831388259e-06   8.566887282420062e-07
8.254798075676257e-08   -1.0662737831388259e-06   8.566887282420062e-07
8.254798075676257e-08   -1.0662737831388259e-06   8.566887282420062e-07
8.254798075676257e-08   -1.0662737831388259e-06   8.566887282420062e-07
-5.558623810846989e-07   -2.2355002593935427e-06   2.732912431842858e-05
-5.558623810846989e-07   -2.2355002593935427e-06   2.732912431842858e-05
-5.558623810846989e-07   -2.2355002593935427e-06   2.732912431842858e-05
-5.558623810846989e-07   -2.2355002593935427e-06   2.732912431842858e-05
1.5508902677197748e-05   -1.3587868969531115e-06   2.848787049362461e-08
1.5508902677197748e-05   -1.3587868969531115e-06   2.848787049362461e-08
1.5508902677197748e-05   -1.3587868969531115e-06   2.848787049362461e-08
1.5508902677197748e-05   -1.3587868969531115e-06   2.848787049362461e-08
7.65569981883146e-06   -1.5137379710979375e-06   1.32101299455914e-05
7.65569981883146e-06   -1.5137379710979375e-06   1.32101299455914e-05
7.65569981883146e-06   -1.5137379710979375e-06   1.32101299455914e-05
7.65569981883146e-06   -1.5137379710979375e-06   1.32101299455914e-05
1.5508902677197748e-05   -2.235500259393632e-06   2.680309630096443e-05
1.5508902677197748e-05   -2.235500259393632e-06   2.680309630096443e-05
1.5508902677197748e-05   -2.235500259393632e-06   2.680309630096443e-05
1.5508902677197748e-05   -2.235500259393632e-06   2.680309630096443e-05
-5.558623810846989e-07   -1.3587868969531115e-06   5.545158879580528e-07
-5.558623810846989e-07   -1.3587868969531115e-06   5.545158879580528e-07
-5.558623810846989e-07   -1.3587868969531115e-06   5.545158879580528e-07
-5.558623810846989e-07   -1.3587868969531115e-06   5.545158879580528e-07
-1.2205028140843465e-06   -2.3283923983386575e-06   2.7534044501307435e-05
-1.2205028140843465e-06   -2.3283923983386575e-06   2.7534044501307435e-05
-1.2205028140843465e-06   -2.3283923983386575e-06   2.7534044501307435e-05
-1.2205028140843465e-06   -2.3283923983386575e-06   2.7534044501307435e-05
1.4824896086434467e-05   -1.5883892027282725e-06   3.47711083076375e-07
1.4824896086434467e-05   -1.5883892027282725e-06   3.47711083076375e-07
1.4824896086434467e-05   -1.5883892027282725e-06   3.47711083076375e-07
1.4824896086434467e-05   -1.5883892027282725e-06   3.47711083076375e-07
7.126443933246558e-06   -1.6235006110513865e-06   1.3199531516717324e-05
7.126443933246558e-06   -1.6235006110513865e-06   1.3199531516717324e-05
7.126443933246558e-06   -1.6235006110513865e-06   1.3199531516717324e-05
7.126443933246558e-06   -1.6235006110513865e-06   1.3199531516717324e-05
6.967102972971434e-07   1.4999386376639556e-06   2.834949155056674e-05
6.967102972971434e-07   1.4999386376639556e-06   2.834949155056674e-05
6.967102972971434e-07   1.4999386376639556e-06   2.834949155056674e-05
6.967102972971434e-07   1.4999386376639556e-06   2.834949155056674e-05
-1.499621380933084e-05   2.1695068683632527e-06   2.596358977939605e-06
-1.499621380933084e-05   2.1695068683632527e-06   2.596358977939605e-06
-1.499621380933084e-05   2.1695068683632527e-06   2.596358977939605e-06
-1.499621380933084e-05   2.1695068683632527e-06   2.596358977939605e-06
-1.5638137718678463e-05   1.2423618678627547e-06   2.8736973453683022e-05
-1.5638137718678463e-05   1.2423618678627547e-06   2.8736973453683022e-05
-1.5638137718678463e-05   1.2423618678627547e-06   2.8736973453683022e-05
-1.5638137718678463e-05   1.2423618678627547e-06   2.8736973453683022e-05
8.25479807567634e-08   1.8418722504093092e-06   2.1761243917632752e-06
8.25479807567634e-08   1.8418722504093092e-06   2.1761243917632752e-06
8.25479807567634e-08   1.8418722504093092e-06   2.1761243917632752e-06
8.25479807567634e-08   1.8418722504093092e-06   2.1761243917632752e-06
-7.475247924444866e-06   1.7066468768998921e-06   1.4853586124538256e-05
-7.475247924444866e-06   1.7066468768998921e-06   1.4853586124538256e-05
-7.475247924444866e-06   1.7066468768998921e-06   1.4853586124538256e-05
-7.475247924444866e-06   1.7066468768998921e-06   1.4853586124538256e-05
8.254798075676257e-08   1.2423618678628253e-06   2.837726722415524e-05
8.254798075676257e-08   1.2423618678628253e-06   2.837726722415524e-05
8.254798075676257e-08   1.2423618678628253e-06   2.837726722415524e-05
8.254798075676257e-08   1.2423618678628253e-06   2.837726722415524e-05
-1.5638137718678463e-05   1.8418722504093092e-06   2.535830621291056e-06
-1.5638137718678463e-05   1.8418722504093092e-06   2.535830621291056e-06
-1.5638137718678463e-05   1.8418722504093092e-06   2.535830621291056e-06
-1.5638137718678463e-05   1.8418722504093092e-06   2.535830621291056e-06
-1.631569942601813e-05   1.002600362135387e-06   2.9005229767343306e-05
-1.631569942601813e-05   1.002600362135387e-06   2.9005229767343306e-05
-1.631569942601813e-05   1.002600362135387e-06   2.9005229767343306e-05
-1.631569942601813e-05   1.002600362135387e-06   2.9005229767343306e-05
-5.558623810846946e-07   1.5237891474691786e-06   2.4261214212539448e-06
-5.558623810846946e-07   1.5237891474691786e-06   2.4261214212539448e-06
-5.558623810846946e-07   1.5237891474691786e-06   2.4261214212539448e-06
-5.558623810846946e-07   1.5237891474691786e-06   2.4261214212539448e-06
-8.07137459909495e-06   1.5202245578344303e-06   1.495411387171866e-05
-8.07137459909495e-06   1.5202245578344303e-06   1.495411387171866e-05
-8.07137459909495e-06   1.5202245578344303e-06   1.495411387171866e-05
-8.07137459909495e-06   1.5202245578344303e-06   1.495411387171866e-05
-5.558623810846989e-07   1.002600362135346e-06   2.869251649614314e-05
-5.558623810846989e-07   1.002600362135346e-06   2.869251649614314e-05
-5.558623810846989e-07   1.002600362135346e-06   2.869251649614314e-05
-5.558623810846989e-07   1.002600362135346e-06   2.869251649614314e-05
-1.631569942601813e-05   1.5237891474691786e-06   2.7388346924542197e-06
-1.631569942601813e-05   1.5237891474691786e-06   2.7388346924542197e-06
-1.631569942601813e-05   1.5237891474691786e-06   2.7388346924542197e-06
-1.631569942601813e-05   1.5237891474691786e-06   2.7388346924542197e-06
-1.701471897205829e-05   8.302973077938935e-07   2.9432149475668197e-05
-1.701471897205829e-05   8.302973077938935e-07   2.9432149475668197e-05
-1.701471897205829e-05   8.302973077938935e-07   2.9432149475668197e-05
-1.701471897205829e-05   8.302973077938935e-07   2.9432149475668197e-05
-1.2205028140843529e-06   1.2407264669339266e-06   2.8621983835609222e-06
-1.2205028140843529e-06   1.2407264669339266e-06   2.8621983835609222e-06
-1.2205028140843529e-06   1.2407264669339266e-06   2.8621983835609222e-06
-1.2205028140843529e-06   1.2407264669339266e-06   2.8621983835609222e-06
-8.716510084532908e-06   1.3417524511291547e-06   1.5294928243791977e-05
-8.716510084532908e-06   1.3417524511291547e-06   1.5294928243791977e-05
-8.716510084532908e-06   1.3417524511291547e-06   1.5294928243791977e-05
-8.716510084532908e-06   1.3417524511291547e-06   1.5294928243791977e-05
-1.4996213809330894e-05   4.872769751228978e-06   2.4749665402647278e-05
-1.4996213809330894e-05   4.872769751228978e-06   2.4749665402647278e-05
-1.4996213809330894e-05   4.872769751228978e-06   2.4749665402647278e-05
-1.4996213809330894e-05   4.872769751228978e-06   2.4749665402647278e-05
-3.0206128134186165e-05   4.934706635019437e-06   -5.630296751704981e-07
-3.0206128134186165e-05   4.934706635019437e-06   -5.630296751704981e-07
-3.0206128134186165e-05   4.934706635019437e-06   -5.630296751704981e-07
-3.0206128134186165e-05   4.934706635019437e-06   -5.630296751704981e-07
-3.095121481127804e-05   4.615431237283861e-06   2.518257757511133e-05
-3.095121481127804e-05   4.615431237283861e-06   2.518257757511133e-05
-3.095121481127804e-05   4.615431237283861e-06   2.518257757511133e-05
-3.095121481127804e-05   4.615431237283861e-06   2.518257757511133e-05
-1.563813771867849e-05   4.622816941987065e-06   -3.4364900204330293e-07
-1.563813771867849e-05   4.622816941987065e-06   -3.4364900204330293e-07
-1.563813771867849e-05   4.622816941987065e-06   -3.4364900204330293e-07
-1.563813771867849e-05   4.622816941987065e-06   -3.4364900204330293e-07
-2.2845426588575054e-05   4.748505855394847e-06   1.1593085766406491e-05
-2.2845426588575054e-05   4.748505855394847e-06   1.1593085766406491e-05
-2.2845426588575054e-05   4.748505855394847e-06   1.1593085766406491e-05
-2.2845426588575054e-05   4.748505855394847e-06   1.1593085766406491e-05
-1.563813771867849e-05   4.615431237283844e-06   2.517814615228943e-05
-1.563813771867849e-05   4.615431237283844e-06   2.517814615228943e-05
-1.563813771867849e-05   4.615431237283844e-06   2.517814615228943e-05
-1.563813771867849e-05   4.615431237283844e-06   2.517814615228943e-05
-3.095121481127799e-05   4.622816941987282e-06   -3.392175792212666e-07
-3.095121481127799e-05   4.622816941987282e-06   -3.392175792212666e-07
-3.095121481127799e-05   4.622816941987282e-06   -3.392175792212666e-07
-3.095121481127799e-05   4.622816941987282e-06   -3.392175792212666e-07
-3.177646136726223e-05   4.376618208585181e-06   2.6353444290650287e-05
-3.177646136726223e-05   4.376618208585181e-06   2.6353444290650287e-05
-3.177646136726223e-05   4.376618208585181e-06   2.6353444290650287e-05
-3.177646136726223e-05   4.376618208585181e-06   2.6353444290650287e-05
-1.631569942601816e-05   4.3344496652314175e-06   6.10808847922433e-07
-1.631569942601816e-05   4.3344496652314175e-06   6.10808847922433e-07
-1.631569942601816e-05   4.3344496652314175e-06   6.10808847922433e-07
-1.631569942601816e-05   4.3344496652314175e-06   6.10808847922433e-07
-2.3382395534220737e-05   4.572928702819721e-06   1.2245548272373766e-05
-2.3382395534220737e-05   4.572928702819721e-06   1.2245548272373766e-05
-2.3382395534220737e-05   4.572928702819721e-06   1.2245548272373766e-05
-2.3382395534220737e-05   4.572928702819721e-06   1.2245548272373766e-05
-1.6315699426018156e-05   4.376618208585107e-06   2.637874541666261e-05
-1.6315699426018156e-05   4.376618208585107e-06   2.637874541666261e-05
-1.6315699426018156e-05   4.376618208585107e-06   2.637874541666261e-05
-1.6315699426018156e-05   4.376618208585107e-06   2.637874541666261e-05
-3.177646136726223e-05   4.3344496652314175e-06   5.855077219099744e-07
-3.177646136726223e-05   4.3344496652314175e-06   5.855077219099744e-07
-3.177646136726223e-05   4.3344496652314175e-06   5.855077219099744e-07
-3.177646136726223e-05   4.3344496652314175e-06   5.855077219099744e-07
-3.256263167943435e-05   4.054651241827039e-06   2.7194849862475882e-05
-3.256263167943435e-05   4.054651241827039e-06   2.7194849862475882e-05
-3.256263167943435e-05   4.054651241827039e-06   2.7194849862475882e-05
-3.256263167943435e-05   4.054651241827039e-06   2.7194849862475882e-05
-1.7014718972058318e-05   3.98152386506213e-06   1.3255384429081444e-06
-1.7014718972058318e-05   3.98152386506213e-06   1.3255384429081444e-06
-1.7014718972058318e-05   3.98152386506213e-06   1.3255384429081444e-06
-1.7014718972058318e-05   3.98152386506213e-06   1.3255384429081444e-06
-2.4240466611623395e-05   4.343780260321166e-06   1.3151097338361746e-05
-2.4240466611623395e-05   4.343780260321166e-06   1.3151097338361746e-05
-2.4240466611623395e-05   4.343780260321166e-06   1.3151097338361746e-05
-2.4240466611623395e-05   4.343780260321166e-06   1.3151097338361746e-05
-3.020612813418611e-05   7.924741303708279e-06   1.1908294639453062e-05
-3.020612813418611e-05   7.924741303708279e-06   1.1908294639453062e-05
-3.020612813418611e-05   7.924741303708279e-06   1.1908294639453062e-05
-3.020612813418611e-05   7.924741303708279e-06   1.1908294639453062e-05
-4.4678480134811475e-05   7.1143004061824736e-06   -1.2698556566771409e-05
-4.4678480134811475e-05   7.1143004061824736e-06   -1.2698556566771409e-05
-4.4678480134811475e-05   7.1143004061824736e-06   -1.2698556566771409e-05
-4.4678480134811475e-05   7.1143004061824736e-06   -1.2698556566771409e-05
-4.585205701122669e-05   8.0808756308926e-06   1.654251129585638e-05
-4.585205701122669e-05   8.0808756308926e-06   1.654251129585638e-05
-4.585205701122669e-05   8.0808756308926e-06   1.654251129585638e-05
-4.585205701122669e-05   8.0808756308926e-06   1.654251129585638e-05
-3.0951214811278055e-05   7.192809944153895e-06   -7.7593862920149e-06
-3.0951214811278055e-05   7.192809944153895e-06   -7.7593862920149e-06
-3.0951214811278055e-05   7.192809944153895e-06   -7.7593862920149e-06
-3.0951214811278055e-05   7.192809944153895e-06   -7.7593862920149e-06
-3.64694130431e-05   7.532212543174448e-06   1.2339692016094376e-06
-3.64694130431e-05   7.532212543174448e-06   1.2339692016094376e-06
-3.64694130431e-05   7.532212543174448e-06   1.2339692016094376e-06
-3.64694130431e-05   7.532212543174448e-06   1.2339692016094376e-06
-3.095121481127796e-05   8.08087563089268e-06   1.7075350707899646e-05
-3.095121481127796e-05   8.08087563089268e-06   1.7075350707899646e-05
-3.095121481127796e-05   8.08087563089268e-06   1.7075350707899646e-05
-3.095121481127796e-05   8.08087563089268e-06   1.7075350707899646e-05
-4.5852057011226775e-05   7.1928099441536785e-06   -8.292225704058221e-06
-4.5852057011226775e-05   7.1928099441536785e-06   -8.292225704058221e-06
-4.5852057011226775e-05   7.1928099441536785e-06   -8.292225704058221e-06
-4.5852057011226775e-05   7.1928099441536785e-06   -8.292225704058221e-06
-4.6997183090243607e-05   8.024008501547044e-06   2.0141598136976142e-05
-4.6997183090243607e-05   8.024008501547044e-06   2.0141598136976142e-05
-4.6997183090243607e-05   8.024008501547044e-06   2.0141598136976142e-05
-4.6997183090243607e-05   8.024008501547044e-06   2.0141598136976142e-05
-3.177646136726224e-05   7.114499727112027e-06   -4.680566136665396e-06
-3.177646136726224e-05   7.114499727112027e-06   -4.680566136665396e-06
-3.177646136726224e-05   7.114499727112027e-06   -4.680566136665396e-06
-3.177646136726224e-05   7.114499727112027e-06   -4.680566136665396e-06
-3.791696914855147e-05   7.670898806535695e-06   5.2197740511632186e-06
-3.791696914855147e-05   7.670898806535695e-06   5.2197740511632186e-06
-3.791696914855147e-05   7.670898806535695e-06   5.2197740511632186e-06
-3.791696914855147e-05   7.670898806535695e-06   5.2197740511632186e-06
-3.177646136726223e-05   8.024008501547073e-06   2.0687303401637283e-05
-3.177646136726223e-05   8.024008501547073e-06   2.0687303401637283e-05
-3.177646136726223e-05   8.024008501547073e-06   2.0687303401637283e-05
-3.177646136726223e-05   8.024008501547073e-06   2.0687303401637283e-05
-4.6997183090243796e-05   7.114499727112027e-06   -5.22627140132632e-06
-4.6997183090243796e-05   7.114499727112027e-06   -5.22627140132632e-06
-4.6997183090243796e-05   7.114499727112027e-06   -5.22627140132632e-06
-4.6997183090243796e-05   7.114499727112027e-06   -5.22627140132632e-06
-4.8333735975337924e-05   7.3907552009134375e-06   2.630236878656462e-05
-4.8333735975337924e-05   7.3907552009134375e-06   2.630236878656462e-05
-4.8333735975337924e-05   7.3907552009134375e-06   2.630236878656462e-05
-4.8333735975337924e-05   7.3907552009134375e-06   2.630236878656462e-05
-3.256263167943433e-05   6.5680885757276805e-06   5.107949351697803e-07
-3.256263167943433e-05   6.5680885757276805e-06   5.107949351697803e-07
-3.256263167943433e-05   6.5680885757276805e-06   5.107949351697803e-07
-3.256263167943433e-05   6.5680885757276805e-06   5.107949351697803e-07
-3.827622179373328e-05   7.445278345429409e-06   9.507131263847301e-06
-3.827622179373328e-05   7.445278345429409e-06   9.507131263847301e-06
-3.827622179373328e-05   7.445278345429409e-06   9.507131263847301e-06
-3.827622179373328e-05   7.445278345429409e-06   9.507131263847301e-06
2.594366048975539e-05   -3.5030811019619354e-06   2.1953637047383173e-05
2.594366048975539e-05   -3.5030811019619354e-06   2.1953637047383173e-05
2.594366048975539e-05   -3.5030811019619354e-06   2.1953637047383173e-05
2.594366048975539e-05   -3.5030811019619354e-06   2.1953637047383173e-05
1.2207002695400486e-05   -2.3242496775318505e-06   -2.3349375521703342e-07
1.2207002695400486e-05   -2.3242496775318505e-06   -2.3349375521703342e-07
1.2207002695400486e-05   -2.3242496775318505e-06   -2.3349375521703342e-07
1.2207002695400486e-05   -2.3242496775318505e-06   -2.3349375521703342e-07
1.1635324704420249e-05   -4.061277867085109e-06   1.92819465231949e-05
1.1635324704420249e-05   -4.061277867085109e-06   1.92819465231949e-05
1.1635324704420249e-05   -4.061277867085109e-06   1.92819465231949e-05
1.1635324704420249e-05   -4.061277867085109e-06   1.92819465231949e-05
2.4837077002743736e-05   -2.8176882880086296e-06   -3.4671277214566468e-06
2.4837077002743736e-05   -2.8176882880086296e-06   -3.4671277214566468e-06
2.4837077002743736e-05   -2.8176882880086296e-06   -3.4671277214566468e-06
2.4837077002743736e-05   -2.8176882880086296e-06   -3.4671277214566468e-06
1.7778448149654117e-05   -3.2001314562535126e-06   8.526719601306195e-06
1.7778448149654117e-05   -3.2001314562535126e-06   8.526719601306195e-06
1.7778448149654117e-05   -3.2001314562535126e-06   8.526719601306195e-06
1.7778448149654117e-05   -3.2001314562535126e-06   8.526719601306195e-06
2.4837077002743692e-05   -4.061277867085086e-06   1.85357927757491e-05
2.4837077002743692e-05   -4.061277867085086e-06   1.85357927757491e-05
2.4837077002743692e-05   -4.061277867085086e-06   1.85357927757491e-05
2.4837077002743692e-05   -4.061277867085086e-06   1.85357927757491e-05
1.1635324704420272e-05   -2.8176882880086296e-06   -2.720973974010819e-06
1.1635324704420272e-05   -2.8176882880086296e-06   -2.720973974010819e-06
1.1635324704420272e-05   -2.8176882880086296e-06   -2.720973974010819e-06
1.1635324704420272e-05   -2.8176882880086296e-06   -2.720973974010819e-06
1.1003846122688281e-05   -4.1728274529316805e-06   1.740477432589946e-05
1.1003846122688281e-05   -4.1728274529316805e-06   1.740477432589946e-05
1.1003846122688281e-05   -4.1728274529316805e-06   1.740477432589946e-05
1.1003846122688281e-05   -4.1728274529316805e-06   1.740477432589946e-05
2.3866657332117565e-05   -2.949016084879876e-06   -4.767531177313726e-06
2.3866657332117565e-05   -2.949016084879876e-06   -4.767531177313726e-06
2.3866657332117565e-05   -2.949016084879876e-06   -4.767531177313726e-06
2.3866657332117565e-05   -2.949016084879876e-06   -4.767531177313726e-06
1.732323568578007e-05   -3.400607265616022e-06   6.409126275024143e-06
1.732323568578007e-05   -3.400607265616022e-06   6.409126275024143e-06
1.732323568578007e-05   -3.400607265616022e-06   6.409126275024143e-06
1.732323568578007e-05   -3.400607265616022e-06   6.409126275024143e-06
2.3866657332117528e-05   -4.172827452931617e-06   1.667048750506842e-05
2.3866657332117528e-05   -4.172827452931617e-06   1.667048750506842e-05
2.3866657332117528e-05   -4.172827452931617e-06   1.667048750506842e-05
2.3866657332117528e-05   -4.172827452931617e-06   1.667048750506842e-05
1.1003846122688298e-05   -2.949016084879876e-06   -4.033244356482606e-06
1.1003846122688298e-05   -2.949016084879876e-06   -4.033244356482606e-06
1.1003846122688298e-05   -2.949016084879876e-06   -4.033244356482606e-06
1.1003846122688298e-05   -2.949016084879876e-06   -4.033244356482606e-06
1.0420486904203736e-05   -4.21491256749249e-06   1.4857811782880564e-05
1.0420486904203736e-05   -4.21491256749249e-06   1.4857811782880564e-05
1.0420486904203736e-05   -4.21491256749249e-06   1.4857811782880564e-05
1.0420486904203736e-05   -4.21491256749249e-06   1.4857811782880564e-05
2.2781511568505843e-05   -3.0694586017391244e-06   -6.4311683704083814e-06
2.2781511568505843e-05   -3.0694586017391244e-06   -6.4311683704083814e-06
2.2781511568505843e-05   -3.0694586017391244e-06   -6.4311683704083814e-06
2.2781511568505843e-05   -3.0694586017391244e-06   -6.4311683704083814e-06
1.630677062948477e-05   -3.3799845323800697e-06   4.546382086344709e-06
1.630677062948477e-05   -3.3799845323800697e-06   4.546382086344709e-06
1.630677062948477e-05   -3.3799845323800697e-06   4.546382086344709e-06
1.630677062948477e-05   -3.3799845323800697e-06   4.546382086344709e-06
1.2207002695400439e-05   -6.71217048919161e-07   2.4904043298690118e-05
1.2207002695400439e-05   -6.71217048919161e-07   2.4904043298690118e-05
1.2207002695400439e-05   -6.71217048919161e-07   2.4904043298690118e-05
1.2207002695400439e-05   -6.71217048919161e-07   2.4904043298690118e-05
-7.912379610838343e-07   -1.6712183118069643e-08   3.6330117906968476e-06
-7.912379610838343e-07   -1.6712183118069643e-08   3.6330117906968476e-06
-7.912379610838343e-07   -1.6712183118069643e-08   3.6330117906968476e-06
-7.912379610838343e-07   -1.6712183118069643e-08   3.6330117906968476e-06
-1.3289663871281557e-06   -1.0662737831388259e-06   2.4945897697558283e-05
-1.3289663871281557e-06   -1.0662737831388259e-06   2.4945897697558283e-05
-1.3289663871281557e-06   -1.0662737831388259e-06   2.4945897697558283e-05
-1.3289663871281557e-06   -1.0662737831388259e-06   2.4945897697558283e-05
1.163532470442027e-05   -4.450547763054126e-07   2.966014474210789e-06
1.163532470442027e-05   -4.450547763054126e-07   2.966014474210789e-06
1.163532470442027e-05   -4.450547763054126e-07   2.966014474210789e-06
1.163532470442027e-05   -4.450547763054126e-07   2.966014474210789e-06
5.342407418786694e-06   -5.655035965571476e-07   1.3526479242417742e-05
5.342407418786694e-06   -5.655035965571476e-07   1.3526479242417742e-05
5.342407418786694e-06   -5.655035965571476e-07   1.3526479242417742e-05
5.342407418786694e-06   -5.655035965571476e-07   1.3526479242417742e-05
1.1635324704420218e-05   -1.0662737831387107e-06   2.4573166293458126e-05
1.1635324704420218e-05   -1.0662737831387107e-06   2.4573166293458126e-05
1.1635324704420218e-05   -1.0662737831387107e-06   2.4573166293458126e-05
1.1635324704420218e-05   -1.0662737831387107e-06   2.4573166293458126e-05
-1.3289663871281557e-06   -4.4505477630519576e-07   3.338745878310803e-06
-1.3289663871281557e-06   -4.4505477630519576e-07   3.338745878310803e-06
-1.3289663871281557e-06   -4.4505477630519576e-07   3.338745878310803e-06
-1.3289663871281557e-06   -4.4505477630519576e-07   3.338745878310803e-06
-1.878246527284587e-06   -1.3587868969531115e-06   2.4566140219439204e-05
-1.878246527284587e-06   -1.3587868969531115e-06   2.4566140219439204e-05
-1.878246527284587e-06   -1.3587868969531115e-06   2.4566140219439204e-05
-1.878246527284587e-06   -1.3587868969531115e-06   2.4566140219439204e-05
1.1003846122688298e-05   -7.818787292148723e-07   2.7498409021749088e-06
1.1003846122688298e-05   -7.818787292148723e-07   2.7498409021749088e-06
1.1003846122688298e-05   -7.818787292148723e-07   2.7498409021749088e-06
1.1003846122688298e-05   -7.818787292148723e-07   2.7498409021749088e-06
4.738513578422058e-06   -8.294256513227162e-07   1.3220589962550748e-05
4.738513578422058e-06   -8.294256513227162e-07   1.3220589962550748e-05
4.738513578422058e-06   -8.294256513227162e-07   1.3220589962550748e-05
4.738513578422058e-06   -8.294256513227162e-07   1.3220589962550748e-05
1.1003846122688281e-05   -1.358786896953004e-06   2.421999531879626e-05
1.1003846122688281e-05   -1.358786896953004e-06   2.421999531879626e-05
1.1003846122688281e-05   -1.358786896953004e-06   2.421999531879626e-05
1.1003846122688281e-05   -1.358786896953004e-06   2.421999531879626e-05
-1.878246527284587e-06   -7.818787292148723e-07   3.095985802817683e-06
-1.878246527284587e-06   -7.818787292148723e-07   3.095985802817683e-06
-1.878246527284587e-06   -7.818787292148723e-07   3.095985802817683e-06
-1.878246527284587e-06   -7.818787292148723e-07   3.095985802817683e-06
-2.4305745187194657e-06   -1.5883892027282725e-06   2.4732805947472788e-05
-2.4305745187194657e-06   -1.5883892027282725e-06   2.4732805947472788e-05
-2.4305745187194657e-06   -1.5883892027282725e-06   2.4732805947472788e-05
-2.4305745187194657e-06   -1.5883892027282725e-06   2.4732805947472788e-05
1.0420486904203742e-05   -1.092814856833331e-06   3.017025635063952e-06
1.0420486904203742e-05   -1.092814856833331e-06   3.017025635063952e-06
1.0420486904203742e-05   -1.092814856833331e-06   3.017025635063952e-06
1.0420486904203742e-05   -1.092814856833331e-06   3.017025635063952e-06
4.278562882556079e-06   -1.0238210830873246e-06   1.3212169406895624e-05
4.278562882556079e-06   -1.0238210830873246e-06   1.3212169406895624e-05
4.278562882556079e-06   -1.0238210830873246e-06   1.3212169406895624e-05
4.278562882556079e-06   -1.0238210830873246e-06   1.3212169406895624e-05
-7.912379610838479e-07   2.1695068683631684e-06   2.6355529464386655e-05
-7.912379610838479e-07   2.1695068683631684e-06   2.6355529464386655e-05
-7.912379610838479e-07   2.1695068683631684e-06   2.6355529464386655e-05
-7.912379610838479e-07   2.1695068683631684e-06   2.6355529464386655e-05
-1.3516660691341586e-05   2.2349034937124007e-06   5.185729555833062e-06
-1.3516660691341586e-05   2.2349034937124007e-06   5.185729555833062e-06
-1.3516660691341586e-05   2.2349034937124007e-06   5.185729555833062e-06
-1.3516660691341586e-05   2.2349034937124007e-06   5.185729555833062e-06
-1.4057558035689737e-05   1.8418722504093092e-06   2.6275873652689772e-05
-1.4057558035689737e-05   1.8418722504093092e-06   2.6275873652689772e-05
-1.4057558035689737e-05   1.8418722504093092e-06   2.6275873652689772e-05
-1.4057558035689737e-05   1.8418722504093092e-06   2.6275873652689772e-05
-1.3289663871281578e-06   1.8594394030930095e-06   5.051013946810208e-06
-1.3289663871281578e-06   1.8594394030930095e-06   5.051013946810208e-06
-1.3289663871281578e-06   1.8594394030930095e-06   5.051013946810208e-06
-1.3289663871281578e-06   1.8594394030930095e-06   5.051013946810208e-06
-7.442813008544607e-06   1.9904625222994313e-06   1.5162144444313649e-05
-7.442813008544607e-06   1.9904625222994313e-06   1.5162144444313649e-05
-7.442813008544607e-06   1.9904625222994313e-06   1.5162144444313649e-05
-7.442813008544607e-06   1.9904625222994313e-06   1.5162144444313649e-05
-1.3289663871281557e-06   1.8418722504093003e-06   2.626533336107966e-05
-1.3289663871281557e-06   1.8418722504093003e-06   2.626533336107966e-05
-1.3289663871281557e-06   1.8418722504093003e-06   2.626533336107966e-05
-1.3289663871281557e-06   1.8418722504093003e-06   2.626533336107966e-05
-1.4057558035689737e-05   1.8594394030927927e-06   5.061554238420347e-06
-1.4057558035689737e-05   1.8594394030927927e-06   5.061554238420347e-06
-1.4057558035689737e-05   1.8594394030927927e-06   5.061554238420347e-06
-1.4057558035689737e-05   1.8594394030927927e-06   5.061554238420347e-06
-1.4611813493268854e-05   1.5237891474691786e-06   2.641745848896873e-05
-1.4611813493268854e-05   1.5237891474691786e-06   2.641745848896873e-05
-1.4611813493268854e-05   1.5237891474691786e-06   2.641745848896873e-05
-1.4611813493268854e-05   1.5237891474691786e-06   2.641745848896873e-05
-1.8782465272845842e-06   1.4899770411915762e-06   5.215134142761362e-06
-1.8782465272845842e-06   1.4899770411915762e-06   5.215134142761362e-06
-1.8782465272845842e-06   1.4899770411915762e-06   5.215134142761362e-06
-1.8782465272845842e-06   1.4899770411915762e-06   5.215134142761362e-06
-7.944764489411897e-06   1.7384198311069885e-06   1.5176931739024901e-05
-7.944764489411897e-06   1.7384198311069885e-06   1.5176931739024901e-05
-7.944764489411897e-06   1.7384198311069885e-06   1.5176931739024901e-05
-7.944764489411897e-06   1.7384198311069885e-06   1.5176931739024901e-05
-1.878246527284587e-06   1.5237891474692283e-06   2.6437745752735204e-05
-1.878246527284587e-06   1.5237891474692283e-06   2.6437745752735204e-05
-1.878246527284587e-06   1.5237891474692283e-06   2.6437745752735204e-05
-1.878246527284587e-06   1.5237891474692283e-06   2.6437745752735204e-05
-1.4611813493268909e-05   1.4899770411915762e-06   5.1948468789949145e-06
-1.4611813493268909e-05   1.4899770411915762e-06   5.1948468789949145e-06
-1.4611813493268909e-05   1.4899770411915762e-06   5.1948468789949145e-06
-1.4611813493268909e-05   1.4899770411915762e-06   5.1948468789949145e-06
-1.5165712026549274e-05   1.2407264669339266e-06   2.674253063654627e-05
-1.5165712026549274e-05   1.2407264669339266e-06   2.674253063654627e-05
-1.5165712026549274e-05   1.2407264669339266e-06   2.674253063654627e-05
-1.5165712026549274e-05   1.2407264669339266e-06   2.674253063654627e-05
-2.430574518719476e-06   1.1394586435259802e-06   5.578062150874758e-06
-2.430574518719476e-06   1.1394586435259802e-06   5.578062150874758e-06
-2.430574518719476e-06   1.1394586435259802e-06   5.578062150874758e-06
-2.430574518719476e-06   1.1394586435259802e-06   5.578062150874758e-06
-8.470388241398593e-06   1.4929367783821524e-06   1.543233147442634e-05
-8.470388241398593e-06   1.4929367783821524e-06   1.543233147442634e-05
-8.470388241398593e-06   1.4929367783821524e-06   1.543233147442634e-05
-8.470388241398593e-06   1.4929367783821524e-06   1.543233147442634e-05
-1.3516660691341545e-05   4.934706635019399e-06   2.3198216656211516e-05
-1.3516660691341545e-05   4.934706635019399e-06   2.3198216656211516e-05
-1.3516660691341545e-05   4.934706635019399e-06   2.3198216656211516e-05
-1.3516660691341545e-05   4.934706635019399e-06   2.3198216656211516e-05
-2.5968771802482377e-05   4.403001306562543e-06   2.1256749405693196e-06
-2.5968771802482377e-05   4.403001306562543e-06   2.1256749405693196e-06
-2.5968771802482377e-05   4.403001306562543e-06   2.1256749405693196e-06
-2.5968771802482377e-05   4.403001306562543e-06   2.1256749405693196e-06
-2.6551020591054127e-05   4.622816941987065e-06   2.3049227535346713e-05
-2.6551020591054127e-05   4.622816941987065e-06   2.3049227535346713e-05
-2.6551020591054127e-05   4.622816941987065e-06   2.3049227535346713e-05
-2.6551020591054127e-05   4.622816941987065e-06   2.3049227535346713e-05
-1.4057558035689754e-05   4.04420611863944e-06   2.5739564370815427e-06
-1.4057558035689754e-05   4.04420611863944e-06   2.5739564370815427e-06
-1.4057558035689754e-05   4.04420611863944e-06   2.5739564370815427e-06
-1.4057558035689754e-05   4.04420611863944e-06   2.5739564370815427e-06
-1.9957134303340583e-05   4.441531027068232e-06   1.216818860477566e-05
-1.9957134303340583e-05   4.441531027068232e-06   1.216818860477566e-05
-1.9957134303340583e-05   4.441531027068232e-06   1.216818860477566e-05
-1.9957134303340583e-05   4.441531027068232e-06   1.216818860477566e-05
-1.4057558035689737e-05   4.622816941987195e-06   2.339639402935544e-05
-1.4057558035689737e-05   4.622816941987195e-06   2.339639402935544e-05
-1.4057558035689737e-05   4.622816941987195e-06   2.339639402935544e-05
-1.4057558035689737e-05   4.622816941987195e-06   2.339639402935544e-05
-2.6551020591054073e-05   4.04420611863944e-06   2.226789943072789e-06
-2.6551020591054073e-05   4.04420611863944e-06   2.226789943072789e-06
-2.6551020591054073e-05   4.04420611863944e-06   2.226789943072789e-06
-2.6551020591054073e-05   4.04420611863944e-06   2.226789943072789e-06
-2.7191617351865976e-05   4.3344496652314175e-06   2.3914262543353474e-05
-2.7191617351865976e-05   4.3344496652314175e-06   2.3914262543353474e-05
-2.7191617351865976e-05   4.3344496652314175e-06   2.3914262543353474e-05
-2.7191617351865976e-05   4.3344496652314175e-06   2.3914262543353474e-05
-1.4611813493268917e-05   3.7091661634254276e-06   3.3230928801084795e-06
-1.4611813493268917e-05   3.7091661634254276e-06   3.3230928801084795e-06
-1.4611813493268917e-05   3.7091661634254276e-06   3.3230928801084795e-06
-1.4611813493268917e-05   3.7091661634254276e-06   3.3230928801084795e-06
-2.037352610935049e-05   4.212797108532141e-06   1.2623768673180924e-05
-2.037352610935049e-05   4.212797108532141e-06   1.2623768673180924e-05
-2.037352610935049e-05   4.212797108532141e-06   1.2623768673180924e-05
-2.037352610935049e-05   4.212797108532141e-06   1.2623768673180924e-05
-1.4611813493268909e-05   4.334449665231313e-06   2.4289432644437024e-05
-1.4611813493268909e-05   4.334449665231313e-06   2.4289432644437024e-05
-1.4611813493268909e-05   4.334449665231313e-06   2.4289432644437024e-05
-1.4611813493268909e-05   4.334449665231313e-06   2.4289432644437024e-05
-2.7191617351865976e-05   3.7091661634254276e-06   2.947922779024956e-06
-2.7191617351865976e-05   3.7091661634254276e-06   2.947922779024956e-06
-2.7191617351865976e-05   3.7091661634254276e-06   2.947922779024956e-06
-2.7191617351865976e-05   3.7091661634254276e-06   2.947922779024956e-06
-2.7776914283911464e-05   3.98152386506213e-06   2.4561701215603795e-05
-2.7776914283911464e-05   3.98152386506213e-06   2.4561701215603795e-05
-2.7776914283911464e-05   3.98152386506213e-06   2.4561701215603795e-05
-2.7776914283911464e-05   3.98152386506213e-06   2.4561701215603795e-05
-1.5165712026549291e-05   3.3183372237187685e-06   3.940942771472753e-06
-1.5165712026549291e-05   3.3183372237187685e-06   3.940942771472753e-06
-1.5165712026549291e-05   3.3183372237187685e-06   3.940942771472753e-06
-1.5165712026549291e-05   3.3183372237187685e-06   3.940942771472753e-06
-2.1039240330553262e-05   3.953978468794386e-06   1.3348771864434071e-05
-2.1039240330553262e-05   3.953978468794386e-06   1.3348771864434071e-05
-2.1039240330553262e-05   3.953978468794386e-06   1.3348771864434071e-05
-2.1039240330553262e-05   3.953978468794386e-06   1.3348771864434071e-05
-2.5968771802482377e-05   7.11430040618249e-06   1.1229931106052039e-05
-2.5968771802482377e-05   7.11430040618249e-06   1.1229931106052039e-05
-2.5968771802482377e-05   7.11430040618249e-06   1.1229931106052039e-05
-2.5968771802482377e-05   7.11430040618249e-06   1.1229931106052039e-05
-3.78110946736229e-05   6.077602889655032e-06   -9.12929218909879e-06
-3.78110946736229e-05   6.077602889655032e-06   -9.12929218909879e-06
-3.78110946736229e-05   6.077602889655032e-06   -9.12929218909879e-06
-3.78110946736229e-05   6.077602889655032e-06   -9.12929218909879e-06
-3.88583694812349e-05   7.1928099441536785e-06   1.49433839226722e-05
-3.88583694812349e-05   7.1928099441536785e-06   1.49433839226722e-05
-3.88583694812349e-05   7.1928099441536785e-06   1.49433839226722e-05
-3.88583694812349e-05   7.1928099441536785e-06   1.49433839226722e-05
-2.6551020591054124e-05   6.050018444352448e-06   -4.883189327748588e-06
-2.6551020591054124e-05   6.050018444352448e-06   -4.883189327748588e-06
-2.6551020591054124e-05   6.050018444352448e-06   -4.883189327748588e-06
-2.6551020591054124e-05   6.050018444352448e-06   -4.883189327748588e-06
-3.1068136211913935e-05   6.51078132806078e-06   2.3688789767929773e-06
-3.1068136211913935e-05   6.51078132806078e-06   2.3688789767929773e-06
-3.1068136211913935e-05   6.51078132806078e-06   2.3688789767929773e-06
-3.1068136211913935e-05   6.51078132806078e-06   2.3688789767929773e-06
-2.65510205910541e-05   7.192809944153817e-06   1.5629058822553025e-05
-2.65510205910541e-05   7.192809944153817e-06   1.5629058822553025e-05
-2.65510205910541e-05   7.192809944153817e-06   1.5629058822553025e-05
-2.65510205910541e-05   7.192809944153817e-06   1.5629058822553025e-05
-3.885836948123498e-05   6.050018444352448e-06   -5.568864227629251e-06
-3.885836948123498e-05   6.050018444352448e-06   -5.568864227629251e-06
-3.885836948123498e-05   6.050018444352448e-06   -5.568864227629251e-06
-3.885836948123498e-05   6.050018444352448e-06   -5.568864227629251e-06
-3.979524293233334e-05   7.1144997271122435e-06   1.793608662399018e-05
-3.979524293233334e-05   7.1144997271122435e-06   1.793608662399018e-05
-3.979524293233334e-05   7.1144997271122435e-06   1.793608662399018e-05
-3.979524293233334e-05   7.1144997271122435e-06   1.793608662399018e-05
-2.7191617351866016e-05   5.927662959132442e-06   -2.357853949334454e-06
-2.7191617351866016e-05   5.927662959132442e-06   -2.357853949334454e-06
-2.7191617351866016e-05   5.927662959132442e-06   -2.357853949334454e-06
-2.7191617351866016e-05   5.927662959132442e-06   -2.357853949334454e-06
-3.2275841721000786e-05   6.5837056682398806e-06   5.722227707093521e-06
-3.2275841721000786e-05   6.5837056682398806e-06   5.722227707093521e-06
-3.2275841721000786e-05   6.5837056682398806e-06   5.722227707093521e-06
-3.2275841721000786e-05   6.5837056682398806e-06   5.722227707093521e-06
-2.7191617351865976e-05   7.114499727112128e-06   1.8648188684777995e-05
-2.7191617351865976e-05   7.114499727112128e-06   1.8648188684777995e-05
-2.7191617351865976e-05   7.114499727112128e-06   1.8648188684777995e-05
-2.7191617351865976e-05   7.114499727112128e-06   1.8648188684777995e-05
-3.9795242932333396e-05   5.927662959132442e-06   -3.0699560101222156e-06
-3.9795242932333396e-05   5.927662959132442e-06   -3.0699560101222156e-06
-3.9795242932333396e-05   5.927662959132442e-06   -3.0699560101222156e-06
-3.9795242932333396e-05   5.927662959132442e-06   -3.0699560101222156e-06
-4.0870984688576344e-05   6.568088575727897e-06   2.308139571877599e-05
-4.0870984688576344e-05   6.568088575727897e-06   2.308139571877599e-05
-4.0870984688576344e-05   6.568088575727897e-06   2.308139571877599e-05
-4.0870984688576344e-05   6.568088575727897e-06   2.308139571877599e-05
-2.777691428391143e-05   5.3856912171474335e-06   1.9673834594826625e-06
-2.777691428391143e-05   5.3856912171474335e-06   1.9673834594826625e-06
-2.777691428391143e-05   5.3856912171474335e-06   1.9673834594826625e-06
-2.777691428391143e-05   5.3856912171474335e-06   1.9673834594826625e-06
-3.252761542911555e-05   6.358728926680228e-06   9.301396075769321e-06
-3.252761542911555e-05   6.358728926680228e-06   9.301396075769321e-06
-3.252761542911555e-05   6.358728926680228e-06   9.301396075769321e-06
-3.252761542911555e-05   6.358728926680228e-06   9.301396075769321e-06
1.7944603241234196e-05   -2.324249677532042e-06   1.7919804948587957e-05
1.7944603241234196e-05   -2.324249677532042e-06   1.7919804948587957e-05
1.7944603241234196e-05   -2.324249677532042e-06   1.7919804948587957e-05
1.7944603241234196e-05   -2.324249677532042e-06   1.7919804948587957e-05
7.4503211092444e-06   -1.1525962473972994e-06   1.1323267866858618e-06
7.4503211092444e-06   -1.1525962473972994e-06   1.1323267866858618e-06
7.4503211092444e-06   -1.1525962473972994e-06   1.1323267866858618e-06
7.4503211092444e-06   -1.1525962473972994e-06   1.1323267866858618e-06
6.989644670309933e-06   -2.8176882880086296e-06   1.6103372657358698e-05
6.989644670309933e-06   -2.8176882880086296e-06   1.6103372657358698e-05
6.989644670309933e-06   -2.8176882880086296e-06   1.6103372657358698e-05
6.989644670309933e-06   -2.8176882880086296e-06   1.6103372657358698e-05
1.6962868712030565e-05   -1.5950346485070054e-06   -1.2522595958766223e-06
1.6962868712030565e-05   -1.5950346485070054e-06   -1.2522595958766223e-06
1.6962868712030565e-05   -1.5950346485070054e-06   -1.2522595958766223e-06
1.6962868712030565e-05   -1.5950346485070054e-06   -1.2522595958766223e-06
1.1723532256354079e-05   -2.0191300604105976e-06   7.734425077393409e-06
1.1723532256354079e-05   -2.0191300604105976e-06   7.734425077393409e-06
1.1723532256354079e-05   -2.0191300604105976e-06   7.734425077393409e-06
1.1723532256354079e-05   -2.0191300604105976e-06   7.734425077393409e-06
1.6962868712030592e-05   -2.8176882880085457e-06   1.536978047365781e-05
1.6962868712030592e-05   -2.8176882880085457e-06   1.536978047365781e-05
1.6962868712030592e-05   -2.8176882880085457e-06   1.536978047365781e-05
1.6962868712030592e-05   -2.8176882880085457e-06   1.536978047365781e-05
6.989644670309906e-06   -1.5950346485070054e-06   -5.186674121756803e-07
6.989644670309906e-06   -1.5950346485070054e-06   -5.186674121756803e-07
6.989644670309906e-06   -1.5950346485070054e-06   -5.186674121756803e-07
6.989644670309906e-06   -1.5950346485070054e-06   -5.186674121756803e-07
6.4716878924478e-06   -2.949016084879876e-06   1.4755553692716978e-05
6.4716878924478e-06   -2.949016084879876e-06   1.4755553692716978e-05
6.4716878924478e-06   -2.949016084879876e-06   1.4755553692716978e-05
6.4716878924478e-06   -2.949016084879876e-06   1.4755553692716978e-05
1.611955263522145e-05   -1.746774798796688e-06   -2.045565650222108e-06
1.611955263522145e-05   -1.746774798796688e-06   -2.045565650222108e-06
1.611955263522145e-05   -1.746774798796688e-06   -2.045565650222108e-06
1.611955263522145e-05   -1.746774798796688e-06   -2.045565650222108e-06
1.1289522969750379e-05   -2.2069985803141803e-06   6.280618061140491e-06
1.1289522969750379e-05   -2.2069985803141803e-06   6.280618061140491e-06
1.1289522969750379e-05   -2.2069985803141803e-06   6.280618061140491e-06
1.1289522969750379e-05   -2.2069985803141803e-06   6.280618061140491e-06
1.6119552635221472e-05   -2.949016084879836e-06   1.4034208921067303e-05
1.6119552635221472e-05   -2.949016084879836e-06   1.4034208921067303e-05
1.6119552635221472e-05   -2.949016084879836e-06   1.4034208921067303e-05
1.6119552635221472e-05   -2.949016084879836e-06   1.4034208921067303e-05
6.47168789244779e-06   -1.746774798796688e-06   -1.3242208785722983e-06
6.47168789244779e-06   -1.746774798796688e-06   -1.3242208785722983e-06
6.47168789244779e-06   -1.746774798796688e-06   -1.3242208785722983e-06
6.47168789244779e-06   -1.746774798796688e-06   -1.3242208785722983e-06
6.007160647005151e-06   -3.0694586017391244e-06   1.3001190572153984e-05
6.007160647005151e-06   -3.0694586017391244e-06   1.3001190572153984e-05
6.007160647005151e-06   -3.0694586017391244e-06   1.3001190572153984e-05
6.007160647005151e-06   -3.0694586017391244e-06   1.3001190572153984e-05
1.5162095275485624e-05   -1.945535459823341e-06   -2.9313876937962048e-06
1.5162095275485624e-05   -1.945535459823341e-06   -2.9313876937962048e-06
1.5162095275485624e-05   -1.945535459823341e-06   -2.9313876937962048e-06
1.5162095275485624e-05   -1.945535459823341e-06   -2.9313876937962048e-06
1.0477448425001038e-05   -2.2425631448703184e-06   5.054573668039309e-06
1.0477448425001038e-05   -2.2425631448703184e-06   5.054573668039309e-06
1.0477448425001038e-05   -2.2425631448703184e-06   5.054573668039309e-06
1.0477448425001038e-05   -2.2425631448703184e-06   5.054573668039309e-06
7.450321109244424e-06   -1.671218311816473e-08   2.2096599633102164e-05
7.450321109244424e-06   -1.671218311816473e-08   2.2096599633102164e-05
7.450321109244424e-06   -1.671218311816473e-08   2.2096599633102164e-05
7.450321109244424e-06   -1.671218311816473e-08   2.2096599633102164e-05
-2.392282792011325e-06   5.796738894365584e-07   6.050091441208729e-06
-2.392282792011325e-06   5.796738894365584e-07   6.050091441208729e-06
-2.392282792011325e-06   5.796738894365584e-07   6.050091441208729e-06
-2.392282792011325e-06   5.796738894365584e-07   6.050091441208729e-06
-2.815820505156676e-06   -4.4505477630519576e-07   2.2137058358544758e-05
-2.815820505156676e-06   -4.4505477630519576e-07   2.2137058358544758e-05
-2.815820505156676e-06   -4.4505477630519576e-07   2.2137058358544758e-05
-2.815820505156676e-06   -4.4505477630519576e-07   2.2137058358544758e-05
6.989644670309907e-06   1.3277397863543233e-07   5.447919146469453e-06
6.989644670309907e-06   1.3277397863543233e-07   5.447919146469453e-06
6.989644670309907e-06   1.3277397863543233e-07   5.447919146469453e-06
6.989644670309907e-06   1.3277397863543233e-07   5.447919146469453e-06
2.237614349162361e-06   2.4043105050939803e-08   1.343320820586648e-05
2.237614349162361e-06   2.4043105050939803e-08   1.343320820586648e-05
2.237614349162361e-06   2.4043105050939803e-08   1.343320820586648e-05
2.237614349162361e-06   2.4043105050939803e-08   1.343320820586648e-05
6.989644670309926e-06   -4.45054776305247e-07   2.179036110558038e-05
6.989644670309926e-06   -4.45054776305247e-07   2.179036110558038e-05
6.989644670309926e-06   -4.45054776305247e-07   2.179036110558038e-05
6.989644670309926e-06   -4.45054776305247e-07   2.179036110558038e-05
-2.815820505156676e-06   1.3277397863543233e-07   5.7946163994339285e-06
-2.815820505156676e-06   1.3277397863543233e-07   5.7946163994339285e-06
-2.815820505156676e-06   1.3277397863543233e-07   5.7946163994339285e-06
-2.815820505156676e-06   1.3277397863543233e-07   5.7946163994339285e-06
-3.2489801276369224e-06   -7.818787292148723e-07   2.1868477263999237e-05
-3.2489801276369224e-06   -7.818787292148723e-07   2.1868477263999237e-05
-3.2489801276369224e-06   -7.818787292148723e-07   2.1868477263999237e-05
-3.2489801276369224e-06   -7.818787292148723e-07   2.1868477263999237e-05
6.471687892447789e-06   -2.321482081739986e-07   5.3375255845667775e-06
6.471687892447789e-06   -2.321482081739986e-07   5.3375255845667775e-06
6.471687892447789e-06   -2.321482081739986e-07   5.3375255845667775e-06
6.471687892447789e-06   -2.321482081739986e-07   5.3375255845667775e-06
1.7714059819784875e-06   -2.7357470586044513e-07   1.3196184667294884e-05
1.7714059819784875e-06   -2.7357470586044513e-07   1.3196184667294884e-05
1.7714059819784875e-06   -2.7357470586044513e-07   1.3196184667294884e-05
1.7714059819784875e-06   -2.7357470586044513e-07   1.3196184667294884e-05
6.4716878924478135e-06   -7.818787292149793e-07   2.1538638951374648e-05
6.4716878924478135e-06   -7.818787292149793e-07   2.1538638951374648e-05
6.4716878924478135e-06   -7.818787292149793e-07   2.1538638951374648e-05
6.4716878924478135e-06   -7.818787292149793e-07   2.1538638951374648e-05
-3.248980127636936e-06   -2.321482081739986e-07   5.667363897191458e-06
-3.248980127636936e-06   -2.321482081739986e-07   5.667363897191458e-06
-3.248980127636936e-06   -2.321482081739986e-07   5.667363897191458e-06
-3.248980127636936e-06   -2.321482081739986e-07   5.667363897191458e-06
-3.6785941182313923e-06   -1.092814856833331e-06   2.206332324488768e-05
-3.6785941182313923e-06   -1.092814856833331e-06   2.206332324488768e-05
-3.6785941182313923e-06   -1.092814856833331e-06   2.206332324488768e-05
-3.6785941182313923e-06   -1.092814856833331e-06   2.206332324488768e-05
6.007160647005122e-06   -5.907964456442101e-07   5.619187589446592e-06
6.007160647005122e-06   -5.907964456442101e-07   5.619187589446592e-06
6.007160647005122e-06   -5.907964456442101e-07   5.619187589446592e-06
6.007160647005122e-06   -5.907964456442101e-07   5.619187589446592e-06
1.4039895812047038e-06   -5.207840320319533e-07   1.3249131917612936e-05
1.4039895812047038e-06   -5.207840320319533e-07   1.3249131917612936e-05
1.4039895812047038e-06   -5.207840320319533e-07   1.3249131917612936e-05
1.4039895812047038e-06   -5.207840320319533e-07   1.3249131917612936e-05
-2.392282792011325e-06   2.234903493712196e-06   2.3967911066561775e-05
-2.392282792011325e-06   2.234903493712196e-06   2.3967911066561775e-05
-2.392282792011325e-06   2.234903493712196e-06   2.3967911066561775e-05
-2.392282792011325e-06   2.234903493712196e-06   2.3967911066561775e-05
-1.2070826816009712e-05   2.20193236989295e-06   7.817221685606094e-06
-1.2070826816009712e-05   2.20193236989295e-06   7.817221685606094e-06
-1.2070826816009712e-05   2.20193236989295e-06   7.817221685606094e-06
-1.2070826816009712e-05   2.20193236989295e-06   7.817221685606094e-06
-1.248894940646434e-05   1.8594394030927927e-06   2.3811673515463662e-05
-1.248894940646434e-05   1.8594394030927927e-06   2.3811673515463662e-05
-1.248894940646434e-05   1.8594394030927927e-06   2.3811673515463662e-05
-1.248894940646434e-05   1.8594394030927927e-06   2.3811673515463662e-05
-2.8158205051566625e-06   1.796684550458942e-06   7.727444924864735e-06
-2.8158205051566625e-06   1.796684550458942e-06   7.727444924864735e-06
-2.8158205051566625e-06   1.796684550458942e-06   7.727444924864735e-06
-2.8158205051566625e-06   1.796684550458942e-06   7.727444924864735e-06
-7.46061556854758e-06   1.9725275705710383e-06   1.536326421844943e-05
-7.46061556854758e-06   1.9725275705710383e-06   1.536326421844943e-05
-7.46061556854758e-06   1.9725275705710383e-06   1.536326421844943e-05
-7.46061556854758e-06   1.9725275705710383e-06   1.536326421844943e-05
-2.815820505156676e-06   1.8594394030929179e-06   2.384932642704408e-05
-2.815820505156676e-06   1.8594394030929179e-06   2.384932642704408e-05
-2.815820505156676e-06   1.8594394030929179e-06   2.384932642704408e-05
-2.815820505156676e-06   1.8594394030929179e-06   2.384932642704408e-05
-1.2488949406464368e-05   1.796684550458942e-06   7.689792013284343e-06
-1.2488949406464368e-05   1.796684550458942e-06   7.689792013284343e-06
-1.2488949406464368e-05   1.796684550458942e-06   7.689792013284343e-06
-1.2488949406464368e-05   1.796684550458942e-06   7.689792013284343e-06
-1.2917020825045829e-05   1.4899770411915762e-06   2.393130665480543e-05
-1.2917020825045829e-05   1.4899770411915762e-06   2.393130665480543e-05
-1.2917020825045829e-05   1.4899770411915762e-06   2.393130665480543e-05
-1.2917020825045829e-05   1.4899770411915762e-06   2.393130665480543e-05
-3.248980127636921e-06   1.396112125962674e-06   7.874224441594785e-06
-3.248980127636921e-06   1.396112125962674e-06   7.874224441594785e-06
-3.248980127636921e-06   1.396112125962674e-06   7.874224441594785e-06
-3.248980127636921e-06   1.396112125962674e-06   7.874224441594785e-06
-7.843282873025987e-06   1.6787534339571166e-06   1.5361810899113595e-05
-7.843282873025987e-06   1.6787534339571166e-06   1.5361810899113595e-05
-7.843282873025987e-06   1.6787534339571166e-06   1.5361810899113595e-05
-7.843282873025987e-06   1.6787534339571166e-06   1.5361810899113595e-05
-3.248980127636936e-06   1.4899770411914855e-06   2.3987625603942835e-05
-3.248980127636936e-06   1.4899770411914855e-06   2.3987625603942835e-05
-3.248980127636936e-06   1.4899770411914855e-06   2.3987625603942835e-05
-3.248980127636936e-06   1.4899770411914855e-06   2.3987625603942835e-05
-1.2917020825045856e-05   1.3961121259628909e-06   7.817905492457514e-06
-1.2917020825045856e-05   1.3961121259628909e-06   7.817905492457514e-06
-1.2917020825045856e-05   1.3961121259628909e-06   7.817905492457514e-06
-1.2917020825045856e-05   1.3961121259628909e-06   7.817905492457514e-06
-1.3340001741312096e-05   1.1394586435259802e-06   2.424969423173856e-05
-1.3340001741312096e-05   1.1394586435259802e-06   2.424969423173856e-05
-1.3340001741312096e-05   1.1394586435259802e-06   2.424969423173856e-05
-1.3340001741312096e-05   1.1394586435259802e-06   2.424969423173856e-05
-3.6785941182313957e-06   1.0105904411541588e-06   8.224669114693809e-06
-3.6785941182313957e-06   1.0105904411541588e-06   8.224669114693809e-06
-3.6785941182313957e-06   1.0105904411541588e-06   8.224669114693809e-06
-3.6785941182313957e-06   1.0105904411541588e-06   8.224669114693809e-06
-8.243685169878916e-06   1.3919812416444705e-06   1.5604319720478318e-05
-8.243685169878916e-06   1.3919812416444705e-06   1.5604319720478318e-05
-8.243685169878916e-06   1.3919812416444705e-06   1.5604319720478318e-05
-8.243685169878916e-06   1.3919812416444705e-06   1.5604319720478318e-05
-1.2070826816009712e-05   4.403001306562549e-06   2.1207096974080542e-05
-1.2070826816009712e-05   4.403001306562549e-06   2.1207096974080542e-05
-1.2070826816009712e-05   4.403001306562549e-06   2.1207096974080542e-05
-1.2070826816009712e-05   4.403001306562549e-06   2.1207096974080542e-05
-2.1592274861442654e-05   3.7807753780600382e-06   4.964681341257382e-06
-2.1592274861442654e-05   3.7807753780600382e-06   4.964681341257382e-06
-2.1592274861442654e-05   3.7807753780600382e-06   4.964681341257382e-06
-2.1592274861442654e-05   3.7807753780600382e-06   4.964681341257382e-06
-2.2041100414009045e-05   4.04420611863944e-06   2.0928838469355063e-05
-2.2041100414009045e-05   4.04420611863944e-06   2.0928838469355063e-05
-2.2041100414009045e-05   4.04420611863944e-06   2.0928838469355063e-05
-2.2041100414009045e-05   4.04420611863944e-06   2.0928838469355063e-05
-1.2488949406464324e-05   3.3854773773562413e-06   5.403824034883747e-06
-1.2488949406464324e-05   3.3854773773562413e-06   5.403824034883747e-06
-1.2488949406464324e-05   3.3854773773562413e-06   5.403824034883747e-06
-1.2488949406464324e-05   3.3854773773562413e-06   5.403824034883747e-06
-1.6999932999263898e-05   3.836081026037342e-06   1.2651767833674814e-05
-1.6999932999263898e-05   3.836081026037342e-06   1.2651767833674814e-05
-1.6999932999263898e-05   3.836081026037342e-06   1.2651767833674814e-05
-1.6999932999263898e-05   3.836081026037342e-06   1.2651767833674814e-05
-1.2488949406464368e-05   4.044206118639231e-06   2.132407571412494e-05
-1.2488949406464368e-05   4.044206118639231e-06   2.132407571412494e-05
-1.2488949406464368e-05   4.044206118639231e-06   2.132407571412494e-05
-1.2488949406464368e-05   4.044206118639231e-06   2.132407571412494e-05
-2.2041100414009018e-05   3.385477377356458e-06   5.0085867901139254e-06
-2.2041100414009018e-05   3.385477377356458e-06   5.0085867901139254e-06
-2.2041100414009018e-05   3.385477377356458e-06   5.0085867901139254e-06
-2.2041100414009018e-05   3.385477377356458e-06   5.0085867901139254e-06
-2.2545932265600717e-05   3.7091661634254276e-06   2.1645508021898028e-05
-2.2545932265600717e-05   3.7091661634254276e-06   2.1645508021898028e-05
-2.2545932265600717e-05   3.7091661634254276e-06   2.1645508021898028e-05
-2.2545932265600717e-05   3.7091661634254276e-06   2.1645508021898028e-05
-1.2917020825045818e-05   3.0190917733904747e-06   6.0113669216610985e-06
-1.2917020825045818e-05   3.0190917733904747e-06   6.0113669216610985e-06
-1.2917020825045818e-05   3.0190917733904747e-06   6.0113669216610985e-06
-1.2917020825045818e-05   3.0190917733904747e-06   6.0113669216610985e-06
-1.7309549903221513e-05   3.5670715841469233e-06   1.3003460832167169e-05
-1.7309549903221513e-05   3.5670715841469233e-06   1.3003460832167169e-05
-1.7309549903221513e-05   3.5670715841469233e-06   1.3003460832167169e-05
-1.7309549903221513e-05   3.5670715841469233e-06   1.3003460832167169e-05
-1.2917020825045856e-05   3.7091661634254136e-06   2.205955265591913e-05
-1.2917020825045856e-05   3.7091661634254136e-06   2.205955265591913e-05
-1.2917020825045856e-05   3.7091661634254136e-06   2.205955265591913e-05
-1.2917020825045856e-05   3.7091661634254136e-06   2.205955265591913e-05
-2.2545932265600663e-05   3.0190917733904747e-06   5.597322287640078e-06
-2.2545932265600663e-05   3.0190917733904747e-06   5.597322287640078e-06
-2.2545932265600663e-05   3.0190917733904747e-06   5.597322287640078e-06
-2.2545932265600663e-05   3.0190917733904747e-06   5.597322287640078e-06
-2.299431287318838e-05   3.3183372237189854e-06   2.2247679877117474e-05
-2.299431287318838e-05   3.3183372237189854e-06   2.2247679877117474e-05
-2.299431287318838e-05   3.3183372237189854e-06   2.2247679877117474e-05
-2.299431287318838e-05   3.3183372237189854e-06   2.2247679877117474e-05
-1.3340001741312075e-05   2.608911108279398e-06   6.582816993254176e-06
-1.3340001741312075e-05   2.608911108279398e-06   6.582816993254176e-06
-1.3340001741312075e-05   2.608911108279398e-06   6.582816993254176e-06
-1.3340001741312075e-05   2.608911108279398e-06   6.582816993254176e-06
-1.7816242490462738e-05   3.2832344927526645e-06   1.3638624211154073e-05
-1.7816242490462738e-05   3.2832344927526645e-06   1.3638624211154073e-05
-1.7816242490462738e-05   3.2832344927526645e-06   1.3638624211154073e-05
-1.7816242490462738e-05   3.2832344927526645e-06   1.3638624211154073e-05
-2.1592274861442654e-05   6.077602889655028e-06   1.020081279722734e-05
-2.1592274861442654e-05   6.077602889655028e-06   1.020081279722734e-05
-2.1592274861442654e-05   6.077602889655028e-06   1.020081279722734e-05
-2.1592274861442654e-05   6.077602889655028e-06   1.020081279722734e-05
-3.053638816940423e-05   4.9682393498894604e-06   -5.371660839901301e-06
-3.053638816940423e-05   4.9682393498894604e-06   -5.371660839901301e-06
-3.053638816940423e-05   4.9682393498894604e-06   -5.371660839901301e-06
-3.053638816940423e-05   4.9682393498894604e-06   -5.371660839901301e-06
-3.14759954503627e-05   6.050018444352448e-06   1.3094640263005327e-05
-3.14759954503627e-05   6.050018444352448e-06   1.3094640263005327e-05
-3.14759954503627e-05   6.050018444352448e-06   1.3094640263005327e-05
-3.14759954503627e-05   6.050018444352448e-06   1.3094640263005327e-05
-2.2041100414008977e-05   4.842986885138841e-06   -1.9059658620556078e-06
-2.2041100414008977e-05   4.842986885138841e-06   -1.9059658620556078e-06
-2.2041100414008977e-05   4.842986885138841e-06   -1.9059658620556078e-06
-2.2041100414008977e-05   4.842986885138841e-06   -1.9059658620556078e-06
-2.54212137354781e-05   5.383885165084323e-06   3.4030173724258392e-06
-2.54212137354781e-05   5.383885165084323e-06   3.4030173724258392e-06
-2.54212137354781e-05   5.383885165084323e-06   3.4030173724258392e-06
-2.54212137354781e-05   5.383885165084323e-06   3.4030173724258392e-06
-2.2041100414009045e-05   6.0500184443525725e-06   1.3818859198533578e-05
-2.2041100414009045e-05   6.0500184443525725e-06   1.3818859198533578e-05
-2.2041100414009045e-05   6.0500184443525725e-06   1.3818859198533578e-05
-2.2041100414009045e-05   6.0500184443525725e-06   1.3818859198533578e-05
-3.147599545036265e-05   4.842986885138624e-06   -2.630184797583967e-06
-3.147599545036265e-05   4.842986885138624e-06   -2.630184797583967e-06
-3.147599545036265e-05   4.842986885138624e-06   -2.630184797583967e-06
-3.147599545036265e-05   4.842986885138624e-06   -2.630184797583967e-06
-3.2295004349141925e-05   5.927662959132442e-06   1.5595649608076724e-05
-3.2295004349141925e-05   5.927662959132442e-06   1.5595649608076724e-05
-3.2295004349141925e-05   5.927662959132442e-06   1.5595649608076724e-05
-3.2295004349141925e-05   5.927662959132442e-06   1.5595649608076724e-05
-2.2545932265600633e-05   4.6875268166957e-06   9.127782097013721e-08
-2.2545932265600633e-05   4.6875268166957e-06   9.127782097013721e-08
-2.2545932265600633e-05   4.6875268166957e-06   9.127782097013721e-08
-2.2545932265600633e-05   4.6875268166957e-06   9.127782097013721e-08
-2.6418900686025705e-05   5.388522444280163e-06   6.125627811795606e-06
-2.6418900686025705e-05   5.388522444280163e-06   6.125627811795606e-06
-2.6418900686025705e-05   5.388522444280163e-06   6.125627811795606e-06
-2.6418900686025705e-05   5.388522444280163e-06   6.125627811795606e-06
-2.2545932265600663e-05   5.927662959132492e-06   1.6339731293538618e-05
-2.2545932265600663e-05   5.927662959132492e-06   1.6339731293538618e-05
-2.2545932265600663e-05   5.927662959132492e-06   1.6339731293538618e-05
-2.2545932265600663e-05   5.927662959132492e-06   1.6339731293538618e-05
-3.2295004349141844e-05   4.687526816695917e-06   -6.528038644918106e-07
-3.2295004349141844e-05   4.687526816695917e-06   -6.528038644918106e-07
-3.2295004349141844e-05   4.687526816695917e-06   -6.528038644918106e-07
-3.2295004349141844e-05   4.687526816695917e-06   -6.528038644918106e-07
-3.324437088811057e-05   5.385691217147217e-06   1.9939018382132473e-05
-3.324437088811057e-05   5.385691217147217e-06   1.9939018382132473e-05
-3.324437088811057e-05   5.385691217147217e-06   1.9939018382132473e-05
-3.324437088811057e-05   5.385691217147217e-06   1.9939018382132473e-05
-2.2994312873188295e-05   4.1640009374789046e-06   3.588602525063107e-06
-2.2994312873188295e-05   4.1640009374789046e-06   3.588602525063107e-06
-2.2994312873188295e-05   4.1640009374789046e-06   3.588602525063107e-06
-2.2994312873188295e-05   4.1640009374789046e-06   3.588602525063107e-06
-2.6636688397848742e-05   5.160351942503499e-06   9.061417796481317e-06
-2.6636688397848742e-05   5.160351942503499e-06   9.061417796481317e-06
-2.6636688397848742e-05   5.160351942503499e-06   9.061417796481317e-06
-2.6636688397848742e-05   5.160351942503499e-06   9.061417796481317e-06
1.0039454104130563e-05   -1.1525962473972365e-06   1.4141633006483777e-05
1.0039454104130563e-05   -1.1525962473972365e-06   1.4141633006483777e-05
1.0039454104130563e-05   -1.1525962473972365e-06   1.4141633006483777e-05
1.0039454104130563e-05   -1.1525962473972365e-06   1.4141633006483777e-05
2.653861658326043e-06   1.0232772399386414e-08   2.530009675354096e-06
2.653861658326043e-06   1.0232772399386414e-08   2.530009675354096e-06
2.653861658326043e-06   1.0232772399386414e-08   2.530009675354096e-06
2.653861658326043e-06   1.0232772399386414e-08   2.530009675354096e-06
2.308100611487629e-06   -1.5950346485070054e-06   1.3175256833842315e-05
2.308100611487629e-06   -1.5950346485070054e-06   1.3175256833842315e-05
2.308100611487629e-06   -1.5950346485070054e-06   1.3175256833842315e-05
2.308100611487629e-06   -1.5950346485070054e-06   1.3175256833842315e-05
9.18395314761325e-06   -3.8693714549651887e-07   9.906441051602151e-07
9.18395314761325e-06   -3.8693714549651887e-07   9.906441051602151e-07
9.18395314761325e-06   -3.8693714549651887e-07   9.906441051602151e-07
9.18395314761325e-06   -3.8693714549651887e-07   9.906441051602151e-07
5.690714703525683e-06   -8.37288218809339e-07   7.0829188226276365e-06
5.690714703525683e-06   -8.37288218809339e-07   7.0829188226276365e-06
5.690714703525683e-06   -8.37288218809339e-07   7.0829188226276365e-06
5.690714703525683e-06   -8.37288218809339e-07   7.0829188226276365e-06
9.183953147613269e-06   -1.5950346485070444e-06   1.2450398332036197e-05
9.183953147613269e-06   -1.5950346485070444e-06   1.2450398332036197e-05
9.183953147613269e-06   -1.5950346485070444e-06   1.2450398332036197e-05
9.183953147613269e-06   -1.5950346485070444e-06   1.2450398332036197e-05
2.3081006114876256e-06   -3.8693714549651887e-07   1.715502606966469e-06
2.3081006114876256e-06   -3.8693714549651887e-07   1.715502606966469e-06
2.3081006114876256e-06   -3.8693714549651887e-07   1.715502606966469e-06
2.3081006114876256e-06   -3.8693714549651887e-07   1.715502606966469e-06
1.9046468880835329e-06   -1.746774798796905e-06   1.2359018330260576e-05
1.9046468880835329e-06   -1.746774798796905e-06   1.2359018330260576e-05
1.9046468880835329e-06   -1.746774798796905e-06   1.2359018330260576e-05
1.9046468880835329e-06   -1.746774798796905e-06   1.2359018330260576e-05
8.45903871942604e-06   -5.573792291799478e-07   7.213946029197661e-07
8.45903871942604e-06   -5.573792291799478e-07   7.213946029197661e-07
8.45903871942604e-06   -5.573792291799478e-07   7.213946029197661e-07
8.45903871942604e-06   -5.573792291799478e-07   7.213946029197661e-07
5.279224334833081e-06   -1.010733383422207e-06   6.2930977364534135e-06
5.279224334833081e-06   -1.010733383422207e-06   6.2930977364534135e-06
5.279224334833081e-06   -1.010733383422207e-06   6.2930977364534135e-06
5.279224334833081e-06   -1.010733383422207e-06   6.2930977364534135e-06
8.459038719426057e-06   -1.7467747987967715e-06   1.1645380988490445e-05
8.459038719426057e-06   -1.7467747987967715e-06   1.1645380988490445e-05
8.459038719426057e-06   -1.7467747987967715e-06   1.1645380988490445e-05
8.459038719426057e-06   -1.7467747987967715e-06   1.1645380988490445e-05
1.9046468880835261e-06   -5.573792291799478e-07   1.4350319446898834e-06
1.9046468880835261e-06   -5.573792291799478e-07   1.4350319446898834e-06
1.9046468880835261e-06   -5.573792291799478e-07   1.4350319446898834e-06
1.9046468880835261e-06   -5.573792291799478e-07   1.4350319446898834e-06
1.554829836963667e-06   -1.945535459823341e-06   1.1410795282013639e-05
1.554829836963667e-06   -1.945535459823341e-06   1.1410795282013639e-05
1.554829836963667e-06   -1.945535459823341e-06   1.1410795282013639e-05
1.554829836963667e-06   -1.945535459823341e-06   1.1410795282013639e-05
7.609344703164264e-06   -8.397716026865669e-07   6.564788573972452e-07
7.609344703164264e-06   -8.397716026865669e-07   6.564788573972452e-07
7.609344703164264e-06   -8.397716026865669e-07   6.564788573972452e-07
7.609344703164264e-06   -8.397716026865669e-07   6.564788573972452e-07
4.667491119229171e-06   -1.0987455542471863e-06   5.714952534892149e-06
4.667491119229171e-06   -1.0987455542471863e-06   5.714952534892149e-06
4.667491119229171e-06   -1.0987455542471863e-06   5.714952534892149e-06
4.667491119229171e-06   -1.0987455542471863e-06   5.714952534892149e-06
2.65386165832605e-06   5.796738894364006e-07   1.9399263429351814e-05
2.65386165832605e-06   5.796738894364006e-07   1.9399263429351814e-05
2.65386165832605e-06   5.796738894364006e-07   1.9399263429351814e-05
2.65386165832605e-06   5.796738894364006e-07   1.9399263429351814e-05
-4.069898420175756e-06   1.1078445681084572e-06   8.50989903905205e-06
-4.069898420175756e-06   1.1078445681084572e-06   8.50989903905205e-06
-4.069898420175756e-06   1.1078445681084572e-06   8.50989903905205e-06
-4.069898420175756e-06   1.1078445681084572e-06   8.50989903905205e-06
-4.373910675769448e-06   1.3277397863543233e-07   1.9458243278104017e-05
-4.373910675769448e-06   1.3277397863543233e-07   1.9458243278104017e-05
-4.373910675769448e-06   1.3277397863543233e-07   1.9458243278104017e-05
-4.373910675769448e-06   1.3277397863543233e-07   1.9458243278104017e-05
2.3081006114876248e-06   6.601071213296937e-07   8.005157913725863e-06
2.3081006114876248e-06   6.601071213296937e-07   8.005157913725863e-06
2.3081006114876248e-06   6.601071213296937e-07   8.005157913725863e-06
2.3081006114876248e-06   6.601071213296937e-07   8.005157913725863e-06
-9.210910987086316e-07   5.75003224627434e-07   1.3438206435408077e-05
-9.210910987086316e-07   5.75003224627434e-07   1.3438206435408077e-05
-9.210910987086316e-07   5.75003224627434e-07   1.3438206435408077e-05
-9.210910987086316e-07   5.75003224627434e-07   1.3438206435408077e-05
2.3081006114876256e-06   1.3277397863545105e-07   1.914184339248744e-05
2.3081006114876256e-06   1.3277397863545105e-07   1.914184339248744e-05
2.3081006114876256e-06   1.3277397863545105e-07   1.914184339248744e-05
2.3081006114876256e-06   1.3277397863545105e-07   1.914184339248744e-05
-4.373910675769448e-06   6.601071213296937e-07   8.32155779934235e-06
-4.373910675769448e-06   6.601071213296937e-07   8.32155779934235e-06
-4.373910675769448e-06   6.601071213296937e-07   8.32155779934235e-06
-4.373910675769448e-06   6.601071213296937e-07   8.32155779934235e-06
-4.686913643297413e-06   -2.321482081739986e-07   1.9328919433574403e-05
-4.686913643297413e-06   -2.321482081739986e-07   1.9328919433574403e-05
-4.686913643297413e-06   -2.321482081739986e-07   1.9328919433574403e-05
-4.686913643297413e-06   -2.321482081739986e-07   1.9328919433574403e-05
1.9046468880835253e-06   2.814428587838034e-07   8.0348305744316e-06
1.9046468880835253e-06   2.814428587838034e-07   8.0348305744316e-06
1.9046468880835253e-06   2.814428587838034e-07   8.0348305744316e-06
1.9046468880835253e-06   2.814428587838034e-07   8.0348305744316e-06
-1.245934227571964e-06   2.632310074340144e-07   1.3296726211334262e-05
-1.245934227571964e-06   2.632310074340144e-07   1.3296726211334262e-05
-1.245934227571964e-06   2.632310074340144e-07   1.3296726211334262e-05
-1.245934227571964e-06   2.632310074340144e-07   1.3296726211334262e-05
1.9046468880835329e-06   -2.3214820817397602e-07   1.9020764793399743e-05
1.9046468880835329e-06   -2.3214820817397602e-07   1.9020764793399743e-05
1.9046468880835329e-06   -2.3214820817397602e-07   1.9020764793399743e-05
1.9046468880835329e-06   -2.3214820817397602e-07   1.9020764793399743e-05
-4.686913643297413e-06   2.814428587838034e-07   8.342985214606345e-06
-4.686913643297413e-06   2.814428587838034e-07   8.342985214606345e-06
-4.686913643297413e-06   2.814428587838034e-07   8.342985214606345e-06
-4.686913643297413e-06   2.814428587838034e-07   8.342985214606345e-06
-4.995376135011594e-06   -5.907964456442101e-07   1.9578762761367436e-05
-4.995376135011594e-06   -5.907964456442101e-07   1.9578762761367436e-05
-4.995376135011594e-06   -5.907964456442101e-07   1.9578762761367436e-05
-4.995376135011594e-06   -5.907964456442101e-07   1.9578762761367436e-05
1.5548298369636634e-06   -1.0455297687686493e-07   8.370006726814993e-06
1.5548298369636634e-06   -1.0455297687686493e-07   8.370006726814993e-06
1.5548298369636634e-06   -1.0455297687686493e-07   8.370006726814993e-06
1.5548298369636634e-06   -1.0455297687686493e-07   8.370006726814993e-06
-1.5204653019434413e-06   -1.5638802270973723e-08   1.3442150120230006e-05
-1.5204653019434413e-06   -1.5638802270973723e-08   1.3442150120230006e-05
-1.5204653019434413e-06   -1.5638802270973723e-08   1.3442150120230006e-05
-1.5204653019434413e-06   -1.5638802270973723e-08   1.3442150120230006e-05
-4.069898420175756e-06   2.2019323698929765e-06   2.1503078755243945e-05
-4.069898420175756e-06   2.2019323698929765e-06   2.1503078755243945e-05
-4.069898420175756e-06   2.2019323698929765e-06   2.1503078755243945e-05
-4.069898420175756e-06   2.2019323698929765e-06   2.1503078755243945e-05
-1.06766275180031e-05   2.078223144103648e-06   1.0417638056724892e-05
-1.06766275180031e-05   2.078223144103648e-06   1.0417638056724892e-05
-1.06766275180031e-05   2.078223144103648e-06   1.0417638056724892e-05
-1.06766275180031e-05   2.078223144103648e-06   1.0417638056724892e-05
-1.0968563819363058e-05   1.796684550458942e-06   2.1312811088228917e-05
-1.0968563819363058e-05   1.796684550458942e-06   2.1312811088228917e-05
-1.0968563819363058e-05   1.796684550458942e-06   2.1312811088228917e-05
-1.0968563819363058e-05   1.796684550458942e-06   2.1312811088228917e-05
-4.373910675769437e-06   1.6662500249491974e-06   1.0399983230878842e-05
-4.373910675769437e-06   1.6662500249491974e-06   1.0399983230878842e-05
-4.373910675769437e-06   1.6662500249491974e-06   1.0399983230878842e-05
-4.373910675769437e-06   1.6662500249491974e-06   1.0399983230878842e-05
-7.536523027733791e-06   1.8887851486765628e-06   1.5537482743250387e-05
-7.536523027733791e-06   1.8887851486765628e-06   1.5537482743250387e-05
-7.536523027733791e-06   1.8887851486765628e-06   1.5537482743250387e-05
-7.536523027733791e-06   1.8887851486765628e-06   1.5537482743250387e-05
-4.373910675769434e-06   1.7966845504589023e-06   2.139107180353485e-05
-4.373910675769434e-06   1.7966845504589023e-06   2.139107180353485e-05
-4.373910675769434e-06   1.7966845504589023e-06   2.139107180353485e-05
-4.373910675769434e-06   1.7966845504589023e-06   2.139107180353485e-05
-1.0968563819363058e-05   1.6662500249491974e-06   1.0321722515573126e-05
-1.0968563819363058e-05   1.6662500249491974e-06   1.0321722515573126e-05
-1.0968563819363058e-05   1.6662500249491974e-06   1.0321722515573126e-05
-1.0968563819363058e-05   1.6662500249491974e-06   1.0321722515573126e-05
-1.1269979342640895e-05   1.396112125962674e-06   2.1451958811534314e-05
-1.1269979342640895e-05   1.396112125962674e-06   2.1451958811534314e-05
-1.1269979342640895e-05   1.396112125962674e-06   2.1451958811534314e-05
-1.1269979342640895e-05   1.396112125962674e-06   2.1451958811534314e-05
-4.686913643297391e-06   1.2564101818902332e-06   1.0564003812405404e-05
-4.686913643297391e-06   1.2564101818902332e-06   1.0564003812405404e-05
-4.686913643297391e-06   1.2564101818902332e-06   1.0564003812405404e-05
-4.686913643297391e-06   1.2564101818902332e-06   1.0564003812405404e-05
-7.796263115180527e-06   1.5757989170308087e-06   1.555461969112622e-05
-7.796263115180527e-06   1.5757989170308087e-06   1.555461969112622e-05
-7.796263115180527e-06   1.5757989170308087e-06   1.555461969112622e-05
-7.796263115180527e-06   1.5757989170308087e-06   1.555461969112622e-05
-4.686913643297413e-06   1.3961121259627418e-06   2.1535779977977865e-05
-4.686913643297413e-06   1.3961121259627418e-06   2.1535779977977865e-05
-4.686913643297413e-06   1.3961121259627418e-06   2.1535779977977865e-05
-4.686913643297413e-06   1.3961121259627418e-06   2.1535779977977865e-05
-1.1269979342640895e-05   1.2564101818902332e-06   1.048018264596188e-05
-1.1269979342640895e-05   1.2564101818902332e-06   1.048018264596188e-05
-1.1269979342640895e-05   1.2564101818902332e-06   1.048018264596188e-05
-1.1269979342640895e-05   1.2564101818902332e-06   1.048018264596188e-05
-1.1566624185179066e-05   1.0105904411541588e-06   2.1795191221912888e-05
-1.1566624185179066e-05   1.0105904411541588e-06   2.1795191221912888e-05
-1.1566624185179066e-05   1.0105904411541588e-06   2.1795191221912888e-05
-1.1566624185179066e-05   1.0105904411541588e-06   2.1795191221912888e-05
-4.995376135011602e-06   8.641870778402496e-07   1.0930953156288847e-05
-4.995376135011602e-06   8.641870778402496e-07   1.0930953156288847e-05
-4.995376135011602e-06   8.641870778402496e-07   1.0930953156288847e-05
-4.995376135011602e-06   8.641870778402496e-07   1.0930953156288847e-05
-8.072646612478539e-06   1.2691875930607999e-06   1.5816736976268083e-05
-8.072646612478539e-06   1.2691875930607999e-06   1.5816736976268083e-05
-8.072646612478539e-06   1.2691875930607999e-06   1.5816736976268083e-05
-8.072646612478539e-06   1.2691875930607999e-06   1.5816736976268083e-05
-1.06766275180031e-05   3.7807753780601462e-06   1.8949648432523263e-05
-1.06766275180031e-05   3.7807753780601462e-06   1.8949648432523263e-05
-1.06766275180031e-05   3.7807753780601462e-06   1.8949648432523263e-05
-1.06766275180031e-05   3.7807753780601462e-06   1.8949648432523263e-05
-1.7167510274851758e-05   3.0925847239189185e-06   7.718596111957467e-06
-1.7167510274851758e-05   3.0925847239189185e-06   7.718596111957467e-06
-1.7167510274851758e-05   3.0925847239189185e-06   7.718596111957467e-06
-1.7167510274851758e-05   3.0925847239189185e-06   7.718596111957467e-06
-1.7485976648140073e-05   3.385477377356458e-06   1.860204513309089e-05
-1.7485976648140073e-05   3.385477377356458e-06   1.860204513309089e-05
-1.7485976648140073e-05   3.385477377356458e-06   1.860204513309089e-05
-1.7485976648140073e-05   3.385477377356458e-06   1.860204513309089e-05
-1.0968563819363063e-05   2.6774807494602893e-06   8.164488395200379e-06
-1.0968563819363063e-05   2.6774807494602893e-06   8.164488395200379e-06
-1.0968563819363063e-05   2.6774807494602893e-06   8.164488395200379e-06
-1.0968563819363063e-05   2.6774807494602893e-06   8.164488395200379e-06
-1.4040622948381953e-05   3.1804593651554858e-06   1.2982799774148796e-05
-1.4040622948381953e-05   3.1804593651554858e-06   1.2982799774148796e-05
-1.4040622948381953e-05   3.1804593651554858e-06   1.2982799774148796e-05
-1.4040622948381953e-05   3.1804593651554858e-06   1.2982799774148796e-05
-1.0968563819363058e-05   3.3854773773563154e-06   1.9026843109828375e-05
-1.0968563819363058e-05   3.3854773773563154e-06   1.9026843109828375e-05
-1.0968563819363058e-05   3.3854773773563154e-06   1.9026843109828375e-05
-1.0968563819363058e-05   3.3854773773563154e-06   1.9026843109828375e-05
-1.748597664814002e-05   2.6774807494602893e-06   7.739690418462732e-06
-1.748597664814002e-05   2.6774807494602893e-06   7.739690418462732e-06
-1.748597664814002e-05   2.6774807494602893e-06   7.739690418462732e-06
-1.748597664814002e-05   2.6774807494602893e-06   7.739690418462732e-06
-1.7862817300664646e-05   3.0190917733904747e-06   1.9213709020775055e-05
-1.7862817300664646e-05   3.0190917733904747e-06   1.9213709020775055e-05
-1.7862817300664646e-05   3.0190917733904747e-06   1.9213709020775055e-05
-1.7862817300664646e-05   3.0190917733904747e-06   1.9213709020775055e-05
-1.1269979342640875e-05   2.299573073452285e-06   8.657356977365117e-06
-1.1269979342640875e-05   2.299573073452285e-06   8.657356977365117e-06
-1.1269979342640875e-05   2.299573073452285e-06   8.657356977365117e-06
-1.1269979342640875e-05   2.299573073452285e-06   8.657356977365117e-06
-1.4246179843707935e-05   2.887143066979082e-06   1.326514914969405e-05
-1.4246179843707935e-05   2.887143066979082e-06   1.326514914969405e-05
-1.4246179843707935e-05   2.887143066979082e-06   1.326514914969405e-05
-1.4246179843707935e-05   2.887143066979082e-06   1.326514914969405e-05
-1.1269979342640895e-05   3.0190917733904184e-06   1.9645420240737925e-05
-1.1269979342640895e-05   3.0190917733904184e-06   1.9645420240737925e-05
-1.1269979342640895e-05   3.0190917733904184e-06   1.9645420240737925e-05
-1.1269979342640895e-05   3.0190917733904184e-06   1.9645420240737925e-05
-1.786281730066462e-05   2.299573073452285e-06   8.225645757402246e-06
-1.786281730066462e-05   2.299573073452285e-06   8.225645757402246e-06
-1.786281730066462e-05   2.299573073452285e-06   8.225645757402246e-06
-1.786281730066462e-05   2.299573073452285e-06   8.225645757402246e-06
-1.8185798064496584e-05   2.608911108279398e-06   1.9802421472695365e-05
-1.8185798064496584e-05   2.608911108279398e-06   1.9802421472695365e-05
-1.8185798064496584e-05   2.608911108279398e-06   1.9802421472695365e-05
-1.8185798064496584e-05   2.608911108279398e-06   1.9802421472695365e-05
-1.1566624185179054e-05   1.8951801929443547e-06   9.198703556367112e-06
-1.1566624185179054e-05   1.8951801929443547e-06   9.198703556367112e-06
-1.1566624185179054e-05   1.8951801929443547e-06   9.198703556367112e-06
-1.1566624185179054e-05   1.8951801929443547e-06   9.198703556367112e-06
-1.460116419057507e-05   2.5928232647060186e-06   1.3837684388970297e-05
-1.460116419057507e-05   2.5928232647060186e-06   1.3837684388970297e-05
-1.460116419057507e-05   2.5928232647060186e-06   1.3837684388970297e-05
-1.460116419057507e-05   2.5928232647060186e-06   1.3837684388970297e-05
-1.7167510274851785e-05   4.968239349889303e-06   8.866009982739197e-06
-1.7167510274851785e-05   4.968239349889303e-06   8.866009982739197e-06
-1.7167510274851785e-05   4.968239349889303e-06   8.866009982739197e-06
-1.7167510274851785e-05   4.968239349889303e-06   8.866009982739197e-06
-2.3037515526938795e-05   3.813164364486403e-06   -1.6103770953140742e-06
-2.3037515526938795e-05   3.813164364486403e-06   -1.6103770953140742e-06
-2.3037515526938795e-05   3.813164364486403e-06   -1.6103770953140742e-06
-2.3037515526938795e-05   3.813164364486403e-06   -1.6103770953140742e-06
-2.3854634330465507e-05   4.842986885138624e-06   1.094242372564171e-05
-2.3854634330465507e-05   4.842986885138624e-06   1.094242372564171e-05
-2.3854634330465507e-05   4.842986885138624e-06   1.094242372564171e-05
-2.3854634330465507e-05   4.842986885138624e-06   1.094242372564171e-05
-1.7485976648140012e-05   3.6012056263394097e-06   1.073063010378851e-06
-1.7485976648140012e-05   3.6012056263394097e-06   1.073063010378851e-06
-1.7485976648140012e-05   3.6012056263394097e-06   1.073063010378851e-06
-1.7485976648140012e-05   3.6012056263394097e-06   1.073063010378851e-06
-1.964354174643014e-05   4.22615080263207e-06   4.294037735087526e-06
-1.964354174643014e-05   4.22615080263207e-06   4.294037735087526e-06
-1.964354174643014e-05   4.22615080263207e-06   4.294037735087526e-06
-1.964354174643014e-05   4.22615080263207e-06   4.294037735087526e-06
-1.748597664814002e-05   4.842986885138769e-06   1.1687492480921195e-05
-1.748597664814002e-05   4.842986885138769e-06   1.1687492480921195e-05
-1.748597664814002e-05   4.842986885138769e-06   1.1687492480921195e-05
-1.748597664814002e-05   4.842986885138769e-06   1.1687492480921195e-05
-2.385463433046556e-05   3.6012056263394097e-06   3.279942550993113e-07
-2.385463433046556e-05   3.6012056263394097e-06   3.279942550993113e-07
-2.385463433046556e-05   3.6012056263394097e-06   3.279942550993113e-07
-2.385463433046556e-05   3.6012056263394097e-06   3.279942550993113e-07
-2.4557440211932962e-05   4.687526816695917e-06   1.2948993968753481e-05
-2.4557440211932962e-05   4.687526816695917e-06   1.2948993968753481e-05
-2.4557440211932962e-05   4.687526816695917e-06   1.2948993968753481e-05
-2.4557440211932962e-05   4.687526816695917e-06   1.2948993968753481e-05
-1.7862817300664588e-05   3.4230758411097706e-06   2.5499597019912356e-06
-1.7862817300664588e-05   3.4230758411097706e-06   2.5499597019912356e-06
-1.7862817300664588e-05   3.4230758411097706e-06   2.5499597019912356e-06
-1.7862817300664588e-05   3.4230758411097706e-06   2.5499597019912356e-06
-2.0429645258080583e-05   4.171888168678006e-06   6.37871890114399e-06
-2.0429645258080583e-05   4.171888168678006e-06   6.37871890114399e-06
-2.0429645258080583e-05   4.171888168678006e-06   6.37871890114399e-06
-2.0429645258080583e-05   4.171888168678006e-06   6.37871890114399e-06
-1.786281730066462e-05   4.687526816695743e-06   1.3707664554105168e-05
-1.786281730066462e-05   4.687526816695743e-06   1.3707664554105168e-05
-1.786281730066462e-05   4.687526816695743e-06   1.3707664554105168e-05
-1.786281730066462e-05   4.687526816695743e-06   1.3707664554105168e-05
-2.4557440211933016e-05   3.4230758411097706e-06   1.7912891166396293e-06
-2.4557440211933016e-05   3.4230758411097706e-06   1.7912891166396293e-06
-2.4557440211933016e-05   3.4230758411097706e-06   1.7912891166396293e-06
-2.4557440211933016e-05   3.4230758411097706e-06   1.7912891166396293e-06
-2.539778462059476e-05   4.1640009374789046e-06   1.6497601091533835e-05
-2.539778462059476e-05   4.1640009374789046e-06   1.6497601091533835e-05
-2.539778462059476e-05   4.1640009374789046e-06   1.6497601091533835e-05
-2.539778462059476e-05   4.1640009374789046e-06   1.6497601091533835e-05
-1.8185798064496486e-05   2.9368983004220443e-06   5.213885080271015e-06
-1.8185798064496486e-05   2.9368983004220443e-06   5.213885080271015e-06
-1.8185798064496486e-05   2.9368983004220443e-06   5.213885080271015e-06
-1.8185798064496486e-05   2.9368983004220443e-06   5.213885080271015e-06
-2.0622330747313357e-05   3.950793732399212e-06   8.666435625779049e-06
-2.0622330747313357e-05   3.950793732399212e-06   8.666435625779049e-06
-2.0622330747313357e-05   3.950793732399212e-06   8.666435625779049e-06
-2.0622330747313357e-05   3.950793732399212e-06   8.666435625779049e-06
2.1155138051733304e-06   1.0232772399374226e-08   1.059043163060343e-05
2.1155138051733304e-06   1.0232772399374226e-08   1.059043163060343e-05
2.1155138051733304e-06   1.0232772399374226e-08   1.059043163060343e-05
2.1155138051733304e-06   1.0232772399374226e-08   1.059043163060343e-05
-2.1417129169298076e-06   1.1292473995717445e-06   4.166462536735042e-06
-2.1417129169298076e-06   1.1292473995717445e-06   4.166462536735042e-06
-2.1417129169298076e-06   1.1292473995717445e-06   4.166462536735042e-06
-2.1417129169298076e-06   1.1292473995717445e-06   4.166462536735042e-06
-2.388175211362222e-06   -3.8693714549651887e-07   1.0432564287003352e-05
-2.388175211362222e-06   -3.8693714549651887e-07   1.0432564287003352e-05
-2.388175211362222e-06   -3.8693714549651887e-07   1.0432564287003352e-05
-2.388175211362222e-06   -3.8693714549651887e-07   1.0432564287003352e-05
1.3667314104008806e-06   7.586301200290801e-07   3.4870462247494943e-06
1.3667314104008806e-06   7.586301200290801e-07   3.4870462247494943e-06
1.3667314104008806e-06   7.586301200290801e-07   3.4870462247494943e-06
1.3667314104008806e-06   7.586301200290801e-07   3.4870462247494943e-06
-3.645234025384229e-07   3.1396030335121075e-07   6.639272802988406e-06
-3.645234025384229e-07   3.1396030335121075e-07   6.639272802988406e-06
-3.645234025384229e-07   3.1396030335121075e-07   6.639272802988406e-06
-3.645234025384229e-07   3.1396030335121075e-07   6.639272802988406e-06
1.3667314104008797e-06   -3.869371454965683e-07   9.745223927687939e-06
1.3667314104008797e-06   -3.869371454965683e-07   9.745223927687939e-06
1.3667314104008797e-06   -3.869371454965683e-07   9.745223927687939e-06
1.3667314104008797e-06   -3.869371454965683e-07   9.745223927687939e-06
-2.388175211362222e-06   7.586301200290801e-07   4.174386584064908e-06
-2.388175211362222e-06   7.586301200290801e-07   4.174386584064908e-06
-2.388175211362222e-06   7.586301200290801e-07   4.174386584064908e-06
-2.388175211362222e-06   7.586301200290801e-07   4.174386584064908e-06
-2.6929006027753667e-06   -5.573792291798394e-07   1.0151346387670627e-05
-2.6929006027753667e-06   -5.573792291798394e-07   1.0151346387670627e-05
-2.6929006027753667e-06   -5.573792291798394e-07   1.0151346387670627e-05
-2.6929006027753667e-06   -5.573792291798394e-07   1.0151346387670627e-05
7.162850463674383e-07   5.557510484488666e-07   3.801492139188681e-06
7.162850463674383e-07   5.557510484488666e-07   3.801492139188681e-06
7.162850463674383e-07   5.557510484488666e-07   3.801492139188681e-06
7.162850463674383e-07   5.557510484488666e-07   3.801492139188681e-06
-7.674299268110014e-07   1.5612533660217063e-07   6.514125854927444e-06
-7.674299268110014e-07   1.5612533660217063e-07   6.514125854927444e-06
-7.674299268110014e-07   1.5612533660217063e-07   6.514125854927444e-06
-7.674299268110014e-07   1.5612533660217063e-07   6.514125854927444e-06
7.162850463674348e-07   -5.57379229179866e-07   9.483468221093317e-06
7.162850463674348e-07   -5.57379229179866e-07   9.483468221093317e-06
7.162850463674348e-07   -5.57379229179866e-07   9.483468221093317e-06
7.162850463674348e-07   -5.57379229179866e-07   9.483468221093317e-06
-2.69290060277536e-06   5.557510484488666e-07   4.4693703057658695e-06
-2.69290060277536e-06   5.557510484488666e-07   4.4693703057658695e-06
-2.69290060277536e-06   5.557510484488666e-07   4.4693703057658695e-06
-2.69290060277536e-06   5.557510484488666e-07   4.4693703057658695e-06
-2.9480273848133293e-06   -8.397716026864585e-07   1.003913645306547e-05
-2.9480273848133293e-06   -8.397716026864585e-07   1.003913645306547e-05
-2.9480273848133293e-06   -8.397716026864585e-07   1.003913645306547e-05
-2.9480273848133293e-06   -8.397716026864585e-07   1.003913645306547e-05
-1.0029026606563313e-07   1.2654916519176055e-07   4.713115461092476e-06
-1.0029026606563313e-07   1.2654916519176055e-07   4.713115461092476e-06
-1.0029026606563313e-07   1.2654916519176055e-07   4.713115461092476e-06
-1.0029026606563313e-07   1.2654916519176055e-07   4.713115461092476e-06
-1.2053758456176783e-06   1.3105545140106901e-08   6.622990932376819e-06
-1.2053758456176783e-06   1.3105545140106901e-08   6.622990932376819e-06
-1.2053758456176783e-06   1.3105545140106901e-08   6.622990932376819e-06
-1.2053758456176783e-06   1.3105545140106901e-08   6.622990932376819e-06
-2.1417129169298076e-06   1.1078445681084517e-06   1.6924827363401615e-05
-2.1417129169298076e-06   1.1078445681084517e-06   1.6924827363401615e-05
-2.1417129169298076e-06   1.1078445681084517e-06   1.6924827363401615e-05
-2.1417129169298076e-06   1.1078445681084517e-06   1.6924827363401615e-05
-5.70282514347241e-06   1.3307827333015844e-06   1.1123403218279819e-05
-5.70282514347241e-06   1.3307827333015844e-06   1.1123403218279819e-05
-5.70282514347241e-06   1.3307827333015844e-06   1.1123403218279819e-05
-5.70282514347241e-06   1.3307827333015844e-06   1.1123403218279819e-05
-5.889253235751796e-06   6.601071213295853e-07   1.6876660829523134e-05
-5.889253235751796e-06   6.601071213295853e-07   1.6876660829523134e-05
-5.889253235751796e-06   6.601071213295853e-07   1.6876660829523134e-05
-5.889253235751796e-06   6.601071213295853e-07   1.6876660829523134e-05
-2.3881752113622203e-06   9.175091809302937e-07   1.088708955311349e-05
-2.3881752113622203e-06   9.175091809302937e-07   1.088708955311349e-05
-2.3881752113622203e-06   9.175091809302937e-07   1.088708955311349e-05
-2.3881752113622203e-06   9.175091809302937e-07   1.088708955311349e-05
-4.0556752707053695e-06   9.554820508329192e-07   1.364347259674378e-05
-4.0556752707053695e-06   9.554820508329192e-07   1.364347259674378e-05
-4.0556752707053695e-06   9.554820508329192e-07   1.364347259674378e-05
-4.0556752707053695e-06   9.554820508329192e-07   1.364347259674378e-05
-2.388175211362212e-06   6.601071213296707e-07   1.67222195937626e-05
-2.388175211362212e-06   6.601071213296707e-07   1.67222195937626e-05
-2.388175211362212e-06   6.601071213296707e-07   1.67222195937626e-05
-2.388175211362212e-06   6.601071213296707e-07   1.67222195937626e-05
-5.889253235751796e-06   9.175091809302937e-07   1.1041530788873891e-05
-5.889253235751796e-06   9.175091809302937e-07   1.1041530788873891e-05
-5.889253235751796e-06   9.175091809302937e-07   1.1041530788873891e-05
-5.889253235751796e-06   9.175091809302937e-07   1.1041530788873891e-05
-6.081623187556258e-06   2.814428587838034e-07   1.6904497405527885e-05
-6.081623187556258e-06   2.814428587838034e-07   1.6904497405527885e-05
-6.081623187556258e-06   2.814428587838034e-07   1.6904497405527885e-05
-6.081623187556258e-06   2.814428587838034e-07   1.6904497405527885e-05
-2.69290060277536e-06   5.370301723097446e-07   1.1103274042777544e-05
-2.69290060277536e-06   5.370301723097446e-07   1.1103274042777544e-05
-2.69290060277536e-06   5.370301723097446e-07   1.1103274042777544e-05
-2.69290060277536e-06   5.370301723097446e-07   1.1103274042777544e-05
-4.246201533188245e-06   6.540685379973236e-07   1.3621885907386767e-05
-4.246201533188245e-06   6.540685379973236e-07   1.3621885907386767e-05
-4.246201533188245e-06   6.540685379973236e-07   1.3621885907386767e-05
-4.246201533188245e-06   6.540685379973236e-07   1.3621885907386767e-05
-2.69290060277536e-06   2.814428587837635e-07   1.675114501741232e-05
-2.69290060277536e-06   2.814428587837635e-07   1.675114501741232e-05
-2.69290060277536e-06   2.814428587837635e-07   1.675114501741232e-05
-2.69290060277536e-06   2.814428587837635e-07   1.675114501741232e-05
-6.081623187556258e-06   5.370301723097446e-07   1.1256626430893068e-05
-6.081623187556258e-06   5.370301723097446e-07   1.1256626430893068e-05
-6.081623187556258e-06   5.370301723097446e-07   1.1256626430893068e-05
-6.081623187556258e-06   5.370301723097446e-07   1.1256626430893068e-05
-6.270538421607015e-06   -1.0455297687686493e-07   1.722747729609054e-05
-6.270538421607015e-06   -1.0455297687686493e-07   1.722747729609054e-05
-6.270538421607015e-06   -1.0455297687686493e-07   1.722747729609054e-05
-6.270538421607015e-06   -1.0455297687686493e-07   1.722747729609054e-05
-2.948027384813329e-06   1.2589916960554278e-07   1.1551687613545023e-05
-2.948027384813329e-06   1.2589916960554278e-07   1.1551687613545023e-05
-2.948027384813329e-06   1.2589916960554278e-07   1.1551687613545023e-05
-2.948027384813329e-06   1.2589916960554278e-07   1.1551687613545023e-05
-4.4361429109677705e-06   3.5878683645363015e-07   1.3892147557026854e-05
-4.4361429109677705e-06   3.5878683645363015e-07   1.3892147557026854e-05
-4.4361429109677705e-06   3.5878683645363015e-07   1.3892147557026854e-05
-4.4361429109677705e-06   3.5878683645363015e-07   1.3892147557026854e-05
-5.70282514347241e-06   2.078223144103654e-06   1.9040554815663905e-05
-5.70282514347241e-06   2.078223144103654e-06   1.9040554815663905e-05
-5.70282514347241e-06   2.078223144103654e-06   1.9040554815663905e-05
-5.70282514347241e-06   2.078223144103654e-06   1.9040554815663905e-05
-9.246086603956075e-06   1.602554090744928e-06   1.2849717616175845e-05
-9.246086603956075e-06   1.602554090744928e-06   1.2849717616175845e-05
-9.246086603956075e-06   1.602554090744928e-06   1.2849717616175845e-05
-9.246086603956075e-06   1.602554090744928e-06   1.2849717616175845e-05
-9.404237318198425e-06   1.6662500249491974e-06   1.8687561672372436e-05
-9.404237318198425e-06   1.6662500249491974e-06   1.8687561672372436e-05
-9.404237318198425e-06   1.6662500249491974e-06   1.8687561672372436e-05
-9.404237318198425e-06   1.6662500249491974e-06   1.8687561672372436e-05
-5.889253235751795e-06   1.2203757104704577e-06   1.3096779456982043e-05
-5.889253235751795e-06   1.2203757104704577e-06   1.3096779456982043e-05
-5.889253235751795e-06   1.2203757104704577e-06   1.3096779456982043e-05
-5.889253235751795e-06   1.2203757104704577e-06   1.3096779456982043e-05
-7.564785161682946e-06   1.6093365508045498e-06   1.5655956162666864e-05
-7.564785161682946e-06   1.6093365508045498e-06   1.5655956162666864e-05
-7.564785161682946e-06   1.6093365508045498e-06   1.5655956162666864e-05
-7.564785161682946e-06   1.6093365508045498e-06   1.5655956162666864e-05
-5.889253235751796e-06   1.666250024949183e-06   1.895508626105979e-05
-5.889253235751796e-06   1.666250024949183e-06   1.895508626105979e-05
-5.889253235751796e-06   1.666250024949183e-06   1.895508626105979e-05
-5.889253235751796e-06   1.666250024949183e-06   1.895508626105979e-05
-9.404237318198425e-06   1.2203757104704577e-06   1.2829254868294772e-05
-9.404237318198425e-06   1.2203757104704577e-06   1.2829254868294772e-05
-9.404237318198425e-06   1.2203757104704577e-06   1.2829254868294772e-05
-9.404237318198425e-06   1.2203757104704577e-06   1.2829254868294772e-05
-9.5735638095408e-06   1.2564101818902332e-06   1.8870889860288795e-05
-9.5735638095408e-06   1.2564101818902332e-06   1.8870889860288795e-05
-9.5735638095408e-06   1.2564101818902332e-06   1.8870889860288795e-05
-9.5735638095408e-06   1.2564101818902332e-06   1.8870889860288795e-05
-6.081623187556259e-06   8.320332768265879e-07   1.3305614966686104e-05
-6.081623187556259e-06   8.320332768265879e-07   1.3305614966686104e-05
-6.081623187556259e-06   8.320332768265879e-07   1.3305614966686104e-05
-6.081623187556259e-06   8.320332768265879e-07   1.3305614966686104e-05
-7.69993290649658e-06   1.303734169028005e-06   1.5719777296265767e-05
-7.69993290649658e-06   1.303734169028005e-06   1.5719777296265767e-05
-7.69993290649658e-06   1.303734169028005e-06   1.5719777296265767e-05
-7.69993290649658e-06   1.303734169028005e-06   1.5719777296265767e-05
-6.081623187556258e-06   1.2564101818902083e-06   1.912551600332681e-05
-6.081623187556258e-06   1.2564101818902083e-06   1.912551600332681e-05
-6.081623187556258e-06   1.2564101818902083e-06   1.912551600332681e-05
-6.081623187556258e-06   1.2564101818902083e-06   1.912551600332681e-05
-9.5735638095408e-06   8.320332768265879e-07   1.3050988823647928e-05
-9.5735638095408e-06   8.320332768265879e-07   1.3050988823647928e-05
-9.5735638095408e-06   8.320332768265879e-07   1.3050988823647928e-05
-9.5735638095408e-06   8.320332768265879e-07   1.3050988823647928e-05
-9.73940289425982e-06   8.641870778401412e-07   1.9256736088468437e-05
-9.73940289425982e-06   8.641870778401412e-07   1.9256736088468437e-05
-9.73940289425982e-06   8.641870778401412e-07   1.9256736088468437e-05
-9.73940289425982e-06   8.641870778401412e-07   1.9256736088468437e-05
-6.270538421607025e-06   4.642844847809347e-07   1.3715236856549402e-05
-6.270538421607025e-06   4.642844847809347e-07   1.3715236856549402e-05
-6.270538421607025e-06   4.642844847809347e-07   1.3715236856549402e-05
-6.270538421607025e-06   4.642844847809347e-07   1.3715236856549402e-05
-7.850481914560325e-06   1.00289557207272e-06   1.602530935909636e-05
-7.850481914560325e-06   1.00289557207272e-06   1.602530935909636e-05
-7.850481914560325e-06   1.00289557207272e-06   1.602530935909636e-05
-7.850481914560325e-06   1.00289557207272e-06   1.602530935909636e-05
-9.246086603956102e-06   3.0925847239189977e-06   1.6469025831365985e-05
-9.246086603956102e-06   3.0925847239189977e-06   1.6469025831365985e-05
-9.246086603956102e-06   3.0925847239189977e-06   1.6469025831365985e-05
-9.246086603956102e-06   3.0925847239189977e-06   1.6469025831365985e-05
-1.273368670650629e-05   2.1708304428349557e-06   1.0103306425131845e-05
-1.273368670650629e-05   2.1708304428349557e-06   1.0103306425131845e-05
-1.273368670650629e-05   2.1708304428349557e-06   1.0103306425131845e-05
-1.273368670650629e-05   2.1708304428349557e-06   1.0103306425131845e-05
-1.2907584821321568e-05   2.6774807494603977e-06   1.5985145528891825e-05
-1.2907584821321568e-05   2.6774807494603977e-06   1.5985145528891825e-05
-1.2907584821321568e-05   2.6774807494603977e-06   1.5985145528891825e-05
-1.2907584821321568e-05   2.6774807494603977e-06   1.5985145528891825e-05
-9.404237318198437e-06   1.7688440442805136e-06   1.0691415046794523e-05
-9.404237318198437e-06   1.7688440442805136e-06   1.0691415046794523e-05
-9.404237318198437e-06   1.7688440442805136e-06   1.0691415046794523e-05
-9.404237318198437e-06   1.7688440442805136e-06   1.0691415046794523e-05
-1.104942161391337e-05   2.405648877057149e-06   1.3051305973320066e-05
-1.104942161391337e-05   2.405648877057149e-06   1.3051305973320066e-05
-1.104942161391337e-05   2.405648877057149e-06   1.3051305973320066e-05
-1.104942161391337e-05   2.405648877057149e-06   1.3051305973320066e-05
-9.404237318198425e-06   2.6774807494603676e-06   1.65303275519998e-05
-9.404237318198425e-06   2.6774807494603676e-06   1.65303275519998e-05
-9.404237318198425e-06   2.6774807494603676e-06   1.65303275519998e-05
-9.404237318198425e-06   2.6774807494603676e-06   1.65303275519998e-05
-1.2907584821321541e-05   1.768844044280622e-06   1.0146233023686577e-05
-1.2907584821321541e-05   1.768844044280622e-06   1.0146233023686577e-05
-1.2907584821321541e-05   1.768844044280622e-06   1.0146233023686577e-05
-1.2907584821321541e-05   1.768844044280622e-06   1.0146233023686577e-05
-1.3147144052727864e-05   2.299573073452285e-06   1.6514818088756485e-05
-1.3147144052727864e-05   2.299573073452285e-06   1.6514818088756485e-05
-1.3147144052727864e-05   2.299573073452285e-06   1.6514818088756485e-05
-1.3147144052727864e-05   2.299573073452285e-06   1.6514818088756485e-05
-9.573563809540807e-06   1.410829568559654e-06   1.1092097119713674e-05
-9.573563809540807e-06   1.410829568559654e-06   1.1092097119713674e-05
-9.573563809540807e-06   1.410829568559654e-06   1.1092097119713674e-05
-9.573563809540807e-06   1.410829568559654e-06   1.1092097119713674e-05
-1.1143892533780622e-05   2.1094963818577396e-06   1.329011157213451e-05
-1.1143892533780622e-05   2.1094963818577396e-06   1.329011157213451e-05
-1.1143892533780622e-05   2.1094963818577396e-06   1.329011157213451e-05
-1.1143892533780622e-05   2.1094963818577396e-06   1.329011157213451e-05
-9.5735638095408e-06   2.299573073452261e-06   1.7048064191691977e-05
-9.5735638095408e-06   2.299573073452261e-06   1.7048064191691977e-05
-9.5735638095408e-06   2.299573073452261e-06   1.7048064191691977e-05
-9.5735638095408e-06   2.299573073452261e-06   1.7048064191691977e-05
-1.3147144052727837e-05   1.4108295685595455e-06   1.0558851016778046e-05
-1.3147144052727837e-05   1.4108295685595455e-06   1.0558851016778046e-05
-1.3147144052727837e-05   1.4108295685595455e-06   1.0558851016778046e-05
-1.3147144052727837e-05   1.4108295685595455e-06   1.0558851016778046e-05
-1.3339015250446321e-05   1.8951801929444631e-06   1.7102639021220013e-05
-1.3339015250446321e-05   1.8951801929444631e-06   1.7102639021220013e-05
-1.3339015250446321e-05   1.8951801929444631e-06   1.7102639021220013e-05
-1.3339015250446321e-05   1.8951801929444631e-06   1.7102639021220013e-05
-9.739402894259812e-06   1.0456977174192958e-06   1.1612974579557718e-05
-9.739402894259812e-06   1.0456977174192958e-06   1.1612974579557718e-05
-9.739402894259812e-06   1.0456977174192958e-06   1.1612974579557718e-05
-9.739402894259812e-06   1.0456977174192958e-06   1.1612974579557718e-05
-1.13427329776468e-05   1.8274207901752002e-06   1.3816157541549187e-05
-1.13427329776468e-05   1.8274207901752002e-06   1.3816157541549187e-05
-1.13427329776468e-05   1.8274207901752002e-06   1.3816157541549187e-05
-1.13427329776468e-05   1.8274207901752002e-06   1.3816157541549187e-05
-1.273368670650629e-05   3.8131643644864223e-06   7.280045046685699e-06
-1.273368670650629e-05   3.8131643644864223e-06   7.280045046685699e-06
-1.273368670650629e-05   3.8131643644864223e-06   7.280045046685699e-06
-1.273368670650629e-05   3.8131643644864223e-06   7.280045046685699e-06
-1.549122003867198e-05   2.572293087046984e-06   1.939633393279213e-06
-1.549122003867198e-05   2.572293087046984e-06   1.939633393279213e-06
-1.549122003867198e-05   2.572293087046984e-06   1.939633393279213e-06
-1.549122003867198e-05   2.572293087046984e-06   1.939633393279213e-06
-1.6148570002629686e-05   3.6012056263394097e-06   8.54074265807048e-06
-1.6148570002629686e-05   3.6012056263394097e-06   8.54074265807048e-06
-1.6148570002629686e-05   3.6012056263394097e-06   8.54074265807048e-06
-1.6148570002629686e-05   3.6012056263394097e-06   8.54074265807048e-06
-1.2907584821321568e-05   2.3049131884435477e-06   3.916876151961062e-06
-1.2907584821321568e-05   2.3049131884435477e-06   3.916876151961062e-06
-1.2907584821321568e-05   2.3049131884435477e-06   3.916876151961062e-06
-1.2907584821321568e-05   2.3049131884435477e-06   3.916876151961062e-06
-1.3822924013458742e-05   3.040532057374556e-06   5.0010701508311365e-06
-1.3822924013458742e-05   3.040532057374556e-06   5.0010701508311365e-06
-1.3822924013458742e-05   3.040532057374556e-06   5.0010701508311365e-06
-1.3822924013458742e-05   3.040532057374556e-06   5.0010701508311365e-06
-1.2907584821321541e-05   3.601205626339371e-06   9.31851812080789e-06
-1.2907584821321541e-05   3.601205626339371e-06   9.31851812080789e-06
-1.2907584821321541e-05   3.601205626339371e-06   9.31851812080789e-06
-1.2907584821321541e-05   3.601205626339371e-06   9.31851812080789e-06
-1.6148570002629686e-05   2.3049131884435477e-06   3.1391006892236146e-06
-1.6148570002629686e-05   2.3049131884435477e-06   3.1391006892236146e-06
-1.6148570002629686e-05   2.3049131884435477e-06   3.1391006892236146e-06
-1.6148570002629686e-05   2.3049131884435477e-06   3.1391006892236146e-06
-1.671235907013208e-05   3.4230758411097706e-06   1.0057851206028354e-05
-1.671235907013208e-05   3.4230758411097706e-06   1.0057851206028354e-05
-1.671235907013208e-05   3.4230758411097706e-06   1.0057851206028354e-05
-1.671235907013208e-05   3.4230758411097706e-06   1.0057851206028354e-05
-1.314714405272786e-05   2.120941128914587e-06   4.89710700433835e-06
-1.314714405272786e-05   2.120941128914587e-06   4.89710700433835e-06
-1.314714405272786e-05   2.120941128914587e-06   4.89710700433835e-06
-1.314714405272786e-05   2.120941128914587e-06   4.89710700433835e-06
-1.4380891388242309e-05   2.9363612006182843e-06   6.464100520507253e-06
-1.4380891388242309e-05   2.9363612006182843e-06   6.464100520507253e-06
-1.4380891388242309e-05   2.9363612006182843e-06   6.464100520507253e-06
-1.4380891388242309e-05   2.9363612006182843e-06   6.464100520507253e-06
-1.3147144052727864e-05   3.423075841109726e-06   1.0839132033345312e-05
-1.3147144052727864e-05   3.423075841109726e-06   1.0839132033345312e-05
-1.3147144052727864e-05   3.423075841109726e-06   1.0839132033345312e-05
-1.3147144052727864e-05   3.423075841109726e-06   1.0839132033345312e-05
-1.6712359070132133e-05   2.120941128914695e-06   4.115826177021302e-06
-1.6712359070132133e-05   2.120941128914695e-06   4.115826177021302e-06
-1.6712359070132133e-05   2.120941128914695e-06   4.115826177021302e-06
-1.6712359070132133e-05   2.120941128914695e-06   4.115826177021302e-06
-1.7428983797714785e-05   2.9368983004220443e-06   1.2801998416204748e-05
-1.7428983797714785e-05   2.9368983004220443e-06   1.2801998416204748e-05
-1.7428983797714785e-05   2.9368983004220443e-06   1.2801998416204748e-05
-1.7428983797714785e-05   2.9368983004220443e-06   1.2801998416204748e-05
-1.3339015250446295e-05   1.6967971702216847e-06   6.72944484887743e-06
-1.3339015250446295e-05   1.6967971702216847e-06   6.72944484887743e-06
-1.3339015250446295e-05   1.6967971702216847e-06   6.72944484887743e-06
-1.3339015250446295e-05   1.6967971702216847e-06   6.72944484887743e-06
-1.4538775534319934e-05   2.7343524150888693e-06   8.10651217507944e-06
-1.4538775534319934e-05   2.7343524150888693e-06   8.10651217507944e-06
-1.4538775534319934e-05   2.7343524150888693e-06   8.10651217507944e-06
-1.4538775534319934e-05   2.7343524150888693e-06   8.10651217507944e-06
-6.170437160599885e-06   1.1292473995717517e-06   7.590701136024321e-06
-6.170437160599885e-06   1.1292473995717517e-06   7.590701136024321e-06
-6.170437160599885e-06   1.1292473995717517e-06   7.590701136024321e-06
-6.170437160599885e-06   1.1292473995717517e-06   7.590701136024321e-06
-6.822706884963765e-06   2.146510042903599e-06   7.113942514750326e-06
-6.822706884963765e-06   2.146510042903599e-06   7.113942514750326e-06
-6.822706884963765e-06   2.146510042903599e-06   7.113942514750326e-06
-6.822706884963765e-06   2.146510042903599e-06   7.113942514750326e-06
-7.001935097214853e-06   7.586301200290801e-07   8.133611572772145e-06
-7.001935097214853e-06   7.586301200290801e-07   8.133611572772145e-06
-7.001935097214853e-06   7.586301200290801e-07   8.133611572772145e-06
-7.001935097214853e-06   7.586301200290801e-07   8.133611572772145e-06
-6.917304031908691e-06   1.674283862783876e-06   7.443167551609011e-06
-6.917304031908691e-06   1.674283862783876e-06   7.443167551609011e-06
-6.917304031908691e-06   1.674283862783876e-06   7.443167551609011e-06
-6.917304031908691e-06   1.674283862783876e-06   7.443167551609011e-06
-6.563218778181328e-06   1.3325659272956335e-06   7.058056223356309e-06
-6.563218778181328e-06   1.3325659272956335e-06   7.058056223356309e-06
-6.563218778181328e-06   1.3325659272956335e-06   7.058056223356309e-06
-6.563218778181328e-06   1.3325659272956335e-06   7.058056223356309e-06
-6.9173040319087e-06   7.58630120029078e-07   7.584219327119279e-06
-6.9173040319087e-06   7.58630120029078e-07   7.584219327119279e-06
-6.9173040319087e-06   7.58630120029078e-07   7.584219327119279e-06
-6.9173040319087e-06   7.58630120029078e-07   7.584219327119279e-06
-7.001935097214853e-06   1.674283862783876e-06   7.99255979726189e-06
-7.001935097214853e-06   1.674283862783876e-06   7.99255979726189e-06
-7.001935097214853e-06   1.674283862783876e-06   7.99255979726189e-06
-7.001935097214853e-06   1.674283862783876e-06   7.99255979726189e-06
-7.2344109972452725e-06   5.557510484488666e-07   8.379019769554953e-06
-7.2344109972452725e-06   5.557510484488666e-07   8.379019769554953e-06
-7.2344109972452725e-06   5.557510484488666e-07   8.379019769554953e-06
-7.2344109972452725e-06   5.557510484488666e-07   8.379019769554953e-06
-7.644569753092416e-06   1.3489077380317424e-06   8.58672368221714e-06
-7.644569753092416e-06   1.3489077380317424e-06   8.58672368221714e-06
-7.644569753092416e-06   1.3489077380317424e-06   8.58672368221714e-06
-7.644569753092416e-06   1.3489077380317424e-06   8.58672368221714e-06
-7.007342358890604e-06   1.129204409362045e-06   7.65650002241591e-06
-7.007342358890604e-06   1.129204409362045e-06   7.65650002241591e-06
-7.007342358890604e-06   1.129204409362045e-06   7.65650002241591e-06
-7.007342358890604e-06   1.129204409362045e-06   7.65650002241591e-06
-7.64456975309242e-06   5.557510484487662e-07   7.903125755805043e-06
-7.64456975309242e-06   5.557510484487662e-07   7.903125755805043e-06
-7.64456975309242e-06   5.557510484487662e-07   7.903125755805043e-06
-7.64456975309242e-06   5.557510484487662e-07   7.903125755805043e-06
-7.2344109972452725e-06   1.3489077380317424e-06   9.062617695966915e-06
-7.2344109972452725e-06   1.3489077380317424e-06   9.062617695966915e-06
-7.2344109972452725e-06   1.3489077380317424e-06   9.062617695966915e-06
-7.2344109972452725e-06   1.3489077380317424e-06   9.062617695966915e-06
-7.383738135884477e-06   1.2654916519176055e-07   9.188311135334545e-06
-7.383738135884477e-06   1.2654916519176055e-07   9.188311135334545e-06
-7.383738135884477e-06   1.2654916519176055e-07   9.188311135334545e-06
-7.383738135884477e-06   1.2654916519176055e-07   9.188311135334545e-06
-8.41945661619182e-06   5.49208973681754e-07   1.0660912717419286e-05
-8.41945661619182e-06   5.49208973681754e-07   1.0660912717419286e-05
-8.41945661619182e-06   5.49208973681754e-07   1.0660912717419286e-05
-8.41945661619182e-06   5.49208973681754e-07   1.0660912717419286e-05
-7.322934355685618e-06   8.809723986417288e-07   8.634317561599303e-06
-7.322934355685618e-06   8.809723986417288e-07   8.634317561599303e-06
-7.322934355685618e-06   8.809723986417288e-07   8.634317561599303e-06
-7.322934355685618e-06   8.809723986417288e-07   8.634317561599303e-06
-6.822706884963765e-06   1.3307827333016415e-06   1.502423650445229e-05
-6.822706884963765e-06   1.3307827333016415e-06   1.502423650445229e-05
-6.822706884963765e-06   1.3307827333016415e-06   1.502423650445229e-05
-6.822706884963765e-06   1.3307827333016415e-06   1.502423650445229e-05
-6.961502098685318e-06   5.562958352574136e-07   1.4328219009423175e-05
-6.961502098685318e-06   5.562958352574136e-07   1.4328219009423175e-05
-6.961502098685318e-06   5.562958352574136e-07   1.4328219009423175e-05
-6.961502098685318e-06   5.562958352574136e-07   1.4328219009423175e-05
-7.018925056387427e-06   9.175091809302937e-07   1.4454535570386767e-05
-7.018925056387427e-06   9.175091809302937e-07   1.4454535570386767e-05
-7.018925056387427e-06   9.175091809302937e-07   1.4454535570386767e-05
-7.018925056387427e-06   9.175091809302937e-07   1.4454535570386767e-05
-7.001935097214851e-06   2.6454422854036265e-07   1.481799794319977e-05
-7.001935097214851e-06   2.6454422854036265e-07   1.481799794319977e-05
-7.001935097214851e-06   2.6454422854036265e-07   1.481799794319977e-05
-7.001935097214851e-06   2.6454422854036265e-07   1.481799794319977e-05
-6.9309910639636614e-06   6.776593267503487e-07   1.4451888828855136e-05
-6.9309910639636614e-06   6.776593267503487e-07   1.4451888828855136e-05
-6.9309910639636614e-06   6.776593267503487e-07   1.4451888828855136e-05
-6.9309910639636614e-06   6.776593267503487e-07   1.4451888828855136e-05
-7.00193509721486e-06   9.17509180930336e-07   1.4846314541820704e-05
-7.00193509721486e-06   9.17509180930336e-07   1.4846314541820704e-05
-7.00193509721486e-06   9.17509180930336e-07   1.4846314541820704e-05
-7.00193509721486e-06   9.17509180930336e-07   1.4846314541820704e-05
-7.018925056387427e-06   2.6454422854036265e-07   1.4426218971765796e-05
-7.018925056387427e-06   2.6454422854036265e-07   1.4426218971765796e-05
-7.018925056387427e-06   2.6454422854036265e-07   1.4426218971765796e-05
-7.018925056387427e-06   2.6454422854036265e-07   1.4426218971765796e-05
-7.0896805762913945e-06   5.370301723097446e-07   1.4647637423168458e-05
-7.0896805762913945e-06   5.370301723097446e-07   1.4647637423168458e-05
-7.0896805762913945e-06   5.370301723097446e-07   1.4647637423168458e-05
-7.0896805762913945e-06   5.370301723097446e-07   1.4647637423168458e-05
-7.2344109972452725e-06   -7.177996668724469e-08   1.5254140874823054e-05
-7.2344109972452725e-06   -7.177996668724469e-08   1.5254140874823054e-05
-7.2344109972452725e-06   -7.177996668724469e-08   1.5254140874823054e-05
-7.2344109972452725e-06   -7.177996668724469e-08   1.5254140874823054e-05
-7.000932450677786e-06   4.3705156086727964e-07   1.4559711047344723e-05
-7.000932450677786e-06   4.3705156086727964e-07   1.4559711047344723e-05
-7.000932450677786e-06   4.3705156086727964e-07   1.4559711047344723e-05
-7.000932450677786e-06   4.3705156086727964e-07   1.4559711047344723e-05
-7.2344109972452725e-06   5.370301723097894e-07   1.501292350656637e-05
-7.2344109972452725e-06   5.370301723097894e-07   1.501292350656637e-05
-7.2344109972452725e-06   5.370301723097894e-07   1.501292350656637e-05
-7.2344109972452725e-06   5.370301723097894e-07   1.501292350656637e-05
-7.089680576291381e-06   -7.177996668724469e-08   1.4888854791424882e-05
-7.089680576291381e-06   -7.177996668724469e-08   1.4888854791424882e-05
-7.089680576291381e-06   -7.177996668724469e-08   1.4888854791424882e-05
-7.089680576291381e-06   -7.177996668724469e-08   1.4888854791424882e-05
-7.142300245823748e-06   1.2589916960554278e-07   1.5064040292221887e-05
-7.142300245823748e-06   1.2589916960554278e-07   1.5064040292221887e-05
-7.142300245823748e-06   1.2589916960554278e-07   1.5064040292221887e-05
-7.142300245823748e-06   1.2589916960554278e-07   1.5064040292221887e-05
-7.3837381358844575e-06   -5.125183884581745e-07   1.5849487310494525e-05
-7.3837381358844575e-06   -5.125183884581745e-07   1.5849487310494525e-05
-7.3837381358844575e-06   -5.125183884581745e-07   1.5849487310494525e-05
-7.3837381358844575e-06   -5.125183884581745e-07   1.5849487310494525e-05
-7.109673246317488e-06   1.55499838955654e-07   1.4991901558100696e-05
-7.109673246317488e-06   1.55499838955654e-07   1.4991901558100696e-05
-7.109673246317488e-06   1.55499838955654e-07   1.4991901558100696e-05
-7.109673246317488e-06   1.55499838955654e-07   1.4991901558100696e-05
-6.961502098685345e-06   1.6025540907448473e-06   1.65712601955371e-05
-6.961502098685345e-06   1.6025540907448473e-06   1.65712601955371e-05
-6.961502098685345e-06   1.6025540907448473e-06   1.65712601955371e-05
-6.961502098685345e-06   1.6025540907448473e-06   1.65712601955371e-05
-7.533874490249173e-06   1.5576274245150245e-07   1.4749231400621379e-05
-7.533874490249173e-06   1.5576274245150245e-07   1.4749231400621379e-05
-7.533874490249173e-06   1.5576274245150245e-07   1.4749231400621379e-05
-7.533874490249173e-06   1.5576274245150245e-07   1.4749231400621379e-05
-7.555135634256476e-06   1.2203757104704577e-06   1.5723886389518247e-05
-7.555135634256476e-06   1.2203757104704577e-06   1.5723886389518247e-05
-7.555135634256476e-06   1.2203757104704577e-06   1.5723886389518247e-05
-7.555135634256476e-06   1.2203757104704577e-06   1.5723886389518247e-05
-7.018925056387431e-06   -8.945403782387737e-08   1.561609994204651e-05
-7.018925056387431e-06   -8.945403782387737e-08   1.561609994204651e-05
-7.018925056387431e-06   -8.945403782387737e-08   1.561609994204651e-05
-7.018925056387431e-06   -8.945403782387737e-08   1.561609994204651e-05
-7.255434108299912e-06   6.973068451170475e-07   1.553822516546944e-05
-7.255434108299912e-06   6.973068451170475e-07   1.553822516546944e-05
-7.255434108299912e-06   6.973068451170475e-07   1.553822516546944e-05
-7.255434108299912e-06   6.973068451170475e-07   1.553822516546944e-05
-7.018925056387427e-06   1.2203757104704052e-06   1.650978423849489e-05
-7.018925056387427e-06   1.2203757104704052e-06   1.650978423849489e-05
-7.018925056387427e-06   1.2203757104704052e-06   1.650978423849489e-05
-7.018925056387427e-06   1.2203757104704052e-06   1.650978423849489e-05
-7.555135634256449e-06   -8.945403782393158e-08   1.4830202093069918e-05
-7.555135634256449e-06   -8.945403782393158e-08   1.4830202093069918e-05
-7.555135634256449e-06   -8.945403782393158e-08   1.4830202093069918e-05
-7.555135634256449e-06   -8.945403782393158e-08   1.4830202093069918e-05
-7.591515390530833e-06   8.320332768265879e-07   1.59676055325349e-05
-7.591515390530833e-06   8.320332768265879e-07   1.59676055325349e-05
-7.591515390530833e-06   8.320332768265879e-07   1.59676055325349e-05
-7.591515390530833e-06   8.320332768265879e-07   1.59676055325349e-05
-7.089680576291382e-06   -3.830007672175743e-07   1.5860234601895663e-05
-7.089680576291382e-06   -3.830007672175743e-07   1.5860234601895663e-05
-7.089680576291382e-06   -3.830007672175743e-07   1.5860234601895663e-05
-7.089680576291382e-06   -3.830007672175743e-07   1.5860234601895663e-05
-7.262222877078378e-06   4.5495183206877617e-07   1.564503354363562e-05
-7.262222877078378e-06   4.5495183206877617e-07   1.564503354363562e-05
-7.262222877078378e-06   4.5495183206877617e-07   1.564503354363562e-05
-7.262222877078378e-06   4.5495183206877617e-07   1.564503354363562e-05
-7.089680576291381e-06   8.320332768266266e-07   1.6696625958961223e-05
-7.089680576291381e-06   8.320332768266266e-07   1.6696625958961223e-05
-7.089680576291381e-06   8.320332768266266e-07   1.6696625958961223e-05
-7.089680576291381e-06   8.320332768266266e-07   1.6696625958961223e-05
-7.591515390530833e-06   -3.830007672175743e-07   1.513121417546919e-05
-7.591515390530833e-06   -3.830007672175743e-07   1.513121417546919e-05
-7.591515390530833e-06   -3.830007672175743e-07   1.513121417546919e-05
-7.591515390530833e-06   -3.830007672175743e-07   1.513121417546919e-05
-7.6159286466391475e-06   4.642844847809347e-07   1.640454919530699e-05
-7.6159286466391475e-06   4.642844847809347e-07   1.640454919530699e-05
-7.6159286466391475e-06   4.642844847809347e-07   1.640454919530699e-05
-7.6159286466391475e-06   4.642844847809347e-07   1.640454919530699e-05
-7.1423002458237355e-06   -6.769972686022441e-07   1.629993757931101e-05
-7.1423002458237355e-06   -6.769972686022441e-07   1.629993757931101e-05
-7.1423002458237355e-06   -6.769972686022441e-07   1.629993757931101e-05
-7.1423002458237355e-06   -6.769972686022441e-07   1.629993757931101e-05
-7.281235410451661e-06   2.0595824160875818e-07   1.600172288089696e-05
-7.281235410451661e-06   2.0595824160875818e-07   1.600172288089696e-05
-7.281235410451661e-06   2.0595824160875818e-07   1.600172288089696e-05
-7.281235410451661e-06   2.0595824160875818e-07   1.600172288089696e-05
-7.533874490249173e-06   2.1708304428349607e-06   1.3509826764167526e-05
-7.533874490249173e-06   2.1708304428349607e-06   1.3509826764167526e-05
-7.533874490249173e-06   2.1708304428349607e-06   1.3509826764167526e-05
-7.533874490249173e-06   2.1708304428349607e-06   1.3509826764167526e-05
-8.344680672519434e-06   7.149603360217713e-07   1.1284961062962454e-05
-8.344680672519434e-06   7.149603360217713e-07   1.1284961062962454e-05
-8.344680672519434e-06   7.149603360217713e-07   1.1284961062962454e-05
-8.344680672519434e-06   7.149603360217713e-07   1.1284961062962454e-05
-8.361341713017417e-06   1.7688440442805136e-06   1.2759624632401349e-05
-8.361341713017417e-06   1.7688440442805136e-06   1.2759624632401349e-05
-8.361341713017417e-06   1.7688440442805136e-06   1.2759624632401349e-05
-8.361341713017417e-06   1.7688440442805136e-06   1.2759624632401349e-05
-7.5551356342564665e-06   3.914741515859718e-07   1.2242369770083133e-05
-7.5551356342564665e-06   3.914741515859718e-07   1.2242369770083133e-05
-7.5551356342564665e-06   3.914741515859718e-07   1.2242369770083133e-05
-7.5551356342564665e-06   3.914741515859718e-07   1.2242369770083133e-05
-7.928067703194302e-06   1.2903899158664498e-06   1.2324573759744603e-05
-7.928067703194302e-06   1.2903899158664498e-06   1.2324573759744603e-05
-7.928067703194302e-06   1.2903899158664498e-06   1.2324573759744603e-05
-7.928067703194302e-06   1.2903899158664498e-06   1.2324573759744603e-05
-7.555135634256476e-06   1.7688440442805037e-06   1.3586046568017998e-05
-7.555135634256476e-06   1.7688440442805037e-06   1.3586046568017998e-05
-7.555135634256476e-06   1.7688440442805037e-06   1.3586046568017998e-05
-7.555135634256476e-06   1.7688440442805037e-06   1.3586046568017998e-05
-8.361341713017417e-06   3.914741515859718e-07   1.1415947834466433e-05
-8.361341713017417e-06   3.914741515859718e-07   1.1415947834466433e-05
-8.361341713017417e-06   3.914741515859718e-07   1.1415947834466433e-05
-8.361341713017417e-06   3.914741515859718e-07   1.1415947834466433e-05
-8.454405445174637e-06   1.410829568559654e-06   1.3230764957668966e-05
-8.454405445174637e-06   1.410829568559654e-06   1.3230764957668966e-05
-8.454405445174637e-06   1.410829568559654e-06   1.3230764957668966e-05
-8.454405445174637e-06   1.410829568559654e-06   1.3230764957668966e-05
-7.591515390530834e-06   1.1424811700687246e-07   1.2570563737527684e-05
-7.591515390530834e-06   1.1424811700687246e-07   1.2570563737527684e-05
-7.591515390530834e-06   1.1424811700687246e-07   1.2570563737527684e-05
-7.591515390530834e-06   1.1424811700687246e-07   1.2570563737527684e-05
-7.908088758064972e-06   1.0252082932110055e-06   1.2551609911028768e-05
-7.908088758064972e-06   1.0252082932110055e-06   1.2551609911028768e-05
-7.908088758064972e-06   1.0252082932110055e-06   1.2551609911028768e-05
-7.908088758064972e-06   1.0252082932110055e-06   1.2551609911028768e-05
-7.591515390530833e-06   1.4108295685596726e-06   1.4008713828600429e-05
-7.591515390530833e-06   1.4108295685596726e-06   1.4008713828600429e-05
-7.591515390530833e-06   1.4108295685596726e-06   1.4008713828600429e-05
-7.591515390530833e-06   1.4108295685596726e-06   1.4008713828600429e-05
-8.454405445174637e-06   1.1424811700687246e-07   1.1792614866596086e-05
-8.454405445174637e-06   1.1424811700687246e-07   1.1792614866596086e-05
-8.454405445174637e-06   1.1424811700687246e-07   1.1792614866596086e-05
-8.454405445174637e-06   1.1424811700687246e-07   1.1792614866596086e-05
-8.510694754348193e-06   1.0456977174192958e-06   1.3815590937601182e-05
-8.510694754348193e-06   1.0456977174192958e-06   1.3815590937601182e-05
-8.510694754348193e-06   1.0456977174192958e-06   1.3815590937601182e-05
-8.510694754348193e-06   1.0456977174192958e-06   1.3815590937601182e-05
-7.615928646639108e-06   -1.6536484349688116e-07   1.305095162796899e-05
-7.615928646639108e-06   -1.6536484349688116e-07   1.305095162796899e-05
-7.615928646639108e-06   -1.6536484349688116e-07   1.305095162796899e-05
-7.615928646639108e-06   -1.6536484349688116e-07   1.305095162796899e-05
-7.95056457659247e-06   7.88048745358383e-07   1.303663002457712e-05
-7.95056457659247e-06   7.88048745358383e-07   1.303663002457712e-05
-7.95056457659247e-06   7.88048745358383e-07   1.303663002457712e-05
-7.95056457659247e-06   7.88048745358383e-07   1.303663002457712e-05
-8.344680672519434e-06   2.572293087046988e-06   5.2171544346906904e-06
-8.344680672519434e-06   2.572293087046988e-06   5.2171544346906904e-06
-8.344680672519434e-06   2.572293087046988e-06   5.2171544346906904e-06
-8.344680672519434e-06   2.572293087046988e-06   5.2171544346906904e-06
-8.283363801968682e-06   1.1833721928037905e-06   4.485996682395966e-06
-8.283363801968682e-06   1.1833721928037905e-06   4.485996682395966e-06
-8.283363801968682e-06   1.1833721928037905e-06   4.485996682395966e-06
-8.283363801968682e-06   1.1833721928037905e-06   4.485996682395966e-06
-8.709519411858116e-06   2.3049131884435477e-06   5.719605834199923e-06
-8.709519411858116e-06   2.3049131884435477e-06   5.719605834199923e-06
-8.709519411858116e-06   2.3049131884435477e-06   5.719605834199923e-06
-8.709519411858116e-06   2.3049131884435477e-06   5.719605834199923e-06
-8.361341713017386e-06   9.538099776504783e-07   5.949971595941065e-06
-8.361341713017386e-06   9.538099776504783e-07   5.949971595941065e-06
-8.361341713017386e-06   9.538099776504783e-07   5.949971595941065e-06
-8.361341713017386e-06   9.538099776504783e-07   5.949971595941065e-06
-8.150621625650795e-06   1.8115392580639843e-06   5.084133882081942e-06
-8.150621625650795e-06   1.8115392580639843e-06   5.084133882081942e-06
-8.150621625650795e-06   1.8115392580639843e-06   5.084133882081942e-06
-8.150621625650795e-06   1.8115392580639843e-06   5.084133882081942e-06
-8.361341713017362e-06   2.3049131884435388e-06   6.530267760675645e-06
-8.361341713017362e-06   2.3049131884435388e-06   6.530267760675645e-06
-8.361341713017362e-06   2.3049131884435388e-06   6.530267760675645e-06
-8.361341713017362e-06   2.3049131884435388e-06   6.530267760675645e-06
-8.70951941185817e-06   9.538099776504783e-07   5.139309669465234e-06
-8.70951941185817e-06   9.538099776504783e-07   5.139309669465234e-06
-8.70951941185817e-06   9.538099776504783e-07   5.139309669465234e-06
-8.70951941185817e-06   9.538099776504783e-07   5.139309669465234e-06
-9.083402283278311e-06   2.120941128914695e-06   6.7787745119997096e-06
-9.083402283278311e-06   2.120941128914695e-06   6.7787745119997096e-06
-9.083402283278311e-06   2.120941128914695e-06   6.7787745119997096e-06
-9.083402283278311e-06   2.120941128914695e-06   6.7787745119997096e-06
-8.454405445174612e-06   8.038637401986261e-07   6.520692881723173e-06
-8.454405445174612e-06   8.038637401986261e-07   6.520692881723173e-06
-8.454405445174612e-06   8.038637401986261e-07   6.520692881723173e-06
-8.454405445174612e-06   8.038637401986261e-07   6.520692881723173e-06
-8.455406358711389e-06   1.6784448974593337e-06   5.997612376595061e-06
-8.455406358711389e-06   1.6784448974593337e-06   5.997612376595061e-06
-8.455406358711389e-06   1.6784448974593337e-06   5.997612376595061e-06
-8.455406358711389e-06   1.6784448974593337e-06   5.997612376595061e-06
-8.45440544517461e-06   2.1209411289146516e-06   7.56902094522908e-06
-8.45440544517461e-06   2.1209411289146516e-06   7.56902094522908e-06
-8.45440544517461e-06   2.1209411289146516e-06   7.56902094522908e-06
-8.45440544517461e-06   2.1209411289146516e-06   7.56902094522908e-06
-9.083402283278311e-06   8.038637401986261e-07   5.730446448493559e-06
-9.083402283278311e-06   8.038637401986261e-07   5.730446448493559e-06
-9.083402283278311e-06   8.038637401986261e-07   5.730446448493559e-06
-9.083402283278311e-06   8.038637401986261e-07   5.730446448493559e-06
-9.63681176589093e-06   1.6967971702216847e-06   8.723934484778598e-06
-9.63681176589093e-06   1.6967971702216847e-06   8.723934484778598e-06
-9.63681176589093e-06   1.6967971702216847e-06   8.723934484778598e-06
-9.63681176589093e-06   1.6967971702216847e-06   8.723934484778598e-06
-8.51069475434815e-06   5.00436824459429e-07   7.5648890063309505e-06
-8.51069475434815e-06   5.00436824459429e-07   7.5648890063309505e-06
-8.51069475434815e-06   5.00436824459429e-07   7.5648890063309505e-06
-8.51069475434815e-06   5.00436824459429e-07   7.5648890063309505e-06
-8.558696979563528e-06   1.518764804832361e-06   7.033895926798176e-06
-8.558696979563528e-06   1.518764804832361e-06   7.033895926798176e-06
-8.558696979563528e-06   1.518764804832361e-06   7.033895926798176e-06
-8.558696979563528e-06   1.518764804832361e-06   7.033895926798176e-06
-1.6203594507174095e-05   2.1465100429035867e-06   6.37639793859353e-06
-1.6203594507174095e-05   2.1465100429035867e-06   6.37639793859353e-06
-1.6203594507174095e-05   2.1465100429035867e-06   6.37639793859353e-06
-1.6203594507174095e-05   2.1465100429035867e-06   6.37639793859353e-06
-1.09720969400792e-05   2.968212949729115e-06   1.5588582294513687e-05
-1.09720969400792e-05   2.968212949729115e-06   1.5588582294513687e-05
-1.09720969400792e-05   2.968212949729115e-06   1.5588582294513687e-05
-1.09720969400792e-05   2.968212949729115e-06   1.5588582294513687e-05
-1.0969113468004747e-05   1.674283862783876e-06   7.21279463050293e-06
-1.0969113468004747e-05   1.674283862783876e-06   7.21279463050293e-06
-1.0969113468004747e-05   1.674283862783876e-06   7.21279463050293e-06
-1.0969113468004747e-05   1.674283862783876e-06   7.21279463050293e-06
-1.786652100350963e-05   1.1864726665814103e-06   1.9001160574065956e-05
-1.786652100350963e-05   1.1864726665814103e-06   1.9001160574065956e-05
-1.786652100350963e-05   1.1864726665814103e-06   1.9001160574065956e-05
-1.786652100350963e-05   1.1864726665814103e-06   1.9001160574065956e-05
-1.3279567307334535e-05   1.7552089731712726e-06   1.1014995963153465e-05
-1.3279567307334535e-05   1.7552089731712726e-06   1.1014995963153465e-05
-1.3279567307334535e-05   1.7552089731712726e-06   1.1014995963153465e-05
-1.3279567307334535e-05   1.7552089731712726e-06   1.1014995963153465e-05
-1.7866521003509657e-05   1.6742838627838669e-06   7.50548134822429e-06
-1.7866521003509657e-05   1.6742838627838669e-06   7.50548134822429e-06
-1.7866521003509657e-05   1.6742838627838669e-06   7.50548134822429e-06
-1.7866521003509657e-05   1.6742838627838669e-06   7.50548134822429e-06
-1.096911346800473e-05   1.1864726665814103e-06   1.8708473856344447e-05
-1.096911346800473e-05   1.1864726665814103e-06   1.8708473856344447e-05
-1.096911346800473e-05   1.1864726665814103e-06   1.8708473856344447e-05
-1.096911346800473e-05   1.1864726665814103e-06   1.8708473856344447e-05
-1.1124484367705701e-05   1.3489077380317424e-06   8.053415371638912e-06
-1.1124484367705701e-05   1.3489077380317424e-06   8.053415371638912e-06
-1.1124484367705701e-05   1.3489077380317424e-06   8.053415371638912e-06
-1.1124484367705701e-05   1.3489077380317424e-06   8.053415371638912e-06
-1.7934604617166688e-05   8.457193649527746e-07   1.970552881125462e-05
-1.7934604617166688e-05   8.457193649527746e-07   1.970552881125462e-05
-1.7934604617166688e-05   8.457193649527746e-07   1.970552881125462e-05
-1.7934604617166688e-05   8.457193649527746e-07   1.970552881125462e-05
-1.417959261934464e-05   1.090679524744665e-06   1.3300199385675948e-05
-1.417959261934464e-05   1.090679524744665e-06   1.3300199385675948e-05
-1.417959261934464e-05   1.090679524744665e-06   1.3300199385675948e-05
-1.417959261934464e-05   1.090679524744665e-06   1.3300199385675948e-05
-1.793460461716672e-05   1.3489077380317168e-06   8.355328395486352e-06
-1.793460461716672e-05   1.3489077380317168e-06   8.355328395486352e-06
-1.793460461716672e-05   1.3489077380317168e-06   8.355328395486352e-06
-1.793460461716672e-05   1.3489077380317168e-06   8.355328395486352e-06
-1.112448436770568e-05   8.457193649527746e-07   1.9403615787407262e-05
-1.112448436770568e-05   8.457193649527746e-07   1.9403615787407262e-05
-1.112448436770568e-05   8.457193649527746e-07   1.9403615787407262e-05
-1.112448436770568e-05   8.457193649527746e-07   1.9403615787407262e-05
-1.1011386329905624e-05   5.49208973681754e-07   9.52262774991098e-06
-1.1011386329905624e-05   5.49208973681754e-07   9.52262774991098e-06
-1.1011386329905624e-05   5.49208973681754e-07   9.52262774991098e-06
-1.1011386329905624e-05   5.49208973681754e-07   9.52262774991098e-06
-1.8137679201569545e-05   -6.067266463914147e-07   2.209334390806133e-05
-1.8137679201569545e-05   -6.067266463914147e-07   2.209334390806133e-05
-1.8137679201569545e-05   -6.067266463914147e-07   2.209334390806133e-05
-1.8137679201569545e-05   -6.067266463914147e-07   2.209334390806133e-05
-1.3968996022503245e-05   5.218093427857874e-07   1.4468417016111209e-05
-1.3968996022503245e-05   5.218093427857874e-07   1.4468417016111209e-05
-1.3968996022503245e-05   5.218093427857874e-07   1.4468417016111209e-05
-1.3968996022503245e-05   5.218093427857874e-07   1.4468417016111209e-05
-1.097209694007922e-05   5.562958352574389e-07   1.4548388316188256e-05
-1.097209694007922e-05   5.562958352574389e-07   1.4548388316188256e-05
-1.097209694007922e-05   5.562958352574389e-07   1.4548388316188256e-05
-1.097209694007922e-05   5.562958352574389e-07   1.4548388316188256e-05
-6.748139268646688e-06   -3.40311658165608e-06   1.9212670318427696e-05
-6.748139268646688e-06   -3.40311658165608e-06   1.9212670318427696e-05
-6.748139268646688e-06   -3.40311658165608e-06   1.9212670318427696e-05
-6.748139268646688e-06   -3.40311658165608e-06   1.9212670318427696e-05
-6.765519094879542e-06   2.6454422854036265e-07   1.2204186159900734e-05
-6.765519094879542e-06   2.6454422854036265e-07   1.2204186159900734e-05
-6.765519094879542e-06   2.6454422854036265e-07   1.2204186159900734e-05
-6.765519094879542e-06   2.6454422854036265e-07   1.2204186159900734e-05
-1.096911346800473e-05   -2.792200132359845e-06   2.1044223398316153e-05
-1.096911346800473e-05   -2.792200132359845e-06   2.1044223398316153e-05
-1.096911346800473e-05   -2.792200132359845e-06   2.1044223398316153e-05
-1.096911346800473e-05   -2.792200132359845e-06   2.1044223398316153e-05
-8.818080483492935e-06   -1.683991581636398e-06   1.6794243293695766e-05
-8.818080483492935e-06   -1.683991581636398e-06   1.6794243293695766e-05
-8.818080483492935e-06   -1.683991581636398e-06   1.6794243293695766e-05
-8.818080483492935e-06   -1.683991581636398e-06   1.6794243293695766e-05
-1.0969113468004743e-05   2.645442285403431e-07   1.4038232776440664e-05
-1.0969113468004743e-05   2.645442285403431e-07   1.4038232776440664e-05
-1.0969113468004743e-05   2.645442285403431e-07   1.4038232776440664e-05
-1.0969113468004743e-05   2.645442285403431e-07   1.4038232776440664e-05
-6.765519094879528e-06   -2.792200132359845e-06   1.9210176781776054e-05
-6.765519094879528e-06   -2.792200132359845e-06   1.9210176781776054e-05
-6.765519094879528e-06   -2.792200132359845e-06   1.9210176781776054e-05
-6.765519094879528e-06   -2.792200132359845e-06   1.9210176781776054e-05
-6.797390827469491e-06   -7.177996668724469e-08   1.2575829650408453e-05
-6.797390827469491e-06   -7.177996668724469e-08   1.2575829650408453e-05
-6.797390827469491e-06   -7.177996668724469e-08   1.2575829650408453e-05
-6.797390827469491e-06   -7.177996668724469e-08   1.2575829650408453e-05
-1.1124484367705684e-05   -2.8536281334982938e-06   2.1456761117555448e-05
-1.1124484367705684e-05   -2.8536281334982938e-06   2.1456761117555448e-05
-1.1124484367705684e-05   -2.8536281334982938e-06   2.1456761117555448e-05
-1.1124484367705684e-05   -2.8536281334982938e-06   2.1456761117555448e-05
-8.757516571598547e-06   -1.4715526300409175e-06   1.668256948863572e-05
-8.757516571598547e-06   -1.4715526300409175e-06   1.668256948863572e-05
-8.757516571598547e-06   -1.4715526300409175e-06   1.668256948863572e-05
-8.757516571598547e-06   -1.4715526300409175e-06   1.668256948863572e-05
-1.1124484367705701e-05   -7.177996668725205e-08   1.4244938550495142e-05
-1.1124484367705701e-05   -7.177996668725205e-08   1.4244938550495142e-05
-1.1124484367705701e-05   -7.177996668725205e-08   1.4244938550495142e-05
-1.1124484367705701e-05   -7.177996668725205e-08   1.4244938550495142e-05
-6.7973908274694775e-06   -2.8536281334982938e-06   1.978765221746876e-05
-6.7973908274694775e-06   -2.8536281334982938e-06   1.978765221746876e-05
-6.7973908274694775e-06   -2.8536281334982938e-06   1.978765221746876e-05
-6.7973908274694775e-06   -2.8536281334982938e-06   1.978765221746876e-05
-6.737394667281698e-06   -5.125183884581745e-07   1.3040572463346662e-05
-6.737394667281698e-06   -5.125183884581745e-07   1.3040572463346662e-05
-6.737394667281698e-06   -5.125183884581745e-07   1.3040572463346662e-05
-6.737394667281698e-06   -5.125183884581745e-07   1.3040572463346662e-05
-1.1011386329905593e-05   -2.8742417127006767e-06   2.1580925895598608e-05
-1.1011386329905593e-05   -2.8742417127006767e-06   2.1580925895598608e-05
-1.1011386329905593e-05   -2.8742417127006767e-06   2.1580925895598608e-05
-1.1011386329905593e-05   -2.8742417127006767e-06   2.1580925895598608e-05
-8.803903407723258e-06   -1.6486656662254105e-06   1.7166442064076254e-05
-8.803903407723258e-06   -1.6486656662254105e-06   1.7166442064076254e-05
-8.803903407723258e-06   -1.6486656662254105e-06   1.7166442064076254e-05
-8.803903407723258e-06   -1.6486656662254105e-06   1.7166442064076254e-05
-6.748139268646688e-06   1.557627424515784e-07   1.3461828066214324e-05
-6.748139268646688e-06   1.557627424515784e-07   1.3461828066214324e-05
-6.748139268646688e-06   1.557627424515784e-07   1.3461828066214324e-05
-6.748139268646688e-06   1.557627424515784e-07   1.3461828066214324e-05
-4.985016828939982e-06   -2.6591185998118996e-06   1.4711436660367524e-05
-4.985016828939982e-06   -2.6591185998118996e-06   1.4711436660367524e-05
-4.985016828939982e-06   -2.6591185998118996e-06   1.4711436660367524e-05
-4.985016828939982e-06   -2.6591185998118996e-06   1.4711436660367524e-05
-4.94485042124151e-06   -8.945403782393158e-08   1.188078495611473e-05
-4.94485042124151e-06   -8.945403782393158e-08   1.188078495611473e-05
-4.94485042124151e-06   -8.945403782393158e-08   1.188078495611473e-05
-4.94485042124151e-06   -8.945403782393158e-08   1.188078495611473e-05
-6.765519094879527e-06   -2.6115909946018007e-06   1.642851491957814e-05
-6.765519094879527e-06   -2.6115909946018007e-06   1.642851491957814e-05
-6.765519094879527e-06   -2.6115909946018007e-06   1.642851491957814e-05
-6.765519094879527e-06   -2.6115909946018007e-06   1.642851491957814e-05
-5.825529179925721e-06   -1.3426195311536885e-06   1.4100482183252843e-05
-5.825529179925721e-06   -1.3426195311536885e-06   1.4100482183252843e-05
-5.825529179925721e-06   -1.3426195311536885e-06   1.4100482183252843e-05
-5.825529179925721e-06   -1.3426195311536885e-06   1.4100482183252843e-05
-6.765519094879528e-06   -8.945403782389998e-08   1.3394067130181311e-05
-6.765519094879528e-06   -8.945403782389998e-08   1.3394067130181311e-05
-6.765519094879528e-06   -8.945403782389998e-08   1.3394067130181311e-05
-6.765519094879528e-06   -8.945403782389998e-08   1.3394067130181311e-05
-4.94485042124151e-06   -2.6115909946018007e-06   1.4915232745511373e-05
-4.94485042124151e-06   -2.6115909946018007e-06   1.4915232745511373e-05
-4.94485042124151e-06   -2.6115909946018007e-06   1.4915232745511373e-05
-4.94485042124151e-06   -2.6115909946018007e-06   1.4915232745511373e-05
-4.911870440034227e-06   -3.830007672175743e-07   1.2162866278952566e-05
-4.911870440034227e-06   -3.830007672175743e-07   1.2162866278952566e-05
-4.911870440034227e-06   -3.830007672175743e-07   1.2162866278952566e-05
-4.911870440034227e-06   -3.830007672175743e-07   1.2162866278952566e-05
-6.797390827469475e-06   -2.690239403761995e-06   1.668974343993799e-05
-6.797390827469475e-06   -2.690239403761995e-06   1.668974343993799e-05
-6.797390827469475e-06   -2.690239403761995e-06   1.668974343993799e-05
-6.797390827469475e-06   -2.690239403761995e-06   1.668974343993799e-05
-5.778509539261336e-06   -1.4294093013102953e-06   1.4235109898119876e-05
-5.778509539261336e-06   -1.4294093013102953e-06   1.4235109898119876e-05
-5.778509539261336e-06   -1.4294093013102953e-06   1.4235109898119876e-05
-5.778509539261336e-06   -1.4294093013102953e-06   1.4235109898119876e-05
-6.7973908274694775e-06   -3.8300076721760123e-07   1.3547209460879344e-05
-6.7973908274694775e-06   -3.8300076721760123e-07   1.3547209460879344e-05
-6.7973908274694775e-06   -3.8300076721760123e-07   1.3547209460879344e-05
-6.7973908274694775e-06   -3.8300076721760123e-07   1.3547209460879344e-05
-4.911870440034227e-06   -2.690239403761995e-06   1.5305400258011363e-05
-4.911870440034227e-06   -2.690239403761995e-06   1.5305400258011363e-05
-4.911870440034227e-06   -2.690239403761995e-06   1.5305400258011363e-05
-4.911870440034227e-06   -2.690239403761995e-06   1.5305400258011363e-05
-4.821700770647687e-06   -6.769972686021899e-07   1.2600351551314841e-05
-4.821700770647687e-06   -6.769972686021899e-07   1.2600351551314841e-05
-4.821700770647687e-06   -6.769972686021899e-07   1.2600351551314841e-05
-4.821700770647687e-06   -6.769972686021899e-07   1.2600351551314841e-05
-6.7373946672817e-06   -2.799866794746573e-06   1.7066896428058074e-05
-6.7373946672817e-06   -2.799866794746573e-06   1.7066896428058074e-05
-6.7373946672817e-06   -2.799866794746573e-06   1.7066896428058074e-05
-6.7373946672817e-06   -2.799866794746573e-06   1.7066896428058074e-05
-5.723873391332953e-06   -1.557026186229304e-06   1.4631989936366471e-05
-5.723873391332953e-06   -1.557026186229304e-06   1.4631989936366471e-05
-5.723873391332953e-06   -1.557026186229304e-06   1.4631989936366471e-05
-5.723873391332953e-06   -1.557026186229304e-06   1.4631989936366471e-05
-4.985016828939982e-06   7.149603360217609e-07   9.182150987285332e-06
-4.985016828939982e-06   7.149603360217609e-07   9.182150987285332e-06
-4.985016828939982e-06   7.149603360217609e-07   9.182150987285332e-06
-4.985016828939982e-06   7.149603360217609e-07   9.182150987285332e-06
-4.18027054402485e-06   -1.0931891249167614e-06   9.438505118914103e-06
-4.18027054402485e-06   -1.0931891249167614e-06   9.438505118914103e-06
-4.18027054402485e-06   -1.0931891249167614e-06   9.438505118914103e-06
-4.18027054402485e-06   -1.0931891249167614e-06   9.438505118914103e-06
-4.095517695312638e-06   3.91474151586026e-07   8.291417436994482e-06
-4.095517695312638e-06   3.91474151586026e-07   8.291417436994482e-06
-4.095517695312638e-06   3.91474151586026e-07   8.291417436994482e-06
-4.095517695312638e-06   3.91474151586026e-07   8.291417436994482e-06
-4.944850421241522e-06   -1.2777511753029984e-06   1.070850717634276e-05
-4.944850421241522e-06   -1.2777511753029984e-06   1.070850717634276e-05
-4.944850421241522e-06   -1.2777511753029984e-06   1.070850717634276e-05
-4.944850421241522e-06   -1.2777511753029984e-06   1.070850717634276e-05
-4.518426811932642e-06   -2.4972863197644064e-07   9.380987634831958e-06
-4.518426811932642e-06   -2.4972863197644064e-07   9.380987634831958e-06
-4.518426811932642e-06   -2.4972863197644064e-07   9.380987634831958e-06
-4.518426811932642e-06   -2.4972863197644064e-07   9.380987634831958e-06
-4.94485042124151e-06   3.9147415158595984e-07   9.292952633127756e-06
-4.94485042124151e-06   3.9147415158595984e-07   9.292952633127756e-06
-4.94485042124151e-06   3.9147415158595984e-07   9.292952633127756e-06
-4.94485042124151e-06   3.9147415158595984e-07   9.292952633127756e-06
-4.095517695312638e-06   -1.2777511753029984e-06   9.706971980209296e-06
-4.095517695312638e-06   -1.2777511753029984e-06   9.706971980209296e-06
-4.095517695312638e-06   -1.2777511753029984e-06   9.706971980209296e-06
-4.095517695312638e-06   -1.2777511753029984e-06   9.706971980209296e-06
-4.06026663443156e-06   1.1424811700687246e-07   8.68203445176575e-06
-4.06026663443156e-06   1.1424811700687246e-07   8.68203445176575e-06
-4.06026663443156e-06   1.1424811700687246e-07   8.68203445176575e-06
-4.06026663443156e-06   1.1424811700687246e-07   8.68203445176575e-06
-4.911870440034218e-06   -1.4193875317352798e-06   1.1021555517015528e-05
-4.911870440034218e-06   -1.4193875317352798e-06   1.1021555517015528e-05
-4.911870440034218e-06   -1.4193875317352798e-06   1.1021555517015528e-05
-4.911870440034218e-06   -1.4193875317352798e-06   1.1021555517015528e-05
-4.434218734127413e-06   -4.4607011047523466e-07   9.641478887747936e-06
-4.434218734127413e-06   -4.4607011047523466e-07   9.641478887747936e-06
-4.434218734127413e-06   -4.4607011047523466e-07   9.641478887747936e-06
-4.434218734127413e-06   -4.4607011047523466e-07   9.641478887747936e-06
-4.911870440034227e-06   1.1424811700686517e-07   9.602215841011182e-06
-4.911870440034227e-06   1.1424811700686517e-07   9.602215841011182e-06
-4.911870440034227e-06   1.1424811700686517e-07   9.602215841011182e-06
-4.911870440034227e-06   1.1424811700686517e-07   9.602215841011182e-06
-4.06026663443156e-06   -1.4193875317352798e-06   1.0101374127770285e-05
-4.06026663443156e-06   -1.4193875317352798e-06   1.0101374127770285e-05
-4.06026663443156e-06   -1.4193875317352798e-06   1.0101374127770285e-05
-4.06026663443156e-06   -1.4193875317352798e-06   1.0101374127770285e-05
-3.998842288662602e-06   -1.6536484349693537e-07   9.172556884311884e-06
-3.998842288662602e-06   -1.6536484349693537e-07   9.172556884311884e-06
-3.998842288662602e-06   -1.6536484349693537e-07   9.172556884311884e-06
-3.998842288662602e-06   -1.6536484349693537e-07   9.172556884311884e-06
-4.821700770647683e-06   -1.6046611229815217e-06   1.1407565455310946e-05
-4.821700770647683e-06   -1.6046611229815217e-06   1.1407565455310946e-05
-4.821700770647683e-06   -1.6046611229815217e-06   1.1407565455310946e-05
-4.821700770647683e-06   -1.6046611229815217e-06   1.1407565455310946e-05
-4.370753895033993e-06   -6.186143530345091e-07   1.0064359267320053e-05
-4.370753895033993e-06   -6.186143530345091e-07   1.0064359267320053e-05
-4.370753895033993e-06   -6.186143530345091e-07   1.0064359267320053e-05
-4.370753895033993e-06   -6.186143530345091e-07   1.0064359267320053e-05
-4.18027054402485e-06   1.1833721928037819e-06   2.131649466701553e-06
-4.18027054402485e-06   1.1833721928037819e-06   2.131649466701553e-06
-4.18027054402485e-06   1.1833721928037819e-06   2.131649466701553e-06
-4.18027054402485e-06   1.1833721928037819e-06   2.131649466701553e-06
-2.4548117905905196e-06   -1.1900547455936722e-07   4.22598745534081e-06
-2.4548117905905196e-06   -1.1900547455936722e-07   4.22598745534081e-06
-2.4548117905905196e-06   -1.1900547455936722e-07   4.22598745534081e-06
-2.4548117905905196e-06   -1.1900547455936722e-07   4.22598745534081e-06
-2.5981961765659633e-06   9.53809977650424e-07   2.1527661861353185e-06
-2.5981961765659633e-06   9.53809977650424e-07   2.1527661861353185e-06
-2.5981961765659633e-06   9.53809977650424e-07   2.1527661861353185e-06
-2.5981961765659633e-06   9.53809977650424e-07   2.1527661861353185e-06
-4.095517695312621e-06   -1.673150429062323e-07   5.320977063047016e-06
-4.095517695312621e-06   -1.673150429062323e-07   5.320977063047016e-06
-4.095517695312621e-06   -1.673150429062323e-07   5.320977063047016e-06
-4.095517695312621e-06   -1.673150429062323e-07   5.320977063047016e-06
-3.217502228453111e-06   6.091574296377875e-07   3.391734468088177e-06
-3.217502228453111e-06   6.091574296377875e-07   3.391734468088177e-06
-3.217502228453111e-06   6.091574296377875e-07   3.391734468088177e-06
-3.217502228453111e-06   6.091574296377875e-07   3.391734468088177e-06
-4.095517695312638e-06   9.538099776504569e-07   2.8254411984690087e-06
-4.095517695312638e-06   9.538099776504569e-07   2.8254411984690087e-06
-4.095517695312638e-06   9.538099776504569e-07   2.8254411984690087e-06
-4.095517695312638e-06   9.538099776504569e-07   2.8254411984690087e-06
-2.598196176565909e-06   -1.673150429062052e-07   4.648302050713001e-06
-2.598196176565909e-06   -1.673150429062052e-07   4.648302050713001e-06
-2.598196176565909e-06   -1.673150429062052e-07   4.648302050713001e-06
-2.598196176565909e-06   -1.673150429062052e-07   4.648302050713001e-06
-2.7165343850613674e-06   8.038637401985719e-07   2.7884435290597125e-06
-2.7165343850613674e-06   8.038637401985719e-07   2.7884435290597125e-06
-2.7165343850613674e-06   8.038637401985719e-07   2.7884435290597125e-06
-2.7165343850613674e-06   8.038637401985719e-07   2.7884435290597125e-06
-4.060266634431545e-06   -2.322511561900231e-07   5.649666215843221e-06
-4.060266634431545e-06   -2.322511561900231e-07   5.649666215843221e-06
-4.060266634431545e-06   -2.322511561900231e-07   5.649666215843221e-06
-4.060266634431545e-06   -2.322511561900231e-07   5.649666215843221e-06
-3.2794699703819905e-06   4.964608294030152e-07   3.911111251071449e-06
-3.2794699703819905e-06   4.964608294030152e-07   3.911111251071449e-06
-3.2794699703819905e-06   4.964608294030152e-07   3.911111251071449e-06
-3.2794699703819905e-06   4.964608294030152e-07   3.911111251071449e-06
-4.06026663443156e-06   8.038637401985825e-07   3.4101124668930267e-06
-4.06026663443156e-06   8.038637401985825e-07   3.4101124668930267e-06
-4.06026663443156e-06   8.038637401985825e-07   3.4101124668930267e-06
-4.06026663443156e-06   8.038637401985825e-07   3.4101124668930267e-06
-2.7165343850613674e-06   -2.322511561900231e-07   5.027997278009961e-06
-2.7165343850613674e-06   -2.322511561900231e-07   5.027997278009961e-06
-2.7165343850613674e-06   -2.322511561900231e-07   5.027997278009961e-06
-2.7165343850613674e-06   -2.322511561900231e-07   5.027997278009961e-06
-2.9991053776984864e-06   5.004368244594833e-07   3.925298378159095e-06
-2.9991053776984864e-06   5.004368244594833e-07   3.925298378159095e-06
-2.9991053776984864e-06   5.004368244594833e-07   3.925298378159095e-06
-2.9991053776984864e-06   5.004368244594833e-07   3.925298378159095e-06
-3.998842288662599e-06   -3.1261887731501574e-07   6.079359984163769e-06
-3.998842288662599e-06   -3.1261887731501574e-07   6.079359984163769e-06
-3.998842288662599e-06   -3.1261887731501574e-07   6.079359984163769e-06
-3.998842288662599e-06   -3.1261887731501574e-07   6.079359984163769e-06
-3.29133446681532e-06   4.1938426602339e-07   4.460978395081662e-06
-3.29133446681532e-06   4.1938426602339e-07   4.460978395081662e-06
-3.29133446681532e-06   4.1938426602339e-07   4.460978395081662e-06
-3.29133446681532e-06   4.1938426602339e-07   4.460978395081662e-06
-3.8137881403287254e-05   2.968212949729132e-06   1.655111334703419e-05
-3.8137881403287254e-05   2.968212949729132e-06   1.655111334703419e-05
-3.8137881403287254e-05   2.968212949729132e-06   1.655111334703419e-05
-3.8137881403287254e-05   2.968212949729132e-06   1.655111334703419e-05
-8.941850809049767e-06   -1.8891097762112203e-05   5.209557791032525e-05
-8.941850809049767e-06   -1.8891097762112203e-05   5.209557791032525e-05
-8.941850809049767e-06   -1.8891097762112203e-05   5.209557791032525e-05
-8.941850809049767e-06   -1.8891097762112203e-05   5.209557791032525e-05
-1.0511840312633396e-05   1.1864726665814103e-06   9.064523782802402e-06
-1.0511840312633396e-05   1.1864726665814103e-06   9.064523782802402e-06
-1.0511840312633396e-05   1.1864726665814103e-06   9.064523782802402e-06
-1.0511840312633396e-05   1.1864726665814103e-06   9.064523782802402e-06
-3.4783018954574213e-05   -1.4721594212867635e-05   5.906132831370644e-05
-3.4783018954574213e-05   -1.4721594212867635e-05   5.906132831370644e-05
-3.4783018954574213e-05   -1.4721594212867635e-05   5.906132831370644e-05
-3.4783018954574213e-05   -1.4721594212867635e-05   5.906132831370644e-05
-2.318511919350039e-05   -7.3274308966487855e-06   3.5294997388852096e-05
-2.318511919350039e-05   -7.3274308966487855e-06   3.5294997388852096e-05
-2.318511919350039e-05   -7.3274308966487855e-06   3.5294997388852096e-05
-2.318511919350039e-05   -7.3274308966487855e-06   3.5294997388852096e-05
-3.478301895457415e-05   1.1864726665814125e-06   1.8609363910471795e-05
-3.478301895457415e-05   1.1864726665814125e-06   1.8609363910471795e-05
-3.478301895457415e-05   1.1864726665814125e-06   1.8609363910471795e-05
-3.478301895457415e-05   1.1864726665814125e-06   1.8609363910471795e-05
-1.0511840312633409e-05   -1.4721594212867635e-05   4.951648818603703e-05
-1.0511840312633409e-05   -1.4721594212867635e-05   4.951648818603703e-05
-1.0511840312633409e-05   -1.4721594212867635e-05   4.951648818603703e-05
-1.0511840312633409e-05   -1.4721594212867635e-05   4.951648818603703e-05
-1.0757726692142115e-05   8.457193649527746e-07   9.962318636766763e-06
-1.0757726692142115e-05   8.457193649527746e-07   9.962318636766763e-06
-1.0757726692142115e-05   8.457193649527746e-07   9.962318636766763e-06
-1.0757726692142115e-05   8.457193649527746e-07   9.962318636766763e-06
-3.282054759906393e-05   -1.2717632644100173e-05   5.487169802040147e-05
-3.282054759906393e-05   -1.2717632644100173e-05   5.487169802040147e-05
-3.282054759906393e-05   -1.2717632644100173e-05   5.487169802040147e-05
-3.282054759906393e-05   -1.2717632644100173e-05   5.487169802040147e-05
-2.249810640011704e-05   -6.94607066576794e-06   3.420469216849067e-05
-2.249810640011704e-05   -6.94607066576794e-06   3.420469216849067e-05
-2.249810640011704e-05   -6.94607066576794e-06   3.420469216849067e-05
-2.249810640011704e-05   -6.94607066576794e-06   3.420469216849067e-05
-3.282054759906387e-05   8.457193649527867e-07   1.810032984219851e-05
-3.282054759906387e-05   8.457193649527867e-07   1.810032984219851e-05
-3.282054759906387e-05   8.457193649527867e-07   1.810032984219851e-05
-3.282054759906387e-05   8.457193649527867e-07   1.810032984219851e-05
-1.0757726692142129e-05   -1.2717632644100173e-05   4.673368681496971e-05
-1.0757726692142129e-05   -1.2717632644100173e-05   4.673368681496971e-05
-1.0757726692142129e-05   -1.2717632644100173e-05   4.673368681496971e-05
-1.0757726692142129e-05   -1.2717632644100173e-05   4.673368681496971e-05
-1.1800611395167426e-05   -6.067266463914147e-07   1.2467488162197745e-05
-1.1800611395167426e-05   -6.067266463914147e-07   1.2467488162197745e-05
-1.1800611395167426e-05   -6.067266463914147e-07   1.2467488162197745e-05
-1.1800611395167426e-05   -6.067266463914147e-07   1.2467488162197745e-05
-3.0302233317885695e-05   -1.0053091077883776e-05   4.897134335895687e-05
-3.0302233317885695e-05   -1.0053091077883776e-05   4.897134335895687e-05
-3.0302233317885695e-05   -1.0053091077883776e-05   4.897134335895687e-05
-3.0302233317885695e-05   -1.0053091077883776e-05   4.897134335895687e-05
-2.1648493734981248e-05   -6.413665491093298e-06   3.2364788702041865e-05
-2.1648493734981248e-05   -6.413665491093298e-06   3.2364788702041865e-05
-2.1648493734981248e-05   -6.413665491093298e-06   3.2364788702041865e-05
-2.1648493734981248e-05   -6.413665491093298e-06   3.2364788702041865e-05
-8.941850809049754e-06   -3.4031165816560867e-06   9.435262393991511e-06
-8.941850809049754e-06   -3.4031165816560867e-06   9.435262393991511e-06
-8.941850809049754e-06   -3.4031165816560867e-06   9.435262393991511e-06
-8.941850809049754e-06   -3.4031165816560867e-06   9.435262393991511e-06
-3.1078074634522713e-06   -5.926619521512182e-06   1.764456620607366e-05
-3.1078074634522713e-06   -5.926619521512182e-06   1.764456620607366e-05
-3.1078074634522713e-06   -5.926619521512182e-06   1.764456620607366e-05
-3.1078074634522713e-06   -5.926619521512182e-06   1.764456620607366e-05
-3.4813761322891902e-06   -2.792200132359818e-06   8.378642362788605e-06
-3.4813761322891902e-06   -2.792200132359818e-06   8.378642362788605e-06
-3.4813761322891902e-06   -2.792200132359818e-06   8.378642362788605e-06
-3.4813761322891902e-06   -2.792200132359818e-06   8.378642362788605e-06
-1.0511840312633409e-05   -7.828251735669057e-06   2.311771362534774e-05
-1.0511840312633409e-05   -7.828251735669057e-06   2.311771362534774e-05
-1.0511840312633409e-05   -7.828251735669057e-06   2.311771362534774e-05
-1.0511840312633409e-05   -7.828251735669057e-06   2.311771362534774e-05
-6.1710675858366845e-06   -4.090802507545981e-06   1.3640622877145964e-05
-6.1710675858366845e-06   -4.090802507545981e-06   1.3640622877145964e-05
-6.1710675858366845e-06   -4.090802507545981e-06   1.3640622877145964e-05
-6.1710675858366845e-06   -4.090802507545981e-06   1.3640622877145964e-05
-1.0511840312633382e-05   -2.7922001323598274e-06   1.1400273324774007e-05
-1.0511840312633382e-05   -2.7922001323598274e-06   1.1400273324774007e-05
-1.0511840312633382e-05   -2.7922001323598274e-06   1.1400273324774007e-05
-1.0511840312633382e-05   -2.7922001323598274e-06   1.1400273324774007e-05
-3.481376132289204e-06   -7.828251735669057e-06   2.009608266336221e-05
-3.481376132289204e-06   -7.828251735669057e-06   2.009608266336221e-05
-3.481376132289204e-06   -7.828251735669057e-06   2.009608266336221e-05
-3.481376132289204e-06   -7.828251735669057e-06   2.009608266336221e-05
-3.802171435037419e-06   -2.853628133498321e-06   9.422150595750828e-06
-3.802171435037419e-06   -2.853628133498321e-06   9.422150595750828e-06
-3.802171435037419e-06   -2.853628133498321e-06   9.422150595750828e-06
-3.802171435037419e-06   -2.853628133498321e-06   9.422150595750828e-06
-1.0757726692142132e-05   -7.175817085438519e-06   2.3608056062089414e-05
-1.0757726692142132e-05   -7.175817085438519e-06   2.3608056062089414e-05
-1.0757726692142132e-05   -7.175817085438519e-06   2.3608056062089414e-05
-1.0757726692142132e-05   -7.175817085438519e-06   2.3608056062089414e-05
-6.969520714141318e-06   -4.992141850709709e-06   1.598417429125088e-05
-6.969520714141318e-06   -4.992141850709709e-06   1.598417429125088e-05
-6.969520714141318e-06   -4.992141850709709e-06   1.598417429125088e-05
-6.969520714141318e-06   -4.992141850709709e-06   1.598417429125088e-05
-1.0757726692142129e-05   -2.8536281334983247e-06   1.201546396691495e-05
-1.0757726692142129e-05   -2.8536281334983247e-06   1.201546396691495e-05
-1.0757726692142129e-05   -2.8536281334983247e-06   1.201546396691495e-05
-1.0757726692142129e-05   -2.8536281334983247e-06   1.201546396691495e-05
-3.802171435037419e-06   -7.175817085438519e-06   2.1014742690925285e-05
-3.802171435037419e-06   -7.175817085438519e-06   2.1014742690925285e-05
-3.802171435037419e-06   -7.175817085438519e-06   2.1014742690925285e-05
-3.802171435037419e-06   -7.175817085438519e-06   2.1014742690925285e-05
-4.325611892569989e-06   -2.874241712700704e-06   1.0315632236742938e-05
-4.325611892569989e-06   -2.874241712700704e-06   1.0315632236742938e-05
-4.325611892569989e-06   -2.874241712700704e-06   1.0315632236742938e-05
-4.325611892569989e-06   -2.874241712700704e-06   1.0315632236742938e-05
-1.1800611395167416e-05   -6.762573854427284e-06   2.5106964026107897e-05
-1.1800611395167416e-05   -6.762573854427284e-06   2.5106964026107897e-05
-1.1800611395167416e-05   -6.762573854427284e-06   2.5106964026107897e-05
-1.1800611395167416e-05   -6.762573854427284e-06   2.5106964026107897e-05
-7.441184121391755e-06   -4.559586839810302e-06   1.6519459694378275e-05
-7.441184121391755e-06   -4.559586839810302e-06   1.6519459694378275e-05
-7.441184121391755e-06   -4.559586839810302e-06   1.6519459694378275e-05
-7.441184121391755e-06   -4.559586839810302e-06   1.6519459694378275e-05
-3.1078074634522713e-06   -2.6591185998118894e-06   5.1088557773757e-06
-3.1078074634522713e-06   -2.6591185998118894e-06   5.1088557773757e-06
-3.1078074634522713e-06   -2.6591185998118894e-06   5.1088557773757e-06
-3.1078074634522713e-06   -2.6591185998118894e-06   5.1088557773757e-06
-1.7382600404039939e-06   -1.6956108879554452e-06   7.96953944290341e-06
-1.7382600404039939e-06   -1.6956108879554452e-06   7.96953944290341e-06
-1.7382600404039939e-06   -1.6956108879554452e-06   7.96953944290341e-06
-1.7382600404039939e-06   -1.6956108879554452e-06   7.96953944290341e-06
-1.6758433271507611e-06   -2.611590994601855e-06   5.840090835174138e-06
-1.6758433271507611e-06   -2.611590994601855e-06   5.840090835174138e-06
-1.6758433271507611e-06   -2.611590994601855e-06   5.840090835174138e-06
-1.6758433271507611e-06   -2.611590994601855e-06   5.840090835174138e-06
-3.481376132289197e-06   -2.2064071036293775e-06   8.60620184248796e-06
-3.481376132289197e-06   -2.2064071036293775e-06   8.60620184248796e-06
-3.481376132289197e-06   -2.2064071036293775e-06   8.60620184248796e-06
-3.481376132289197e-06   -2.2064071036293775e-06   8.60620184248796e-06
-2.342086613317483e-06   -2.1641555323305872e-06   6.6820350347557105e-06
-2.342086613317483e-06   -2.1641555323305872e-06   6.6820350347557105e-06
-2.342086613317483e-06   -2.1641555323305872e-06   6.6820350347557105e-06
-2.342086613317483e-06   -2.1641555323305872e-06   6.6820350347557105e-06
-3.4813761322891767e-06   -2.6115909946018354e-06   5.59698050059065e-06
-3.4813761322891767e-06   -2.6115909946018354e-06   5.59698050059065e-06
-3.4813761322891767e-06   -2.6115909946018354e-06   5.59698050059065e-06
-3.4813761322891767e-06   -2.6115909946018354e-06   5.59698050059065e-06
-1.6758433271507611e-06   -2.2064071036293707e-06   8.849312177071448e-06
-1.6758433271507611e-06   -2.2064071036293707e-06   8.849312177071448e-06
-1.6758433271507611e-06   -2.2064071036293707e-06   8.849312177071448e-06
-1.6758433271507611e-06   -2.2064071036293707e-06   8.849312177071448e-06
-1.6840679848687987e-06   -2.690239403761995e-06   6.247712324200733e-06
-1.6840679848687987e-06   -2.690239403761995e-06   6.247712324200733e-06
-1.6840679848687987e-06   -2.690239403761995e-06   6.247712324200733e-06
-1.6840679848687987e-06   -2.690239403761995e-06   6.247712324200733e-06
-3.802171435037414e-06   -2.817788560460887e-06   9.854414235167629e-06
-3.802171435037414e-06   -2.817788560460887e-06   9.854414235167629e-06
-3.802171435037414e-06   -2.817788560460887e-06   9.854414235167629e-06
-3.802171435037414e-06   -2.817788560460887e-06   9.854414235167629e-06
-2.4901109734848137e-06   -2.3658916936573568e-06   7.396508679164581e-06
-2.4901109734848137e-06   -2.3658916936573568e-06   7.396508679164581e-06
-2.4901109734848137e-06   -2.3658916936573568e-06   7.396508679164581e-06
-2.4901109734848137e-06   -2.3658916936573568e-06   7.396508679164581e-06
-3.802171435037392e-06   -2.6902394037619912e-06   6.324241818220059e-06
-3.802171435037392e-06   -2.6902394037619912e-06   6.324241818220059e-06
-3.802171435037392e-06   -2.6902394037619912e-06   6.324241818220059e-06
-3.802171435037392e-06   -2.6902394037619912e-06   6.324241818220059e-06
-1.6840679848687987e-06   -2.817788560460887e-06   9.777884741148302e-06
-1.6840679848687987e-06   -2.817788560460887e-06   9.777884741148302e-06
-1.6840679848687987e-06   -2.817788560460887e-06   9.777884741148302e-06
-1.6840679848687987e-06   -2.817788560460887e-06   9.777884741148302e-06
-1.7194185549111772e-06   -2.799866794746573e-06   6.859749400127575e-06
-1.7194185549111772e-06   -2.799866794746573e-06   6.859749400127575e-06
-1.7194185549111772e-06   -2.799866794746573e-06   6.859749400127575e-06
-1.7194185549111772e-06   -2.799866794746573e-06   6.859749400127575e-06
-4.3256118925699906e-06   -3.398012400780442e-06   1.1562292326512506e-05
-4.3256118925699906e-06   -3.398012400780442e-06   1.1562292326512506e-05
-4.3256118925699906e-06   -3.398012400780442e-06   1.1562292326512506e-05
-4.3256118925699906e-06   -3.398012400780442e-06   1.1562292326512506e-05
-2.660035832649273e-06   -2.578683343011938e-06   8.294734791983578e-06
-2.660035832649273e-06   -2.578683343011938e-06   8.294734791983578e-06
-2.660035832649273e-06   -2.578683343011938e-06   8.294734791983578e-06
-2.660035832649273e-06   -2.578683343011938e-06   8.294734791983578e-06
-1.7382600404039939e-06   -1.0931891249167862e-06   1.4989185395992586e-06
-1.7382600404039939e-06   -1.0931891249167862e-06   1.4989185395992586e-06
-1.7382600404039939e-06   -1.0931891249167862e-06   1.4989185395992586e-06
-1.7382600404039939e-06   -1.0931891249167862e-06   1.4989185395992586e-06
-1.3010430355273918e-06   2.4630249304062637e-07   3.031308518501347e-06
-1.3010430355273918e-06   2.4630249304062637e-07   3.031308518501347e-06
-1.3010430355273918e-06   2.4630249304062637e-07   3.031308518501347e-06
-1.3010430355273918e-06   2.4630249304062637e-07   3.031308518501347e-06
-1.0573510707157928e-06   -1.2777511753029984e-06   2.435807548144904e-06
-1.0573510707157928e-06   -1.2777511753029984e-06   2.435807548144904e-06
-1.0573510707157928e-06   -1.2777511753029984e-06   2.435807548144904e-06
-1.0573510707157928e-06   -1.2777511753029984e-06   2.435807548144904e-06
-1.6758433271507675e-06   5.96526282626981e-08   2.6641856933970606e-06
-1.6758433271507675e-06   5.96526282626981e-08   2.6641856933970606e-06
-1.6758433271507675e-06   5.96526282626981e-08   2.6641856933970606e-06
-1.6758433271507675e-06   5.96526282626981e-08   2.6641856933970606e-06
-1.3536718848593436e-06   -5.273228393790129e-07   2.479418570162852e-06
-1.3536718848593436e-06   -5.273228393790129e-07   2.479418570162852e-06
-1.3536718848593436e-06   -5.273228393790129e-07   2.479418570162852e-06
-1.3536718848593436e-06   -5.273228393790129e-07   2.479418570162852e-06
-1.6758433271507611e-06   -1.2777511753029912e-06   1.633365266005528e-06
-1.6758433271507611e-06   -1.2777511753029912e-06   1.633365266005528e-06
-1.6758433271507611e-06   -1.2777511753029912e-06   1.633365266005528e-06
-1.6758433271507611e-06   -1.2777511753029912e-06   1.633365266005528e-06
-1.0573510707157928e-06   5.96526282626981e-08   3.4666279755364636e-06
-1.0573510707157928e-06   5.96526282626981e-08   3.4666279755364636e-06
-1.0573510707157928e-06   5.96526282626981e-08   3.4666279755364636e-06
-1.0573510707157928e-06   5.96526282626981e-08   3.4666279755364636e-06
-9.256230079058799e-07   -1.4193875317352798e-06   2.6763391549999957e-06
-9.256230079058799e-07   -1.4193875317352798e-06   2.6763391549999957e-06
-9.256230079058799e-07   -1.4193875317352798e-06   2.6763391549999957e-06
-9.256230079058799e-07   -1.4193875317352798e-06   2.6763391549999957e-06
-1.6840679848687911e-06   -2.319349120766953e-07   3.2279425448096858e-06
-1.6840679848687911e-06   -2.319349120766953e-07   3.2279425448096858e-06
-1.6840679848687911e-06   -2.319349120766953e-07   3.2279425448096858e-06
-1.6840679848687911e-06   -2.319349120766953e-07   3.2279425448096858e-06
-1.2312578339823069e-06   -6.724114836515512e-07   2.737544902943836e-06
-1.2312578339823069e-06   -6.724114836515512e-07   2.737544902943836e-06
-1.2312578339823069e-06   -6.724114836515512e-07   2.737544902943836e-06
-1.2312578339823069e-06   -6.724114836515512e-07   2.737544902943836e-06
-1.6840679848687987e-06   -1.4193875317352795e-06   1.9638675832048843e-06
-1.6840679848687987e-06   -1.4193875317352795e-06   1.9638675832048843e-06
-1.6840679848687987e-06   -1.4193875317352795e-06   1.9638675832048843e-06
-1.6840679848687987e-06   -1.4193875317352795e-06   1.9638675832048843e-06
-9.256230079058799e-07   -2.319349120766953e-07   3.940414116604851e-06
-9.256230079058799e-07   -2.319349120766953e-07   3.940414116604851e-06
-9.256230079058799e-07   -2.319349120766953e-07   3.940414116604851e-06
-9.256230079058799e-07   -2.319349120766953e-07   3.940414116604851e-06
-7.238552763949536e-07   -1.6046611229815217e-06   2.9416763187003277e-06
-7.238552763949536e-07   -1.6046611229815217e-06   2.9416763187003277e-06
-7.238552763949536e-07   -1.6046611229815217e-06   2.9416763187003277e-06
-7.238552763949536e-07   -1.6046611229815217e-06   2.9416763187003277e-06
-1.7194185549111696e-06   -8.254341635927487e-07   4.133412273927368e-06
-1.7194185549111696e-06   -8.254341635927487e-07   4.133412273927368e-06
-1.7194185549111696e-06   -8.254341635927487e-07   4.133412273927368e-06
-1.7194185549111696e-06   -8.254341635927487e-07   4.133412273927368e-06
-1.1337318231262672e-06   -8.922665130722221e-07   3.197367130640318e-06
-1.1337318231262672e-06   -8.922665130722221e-07   3.197367130640318e-06
-1.1337318231262672e-06   -8.922665130722221e-07   3.197367130640318e-06
-1.1337318231262672e-06   -8.922665130722221e-07   3.197367130640318e-06
-1.3010430355273918e-06   -1.1900547455936162e-07   -2.1284775527816385e-06
-1.3010430355273918e-06   -1.1900547455936162e-07   -2.1284775527816385e-06
-1.3010430355273918e-06   -1.1900547455936162e-07   -2.1284775527816385e-06
-1.3010430355273918e-06   -1.1900547455936162e-07   -2.1284775527816385e-06
-2.528030170061992e-07   1.819524185420402e-07   -2.0083611938537553e-07
-2.528030170061992e-07   1.819524185420402e-07   -2.0083611938537553e-07
-2.528030170061992e-07   1.819524185420402e-07   -2.0083611938537553e-07
-2.528030170061992e-07   1.819524185420402e-07   -2.0083611938537553e-07
-1.3901009140819803e-08   -1.673150429062323e-07   -1.6619572268294002e-06
-1.3901009140819803e-08   -1.673150429062323e-07   -1.6619572268294002e-06
-1.3901009140819803e-08   -1.673150429062323e-07   -1.6619572268294002e-06
-1.3901009140819803e-08   -1.673150429062323e-07   -1.6619572268294002e-06
-1.0573510707157886e-06   3.130685274070479e-07   -2.111039330591146e-07
-1.0573510707157886e-06   3.130685274070479e-07   -2.111039330591146e-07
-1.0573510707157886e-06   3.130685274070479e-07   -2.111039330591146e-07
-1.0573510707157886e-06   3.130685274070479e-07   -2.111039330591146e-07
-5.998095078356515e-07   8.543302817601685e-08   -8.370919049876407e-07
-5.998095078356515e-07   8.543302817601685e-08   -8.370919049876407e-07
-5.998095078356515e-07   8.543302817601685e-08   -8.370919049876407e-07
-5.998095078356515e-07   8.543302817601685e-08   -8.370919049876407e-07
-1.0573510707157928e-06   -1.673150429062145e-07   -1.9501873690175385e-06
-1.0573510707157928e-06   -1.673150429062145e-07   -1.9501873690175385e-06
-1.0573510707157928e-06   -1.673150429062145e-07   -1.9501873690175385e-06
-1.0573510707157928e-06   -1.673150429062145e-07   -1.9501873690175385e-06
-1.3901009140765593e-08   3.130685274070479e-07   7.712620912883389e-08
-1.3901009140765593e-08   3.130685274070479e-07   7.712620912883389e-08
-1.3901009140765593e-08   3.130685274070479e-07   7.712620912883389e-08
-1.3901009140765593e-08   3.130685274070479e-07   7.712620912883389e-08
1.091521023162921e-07   -2.322511561900231e-07   -1.478095669601217e-06
1.091521023162921e-07   -2.322511561900231e-07   -1.478095669601217e-06
1.091521023162921e-07   -2.322511561900231e-07   -1.478095669601217e-06
1.091521023162921e-07   -2.322511561900231e-07   -1.478095669601217e-06
-9.256230079058722e-07   2.632039893528962e-07   -5.074357322342165e-08
-9.256230079058722e-07   2.632039893528962e-07   -5.074357322342165e-08
-9.256230079058722e-07   2.632039893528962e-07   -5.074357322342165e-08
-9.256230079058722e-07   2.632039893528962e-07   -5.074357322342165e-08
-4.2433804908297896e-07   5.5400441308095256e-08   -7.615363757678046e-07
-4.2433804908297896e-07   5.5400441308095256e-08   -7.615363757678046e-07
-4.2433804908297896e-07   5.5400441308095256e-08   -7.615363757678046e-07
-4.2433804908297896e-07   5.5400441308095256e-08   -7.615363757678046e-07
-9.256230079058799e-07   -2.3225115619003938e-07   -1.7753687569270146e-06
-9.256230079058799e-07   -2.3225115619003938e-07   -1.7753687569270146e-06
-9.256230079058799e-07   -2.3225115619003938e-07   -1.7753687569270146e-06
-9.256230079058799e-07   -2.3225115619003938e-07   -1.7753687569270146e-06
1.0915210231634631e-07   2.632039893528962e-07   2.465295141022947e-07
1.0915210231634631e-07   2.632039893528962e-07   2.465295141022947e-07
1.0915210231634631e-07   2.632039893528962e-07   2.465295141022947e-07
1.0915210231634631e-07   2.632039893528962e-07   2.465295141022947e-07
2.608992376465589e-07   -3.1261887731501574e-07   -1.2055224499331416e-06
2.608992376465589e-07   -3.1261887731501574e-07   -1.2055224499331416e-06
2.608992376465589e-07   -3.1261887731501574e-07   -1.2055224499331416e-06
2.608992376465589e-07   -3.1261887731501574e-07   -1.2055224499331416e-06
-7.23855276394965e-07   2.1642934738965803e-07   1.1830613864629485e-07
-7.23855276394965e-07   2.1642934738965803e-07   1.1830613864629485e-07
-7.23855276394965e-07   2.1642934738965803e-07   1.1830613864629485e-07
-7.23855276394965e-07   2.1642934738965803e-07   1.1830613864629485e-07
-2.660080150829905e-07   1.8120600056727556e-08   -5.257873818073503e-07
-2.660080150829905e-07   1.8120600056727556e-08   -5.257873818073503e-07
-2.660080150829905e-07   1.8120600056727556e-08   -5.257873818073503e-07
-2.660080150829905e-07   1.8120600056727556e-08   -5.257873818073503e-07
              </DataArray>   
             <DataArray type="Float64" NumberOfComponents="3" Name="Stress" format="ascii">   
-1.9835258730792464   -0.4958814682698116   -0.4958814682698116
-1.9835258730792464   -0.4958814682698116   -0.4958814682698116
-1.9835258730792464   -0.4958814682698116   -0.4958814682698116
-1.9835258730792464   -0.4958814682698116   -0.4958814682698116
-1.1476733721819758   -0.03672996063997394   -0.023154986774514864
-1.1476733721819758   -0.03672996063997394   -0.023154986774514864
-1.1476733721819758   -0.03672996063997394   -0.023154986774514864
-1.1476733721819758   -0.03672996063997394   -0.023154986774514864
-1.2367449521463334   -0.30918623803658335   -0.30918623803658335
-1.2367449521463334   -0.30918623803658335   -0.30918623803658335
-1.2367449521463334   -0.30918623803658335   -0.30918623803658335
-1.2367449521463334   -0.30918623803658335   -0.30918623803658335
-1.911565218010086   -0.157271312040149   -0.06023658549704744
-1.911565218010086   -0.157271312040149   -0.06023658549704744
-1.911565218010086   -0.157271312040149   -0.06023658549704744
-1.911565218010086   -0.157271312040149   -0.06023658549704744
-1.4991434098192273   -0.24594795697571215   -0.004159735362882356
-1.4991434098192273   -0.24594795697571215   -0.004159735362882356
-1.4991434098192273   -0.24594795697571215   -0.004159735362882356
-1.4991434098192273   -0.24594795697571215   -0.004159735362882356
-2.0756262650029447   -0.5189065662507362   -0.5189065662507362
-2.0756262650029447   -0.5189065662507362   -0.5189065662507362
-2.0756262650029447   -0.5189065662507362   -0.5189065662507362
-2.0756262650029447   -0.5189065662507362   -0.5189065662507362
-1.11162116313798   0.013511758189501955   -0.006265289220900791
-1.11162116313798   0.013511758189501955   -0.006265289220900791
-1.11162116313798   0.013511758189501955   -0.006265289220900791
-1.11162116313798   0.013511758189501955   -0.006265289220900791
-1.2400339155597846   -0.31000847888994615   -0.31000847888994615
-1.2400339155597846   -0.31000847888994615   -0.31000847888994615
-1.2400339155597846   -0.31000847888994615   -0.31000847888994615
-1.2400339155597846   -0.31000847888994615   -0.31000847888994615
-1.9755859167618766   -0.15871737246310552   -0.08823945663275606
-1.9755859167618766   -0.15871737246310552   -0.08823945663275606
-1.9755859167618766   -0.15871737246310552   -0.08823945663275606
-1.9755859167618766   -0.15871737246310552   -0.08823945663275606
-1.5548446593590262   -0.23149202690100032   -0.08249586362800229
-1.5548446593590262   -0.23149202690100032   -0.08249586362800229
-1.5548446593590262   -0.23149202690100032   -0.08249586362800229
-1.5548446593590262   -0.23149202690100032   -0.08249586362800229
-2.1402161677141196   -0.5350540419285299   -0.5350540419285299
-2.1402161677141196   -0.5350540419285299   -0.5350540419285299
-2.1402161677141196   -0.5350540419285299   -0.5350540419285299
-2.1402161677141196   -0.5350540419285299   -0.5350540419285299
-1.10820477580849   0.03352707937453103   0.005601661602040106
-1.10820477580849   0.03352707937453103   0.005601661602040106
-1.10820477580849   0.03352707937453103   0.005601661602040106
-1.10820477580849   0.03352707937453103   0.005601661602040106
-1.239157937322632   -0.309789484330658   -0.309789484330658
-1.239157937322632   -0.309789484330658   -0.309789484330658
-1.239157937322632   -0.309789484330658   -0.309789484330658
-1.239157937322632   -0.309789484330658   -0.309789484330658
-2.0900251019780933   -0.1390689721036577   -0.053045649834269806
-2.0900251019780933   -0.1390689721036577   -0.053045649834269806
-2.0900251019780933   -0.1390689721036577   -0.053045649834269806
-2.0900251019780933   -0.1390689721036577   -0.053045649834269806
-1.5960952154747243   -0.2278289761735821   -0.14905536486736237
-1.5960952154747243   -0.2278289761735821   -0.14905536486736237
-1.5960952154747243   -0.2278289761735821   -0.14905536486736237
-1.5960952154747243   -0.2278289761735821   -0.14905536486736237
-1.2618848696656444   -0.3154712174164111   -0.3154712174164111
-1.2618848696656444   -0.3154712174164111   -0.3154712174164111
-1.2618848696656444   -0.3154712174164111   -0.3154712174164111
-1.2618848696656444   -0.3154712174164111   -0.3154712174164111
-0.5267572404838481   -0.03529242802484105   -0.011447467896572045
-0.5267572404838481   -0.03529242802484105   -0.011447467896572045
-0.5267572404838481   -0.03529242802484105   -0.011447467896572045
-0.5267572404838481   -0.03529242802484105   -0.011447467896572045
-0.5527360649632921   -0.13818401624082302   -0.13818401624082302
-0.5527360649632921   -0.13818401624082302   -0.13818401624082302
-0.5527360649632921   -0.13818401624082302   -0.13818401624082302
-0.5527360649632921   -0.13818401624082302   -0.13818401624082302
-1.1487351302547257   -0.1352516836283827   -0.043071682986746254
-1.1487351302547257   -0.1352516836283827   -0.043071682986746254
-1.1487351302547257   -0.1352516836283827   -0.043071682986746254
-1.1487351302547257   -0.1352516836283827   -0.043071682986746254
-0.8473836875777095   -0.1606094570960229   0.0065881221225771065
-0.8473836875777095   -0.1606094570960229   0.0065881221225771065
-0.8473836875777095   -0.1606094570960229   0.0065881221225771065
-0.8473836875777095   -0.1606094570960229   0.0065881221225771065
-1.2367449521463323   -0.30918623803658307   -0.30918623803658307
-1.2367449521463323   -0.30918623803658307   -0.30918623803658307
-1.2367449521463323   -0.30918623803658307   -0.30918623803658307
-1.2367449521463323   -0.30918623803658307   -0.30918623803658307
-0.49679849392489034   0.0036782873141718714   -0.0003584646038090507
-0.49679849392489034   0.0036782873141718714   -0.0003584646038090507
-0.49679849392489034   0.0036782873141718714   -0.0003584646038090507
-0.49679849392489034   0.0036782873141718714   -0.0003584646038090507
-0.5402072820125456   -0.1350518205031364   -0.1350518205031364
-0.5402072820125456   -0.1350518205031364   -0.1350518205031364
-0.5402072820125456   -0.1350518205031364   -0.1350518205031364
-0.5402072820125456   -0.1350518205031364   -0.1350518205031364
-1.1456534567737415   -0.11028380355310288   -0.0378308602965741
-1.1456534567737415   -0.11028380355310288   -0.0378308602965741
-1.1456534567737415   -0.11028380355310288   -0.0378308602965741
-1.1456534567737415   -0.11028380355310288   -0.0378308602965741
-0.835394232963384   -0.13517207574026557   -0.04365656221917607
-0.835394232963384   -0.13517207574026557   -0.04365656221917607
-0.835394232963384   -0.13517207574026557   -0.04365656221917607
-0.835394232963384   -0.13517207574026557   -0.04365656221917607
-1.2400339155597846   -0.31000847888994615   -0.31000847888994615
-1.2400339155597846   -0.31000847888994615   -0.31000847888994615
-1.2400339155597846   -0.31000847888994615   -0.31000847888994615
-1.2400339155597846   -0.31000847888994615   -0.31000847888994615
-0.47689091158966246   0.03360876647054774   0.012869444637599935
-0.47689091158966246   0.03360876647054774   0.012869444637599935
-0.47689091158966246   0.03360876647054774   0.012869444637599935
-0.47689091158966246   0.03360876647054774   0.012869444637599935
-0.5287659905490251   -0.13219149763725627   -0.13219149763725627
-0.5287659905490251   -0.13219149763725627   -0.13219149763725627
-0.5287659905490251   -0.13219149763725627   -0.13219149763725627
-0.5287659905490251   -0.13219149763725627   -0.13219149763725627
-1.1370257135358581   -0.08504158992426855   -0.023876259803193432
-1.1370257135358581   -0.08504158992426855   -0.023876259803193432
-1.1370257135358581   -0.08504158992426855   -0.023876259803193432
-1.1370257135358581   -0.08504158992426855   -0.023876259803193432
-0.8393199442692479   -0.11956440351286474   -0.0972355290885546
-0.8393199442692479   -0.11956440351286474   -0.0972355290885546
-0.8393199442692479   -0.11956440351286474   -0.0972355290885546
-0.8393199442692479   -0.11956440351286474   -0.0972355290885546
-0.5748991792217404   -0.1437247948054351   -0.1437247948054351
-0.5748991792217404   -0.1437247948054351   -0.1437247948054351
-0.5748991792217404   -0.1437247948054351   -0.1437247948054351
-0.5748991792217404   -0.1437247948054351   -0.1437247948054351
0.06757782405387998   0.00431167291155962   0.0005626968800675181
0.06757782405387998   0.00431167291155962   0.0005626968800675181
0.06757782405387998   0.00431167291155962   0.0005626968800675181
0.06757782405387998   0.00431167291155962   0.0005626968800675181
0.0882421474070739   0.022060536851768474   0.022060536851768474
0.0882421474070739   0.022060536851768474   0.022060536851768474
0.0882421474070739   0.022060536851768474   0.022060536851768474
0.0882421474070739   0.022060536851768474   0.022060536851768474
-0.5196073978029948   -0.0898047357706057   -0.020919960909554242
-0.5196073978029948   -0.0898047357706057   -0.020919960909554242
-0.5196073978029948   -0.0898047357706057   -0.020919960909554242
-0.5196073978029948   -0.0898047357706057   -0.020919960909554242
-0.22276478511282702   -0.05649692555288231   0.03765132157174422
-0.22276478511282702   -0.05649692555288231   0.03765132157174422
-0.22276478511282702   -0.05649692555288231   0.03765132157174422
-0.22276478511282702   -0.05649692555288231   0.03765132157174422
-0.552736064963293   -0.13818401624082324   -0.13818401624082324
-0.552736064963293   -0.13818401624082324   -0.13818401624082324
-0.552736064963293   -0.13818401624082324   -0.13818401624082324
-0.552736064963293   -0.13818401624082324   -0.13818401624082324
0.08984480150296692   0.038913804257581466   0.013220539925419841
0.08984480150296692   0.038913804257581466   0.013220539925419841
0.08984480150296692   0.038913804257581466   0.013220539925419841
0.08984480150296692   0.038913804257581466   0.013220539925419841
0.09950665214172764   0.02487666303543191   0.02487666303543191
0.09950665214172764   0.02487666303543191   0.02487666303543191
0.09950665214172764   0.02487666303543191   0.02487666303543191
0.09950665214172764   0.02487666303543191   0.02487666303543191
-0.5010706201334605   -0.060393153585411086   -0.01402717802543959
-0.5010706201334605   -0.060393153585411086   -0.01402717802543959
-0.5010706201334605   -0.060393153585411086   -0.01402717802543959
-0.5010706201334605   -0.060393153585411086   -0.01402717802543959
-0.21351657113343966   -0.034891835650790466   -0.012924841167887835
-0.21351657113343966   -0.034891835650790466   -0.012924841167887835
-0.21351657113343966   -0.034891835650790466   -0.012924841167887835
-0.21351657113343966   -0.034891835650790466   -0.012924841167887835
-0.5402072820125466   -0.13505182050313666   -0.13505182050313666
-0.5402072820125466   -0.13505182050313666   -0.13505182050313666
-0.5402072820125466   -0.13505182050313666   -0.13505182050313666
-0.5402072820125466   -0.13505182050313666   -0.13505182050313666
0.10775229018891663   0.06864430612126152   0.022337210185546415
0.10775229018891663   0.06864430612126152   0.022337210185546415
0.10775229018891663   0.06864430612126152   0.022337210185546415
0.10775229018891663   0.06864430612126152   0.022337210185546415
0.11459707891234494   0.028649269728086235   0.028649269728086235
0.11459707891234494   0.028649269728086235   0.028649269728086235
0.11459707891234494   0.028649269728086235   0.028649269728086235
0.11459707891234494   0.028649269728086235   0.028649269728086235
-0.48090016741230557   -0.02533309980823241   0.0002792202173153152
-0.48090016741230557   -0.02533309980823241   0.0002792202173153152
-0.48090016741230557   -0.02533309980823241   0.0002792202173153152
-0.48090016741230557   -0.02533309980823241   0.0002792202173153152
-0.20694712840144908   -0.01406354720254175   -0.06304913782925205
-0.20694712840144908   -0.01406354720254175   -0.06304913782925205
-0.20694712840144908   -0.01406354720254175   -0.06304913782925205
-0.20694712840144908   -0.01406354720254175   -0.06304913782925205
0.07400327788394963   0.018500819470987407   0.018500819470987407
0.07400327788394963   0.018500819470987407   0.018500819470987407
0.07400327788394963   0.018500819470987407   0.018500819470987407
0.07400327788394963   0.018500819470987407   0.018500819470987407
0.7183304933121324   0.06593335619610154   0.022260870092864902
0.7183304933121324   0.06593335619610154   0.022260870092864902
0.7183304933121324   0.06593335619610154   0.022260870092864902
0.7183304933121324   0.06593335619610154   0.022260870092864902
0.7801685902318249   0.19504214755795624   0.19504214755795624
0.7801685902318249   0.19504214755795624   0.19504214755795624
0.7801685902318249   0.19504214755795624   0.19504214755795624
0.7801685902318249   0.19504214755795624   0.19504214755795624
0.067208452367666   -0.0505615745450134   -0.010485826948489917
0.067208452367666   -0.0505615745450134   -0.010485826948489917
0.067208452367666   -0.0505615745450134   -0.010485826948489917
0.067208452367666   -0.0505615745450134   -0.010485826948489917
0.4094420404450559   0.05098670071707755   0.07433679824770895
0.4094420404450559   0.05098670071707755   0.07433679824770895
0.4094420404450559   0.05098670071707755   0.07433679824770895
0.4094420404450559   0.05098670071707755   0.07433679824770895
0.0882421474070742   0.02206053685176855   0.02206053685176855
0.0882421474070742   0.02206053685176855   0.02206053685176855
0.0882421474070742   0.02206053685176855   0.02206053685176855
0.0882421474070742   0.02206053685176855   0.02206053685176855
0.7270845962735456   0.090369737242304   0.03429458808221758
0.7270845962735456   0.090369737242304   0.03429458808221758
0.7270845962735456   0.090369737242304   0.03429458808221758
0.7270845962735456   0.090369737242304   0.03429458808221758
0.7770322834393848   0.1942580708598462   0.1942580708598462
0.7770322834393848   0.1942580708598462   0.1942580708598462
0.7770322834393848   0.1942580708598462   0.1942580708598462
0.7770322834393848   0.1942580708598462   0.1942580708598462
0.08522834309772842   -0.021793922118324042   0.0001557029691909486
0.08522834309772842   -0.021793922118324042   0.0001557029691909486
0.08522834309772842   -0.021793922118324042   0.0001557029691909486
0.08522834309772842   -0.021793922118324042   0.0001557029691909486
0.4066292224007253   0.06699357179802722   0.019285070801066687
0.4066292224007253   0.06699357179802722   0.019285070801066687
0.4066292224007253   0.06699357179802722   0.019285070801066687
0.4066292224007253   0.06699357179802722   0.019285070801066687
0.09950665214172782   0.024876663035431956   0.024876663035431956
0.09950665214172782   0.024876663035431956   0.024876663035431956
0.09950665214172782   0.024876663035431956   0.024876663035431956
0.09950665214172782   0.024876663035431956   0.024876663035431956
0.7310128528037778   0.11584636411448351   0.042572624427180364
0.7310128528037778   0.11584636411448351   0.042572624427180364
0.7310128528037778   0.11584636411448351   0.042572624427180364
0.7310128528037778   0.11584636411448351   0.042572624427180364
0.7922780789121066   0.19806951972802664   0.19806951972802664
0.7922780789121066   0.19806951972802664   0.19806951972802664
0.7922780789121066   0.19806951972802664   0.19806951972802664
0.7922780789121066   0.19806951972802664   0.19806951972802664
0.10879994162578084   0.01624581147890342   0.01206704154444763
0.10879994162578084   0.01624581147890342   0.01206704154444763
0.10879994162578084   0.01624581147890342   0.01206704154444763
0.10879994162578084   0.01624581147890342   0.01206704154444763
0.41313825539893606   0.09093457328945045   -0.031758941165897704
0.41313825539893606   0.09093457328945045   -0.031758941165897704
0.41313825539893606   0.09093457328945045   -0.031758941165897704
0.41313825539893606   0.09093457328945045   -0.031758941165897704
0.7785462756159351   0.1946365689039838   0.1946365689039838
0.7785462756159351   0.1946365689039838   0.1946365689039838
0.7785462756159351   0.1946365689039838   0.1946365689039838
0.7785462756159351   0.1946365689039838   0.1946365689039838
1.6162008822867546   0.12326245619986687   0.04252360423240434
1.6162008822867546   0.12326245619986687   0.04252360423240434
1.6162008822867546   0.12326245619986687   0.04252360423240434
1.6162008822867546   0.12326245619986687   0.04252360423240434
1.6522351356679885   0.41305878391699713   0.41305878391699713
1.6522351356679885   0.41305878391699713   0.41305878391699713
1.6522351356679885   0.41305878391699713   0.41305878391699713
1.6522351356679885   0.41305878391699713   0.41305878391699713
0.6935396510039417   -0.03931369284625347   -0.0037467081772443664
0.6935396510039417   -0.03931369284625347   -0.0037467081772443664
0.6935396510039417   -0.03931369284625347   -0.0037467081772443664
0.6935396510039417   -0.03931369284625347   -0.0037467081772443664
1.1524928517901945   0.16318919798803727   0.13001688557410604
1.1524928517901945   0.16318919798803727   0.13001688557410604
1.1524928517901945   0.16318919798803727   0.13001688557410604
1.1524928517901945   0.16318919798803727   0.13001688557410604
0.7801685902318244   0.1950421475579561   0.1950421475579561
0.7801685902318244   0.1950421475579561   0.1950421475579561
0.7801685902318244   0.1950421475579561   0.1950421475579561
0.7801685902318244   0.1950421475579561   0.1950421475579561
1.5312450988783295   0.1443418459510104   0.07682553793468888
1.5312450988783295   0.1443418459510104   0.07682553793468888
1.5312450988783295   0.1443418459510104   0.07682553793468888
1.5312450988783295   0.1443418459510104   0.07682553793468888
1.6031230653771242   0.40078076634428106   0.40078076634428106
1.6031230653771242   0.40078076634428106   0.40078076634428106
1.6031230653771242   0.40078076634428106   0.40078076634428106
1.6031230653771242   0.40078076634428106   0.40078076634428106
0.6961591968954239   -0.021570709798531457   0.005721418798426289
0.6961591968954239   -0.021570709798531457   0.005721418798426289
0.6961591968954239   -0.021570709798531457   0.005721418798426289
0.6961591968954239   -0.021570709798531457   0.005721418798426289
1.1185405073907804   0.16796475862362675   0.06233155321014264
1.1185405073907804   0.16796475862362675   0.06233155321014264
1.1185405073907804   0.16796475862362675   0.06233155321014264
1.1185405073907804   0.16796475862362675   0.06233155321014264
0.7770322834393848   0.1942580708598462   0.1942580708598462
0.7770322834393848   0.1942580708598462   0.1942580708598462
0.7770322834393848   0.1942580708598462   0.1942580708598462
0.7770322834393848   0.1942580708598462   0.1942580708598462
1.48217434134759   0.14487634820033113   0.05194156434057298
1.48217434134759   0.14487634820033113   0.05194156434057298
1.48217434134759   0.14487634820033113   0.05194156434057298
1.48217434134759   0.14487634820033113   0.05194156434057298
1.529865694098836   0.382466423524709   0.382466423524709
1.529865694098836   0.382466423524709   0.382466423524709
1.529865694098836   0.382466423524709   0.382466423524709
1.529865694098836   0.382466423524709   0.382466423524709
0.7221293951062262   0.02314080030157295   0.022254820125087928
0.7221293951062262   0.02314080030157295   0.022254820125087928
0.7221293951062262   0.02314080030157295   0.022254820125087928
0.7221293951062262   0.02314080030157295   0.022254820125087928
1.0712602130106594   0.1821951837141214   -0.01641456812181201
1.0712602130106594   0.1821951837141214   -0.01641456812181201
1.0712602130106594   0.1821951837141214   -0.01641456812181201
1.0712602130106594   0.1821951837141214   -0.01641456812181201
-1.5659156606330937   -0.11216448260210332   0.017914691865959516
-1.5659156606330937   -0.11216448260210332   0.017914691865959516
-1.5659156606330937   -0.11216448260210332   0.017914691865959516
-1.5659156606330937   -0.11216448260210332   0.017914691865959516
-0.9970111539229809   -0.02327187164061245   -0.006548225661870945
-0.9970111539229809   -0.02327187164061245   -0.006548225661870945
-0.9970111539229809   -0.02327187164061245   -0.006548225661870945
-0.9970111539229809   -0.02327187164061245   -0.006548225661870945
-1.0035394734082816   0.040609073959651104   0.021139599900148805
-1.0035394734082816   0.040609073959651104   0.021139599900148805
-1.0035394734082816   0.040609073959651104   0.021139599900148805
-1.0035394734082816   0.040609073959651104   0.021139599900148805
-1.5891151642194927   -0.10854281509976188   -0.01894355429761284
-1.5891151642194927   -0.10854281509976188   -0.01894355429761284
-1.5891151642194927   -0.10854281509976188   -0.01894355429761284
-1.5891151642194927   -0.10854281509976188   -0.01894355429761284
-1.2382047370004163   -0.04237166090267078   -0.005055443680903153
-1.2382047370004163   -0.04237166090267078   -0.005055443680903153
-1.2382047370004163   -0.04237166090267078   -0.005055443680903153
-1.2382047370004163   -0.04237166090267078   -0.005055443680903153
-1.5774336976351535   -0.07684458180074094   0.0077655453250609005
-1.5774336976351535   -0.07684458180074094   0.0077655453250609005
-1.5774336976351535   -0.07684458180074094   0.0077655453250609005
-1.5774336976351535   -0.07684458180074094   0.0077655453250609005
-1.0168745841281994   0.007257196525054743   -0.012184076264826926
-1.0168745841281994   0.007257196525054743   -0.012184076264826926
-1.0168745841281994   0.007257196525054743   -0.012184076264826926
-1.0168745841281994   0.007257196525054743   -0.012184076264826926
-1.0046046515165483   0.05793115021417486   0.024021891508319397
-1.0046046515165483   0.05793115021417486   0.024021891508319397
-1.0046046515165483   0.05793115021417486   0.024021891508319397
-1.0046046515165483   0.05793115021417486   0.024021891508319397
-1.5985643869780506   -0.09555861518864178   -0.024994343952459308
-1.5985643869780506   -0.09555861518864178   -0.024994343952459308
-1.5985643869780506   -0.09555861518864178   -0.024994343952459308
-1.5985643869780506   -0.09555861518864178   -0.024994343952459308
-1.272812005802192   -0.028312618519504118   -0.012141648408660971
-1.272812005802192   -0.028312618519504118   -0.012141648408660971
-1.272812005802192   -0.028312618519504118   -0.012141648408660971
-1.272812005802192   -0.028312618519504118   -0.012141648408660971
-1.5697206426115027   -0.045969394806795794   0.06963515749841995
-1.5697206426115027   -0.045969394806795794   0.06963515749841995
-1.5697206426115027   -0.045969394806795794   0.06963515749841995
-1.5697206426115027   -0.045969394806795794   0.06963515749841995
-1.0214675970432796   0.020322728672144214   -0.022684414583300186
-1.0214675970432796   0.020322728672144214   -0.022684414583300186
-1.0214675970432796   0.020322728672144214   -0.022684414583300186
-1.0214675970432796   0.020322728672144214   -0.022684414583300186
-0.9861842047919983   0.10100875967343931   0.04350211186512007
-0.9861842047919983   0.10100875967343931   0.04350211186512007
-0.9861842047919983   0.10100875967343931   0.04350211186512007
-0.9861842047919983   0.10100875967343931   0.04350211186512007
-1.5541109131384858   -0.07698972773083551   -0.04082174922734906
-1.5541109131384858   -0.07698972773083551   -0.04082174922734906
-1.5541109131384858   -0.07698972773083551   -0.04082174922734906
-1.5541109131384858   -0.07698972773083551   -0.04082174922734906
-1.223930456845424   0.011537925621144807   0.027170208122489076
-1.223930456845424   0.011537925621144807   0.027170208122489076
-1.223930456845424   0.011537925621144807   0.027170208122489076
-1.223930456845424   0.011537925621144807   0.027170208122489076
-1.0216984290024498   -0.135535388907677   -0.017721083792150476
-1.0216984290024498   -0.135535388907677   -0.017721083792150476
-1.0216984290024498   -0.135535388907677   -0.017721083792150476
-1.0216984290024498   -0.135535388907677   -0.017721083792150476
-0.4710455282547848   -0.010648576452759212   0.00495746554084988
-0.4710455282547848   -0.010648576452759212   0.00495746554084988
-0.4710455282547848   -0.010648576452759212   0.00495746554084988
-0.4710455282547848   -0.010648576452759212   0.00495746554084988
-0.4777967663171479   0.008990571109197334   0.007201226763575853
-0.4777967663171479   0.008990571109197334   0.007201226763575853
-0.4777967663171479   0.008990571109197334   0.007201226763575853
-0.4777967663171479   0.008990571109197334   0.007201226763575853
-1.0418662982281266   -0.09918380837053994   -0.03070164186888546
-1.0418662982281266   -0.09918380837053994   -0.03070164186888546
-1.0418662982281266   -0.09918380837053994   -0.03070164186888546
-1.0418662982281266   -0.09918380837053994   -0.03070164186888546
-0.7530940754920489   -0.061231002942623014   -0.017335916295206942
-0.7530940754920489   -0.061231002942623014   -0.017335916295206942
-0.7530940754920489   -0.061231002942623014   -0.017335916295206942
-0.7530940754920489   -0.061231002942623014   -0.017335916295206942
-1.040858489425627   -0.10835941675883345   -0.016486989468098068
-1.040858489425627   -0.10835941675883345   -0.016486989468098068
-1.040858489425627   -0.10835941675883345   -0.016486989468098068
-1.040858489425627   -0.10835941675883345   -0.016486989468098068
-0.4769507320975447   0.020020022519592756   0.00040194645119220884
-0.4769507320975447   0.020020022519592756   0.00040194645119220884
-0.4769507320975447   0.020020022519592756   0.00040194645119220884
-0.4769507320975447   0.020020022519592756   0.00040194645119220884
-0.47588046225453406   0.033182150274519456   0.009725914322332017
-0.47588046225453406   0.033182150274519456   0.009725914322332017
-0.47588046225453406   0.033182150274519456   0.009725914322332017
-0.47588046225453406   0.033182150274519456   0.009725914322332017
-1.042161832860338   -0.07261658306682442   -0.03321628192963105
-1.042161832860338   -0.07261658306682442   -0.03321628192963105
-1.042161832860338   -0.07261658306682442   -0.03321628192963105
-1.042161832860338   -0.07261658306682442   -0.03321628192963105
-0.7515167916813228   -0.03404861486328001   -0.008247064477411595
-0.7515167916813228   -0.03404861486328001   -0.008247064477411595
-0.7515167916813228   -0.03404861486328001   -0.008247064477411595
-0.7515167916813228   -0.03404861486328001   -0.008247064477411595
-1.038064105192888   -0.08189050542454884   -0.0034537212346554547
-1.038064105192888   -0.08189050542454884   -0.0034537212346554547
-1.038064105192888   -0.08189050542454884   -0.0034537212346554547
-1.038064105192888   -0.08189050542454884   -0.0034537212346554547
-0.4765341993081031   0.045900063246126416   -0.006260683917115678
-0.4765341993081031   0.045900063246126416   -0.006260683917115678
-0.4765341993081031   0.045900063246126416   -0.006260683917115678
-0.4765341993081031   0.045900063246126416   -0.006260683917115678
-0.4678005939415395   0.05747066346860133   0.01945988756683531
-0.4678005939415395   0.05747066346860133   0.01945988756683531
-0.4678005939415395   0.05747066346860133   0.01945988756683531
-0.4678005939415395   0.05747066346860133   0.01945988756683531
-1.0308726988371386   -0.04191801500887149   -0.0370135836782752
-1.0308726988371386   -0.04191801500887149   -0.0370135836782752
-1.0308726988371386   -0.04191801500887149   -0.0370135836782752
-1.0308726988371386   -0.04191801500887149   -0.0370135836782752
-0.7482511646833915   -0.008323195959932278   0.0037503278078317853
-0.7482511646833915   -0.008323195959932278   0.0037503278078317853
-0.7482511646833915   -0.008323195959932278   0.0037503278078317853
-0.7482511646833915   -0.008323195959932278   0.0037503278078317853
-0.4966619971554645   -0.11283626815782086   -0.020937187257491392
-0.4966619971554645   -0.11283626815782086   -0.020937187257491392
-0.4966619971554645   -0.11283626815782086   -0.020937187257491392
-0.4966619971554645   -0.11283626815782086   -0.020937187257491392
0.05082021209701153   0.011545030034513848   0.01934742577732737
0.05082021209701153   0.011545030034513848   0.01934742577732737
0.05082021209701153   0.011545030034513848   0.01934742577732737
0.05082021209701153   0.011545030034513848   0.01934742577732737
0.04859503348607552   0.02833385781870682   0.0015705757479360597
0.04859503348607552   0.02833385781870682   0.0015705757479360597
0.04859503348607552   0.02833385781870682   0.0015705757479360597
0.04859503348607552   0.02833385781870682   0.0015705757479360597
-0.4986507861023731   -0.0747036919293671   -0.013374609123989602
-0.4986507861023731   -0.0747036919293671   -0.013374609123989602
-0.4986507861023731   -0.0747036919293671   -0.013374609123989602
-0.4986507861023731   -0.0747036919293671   -0.013374609123989602
-0.226142608361601   -0.03745877039416826   -0.007191822510222649
-0.226142608361601   -0.03745877039416826   -0.007191822510222649
-0.226142608361601   -0.03745877039416826   -0.007191822510222649
-0.226142608361601   -0.03745877039416826   -0.007191822510222649
-0.5021039419101576   -0.08599072369048585   -0.019353356401793982
-0.5021039419101576   -0.08599072369048585   -0.019353356401793982
-0.5021039419101576   -0.08599072369048585   -0.019353356401793982
-0.5021039419101576   -0.08599072369048585   -0.019353356401793982
0.05395670519266571   0.04152940547863106   0.015183386620962394
0.05395670519266571   0.04152940547863106   0.015183386620962394
0.05395670519266571   0.04152940547863106   0.015183386620962394
0.05395670519266571   0.04152940547863106   0.015183386620962394
0.05261537557673679   0.054945687436924955   0.008981031376042479
0.05261537557673679   0.054945687436924955   0.008981031376042479
0.05261537557673679   0.054945687436924955   0.008981031376042479
0.05261537557673679   0.054945687436924955   0.008981031376042479
-0.4969048756603011   -0.04551759638892548   -0.016696406043062616
-0.4969048756603011   -0.04551759638892548   -0.016696406043062616
-0.4969048756603011   -0.04551759638892548   -0.016696406043062616
-0.4969048756603011   -0.04551759638892548   -0.016696406043062616
-0.22248268680831199   -0.009186097798810043   0.0026300249373566852
-0.22248268680831199   -0.009186097798810043   0.0026300249373566852
-0.22248268680831199   -0.009186097798810043   0.0026300249373566852
-0.22248268680831199   -0.009186097798810043   0.0026300249373566852
-0.49824889471883965   -0.05900849370194574   -0.009925604022734442
-0.49824889471883965   -0.05900849370194574   -0.009925604022734442
-0.49824889471883965   -0.05900849370194574   -0.009925604022734442
-0.49824889471883965   -0.05900849370194574   -0.009925604022734442
0.05601424771522365   0.07049143782989299   0.010429641675508732
0.05601424771522365   0.07049143782989299   0.010429641675508732
0.05601424771522365   0.07049143782989299   0.010429641675508732
0.05601424771522365   0.07049143782989299   0.010429641675508732
0.053975709733656965   0.08453837307452633   0.014760707485147441
0.053975709733656965   0.08453837307452633   0.014760707485147441
0.053975709733656965   0.08453837307452633   0.014760707485147441
0.053975709733656965   0.08453837307452633   0.014760707485147441
-0.4902624207695254   -0.014326868538224707   -0.021051714566270557
-0.4902624207695254   -0.014326868538224707   -0.021051714566270557
-0.4902624207695254   -0.014326868538224707   -0.021051714566270557
-0.4902624207695254   -0.014326868538224707   -0.021051714566270557
-0.21677838076761807   0.02038012862685945   0.013382866974536995
-0.21677838076761807   0.02038012862685945   0.013382866974536995
-0.21677838076761807   0.02038012862685945   0.013382866974536995
-0.21677838076761807   0.02038012862685945   0.013382866974536995
0.02293521242795965   -0.0827536520883248   -0.02577889044509337
0.02293521242795965   -0.0827536520883248   -0.02577889044509337
0.02293521242795965   -0.0827536520883248   -0.02577889044509337
0.02293521242795965   -0.0827536520883248   -0.02577889044509337
0.5901282529460906   0.04065055200345877   0.03555257139830295
0.5901282529460906   0.04065055200345877   0.03555257139830295
0.5901282529460906   0.04065055200345877   0.03555257139830295
0.5901282529460906   0.04065055200345877   0.03555257139830295
0.5895373540890163   0.05485883894870677   -0.005712661201237399
0.5895373540890163   0.05485883894870677   -0.005712661201237399
0.5895373540890163   0.05485883894870677   -0.005712661201237399
0.5895373540890163   0.05485883894870677   -0.005712661201237399
0.033415713654749137   -0.04962473805996779   0.003632572469978383
0.033415713654749137   -0.04962473805996779   0.003632572469978383
0.033415713654749137   -0.04962473805996779   0.003632572469978383
0.033415713654749137   -0.04962473805996779   0.003632572469978383
0.3051879213707337   -0.007149686420359333   0.0006019431298913795
0.3051879213707337   -0.007149686420359333   0.0006019431298913795
0.3051879213707337   -0.007149686420359333   0.0006019431298913795
0.3051879213707337   -0.007149686420359333   0.0006019431298913795
0.026672029509846974   -0.06042817582481618   -0.019282410489683672
0.026672029509846974   -0.06042817582481618   -0.019282410489683672
0.026672029509846974   -0.06042817582481618   -0.019282410489683672
0.026672029509846974   -0.06042817582481618   -0.019282410489683672
0.5997194399765209   0.06910067845615835   0.03095592872883356
0.5997194399765209   0.06910067845615835   0.03095592872883356
0.5997194399765209   0.06910067845615835   0.03095592872883356
0.5997194399765209   0.06910067845615835   0.03095592872883356
0.5943769104852286   0.08118799110474592   0.005916701697042509
0.5943769104852286   0.08118799110474592   0.005916701697042509
0.5943769104852286   0.08118799110474592   0.005916701697042509
0.5943769104852286   0.08118799110474592   0.005916701697042509
0.03479132359214372   -0.023531641929274753   -0.001661899180723148
0.03479132359214372   -0.023531641929274753   -0.001661899180723148
0.03479132359214372   -0.023531641929274753   -0.001661899180723148
0.03479132359214372   -0.023531641929274753   -0.001661899180723148
0.30944192241583524   0.018011947926187648   0.012674193344904902
0.30944192241583524   0.018011947926187648   0.012674193344904902
0.30944192241583524   0.018011947926187648   0.012674193344904902
0.30944192241583524   0.018011947926187648   0.012674193344904902
0.029863135235659977   -0.035720834052549506   -0.014113648839867127
0.029863135235659977   -0.035720834052549506   -0.014113648839867127
0.029863135235659977   -0.035720834052549506   -0.014113648839867127
0.029863135235659977   -0.035720834052549506   -0.014113648839867127
0.6017946307793509   0.0958667151656594   0.028326579106740392
0.6017946307793509   0.0958667151656594   0.028326579106740392
0.6017946307793509   0.0958667151656594   0.028326579106740392
0.6017946307793509   0.0958667151656594   0.028326579106740392
0.584983099532386   0.11157136973055835   0.012511674896117085
0.584983099532386   0.11157136973055835   0.012511674896117085
0.584983099532386   0.11157136973055835   0.012511674896117085
0.584983099532386   0.11157136973055835   0.012511674896117085
0.03462826461245183   0.008756414553893579   -0.006194559600245417
0.03462826461245183   0.008756414553893579   -0.006194559600245417
0.03462826461245183   0.008756414553893579   -0.006194559600245417
0.03462826461245183   0.008756414553893579   -0.006194559600245417
0.3141941980484779   0.046772240196433834   0.023857864413231938
0.3141941980484779   0.046772240196433834   0.023857864413231938
0.3141941980484779   0.046772240196433834   0.023857864413231938
0.3141941980484779   0.046772240196433834   0.023857864413231938
0.5434656033750573   -0.10934278776636194   -0.04776733668704285
0.5434656033750573   -0.10934278776636194   -0.04776733668704285
0.5434656033750573   -0.10934278776636194   -0.04776733668704285
0.5434656033750573   -0.10934278776636194   -0.04776733668704285
1.1197559519062388   0.07397016836096151   0.034769366900446096
1.1197559519062388   0.07397016836096151   0.034769366900446096
1.1197559519062388   0.07397016836096151   0.034769366900446096
1.1197559519062388   0.07397016836096151   0.034769366900446096
1.1326161787331595   0.03487686332435505   -0.07187045505341769
1.1326161787331595   0.03487686332435505   -0.07187045505341769
1.1326161787331595   0.03487686332435505   -0.07187045505341769
1.1326161787331595   0.03487686332435505   -0.07187045505341769
0.5794313037530391   -0.02222262090951893   0.020838546977096986
0.5794313037530391   -0.02222262090951893   0.020838546977096986
0.5794313037530391   -0.02222262090951893   0.020838546977096986
0.5794313037530391   -0.02222262090951893   0.020838546977096986
0.8018389616401946   -0.014158135192100463   -0.020173041835168815
0.8018389616401946   -0.014158135192100463   -0.020173041835168815
0.8018389616401946   -0.014158135192100463   -0.020173041835168815
0.8018389616401946   -0.014158135192100463   -0.020173041835168815
0.5589899761459841   -0.07182702381327788   -0.031763688154410864
0.5589899761459841   -0.07182702381327788   -0.031763688154410864
0.5589899761459841   -0.07182702381327788   -0.031763688154410864
0.5589899761459841   -0.07182702381327788   -0.031763688154410864
1.163372152686515   0.09479591257441836   0.021990365463307675
1.163372152686515   0.09479591257441836   0.021990365463307675
1.163372152686515   0.09479591257441836   0.021990365463307675
1.163372152686515   0.09479591257441836   0.021990365463307675
1.1453670610803606   0.0638363453289055   -0.016451169749325433
1.1453670610803606   0.0638363453289055   -0.016451169749325433
1.1453670610803606   0.0638363453289055   -0.016451169749325433
1.1453670610803606   0.0638363453289055   -0.016451169749325433
0.5772787668093262   -0.009194736651572472   0.010808711073848301
0.5772787668093262   -0.009194736651572472   0.010808711073848301
0.5772787668093262   -0.009194736651572472   0.010808711073848301
0.5772787668093262   -0.009194736651572472   0.010808711073848301
0.8441100284088286   0.021100905562792233   0.013899343092884445
0.8441100284088286   0.021100905562792233   0.013899343092884445
0.8441100284088286   0.021100905562792233   0.013899343092884445
0.8441100284088286   0.021100905562792233   0.013899343092884445
0.5608549543904741   -0.054897382994668814   -0.025607704677310654
0.5608549543904741   -0.054897382994668814   -0.025607704677310654
0.5608549543904741   -0.054897382994668814   -0.025607704677310654
0.5608549543904741   -0.054897382994668814   -0.025607704677310654
1.1604420445958787   0.10819016276866872   0.01456993038850176
1.1604420445958787   0.10819016276866872   0.01456993038850176
1.1604420445958787   0.10819016276866872   0.01456993038850176
1.1604420445958787   0.10819016276866872   0.01456993038850176
1.143761075095007   0.09799260475448932   -0.025117837599112063
1.143761075095007   0.09799260475448932   -0.025117837599112063
1.143761075095007   0.09799260475448932   -0.025117837599112063
1.143761075095007   0.09799260475448932   -0.025117837599112063
0.5655328180738142   0.020775636501092945   0.006056000832719621
0.5655328180738142   0.020775636501092945   0.006056000832719621
0.5655328180738142   0.020775636501092945   0.006056000832719621
0.5655328180738142   0.020775636501092945   0.006056000832719621
0.8227410152436219   0.037087083428819306   0.010394884007049306
0.8227410152436219   0.037087083428819306   0.010394884007049306
0.8227410152436219   0.037087083428819306   0.010394884007049306
0.8227410152436219   0.037087083428819306   0.010394884007049306
-1.2292989687124825   -0.05570222906394734   0.06358780201095246
-1.2292989687124825   -0.05570222906394734   0.06358780201095246
-1.2292989687124825   -0.05570222906394734   0.06358780201095246
-1.2292989687124825   -0.05570222906394734   0.06358780201095246
-0.8168698787168779   -0.031231513028917746   -0.016545611426067752
-0.8168698787168779   -0.031231513028917746   -0.016545611426067752
-0.8168698787168779   -0.031231513028917746   -0.016545611426067752
-0.8168698787168779   -0.031231513028917746   -0.016545611426067752
-0.7872450509270933   0.06628311694929756   0.05331599265528887
-0.7872450509270933   0.06628311694929756   0.05331599265528887
-0.7872450509270933   0.06628311694929756   0.05331599265528887
-0.7872450509270933   0.06628311694929756   0.05331599265528887
-1.2348995175251465   -0.088232998490449   -0.025906816172316792
-1.2348995175251465   -0.088232998490449   -0.025906816172316792
-1.2348995175251465   -0.088232998490449   -0.025906816172316792
-1.2348995175251465   -0.088232998490449   -0.025906816172316792
-0.9758115289152024   -0.01508399228506549   -0.001937243503961017
-0.9758115289152024   -0.01508399228506549   -0.001937243503961017
-0.9758115289152024   -0.01508399228506549   -0.001937243503961017
-0.9758115289152024   -0.01508399228506549   -0.001937243503961017
-1.2003852870238436   -0.012768217693633288   0.07119955553738379
-1.2003852870238436   -0.012768217693633288   0.07119955553738379
-1.2003852870238436   -0.012768217693633288   0.07119955553738379
-1.2003852870238436   -0.012768217693633288   0.07119955553738379
-0.8163263346395933   -0.0037487170587147123   -0.02205859189919867
-0.8163263346395933   -0.0037487170587147123   -0.02205859189919867
-0.8163263346395933   -0.0037487170587147123   -0.02205859189919867
-0.8163263346395933   -0.0037487170587147123   -0.02205859189919867
-0.7839602071543198   0.08224016826206637   0.04939539347735063
-0.7839602071543198   0.08224016826206637   0.04939539347735063
-0.7839602071543198   0.08224016826206637   0.04939539347735063
-0.7839602071543198   0.08224016826206637   0.04939539347735063
-1.2156136177585077   -0.0737604081652852   -0.035448979780365965
-1.2156136177585077   -0.0737604081652852   -0.035448979780365965
-1.2156136177585077   -0.0737604081652852   -0.035448979780365965
-1.2156136177585077   -0.0737604081652852   -0.035448979780365965
-0.9777562141265422   0.0036620385260516253   0.0112023298358397
-0.9777562141265422   0.0036620385260516253   0.0112023298358397
-0.9777562141265422   0.0036620385260516253   0.0112023298358397
-0.9777562141265422   0.0036620385260516253   0.0112023298358397
-1.183482069648204   0.0022886563241604763   0.04915969628170587
-1.183482069648204   0.0022886563241604763   0.04915969628170587
-1.183482069648204   0.0022886563241604763   0.04915969628170587
-1.183482069648204   0.0022886563241604763   0.04915969628170587
-0.8143021031833176   0.00798075585392849   -0.028054674259495246
-0.8143021031833176   0.00798075585392849   -0.028054674259495246
-0.8143021031833176   0.00798075585392849   -0.028054674259495246
-0.8143021031833176   0.00798075585392849   -0.028054674259495246
-0.7846517996938486   0.09290550482707621   0.039195300117572336
-0.7846517996938486   0.09290550482707621   0.039195300117572336
-0.7846517996938486   0.09290550482707621   0.039195300117572336
-0.7846517996938486   0.09290550482707621   0.039195300117572336
-1.1906232807924955   -0.058341715238506286   -0.04518579405783943
-1.1906232807924955   -0.058341715238506286   -0.04518579405783943
-1.1906232807924955   -0.058341715238506286   -0.04518579405783943
-1.1906232807924955   -0.058341715238506286   -0.04518579405783943
-0.9495427628248208   0.02046847984997338   0.023427682107319978
-0.9495427628248208   0.02046847984997338   0.023427682107319978
-0.9495427628248208   0.02046847984997338   0.023427682107319978
-0.9495427628248208   0.02046847984997338   0.023427682107319978
-0.8192167777118466   -0.07764720278192322   0.018135583352093927
-0.8192167777118466   -0.07764720278192322   0.018135583352093927
-0.8192167777118466   -0.07764720278192322   0.018135583352093927
-0.8192167777118466   -0.07764720278192322   0.018135583352093927
-0.4141510154917068   -0.015085988913067658   0.0007725504936265427
-0.4141510154917068   -0.015085988913067658   0.0007725504936265427
-0.4141510154917068   -0.015085988913067658   0.0007725504936265427
-0.4141510154917068   -0.015085988913067658   0.0007725504936265427
-0.40231661085241505   0.04065942743828681   0.028964849799532892
-0.40231661085241505   0.04065942743828681   0.028964849799532892
-0.40231661085241505   0.04065942743828681   0.028964849799532892
-0.40231661085241505   0.04065942743828681   0.028964849799532892
-0.8322161131821139   -0.0765730382976533   -0.02868316337286224
-0.8322161131821139   -0.0765730382976533   -0.02868316337286224
-0.8322161131821139   -0.0765730382976533   -0.02868316337286224
-0.8322161131821139   -0.0765730382976533   -0.02868316337286224
-0.614799299144235   -0.03017111036933831   -0.012523412446388459
-0.614799299144235   -0.03017111036933831   -0.012523412446388459
-0.614799299144235   -0.03017111036933831   -0.012523412446388459
-0.614799299144235   -0.03017111036933831   -0.012523412446388459
-0.8165528640242711   -0.04447398694354307   0.017534031062238414
-0.8165528640242711   -0.04447398694354307   0.017534031062238414
-0.8165528640242711   -0.04447398694354307   0.017534031062238414
-0.8165528640242711   -0.04447398694354307   0.017534031062238414
-0.41481092231799566   0.011729313776438918   -0.004576593866519339
-0.41481092231799566   0.011729313776438918   -0.004576593866519339
-0.41481092231799566   0.011729313776438918   -0.004576593866519339
-0.41481092231799566   0.011729313776438918   -0.004576593866519339
-0.4009745778102229   0.06727370717715882   0.025047914240170027
-0.4009745778102229   0.06727370717715882   0.025047914240170027
-0.4009745778102229   0.06727370717715882   0.025047914240170027
-0.4009745778102229   0.06727370717715882   0.025047914240170027
-0.8274109538642774   -0.05174366623164878   -0.03387450557872236
-0.8274109538642774   -0.05174366623164878   -0.03387450557872236
-0.8274109538642774   -0.05174366623164878   -0.03387450557872236
-0.8274109538642774   -0.05174366623164878   -0.03387450557872236
-0.6080135905317745   -0.003265199847186373   -8.100077339435324e-05
-0.6080135905317745   -0.003265199847186373   -8.100077339435324e-05
-0.6080135905317745   -0.003265199847186373   -8.100077339435324e-05
-0.6080135905317745   -0.003265199847186373   -8.100077339435324e-05
-0.811429355285199   -0.01747405579072167   0.011763876875742672
-0.811429355285199   -0.01747405579072167   0.011763876875742672
-0.811429355285199   -0.01747405579072167   0.011763876875742672
-0.811429355285199   -0.01747405579072167   0.011763876875742672
-0.4143762175662468   0.03558405555928684   -0.010270632922074849
-0.4143762175662468   0.03558405555928684   -0.010270632922074849
-0.4143762175662468   0.03558405555928684   -0.010270632922074849
-0.4143762175662468   0.03558405555928684   -0.010270632922074849
-0.4007896444906239   0.09525307862033065   0.018758830121220857
-0.4007896444906239   0.09525307862033065   0.018758830121220857
-0.4007896444906239   0.09525307862033065   0.018758830121220857
-0.4007896444906239   0.09525307862033065   0.018758830121220857
-0.8233482634042488   -0.024934546777407723   -0.03644696682994883
-0.8233482634042488   -0.024934546777407723   -0.03644696682994883
-0.8233482634042488   -0.024934546777407723   -0.03644696682994883
-0.8233482634042488   -0.024934546777407723   -0.03644696682994883
-0.608327960119908   0.02143107681183712   0.009439306522282816
-0.608327960119908   0.02143107681183712   0.009439306522282816
-0.608327960119908   0.02143107681183712   0.009439306522282816
-0.608327960119908   0.02143107681183712   0.009439306522282816
-0.4295404228581299   -0.0888738976352432   -0.0023865776163161777
-0.4295404228581299   -0.0888738976352432   -0.0023865776163161777
-0.4295404228581299   -0.0888738976352432   -0.0023865776163161777
-0.4295404228581299   -0.0888738976352432   -0.0023865776163161777
-0.015129536876614749   0.004249904336960647   0.018338219683953765
-0.015129536876614749   0.004249904336960647   0.018338219683953765
-0.015129536876614749   0.004249904336960647   0.018338219683953765
-0.015129536876614749   0.004249904336960647   0.018338219683953765
-0.016635681929917257   0.026128853044718472   0.008773011573982439
-0.016635681929917257   0.026128853044718472   0.008773011573982439
-0.016635681929917257   0.026128853044718472   0.008773011573982439
-0.016635681929917257   0.026128853044718472   0.008773011573982439
-0.42976236539140755   -0.05689331146120544   -0.010711183995941252
-0.42976236539140755   -0.05689331146120544   -0.010711183995941252
-0.42976236539140755   -0.05689331146120544   -0.010711183995941252
-0.42976236539140755   -0.05689331146120544   -0.010711183995941252
-0.22345382006132997   -0.027905387434690815   -0.007023819707302844
-0.22345382006132997   -0.027905387434690815   -0.007023819707302844
-0.22345382006132997   -0.027905387434690815   -0.007023819707302844
-0.22345382006132997   -0.027905387434690815   -0.007023819707302844
-0.4292989971436743   -0.059346619297103706   -0.005941034921372892
-0.4292989971436743   -0.059346619297103706   -0.005941034921372892
-0.4292989971436743   -0.059346619297103706   -0.005941034921372892
-0.4292989971436743   -0.059346619297103706   -0.005941034921372892
-0.014737855720216915   0.03094335533805123   0.013447640329151404
-0.014737855720216915   0.03094335533805123   0.013447640329151404
-0.014737855720216915   0.03094335533805123   0.013447640329151404
-0.014737855720216915   0.03094335533805123   0.013447640329151404
-0.014607784135723473   0.055118775683869005   0.004188362796332107
-0.014607784135723473   0.055118775683869005   0.004188362796332107
-0.014607784135723473   0.055118775683869005   0.004188362796332107
-0.014607784135723473   0.055118775683869005   0.004188362796332107
-0.42861166744279483   -0.030151017582303485   -0.015712809163227502
-0.42861166744279483   -0.030151017582303485   -0.015712809163227502
-0.42861166744279483   -0.030151017582303485   -0.015712809163227502
-0.42861166744279483   -0.030151017582303485   -0.015712809163227502
-0.22121799838916018   -0.0011086071472351106   0.0030328507080041
-0.22121799838916018   -0.0011086071472351106   0.0030328507080041
-0.22121799838916018   -0.0011086071472351106   0.0030328507080041
-0.22121799838916018   -0.0011086071472351106   0.0030328507080041
-0.42796855697992453   -0.03076725527539481   -0.01188101915578441
-0.42796855697992453   -0.03076725527539481   -0.01188101915578441
-0.42796855697992453   -0.03076725527539481   -0.01188101915578441
-0.42796855697992453   -0.03076725527539481   -0.01188101915578441
-0.01330173239413042   0.05768417558142348   0.008153221606742892
-0.01330173239413042   0.05768417558142348   0.008153221606742892
-0.01330173239413042   0.05768417558142348   0.008153221606742892
-0.01330173239413042   0.05768417558142348   0.008153221606742892
-0.014122295869718617   0.08497115461822823   -0.00070172368381256
-0.014122295869718617   0.08497115461822823   -0.00070172368381256
-0.014122295869718617   0.08497115461822823   -0.00070172368381256
-0.014122295869718617   0.08497115461822823   -0.00070172368381256
-0.42833777081827823   -0.0029574735103162497   -0.02077124938640178
-0.42833777081827823   -0.0029574735103162497   -0.02077124938640178
-0.42833777081827823   -0.0029574735103162497   -0.02077124938640178
-0.42833777081827823   -0.0029574735103162497   -0.02077124938640178
-0.2194661417230341   0.025713987437603524   0.01225623292623143
-0.2194661417230341   0.025713987437603524   0.01225623292623143
-0.2194661417230341   0.025713987437603524   0.01225623292623143
-0.2194661417230341   0.025713987437603524   0.01225623292623143
-0.04338885617710797   -0.09742089883096018   -0.02128757365059132
-0.04338885617710797   -0.09742089883096018   -0.02128757365059132
-0.04338885617710797   -0.09742089883096018   -0.02128757365059132
-0.04338885617710797   -0.09742089883096018   -0.02128757365059132
0.38227437868641345   0.026864676370320098   0.03487229869530357
0.38227437868641345   0.026864676370320098   0.03487229869530357
0.38227437868641345   0.026864676370320098   0.03487229869530357
0.38227437868641345   0.026864676370320098   0.03487229869530357
0.3697508550715612   0.014151220847855   -0.013822774407723573
0.3697508550715612   0.014151220847855   -0.013822774407723573
0.3697508550715612   0.014151220847855   -0.013822774407723573
0.3697508550715612   0.014151220847855   -0.013822774407723573
-0.029222588388250856   -0.03558524682266823   0.007552579149701184
-0.029222588388250856   -0.03558524682266823   0.007552579149701184
-0.029222588388250856   -0.03558524682266823   0.007552579149701184
-0.029222588388250856   -0.03558524682266823   0.007552579149701184
0.16744183666020077   -0.02264037201297111   -0.003978367490791848
0.16744183666020077   -0.02264037201297111   -0.003978367490791848
0.16744183666020077   -0.02264037201297111   -0.003978367490791848
0.16744183666020077   -0.02264037201297111   -0.003978367490791848
-0.043170125059122044   -0.07101874208516806   -0.02675160894215496
-0.043170125059122044   -0.07101874208516806   -0.02675160894215496
-0.043170125059122044   -0.07101874208516806   -0.02675160894215496
-0.043170125059122044   -0.07101874208516806   -0.02675160894215496
0.38638435589659814   0.05227068026451983   0.03122527030079251
0.38638435589659814   0.05227068026451983   0.03122527030079251
0.38638435589659814   0.05227068026451983   0.03122527030079251
0.38638435589659814   0.05227068026451983   0.03122527030079251
0.3758395352720608   0.041127440273120104   -0.01941469984866599
0.3758395352720608   0.041127440273120104   -0.01941469984866599
0.3758395352720608   0.041127440273120104   -0.01941469984866599
0.3758395352720608   0.041127440273120104   -0.01941469984866599
-0.02835156122066944   -0.011623312588316073   0.0022115656437875324
-0.02835156122066944   -0.011623312588316073   0.0022115656437875324
-0.02835156122066944   -0.011623312588316073   0.0022115656437875324
-0.02835156122066944   -0.011623312588316073   0.0022115656437875324
0.16900332069152293   0.0016161987536262024   0.0060199789462890806
0.16900332069152293   0.0016161987536262024   0.0060199789462890806
0.16900332069152293   0.0016161987536262024   0.0060199789462890806
0.16900332069152293   0.0016161987536262024   0.0060199789462890806
-0.041918297103369   -0.04499189291986501   -0.032253533438161494
-0.041918297103369   -0.04499189291986501   -0.032253533438161494
-0.041918297103369   -0.04499189291986501   -0.032253533438161494
-0.041918297103369   -0.04499189291986501   -0.032253533438161494
0.3923338328034025   0.07742358225331063   0.026760645827849094
0.3923338328034025   0.07742358225331063   0.026760645827849094
0.3923338328034025   0.07742358225331063   0.026760645827849094
0.3923338328034025   0.07742358225331063   0.026760645827849094
0.37962111906701945   0.07493500428237979   -0.020294465412381987
0.37962111906701945   0.07493500428237979   -0.020294465412381987
0.37962111906701945   0.07493500428237979   -0.020294465412381987
0.37962111906701945   0.07493500428237979   -0.020294465412381987
-0.02832768869806908   0.01635939296916098   -0.0031169261764973652
-0.02832768869806908   0.01635939296916098   -0.0031169261764973652
-0.02832768869806908   0.01635939296916098   -0.0031169261764973652
-0.02832768869806908   0.01635939296916098   -0.0031169261764973652
0.17494964110822891   0.028643225729420154   0.017884259392343976
0.17494964110822891   0.028643225729420154   0.017884259392343976
0.17494964110822891   0.028643225729420154   0.017884259392343976
0.17494964110822891   0.028643225729420154   0.017884259392343976
0.3422694026947697   -0.09678216319994966   -0.04150574169264286
0.3422694026947697   -0.09678216319994966   -0.04150574169264286
0.3422694026947697   -0.09678216319994966   -0.04150574169264286
0.3422694026947697   -0.09678216319994966   -0.04150574169264286
0.753312830753186   0.05598074744750209   0.03887421031793454
0.753312830753186   0.05598074744750209   0.03887421031793454
0.753312830753186   0.05598074744750209   0.03887421031793454
0.753312830753186   0.05598074744750209   0.03887421031793454
0.747462449315326   -0.0038341402609020636   -0.0552501953421093
0.747462449315326   -0.0038341402609020636   -0.0552501953421093
0.747462449315326   -0.0038341402609020636   -0.0552501953421093
0.747462449315326   -0.0038341402609020636   -0.0552501953421093
0.3733189992142306   -0.007949266977770555   0.026118434131248848
0.3733189992142306   -0.007949266977770555   0.026118434131248848
0.3733189992142306   -0.007949266977770555   0.026118434131248848
0.3733189992142306   -0.007949266977770555   0.026118434131248848
0.5271896928499284   -0.018951664298839307   -0.017351198469097363
0.5271896928499284   -0.018951664298839307   -0.017351198469097363
0.5271896928499284   -0.018951664298839307   -0.017351198469097363
0.5271896928499284   -0.018951664298839307   -0.017351198469097363
0.34268221586691405   -0.08395258149898646   -0.05106216808411673
0.34268221586691405   -0.08395258149898646   -0.05106216808411673
0.34268221586691405   -0.08395258149898646   -0.05106216808411673
0.34268221586691405   -0.08395258149898646   -0.05106216808411673
0.7802982157889737   0.07436815738664362   0.030726339378584162
0.7802982157889737   0.07436815738664362   0.030726339378584162
0.7802982157889737   0.07436815738664362   0.030726339378584162
0.7802982157889737   0.07436815738664362   0.030726339378584162
0.7659643019989373   0.011552657014335083   -0.074139855786225
0.7659643019989373   0.011552657014335083   -0.074139855786225
0.7659643019989373   0.011552657014335083   -0.074139855786225
0.7659643019989373   0.011552657014335083   -0.074139855786225
0.3761517185927731   0.0037908752007464186   0.019482781827272942
0.3761517185927731   0.0037908752007464186   0.019482781827272942
0.3761517185927731   0.0037908752007464186   0.019482781827272942
0.3761517185927731   0.0037908752007464186   0.019482781827272942
0.5511947149929964   -0.0023039360022354544   -0.005262478753765187
0.5511947149929964   -0.0023039360022354544   -0.005262478753765187
0.5511947149929964   -0.0023039360022354544   -0.005262478753765187
0.5511947149929964   -0.0023039360022354544   -0.005262478753765187
0.34665834067728085   -0.06859934216886697   -0.05559389038057862
0.34665834067728085   -0.06859934216886697   -0.05559389038057862
0.34665834067728085   -0.06859934216886697   -0.05559389038057862
0.34665834067728085   -0.06859934216886697   -0.05559389038057862
0.8003174448218504   0.08880263929137104   0.02037587605131105
0.8003174448218504   0.08880263929137104   0.02037587605131105
0.8003174448218504   0.08880263929137104   0.02037587605131105
0.8003174448218504   0.08880263929137104   0.02037587605131105
0.7953331557269553   0.0515692998722653   -0.06977601996456356
0.7953331557269553   0.0515692998722653   -0.06977601996456356
0.7953331557269553   0.0515692998722653   -0.06977601996456356
0.7953331557269553   0.0515692998722653   -0.06977601996456356
0.3774772043896538   0.02968030149061667   0.014240663992560987
0.3774772043896538   0.02968030149061667   0.014240663992560987
0.3774772043896538   0.02968030149061667   0.014240663992560987
0.3774772043896538   0.02968030149061667   0.014240663992560987
0.5554213565034561   0.016712528541821633   0.008133719290495712
0.5554213565034561   0.016712528541821633   0.008133719290495712
0.5554213565034561   0.016712528541821633   0.008133719290495712
0.5554213565034561   0.016712528541821633   0.008133719290495712
-0.8774197080718403   -0.02852625784521845   0.05753049384739054
-0.8774197080718403   -0.02852625784521845   0.05753049384739054
-0.8774197080718403   -0.02852625784521845   0.05753049384739054
-0.8774197080718403   -0.02852625784521845   0.05753049384739054
-0.61447212422135   -0.04119240227025048   -0.02169378549656774
-0.61447212422135   -0.04119240227025048   -0.02169378549656774
-0.61447212422135   -0.04119240227025048   -0.02169378549656774
-0.61447212422135   -0.04119240227025048   -0.02169378549656774
-0.578270146358711   0.05808163177872003   0.04903696400709279
-0.578270146358711   0.05808163177872003   0.04903696400709279
-0.578270146358711   0.05808163177872003   0.04903696400709279
-0.578270146358711   0.05808163177872003   0.04903696400709279
-0.8774814344257849   -0.07226077881650704   -0.031740250232829545
-0.8774814344257849   -0.07226077881650704   -0.031740250232829545
-0.8774814344257849   -0.07226077881650704   -0.031740250232829545
-0.8774814344257849   -0.07226077881650704   -0.031740250232829545
-0.7067527230893413   -0.011230718771721548   -0.001675456963823159
-0.7067527230893413   -0.011230718771721548   -0.001675456963823159
-0.7067527230893413   -0.011230718771721548   -0.001675456963823159
-0.7067527230893413   -0.011230718771721548   -0.001675456963823159
-0.8445474502250645   0.005960463829069895   0.05470842812519368
-0.8445474502250645   0.005960463829069895   0.05470842812519368
-0.8445474502250645   0.005960463829069895   0.05470842812519368
-0.8445474502250645   0.005960463829069895   0.05470842812519368
-0.6085219295203868   -0.017457409827811313   -0.026682910194748905
-0.6085219295203868   -0.017457409827811313   -0.026682910194748905
-0.6085219295203868   -0.017457409827811313   -0.026682910194748905
-0.6085219295203868   -0.017457409827811313   -0.026682910194748905
-0.5728188633745489   0.07017382064655245   0.04142740989486342
-0.5728188633745489   0.07017382064655245   0.04142740989486342
-0.5728188633745489   0.07017382064655245   0.04142740989486342
-0.5728188633745489   0.07017382064655245   0.04142740989486342
-0.8566412190349117   -0.05877875905944785   -0.04010695334436598
-0.8566412190349117   -0.05877875905944785   -0.04010695334436598
-0.8566412190349117   -0.05877875905944785   -0.04010695334436598
-0.8566412190349117   -0.05877875905944785   -0.04010695334436598
-0.7017608769859358   0.004711124072373896   0.007339242695959043
-0.7017608769859358   0.004711124072373896   0.007339242695959043
-0.7017608769859358   0.004711124072373896   0.007339242695959043
-0.7017608769859358   0.004711124072373896   0.007339242695959043
-0.8239991638127072   0.020430992767825423   0.04389357093938458
-0.8239991638127072   0.020430992767825423   0.04389357093938458
-0.8239991638127072   0.020430992767825423   0.04389357093938458
-0.8239991638127072   0.020430992767825423   0.04389357093938458
-0.6030386007580366   -0.006613613342002583   -0.03288384303401484
-0.6030386007580366   -0.006613613342002583   -0.03288384303401484
-0.6030386007580366   -0.006613613342002583   -0.03288384303401484
-0.6030386007580366   -0.006613613342002583   -0.03288384303401484
-0.5698028654725064   0.0819888865202455   0.035646799415930255
-0.5698028654725064   0.0819888865202455   0.035646799415930255
-0.5698028654725064   0.0819888865202455   0.035646799415930255
-0.5698028654725064   0.0819888865202455   0.035646799415930255
-0.8287491958749004   -0.040936436935504195   -0.04800848536106585
-0.8287491958749004   -0.040936436935504195   -0.04800848536106585
-0.8287491958749004   -0.040936436935504195   -0.04800848536106585
-0.8287491958749004   -0.040936436935504195   -0.04800848536106585
-0.6753906403706849   0.019664990716582814   0.019964235457543434
-0.6753906403706849   0.019664990716582814   0.019964235457543434
-0.6753906403706849   0.019664990716582814   0.019964235457543434
-0.6753906403706849   0.019664990716582814   0.019964235457543434
-0.6074764376839727   -0.04957261205519459   0.021664856975257732
-0.6074764376839727   -0.04957261205519459   0.021664856975257732
-0.6074764376839727   -0.04957261205519459   0.021664856975257732
-0.6074764376839727   -0.04957261205519459   0.021664856975257732
-0.35277799686856137   -0.026688400943186974   -0.003503514730327128
-0.35277799686856137   -0.026688400943186974   -0.003503514730327128
-0.35277799686856137   -0.026688400943186974   -0.003503514730327128
-0.35277799686856137   -0.026688400943186974   -0.003503514730327128
-0.3348403388070029   0.033926172890184944   0.02643711819121805
-0.3348403388070029   0.033926172890184944   0.02643711819121805
-0.3348403388070029   0.033926172890184944   0.02643711819121805
-0.3348403388070029   0.033926172890184944   0.02643711819121805
-0.6166392253907257   -0.059031728414889156   -0.025695070959370805
-0.6166392253907257   -0.059031728414889156   -0.025695070959370805
-0.6166392253907257   -0.059031728414889156   -0.025695070959370805
-0.6166392253907257   -0.059031728414889156   -0.025695070959370805
-0.47602692485868026   -0.023176469152536877   -0.009769474646811417
-0.47602692485868026   -0.023176469152536877   -0.009769474646811417
-0.47602692485868026   -0.023176469152536877   -0.009769474646811417
-0.47602692485868026   -0.023176469152536877   -0.009769474646811417
-0.6003367296138019   -0.020919494172790057   0.017705173683144483
-0.6003367296138019   -0.020919494172790057   0.017705173683144483
-0.6003367296138019   -0.020919494172790057   0.017705173683144483
-0.6003367296138019   -0.020919494172790057   0.017705173683144483
-0.34905086232917354   -0.0020940890971633402   -0.008595237432293762
-0.34905086232917354   -0.0020940890971633402   -0.008595237432293762
-0.34905086232917354   -0.0020940890971633402   -0.008595237432293762
-0.34905086232917354   -0.0020940890971633402   -0.008595237432293762
-0.33058356223543983   0.05873053780083745   0.021669122954871202
-0.33058356223543983   0.05873053780083745   0.021669122954871202
-0.33058356223543983   0.05873053780083745   0.021669122954871202
-0.33058356223543983   0.05873053780083745   0.021669122954871202
-0.6083229782493741   -0.03563975488143779   -0.0302795889512719
-0.6083229782493741   -0.03563975488143779   -0.0302795889512719
-0.6083229782493741   -0.03563975488143779   -0.0302795889512719
-0.6083229782493741   -0.03563975488143779   -0.0302795889512719
-0.4668823310082399   0.0011843701961987418   0.0006971620515751828
-0.4668823310082399   0.0011843701961987418   0.0006971620515751828
-0.4668823310082399   0.0011843701961987418   0.0006971620515751828
-0.4668823310082399   0.0011843701961987418   0.0006971620515751828
-0.5907870602966652   0.005590052319821126   0.01617019361101367
-0.5907870602966652   0.005590052319821126   0.01617019361101367
-0.5907870602966652   0.005590052319821126   0.01617019361101367
-0.5907870602966652   0.005590052319821126   0.01617019361101367
-0.345521670915377   0.02009853987235305   -0.014389422516330137
-0.345521670915377   0.02009853987235305   -0.014389422516330137
-0.345521670915377   0.02009853987235305   -0.014389422516330137
-0.345521670915377   0.02009853987235305   -0.014389422516330137
-0.3264701212879593   0.08517628130852607   0.01722903148343067
-0.3264701212879593   0.08517628130852607   0.01722903148343067
-0.3264701212879593   0.08517628130852607   0.01722903148343067
-0.3264701212879593   0.08517628130852607   0.01722903148343067
-0.6021044871113552   -0.010415103851495078   -0.03345731840657686
-0.6021044871113552   -0.010415103851495078   -0.03345731840657686
-0.6021044871113552   -0.010415103851495078   -0.03345731840657686
-0.6021044871113552   -0.010415103851495078   -0.03345731840657686
-0.46333168660212215   0.024128211433577587   0.010672115871261711
-0.46333168660212215   0.024128211433577587   0.010672115871261711
-0.46333168660212215   0.024128211433577587   0.010672115871261711
-0.46333168660212215   0.024128211433577587   0.010672115871261711
-0.36020287105148974   -0.06824638646036378   0.0009300998722106484
-0.36020287105148974   -0.06824638646036378   0.0009300998722106484
-0.36020287105148974   -0.06824638646036378   0.0009300998722106484
-0.36020287105148974   -0.06824638646036378   0.0009300998722106484
-0.09373434471850428   -0.008086284603629345   0.014674322930132561
-0.09373434471850428   -0.008086284603629345   0.014674322930132561
-0.09373434471850428   -0.008086284603629345   0.014674322930132561
-0.09373434471850428   -0.008086284603629345   0.014674322930132561
-0.0914576486528505   0.013910824977038726   0.005004781456722448
-0.0914576486528505   0.013910824977038726   0.005004781456722448
-0.0914576486528505   0.013910824977038726   0.005004781456722448
-0.0914576486528505   0.013910824977038726   0.005004781456722448
-0.35625427813935134   -0.03987109565374842   -0.00683530992659759
-0.35625427813935134   -0.03987109565374842   -0.00683530992659759
-0.35625427813935134   -0.03987109565374842   -0.00683530992659759
-0.35625427813935134   -0.03987109565374842   -0.00683530992659759
-0.22579918486093173   -0.024476849110652923   -0.006949792797636357
-0.22579918486093173   -0.024476849110652923   -0.006949792797636357
-0.22579918486093173   -0.024476849110652923   -0.006949792797636357
-0.22579918486093173   -0.024476849110652923   -0.006949792797636357
-0.3556696838430764   -0.040574354310120866   -0.0032090797888476817
-0.3556696838430764   -0.040574354310120866   -0.0032090797888476817
-0.3556696838430764   -0.040574354310120866   -0.0032090797888476817
-0.3556696838430764   -0.040574354310120866   -0.0032090797888476817
-0.0899448930879166   0.016711433494620148   0.009767950763810523
-0.0899448930879166   0.016711433494620148   0.009767950763810523
-0.0899448930879166   0.016711433494620148   0.009767950763810523
-0.0899448930879166   0.016711433494620148   0.009767950763810523
-0.08631602137376276   0.04170764655241131   0.0012848654413143944
-0.08631602137376276   0.04170764655241131   0.0012848654413143944
-0.08631602137376276   0.04170764655241131   0.0012848654413143944
-0.08631602137376276   0.04170764655241131   0.0012848654413143944
-0.35199222591811863   -0.014899137772528756   -0.011744519885155923
-0.35199222591811863   -0.014899137772528756   -0.011744519885155923
-0.35199222591811863   -0.014899137772528756   -0.011744519885155923
-0.35199222591811863   -0.014899137772528756   -0.011744519885155923
-0.22030665047822245   0.0004942325711296269   0.0029181601654391983
-0.22030665047822245   0.0004942325711296269   0.0029181601654391983
-0.22030665047822245   0.0004942325711296269   0.0029181601654391983
-0.22030665047822245   0.0004942325711296269   0.0029181601654391983
-0.35068119453558577   -0.012866717764350916   -0.007221782980670225
-0.35068119453558577   -0.012866717764350916   -0.007221782980670225
-0.35068119453558577   -0.012866717764350916   -0.007221782980670225
-0.35068119453558577   -0.012866717764350916   -0.007221782980670225
-0.08569047112240241   0.04161180817812596   0.004508455072401496
-0.08569047112240241   0.04161180817812596   0.004508455072401496
-0.08569047112240241   0.04161180817812596   0.004508455072401496
-0.08569047112240241   0.04161180817812596   0.004508455072401496
-0.08170113930893681   0.06990771217742894   -0.003081952457017225
-0.08170113930893681   0.06990771217742894   -0.003081952457017225
-0.08170113930893681   0.06990771217742894   -0.003081952457017225
-0.08170113930893681   0.06990771217742894   -0.003081952457017225
-0.34825585244879914   0.010360519821037403   -0.01688386283327742
-0.34825585244879914   0.010360519821037403   -0.01688386283327742
-0.34825585244879914   0.010360519821037403   -0.01688386283327742
-0.34825585244879914   0.010360519821037403   -0.01688386283327742
-0.21529241129424448   0.02558519416751867   0.012425047262520852
-0.21529241129424448   0.02558519416751867   0.012425047262520852
-0.21529241129424448   0.02558519416751867   0.012425047262520852
-0.21529241129424448   0.02558519416751867   0.012425047262520852
-0.11562731179148777   -0.08355456739333543   -0.01932222964507964
-0.11562731179148777   -0.08355456739333543   -0.01932222964507964
-0.11562731179148777   -0.08355456739333543   -0.01932222964507964
-0.11562731179148777   -0.08355456739333543   -0.01932222964507964
0.16176729429981512   0.012763141798024388   0.031815056800504005
0.16176729429981512   0.012763141798024388   0.031815056800504005
0.16176729429981512   0.012763141798024388   0.031815056800504005
0.16176729429981512   0.012763141798024388   0.031815056800504005
0.15035525866988794   -0.0047469639139518585   -0.01783385336485578
0.15035525866988794   -0.0047469639139518585   -0.01783385336485578
0.15035525866988794   -0.0047469639139518585   -0.01783385336485578
0.15035525866988794   -0.0047469639139518585   -0.01783385336485578
-0.09674763131995122   -0.019352691193593622   0.011818384291850259
-0.09674763131995122   -0.019352691193593622   0.011818384291850259
-0.09674763131995122   -0.019352691193593622   0.011818384291850259
-0.09674763131995122   -0.019352691193593622   0.011818384291850259
0.023916881333514717   -0.02306330044411061   -0.004951567998617554
0.023916881333514717   -0.02306330044411061   -0.004951567998617554
0.023916881333514717   -0.02306330044411061   -0.004951567998617554
0.023916881333514717   -0.02306330044411061   -0.004951567998617554
-0.11166882897994002   -0.05834422484273585   -0.02379607035895054
-0.11166882897994002   -0.05834422484273585   -0.02379607035895054
-0.11166882897994002   -0.05834422484273585   -0.02379607035895054
-0.11166882897994002   -0.05834422484273585   -0.02379607035895054
0.16777194177145036   0.036740055176767136   0.027762543052237142
0.16777194177145036   0.036740055176767136   0.027762543052237142
0.16777194177145036   0.036740055176767136   0.027762543052237142
0.16777194177145036   0.036740055176767136   0.027762543052237142
0.15993004757730578   0.02154869849929788   -0.02020998771611024
0.15993004757730578   0.02154869849929788   -0.02020998771611024
0.15993004757730578   0.02154869849929788   -0.02020998771611024
0.15993004757730578   0.02154869849929788   -0.02020998771611024
-0.09303804077267676   0.0029794837260171993   0.00640293127313768
-0.09303804077267676   0.0029794837260171993   0.00640293127313768
-0.09303804077267676   0.0029794837260171993   0.00640293127313768
-0.09303804077267676   0.0029794837260171993   0.00640293127313768
0.029015084553632785   -0.0004096361181907312   0.005090679305421209
0.029015084553632785   -0.0004096361181907312   0.005090679305421209
0.029015084553632785   -0.0004096361181907312   0.005090679305421209
0.029015084553632785   -0.0004096361181907312   0.005090679305421209
-0.10743796544269106   -0.033671956859718216   -0.0289452514911976
-0.10743796544269106   -0.033671956859718216   -0.0289452514911976
-0.10743796544269106   -0.033671956859718216   -0.0289452514911976
-0.10743796544269106   -0.033671956859718216   -0.0289452514911976
0.17649452421371728   0.06036469105143108   0.02379640291381303
0.17649452421371728   0.06036469105143108   0.02379640291381303
0.17649452421371728   0.06036469105143108   0.02379640291381303
0.17649452421371728   0.06036469105143108   0.02379640291381303
0.1676435665243038   0.05150479632626052   -0.023361164613380246
0.1676435665243038   0.05150479632626052   -0.023361164613380246
0.1676435665243038   0.05150479632626052   -0.023361164613380246
0.1676435665243038   0.05150479632626052   -0.023361164613380246
-0.08907428421618935   0.02870892030510822   0.0012511148790408603
-0.08907428421618935   0.02870892030510822   0.0012511148790408603
-0.08907428421618935   0.02870892030510822   0.0012511148790408603
-0.08907428421618935   0.02870892030510822   0.0012511148790408603
0.03687302733748389   0.024212707871722458   0.015482930199688228
0.03687302733748389   0.024212707871722458   0.015482930199688228
0.03687302733748389   0.024212707871722458   0.015482930199688228
0.03687302733748389   0.024212707871722458   0.015482930199688228
0.12833179034379766   -0.08442513911189559   -0.03817418206966237
0.12833179034379766   -0.08442513911189559   -0.03817418206966237
0.12833179034379766   -0.08442513911189559   -0.03817418206966237
0.12833179034379766   -0.08442513911189559   -0.03817418206966237
0.3884981606982493   0.03837309115833856   0.04127565327359583
0.3884981606982493   0.03837309115833856   0.04127565327359583
0.3884981606982493   0.03837309115833856   0.04127565327359583
0.3884981606982493   0.03837309115833856   0.04127565327359583
0.3845809732978676   -0.0209731469998113   -0.05026294006259187
0.3845809732978676   -0.0209731469998113   -0.05026294006259187
0.3845809732978676   -0.0209731469998113   -0.05026294006259187
0.3845809732978676   -0.0209731469998113   -0.05026294006259187
0.16244814664499652   0.007070853072333336   0.03081276952440201
0.16244814664499652   0.007070853072333336   0.03081276952440201
0.16244814664499652   0.007070853072333336   0.03081276952440201
0.16244814664499652   0.007070853072333336   0.03081276952440201
0.25209302349759577   -0.017531774363782636   -0.013386535932874446
0.25209302349759577   -0.017531774363782636   -0.013386535932874446
0.25209302349759577   -0.017531774363782636   -0.013386535932874446
0.25209302349759577   -0.017531774363782636   -0.013386535932874446
0.13198422164563872   -0.07027259149812466   -0.04416341090192814
0.13198422164563872   -0.07027259149812466   -0.04416341090192814
0.13198422164563872   -0.07027259149812466   -0.04416341090192814
0.13198422164563872   -0.07027259149812466   -0.04416341090192814
0.4175891574266912   0.05891455670011496   0.03489027688160003
0.4175891574266912   0.05891455670011496   0.03489027688160003
0.4175891574266912   0.05891455670011496   0.03489027688160003
0.4175891574266912   0.05891455670011496   0.03489027688160003
0.405750224667945   -0.006247247931523273   -0.060306339909255116
0.405750224667945   -0.006247247931523273   -0.060306339909255116
0.405750224667945   -0.006247247931523273   -0.060306339909255116
0.405750224667945   -0.006247247931523273   -0.060306339909255116
0.16804226240018716   0.017859323962468747   0.02404046093512462
0.16804226240018716   0.017859323962468747   0.02404046093512462
0.16804226240018716   0.017859323962468747   0.02404046093512462
0.16804226240018716   0.017859323962468747   0.02404046093512462
0.27343841541450403   -0.002672190209492123   -0.0015658742855973323
0.27343841541450403   -0.002672190209492123   -0.0015658742855973323
0.27343841541450403   -0.002672190209492123   -0.0015658742855973323
0.27343841541450403   -0.002672190209492123   -0.0015658742855973323
0.13781176655997726   -0.05802017535996411   -0.051232518943490866
0.13781176655997726   -0.05802017535996411   -0.051232518943490866
0.13781176655997726   -0.05802017535996411   -0.051232518943490866
0.13781176655997726   -0.05802017535996411   -0.051232518943490866
0.43863407499589757   0.07228560587865525   0.025580057920331335
0.43863407499589757   0.07228560587865525   0.025580057920331335
0.43863407499589757   0.07228560587865525   0.025580057920331335
0.43863407499589757   0.07228560587865525   0.025580057920331335
0.438277697418935   0.026076819833803493   -0.06457723732078609
0.438277697418935   0.026076819833803493   -0.06457723732078609
0.438277697418935   0.026076819833803493   -0.06457723732078609
0.438277697418935   0.026076819833803493   -0.06457723732078609
0.17376576003904637   0.0396474061816659   0.019107193104925684
0.17376576003904637   0.0396474061816659   0.019107193104925684
0.17376576003904637   0.0396474061816659   0.019107193104925684
0.17376576003904637   0.0396474061816659   0.019107193104925684
0.2841468094429814   0.013686582219453847   0.008623597083824125
0.2841468094429814   0.013686582219453847   0.008623597083824125
0.2841468094429814   0.013686582219453847   0.008623597083824125
0.2841468094429814   0.013686582219453847   0.008623597083824125
-0.5248817441195666   -0.008634583783581035   0.051504926834998924
-0.5248817441195666   -0.008634583783581035   0.051504926834998924
-0.5248817441195666   -0.008634583783581035   0.051504926834998924
-0.5248817441195666   -0.008634583783581035   0.051504926834998924
-0.4101305236862133   -0.052175438580531266   -0.02542648729272191
-0.4101305236862133   -0.052175438580531266   -0.02542648729272191
-0.4101305236862133   -0.052175438580531266   -0.02542648729272191
-0.4101305236862133   -0.052175438580531266   -0.02542648729272191
-0.37121153709114324   0.04414647205592896   0.044026106794708954
-0.37121153709114324   0.04414647205592896   0.044026106794708954
-0.37121153709114324   0.04414647205592896   0.044026106794708954
-0.37121153709114324   0.04414647205592896   0.044026106794708954
-0.5227000951185523   -0.056965799307581715   -0.034630503789611126
-0.5227000951185523   -0.056965799307581715   -0.034630503789611126
-0.5227000951185523   -0.056965799307581715   -0.034630503789611126
-0.5227000951185523   -0.056965799307581715   -0.034630503789611126
-0.4397648746279827   -0.012067310227656072   -0.006585247433046705
-0.4397648746279827   -0.012067310227656072   -0.006585247433046705
-0.4397648746279827   -0.012067310227656072   -0.006585247433046705
-0.4397648746279827   -0.012067310227656072   -0.006585247433046705
-0.4902674271129813   0.02136956673229294   0.049197470198367885
-0.4902674271129813   0.02136956673229294   0.049197470198367885
-0.4902674271129813   0.02136956673229294   0.049197470198367885
-0.4902674271129813   0.02136956673229294   0.049197470198367885
-0.4013844108562837   -0.0319290997435148   -0.030762690231545257
-0.4013844108562837   -0.0319290997435148   -0.030762690231545257
-0.4013844108562837   -0.0319290997435148   -0.030762690231545257
-0.4013844108562837   -0.0319290997435148   -0.030762690231545257
-0.3620401721577089   0.05560815170159973   0.03722655358366894
-0.3620401721577089   0.05560815170159973   0.03722655358366894
-0.3620401721577089   0.05560815170159973   0.03722655358366894
-0.3620401721577089   0.05560815170159973   0.03722655358366894
-0.49866953839835004   -0.04397594345535205   -0.04324919883291439
-0.49866953839835004   -0.04397594345535205   -0.04324919883291439
-0.49866953839835004   -0.04397594345535205   -0.04324919883291439
-0.49866953839835004   -0.04397594345535205   -0.04324919883291439
-0.4272017484643502   0.0029271283399219805   0.0029938951459714327
-0.4272017484643502   0.0029271283399219805   0.0029938951459714327
-0.4272017484643502   0.0029271283399219805   0.0029938951459714327
-0.4272017484643502   0.0029271283399219805   0.0029938951459714327
-0.4662218119848236   0.03527434247942919   0.03973914729993617
-0.4662218119848236   0.03527434247942919   0.03973914729993617
-0.4662218119848236   0.03527434247942919   0.03973914729993617
-0.4662218119848236   0.03527434247942919   0.03973914729993617
-0.39235128510920203   -0.021505520771148506   -0.03721533870104468
-0.39235128510920203   -0.021505520771148506   -0.03721533870104468
-0.39235128510920203   -0.021505520771148506   -0.03721533870104468
-0.39235128510920203   -0.021505520771148506   -0.03721533870104468
-0.35462302966565323   0.0699113459886748   0.03210426305059727
-0.35462302966565323   0.0699113459886748   0.03210426305059727
-0.35462302966565323   0.0699113459886748   0.03210426305059727
-0.35462302966565323   0.0699113459886748   0.03210426305059727
-0.4663905330761952   -0.02317403824240266   -0.05004374414028096
-0.4663905330761952   -0.02317403824240266   -0.05004374414028096
-0.4663905330761952   -0.02317403824240266   -0.05004374414028096
-0.4663905330761952   -0.02317403824240266   -0.05004374414028096
-0.4018734149026585   0.01772805365145201   0.01486565115227754
-0.4018734149026585   0.01772805365145201   0.01486565115227754
-0.4018734149026585   0.01772805365145201   0.01486565115227754
-0.4018734149026585   0.01772805365145201   0.01486565115227754
-0.39567598135219667   -0.02969428144540215   0.024365067242232002
-0.39567598135219667   -0.02969428144540215   0.024365067242232002
-0.39567598135219667   -0.02969428144540215   0.024365067242232002
-0.39567598135219667   -0.02969428144540215   0.024365067242232002
-0.291122605643471   -0.03955012687873166   -0.007524030225367288
-0.291122605643471   -0.03955012687873166   -0.007524030225367288
-0.291122605643471   -0.03955012687873166   -0.007524030225367288
-0.291122605643471   -0.03955012687873166   -0.007524030225367288
-0.269449951264651   0.020046974497935806   0.022509169478679415
-0.269449951264651   0.020046974497935806   0.022509169478679415
-0.269449951264651   0.020046974497935806   0.022509169478679415
-0.269449951264651   0.020046974497935806   0.022509169478679415
-0.4015901075967511   -0.042030797765560166   -0.02168947591183486
-0.4015901075967511   -0.042030797765560166   -0.02168947591183486
-0.4015901075967511   -0.042030797765560166   -0.02168947591183486
-0.4015901075967511   -0.042030797765560166   -0.02168947591183486
-0.3385377415209498   -0.020999308824786032   -0.009156119981404533
-0.3385377415209498   -0.020999308824786032   -0.009156119981404533
-0.3385377415209498   -0.020999308824786032   -0.009156119981404533
-0.3385377415209498   -0.020999308824786032   -0.009156119981404533
-0.385398923031961   -0.0034979366016276575   0.02073358574817313
-0.385398923031961   -0.0034979366016276575   0.02073358574817313
-0.385398923031961   -0.0034979366016276575   0.02073358574817313
-0.385398923031961   -0.0034979366016276575   0.02073358574817313
-0.2838187270973106   -0.01666347793386773   -0.012624257252813183
-0.2838187270973106   -0.01666347793386773   -0.012624257252813183
-0.2838187270973106   -0.01666347793386773   -0.012624257252813183
-0.2838187270973106   -0.01666347793386773   -0.012624257252813183
-0.26154557633657993   0.043371427925531274   0.01799892317076394
-0.26154557633657993   0.043371427925531274   0.01799892317076394
-0.26154557633657993   0.043371427925531274   0.01799892317076394
-0.26154557633657993   0.043371427925531274   0.01799892317076394
-0.3897258820120498   -0.01962389956036159   -0.025969944426067697
-0.3897258820120498   -0.01962389956036159   -0.025969944426067697
-0.3897258820120498   -0.01962389956036159   -0.025969944426067697
-0.3897258820120498   -0.01962389956036159   -0.025969944426067697
-0.32708939180500907   0.0014720525807053741   0.0009081579607139213
-0.32708939180500907   0.0014720525807053741   0.0009081579607139213
-0.32708939180500907   0.0014720525807053741   0.0009081579607139213
-0.32708939180500907   0.0014720525807053741   0.0009081579607139213
-0.3725836373651017   0.021322922446110268   0.01879445680219451
-0.3725836373651017   0.021322922446110268   0.01879445680219451
-0.3725836373651017   0.021322922446110268   0.01879445680219451
-0.3725836373651017   0.021322922446110268   0.01879445680219451
-0.2765840340914827   0.004528392811101081   -0.01835033048932145
-0.2765840340914827   0.004528392811101081   -0.01835033048932145
-0.2765840340914827   0.004528392811101081   -0.01835033048932145
-0.2765840340914827   0.004528392811101081   -0.01835033048932145
-0.2536656860079731   0.06870472223815904   0.013703010938311774
-0.2536656860079731   0.06870472223815904   0.013703010938311774
-0.2536656860079731   0.06870472223815904   0.013703010938311774
-0.2536656860079731   0.06870472223815904   0.013703010938311774
-0.37994505751722485   0.004865382341531124   -0.02945991256011298
-0.37994505751722485   0.004865382341531124   -0.02945991256011298
-0.37994505751722485   0.004865382341531124   -0.02945991256011298
-0.37994505751722485   0.004865382341531124   -0.02945991256011298
-0.31881626151567793   0.023520320715174972   0.010759254051153593
-0.31881626151567793   0.023520320715174972   0.010759254051153593
-0.31881626151567793   0.023520320715174972   0.010759254051153593
-0.31881626151567793   0.023520320715174972   0.010759254051153593
-0.2907543367512591   -0.049559758437346536   0.004326945794301236
-0.2907543367512591   -0.049559758437346536   0.004326945794301236
-0.2907543367512591   -0.049559758437346536   0.004326945794301236
-0.2907543367512591   -0.049559758437346536   0.004326945794301236
-0.17367333448093933   -0.020956295866666173   0.01066226030755043
-0.17367333448093933   -0.020956295866666173   0.01066226030755043
-0.17367333448093933   -0.020956295866666173   0.01066226030755043
-0.17367333448093933   -0.020956295866666173   0.01066226030755043
-0.16780386348649923   -0.0005400161650069082   0.0013696728642578898
-0.16780386348649923   -0.0005400161650069082   0.0013696728642578898
-0.16780386348649923   -0.0005400161650069082   0.0013696728642578898
-0.16780386348649923   -0.0005400161650069082   0.0013696728642578898
-0.2829737269001974   -0.022565420916791937   -0.002497313284324546
-0.2829737269001974   -0.022565420916791937   -0.002497313284324546
-0.2829737269001974   -0.022565420916791937   -0.002497313284324546
-0.2829737269001974   -0.022565420916791937   -0.002497313284324546
-0.22916659585520938   -0.02230849782361315   -0.0066736499512818825
-0.22916659585520938   -0.02230849782361315   -0.0066736499512818825
-0.22916659585520938   -0.02230849782361315   -0.0066736499512818825
-0.22916659585520938   -0.02230849782361315   -0.0066736499512818825
-0.28262892928541106   -0.023705594269231745   0.0003668481420449933
-0.28262892928541106   -0.023705594269231745   0.0003668481420449933
-0.28262892928541106   -0.023705594269231745   0.0003668481420449933
-0.28262892928541106   -0.023705594269231745   0.0003668481420449933
-0.16633583089442863   0.0024129873942893704   0.005756832265313204
-0.16633583089442863   0.0024129873942893704   0.005756832265313204
-0.16633583089442863   0.0024129873942893704   0.005756832265313204
-0.16633583089442863   0.0024129873942893704   0.005756832265313204
-0.1592126829806838   0.025541766676308357   -0.0023195405784051278
-0.1592126829806838   0.025541766676308357   -0.0023195405784051278
-0.1592126829806838   0.025541766676308357   -0.0023195405784051278
-0.1592126829806838   0.025541766676308357   -0.0023195405784051278
-0.27505423807829843   0.001138088541615151   -0.007311046153914275
-0.27505423807829843   0.001138088541615151   -0.007311046153914275
-0.27505423807829843   0.001138088541615151   -0.007311046153914275
-0.27505423807829843   0.001138088541615151   -0.007311046153914275
-0.22010161014931667   0.001132135907727462   0.0030905683085054227
-0.22010161014931667   0.001132135907727462   0.0030905683085054227
-0.22010161014931667   0.001132135907727462   0.0030905683085054227
-0.22010161014931667   0.001132135907727462   0.0030905683085054227
-0.2740931030952645   0.0022967785247054798   -0.003664061221837267
-0.2740931030952645   0.0022967785247054798   -0.003664061221837267
-0.2740931030952645   0.0022967785247054798   -0.003664061221837267
-0.2740931030952645   0.0022967785247054798   -0.003664061221837267
-0.15853406219644117   0.026022832460496054   0.0005924975586175888
-0.15853406219644117   0.026022832460496054   0.0005924975586175888
-0.15853406219644117   0.026022832460496054   0.0005924975586175888
-0.15853406219644117   0.026022832460496054   0.0005924975586175888
-0.15109725210063263   0.05186454156828364   -0.006522354445212753
-0.15109725210063263   0.05186454156828364   -0.006522354445212753
-0.15109725210063263   0.05186454156828364   -0.006522354445212753
-0.15109725210063263   0.05186454156828364   -0.006522354445212753
-0.2676347637491317   0.025023749544793472   -0.012461405074112898
-0.2676347637491317   0.025023749544793472   -0.012461405074112898
-0.2676347637491317   0.025023749544793472   -0.012461405074112898
-0.2676347637491317   0.025023749544793472   -0.012461405074112898
-0.21153055934454354   0.02465721722091732   0.01246135511319267
-0.21153055934454354   0.02465721722091732   0.01246135511319267
-0.21153055934454354   0.02465721722091732   0.01246135511319267
-0.21153055934454354   0.02465721722091732   0.01246135511319267
-0.18815916363998342   -0.06677483118408449   -0.01594835017025474
-0.18815916363998342   -0.06677483118408449   -0.01594835017025474
-0.18815916363998342   -0.06677483118408449   -0.01594835017025474
-0.18815916363998342   -0.06677483118408449   -0.01594835017025474
-0.059647304427211695   -0.0012169024494296079   0.02794577322485416
-0.059647304427211695   -0.0012169024494296079   0.02794577322485416
-0.059647304427211695   -0.0012169024494296079   0.02794577322485416
-0.059647304427211695   -0.0012169024494296079   0.02794577322485416
-0.06764760121011627   -0.020021325168969876   -0.020624815694881293
-0.06764760121011627   -0.020021325168969876   -0.020624815694881293
-0.06764760121011627   -0.020021325168969876   -0.020624815694881293
-0.06764760121011627   -0.020021325168969876   -0.020624815694881293
-0.1652737026979755   -0.002544154329673278   0.016024614971541333
-0.1652737026979755   -0.002544154329673278   0.016024614971541333
-0.1652737026979755   -0.002544154329673278   0.016024614971541333
-0.1652737026979755   -0.002544154329673278   0.016024614971541333
-0.12014630508528043   -0.021653483608472513   -0.004817854310810495
-0.12014630508528043   -0.021653483608472513   -0.004817854310810495
-0.12014630508528043   -0.021653483608472513   -0.004817854310810495
-0.12014630508528043   -0.021653483608472513   -0.004817854310810495
-0.180508716225249   -0.04250625535993422   -0.020188351634566674
-0.180508716225249   -0.04250625535993422   -0.020188351634566674
-0.180508716225249   -0.04250625535993422   -0.020188351634566674
-0.180508716225249   -0.04250625535993422   -0.020188351634566674
-0.05038217583377324   0.021971187710357203   0.023709798307506823
-0.05038217583377324   0.021971187710357203   0.023709798307506823
-0.05038217583377324   0.021971187710357203   0.023709798307506823
-0.05038217583377324   0.021971187710357203   0.023709798307506823
-0.055056980023028314   0.004650894950955168   -0.023221073351820935
-0.055056980023028314   0.004650894950955168   -0.023221073351820935
-0.055056980023028314   0.004650894950955168   -0.023221073351820935
-0.055056980023028314   0.004650894950955168   -0.023221073351820935
-0.15797063423426452   0.01873766309292515   0.010694806737072963
-0.15797063423426452   0.01873766309292515   0.010694806737072963
-0.15797063423426452   0.01873766309292515   0.010694806737072963
-0.15797063423426452   0.01873766309292515   0.010694806737072963
-0.11049113561103176   0.00018784877975997621   0.005136187390012163
-0.11049113561103176   0.00018784877975997621   0.005136187390012163
-0.11049113561103176   0.00018784877975997621   0.005136187390012163
-0.11049113561103176   0.00018784877975997621   0.005136187390012163
-0.17272161653163148   -0.019251921676474038   -0.02507051998036402
-0.17272161653163148   -0.019251921676474038   -0.02507051998036402
-0.17272161653163148   -0.019251921676474038   -0.02507051998036402
-0.17272161653163148   -0.019251921676474038   -0.02507051998036402
-0.038415620226598356   0.04453085721941716   0.02010576336186685
-0.038415620226598356   0.04453085721941716   0.02010576336186685
-0.038415620226598356   0.04453085721941716   0.02010576336186685
-0.038415620226598356   0.04453085721941716   0.02010576336186685
-0.04440925647989333   0.0321877547807502   -0.02601974047904522
-0.04440925647989333   0.0321877547807502   -0.02601974047904522
-0.04440925647989333   0.0321877547807502   -0.02601974047904522
-0.04440925647989333   0.0321877547807502   -0.02601974047904522
-0.15049391765305037   0.04280241615482136   0.005556443206160992
-0.15049391765305037   0.04280241615482136   0.005556443206160992
-0.15049391765305037   0.04280241615482136   0.005556443206160992
-0.15049391765305037   0.04280241615482136   0.005556443206160992
-0.10051039388872576   0.022934242278247554   0.015084293932483745
-0.10051039388872576   0.022934242278247554   0.015084293932483745
-0.10051039388872576   0.022934242278247554   0.015084293932483745
-0.10051039388872576   0.022934242278247554   0.015084293932483745
-0.08629028232896647   -0.07178077654041011   -0.03470524219293927
-0.08629028232896647   -0.07178077654041011   -0.03470524219293927
-0.08629028232896647   -0.07178077654041011   -0.03470524219293927
-0.08629028232896647   -0.07178077654041011   -0.03470524219293927
0.026007415872724145   0.021005316857264204   0.0426839917482932
0.026007415872724145   0.021005316857264204   0.0426839917482932
0.026007415872724145   0.021005316857264204   0.0426839917482932
0.026007415872724145   0.021005316857264204   0.0426839917482932
0.02615783826711639   -0.03554496708018724   -0.04597602286033611
0.02615783826711639   -0.03554496708018724   -0.04597602286033611
0.02615783826711639   -0.03554496708018724   -0.04597602286033611
0.02615783826711639   -0.03554496708018724   -0.04597602286033611
-0.04809299037452251   0.022189080657365603   0.03493783265675121
-0.04809299037452251   0.022189080657365603   0.03493783265675121
-0.04809299037452251   0.022189080657365603   0.03493783265675121
-0.04809299037452251   0.022189080657365603   0.03493783265675121
-0.021383516155091237   -0.015309316049237378   -0.008064501849384047
-0.021383516155091237   -0.015309316049237378   -0.008064501849384047
-0.021383516155091237   -0.015309316049237378   -0.008064501849384047
-0.021383516155091237   -0.015309316049237378   -0.008064501849384047
-0.07855407740231521   -0.055273208339148464   -0.03990531348569929
-0.07855407740231521   -0.055273208339148464   -0.03990531348569929
-0.07855407740231521   -0.055273208339148464   -0.03990531348569929
-0.07855407740231521   -0.055273208339148464   -0.03990531348569929
0.058788574215171883   0.04408697083658755   0.037545718963166566
0.058788574215171883   0.04408697083658755   0.037545718963166566
0.058788574215171883   0.04408697083658755   0.037545718963166566
0.058788574215171883   0.04408697083658755   0.037545718963166566
0.05030828867056162   -0.021422213137924966   -0.054633250837233756
0.05030828867056162   -0.021422213137924966   -0.054633250837233756
0.05030828867056162   -0.021422213137924966   -0.054633250837233756
0.05030828867056162   -0.021422213137924966   -0.054633250837233756
-0.03924954359565578   0.032437430435781685   0.028029573300215403
-0.03924954359565578   0.032437430435781685   0.028029573300215403
-0.03924954359565578   0.032437430435781685   0.028029573300215403
-0.03924954359565578   0.032437430435781685   0.028029573300215403
-0.0015701745371211593   -0.0007689106140193555   0.002711615617727541
-0.0015701745371211593   -0.0007689106140193555   0.002711615617727541
-0.0015701745371211593   -0.0007689106140193555   0.002711615617727541
-0.0015701745371211593   -0.0007689106140193555   0.002711615617727541
-0.06930678839311896   -0.04365201869456571   -0.04616720155675332
-0.06930678839311896   -0.04365201869456571   -0.04616720155675332
-0.06930678839311896   -0.04365201869456571   -0.04616720155675332
-0.06930678839311896   -0.04365201869456571   -0.04616720155675332
0.08253895746963831   0.056840659994035314   0.028257220026189453
0.08253895746963831   0.056840659994035314   0.028257220026189453
0.08253895746963831   0.056840659994035314   0.028257220026189453
0.08253895746963831   0.056840659994035314   0.028257220026189453
0.08419265606223941   0.006206538913427059   -0.05852403925944623
0.08419265606223941   0.006206538913427059   -0.05852403925944623
0.08419265606223941   0.006206538913427059   -0.05852403925944623
0.08419265606223941   0.006206538913427059   -0.05852403925944623
-0.030991263076663226   0.0504779316415714   0.022780049676284688
-0.030991263076663226   0.0504779316415714   0.022780049676284688
-0.030991263076663226   0.0504779316415714   0.022780049676284688
-0.030991263076663226   0.0504779316415714   0.022780049676284688
0.016353693504792596   0.0144905763613498   0.013260449824088614
0.016353693504792596   0.0144905763613498   0.013260449824088614
0.016353693504792596   0.0144905763613498   0.013260449824088614
0.016353693504792596   0.0144905763613498   0.013260449824088614
-0.17277472323151227   0.010136005269600172   0.04877493150323326
-0.17277472323151227   0.010136005269600172   0.04877493150323326
-0.17277472323151227   0.010136005269600172   0.04877493150323326
-0.17277472323151227   0.010136005269600172   0.04877493150323326
-0.2067190324646819   -0.06351791192309034   -0.02868360516574897
-0.2067190324646819   -0.06351791192309034   -0.02868360516574897
-0.2067190324646819   -0.06351791192309034   -0.02868360516574897
-0.2067190324646819   -0.06351791192309034   -0.02868360516574897
-0.16504072087343735   0.029476550517241094   0.03992187108938794
-0.16504072087343735   0.029476550517241094   0.03992187108938794
-0.16504072087343735   0.029476550517241094   0.03992187108938794
-0.16504072087343735   0.029476550517241094   0.03992187108938794
-0.16781446462110675   -0.04159615285834758   -0.03699134993306578
-0.16781446462110675   -0.04159615285834758   -0.03699134993306578
-0.16781446462110675   -0.04159615285834758   -0.03699134993306578
-0.16781446462110675   -0.04159615285834758   -0.03699134993306578
-0.17362750296804053   -0.013347912972918145   -0.013401929462658996
-0.17362750296804053   -0.013347912972918145   -0.013401929462658996
-0.17362750296804053   -0.013347912972918145   -0.013401929462658996
-0.17362750296804053   -0.013347912972918145   -0.013401929462658996
-0.13572434395539484   0.036440059825333916   0.04542304071181385
-0.13572434395539484   0.036440059825333916   0.04542304071181385
-0.13572434395539484   0.036440059825333916   0.04542304071181385
-0.13572434395539484   0.036440059825333916   0.04542304071181385
-0.19511062560946482   -0.04653944623675575   -0.03441165583674857
-0.19511062560946482   -0.04653944623675575   -0.03441165583674857
-0.19511062560946482   -0.04653944623675575   -0.03441165583674857
-0.19511062560946482   -0.04653944623675575   -0.03441165583674857
-0.15224829586920832   0.040675224333306   0.03358539758123412
-0.15224829586920832   0.040675224333306   0.03358539758123412
-0.15224829586920832   0.040675224333306   0.03358539758123412
-0.15224829586920832   0.040675224333306   0.03358539758123412
-0.1402956605190342   -0.028940195375712848   -0.04605654613135216
-0.1402956605190342   -0.028940195375712848   -0.04605654613135216
-0.1402956605190342   -0.028940195375712848   -0.04605654613135216
-0.1402956605190342   -0.028940195375712848   -0.04605654613135216
-0.15332845211507976   0.0009505891989393736   -0.002846030184260802
-0.15332845211507976   0.0009505891989393736   -0.002846030184260802
-0.15332845211507976   0.0009505891989393736   -0.002846030184260802
-0.15332845211507976   0.0009505891989393736   -0.002846030184260802
-0.10803007632115086   0.05005668718595092   0.036274492296398626
-0.10803007632115086   0.05005668718595092   0.036274492296398626
-0.10803007632115086   0.05005668718595092   0.036274492296398626
-0.10803007632115086   0.05005668718595092   0.036274492296398626
-0.18261160315122868   -0.03641938131249407   -0.0411365331830638
-0.18261160315122868   -0.03641938131249407   -0.0411365331830638
-0.18261160315122868   -0.03641938131249407   -0.0411365331830638
-0.18261160315122868   -0.03641938131249407   -0.0411365331830638
-0.14055431281841033   0.057803111061957506   0.029005782123734954
-0.14055431281841033   0.057803111061957506   0.029005782123734954
-0.14055431281841033   0.057803111061957506   0.029005782123734954
-0.14055431281841033   0.057803111061957506   0.029005782123734954
-0.10355848200885057   -0.004885272653529029   -0.051876846140679424
-0.10355848200885057   -0.004885272653529029   -0.051876846140679424
-0.10355848200885057   -0.004885272653529029   -0.051876846140679424
-0.10355848200885057   -0.004885272653529029   -0.051876846140679424
-0.12895124330939203   0.01590579602607647   0.00844455139085782
-0.12895124330939203   0.01590579602607647   0.00844455139085782
-0.12895124330939203   0.01590579602607647   0.00844455139085782
-0.12895124330939203   0.01590579602607647   0.00844455139085782
-0.18497250298110887   -0.011257561862819426   0.027788692191841352
-0.18497250298110887   -0.011257561862819426   0.027788692191841352
-0.18497250298110887   -0.011257561862819426   0.027788692191841352
-0.18497250298110887   -0.011257561862819426   0.027788692191841352
-0.23050112189395655   -0.051816918321825   -0.01120478229422874
-0.23050112189395655   -0.051816918321825   -0.01120478229422874
-0.23050112189395655   -0.051816918321825   -0.01120478229422874
-0.23050112189395655   -0.051816918321825   -0.01120478229422874
-0.2056160454631711   0.005207678417507869   0.018528842869940682
-0.2056160454631711   0.005207678417507869   0.018528842869940682
-0.2056160454631711   0.005207678417507869   0.018528842869940682
-0.2056160454631711   0.005207678417507869   0.018528842869940682
-0.18717722656878225   -0.0243437043901173   -0.016940402479974463
-0.18717722656878225   -0.0243437043901173   -0.016940402479974463
-0.18717722656878225   -0.0243437043901173   -0.016940402479974463
-0.18717722656878225   -0.0243437043901173   -0.016940402479974463
-0.20222506667332962   -0.01896940172868439   -0.009402023630274495
-0.20222506667332962   -0.01896940172868439   -0.009402023630274495
-0.20222506667332962   -0.01896940172868439   -0.009402023630274495
-0.20222506667332962   -0.01896940172868439   -0.009402023630274495
-0.17143235832069084   0.013188911788407615   0.024251322581957925
-0.17143235832069084   0.013188911788407615   0.024251322581957925
-0.17143235832069084   0.013188911788407615   0.024251322581957925
-0.17143235832069084   0.013188911788407615   0.024251322581957925
-0.21977756132798618   -0.030741585377740792   -0.01632947265888797
-0.21977756132798618   -0.030741585377740792   -0.01632947265888797
-0.21977756132798618   -0.030741585377740792   -0.01632947265888797
-0.21977756132798618   -0.030741585377740792   -0.01632947265888797
-0.19419879399146384   0.02750207491666471   0.014132839938462566
-0.19419879399146384   0.02750207491666471   0.014132839938462566
-0.19419879399146384   0.02750207491666471   0.014132839938462566
-0.19419879399146384   0.02750207491666471   0.014132839938462566
-0.1718815518088459   -0.0028730882953093076   -0.021032569488335512
-0.1718815518088459   -0.0028730882953093076   -0.021032569488335512
-0.1718815518088459   -0.0028730882953093076   -0.021032569488335512
-0.1718815518088459   -0.0028730882953093076   -0.021032569488335512
-0.18857336194192256   0.0018190417595808708   0.0003360403035565472
-0.18857336194192256   0.0018190417595808708   0.0003360403035565472
-0.18857336194192256   0.0018190417595808708   0.0003360403035565472
-0.18857336194192256   0.0018190417595808708   0.0003360403035565472
-0.1553695535572713   0.036810184758878345   0.021844148715346783
-0.1553695535572713   0.036810184758878345   0.021844148715346783
-0.1553695535572713   0.036810184758878345   0.021844148715346783
-0.1553695535572713   0.036810184758878345   0.021844148715346783
-0.2090227190931028   -0.010493124987589884   -0.021991585665481497
-0.2090227190931028   -0.010493124987589884   -0.021991585665481497
-0.2090227190931028   -0.010493124987589884   -0.021991585665481497
-0.2090227190931028   -0.010493124987589884   -0.021991585665481497
-0.18272462114743848   0.05219231961975456   0.009954337461217835
-0.18272462114743848   0.05219231961975456   0.009954337461217835
-0.18272462114743848   0.05219231961975456   0.009954337461217835
-0.18272462114743848   0.05219231961975456   0.009954337461217835
-0.1586968989119191   0.020971398992377745   -0.024875436274227516
-0.1586968989119191   0.020971398992377745   -0.024875436274227516
-0.1586968989119191   0.020971398992377745   -0.024875436274227516
-0.1586968989119191   0.020971398992377745   -0.024875436274227516
-0.17566506964668996   0.02330379083059187   0.010253180246687501
-0.17566506964668996   0.02330379083059187   0.010253180246687501
-0.17566506964668996   0.02330379083059187   0.010253180246687501
-0.17566506964668996   0.02330379083059187   0.010253180246687501
-0.22259185884330396   -0.03130627489433764   0.007830889531545003
-0.22259185884330396   -0.03130627489433764   0.007830889531545003
-0.22259185884330396   -0.03130627489433764   0.007830889531545003
-0.22259185884330396   -0.03130627489433764   0.007830889531545003
-0.2541629153279743   -0.032812415600281475   0.006766506364798466
-0.2541629153279743   -0.032812415600281475   0.006766506364798466
-0.2541629153279743   -0.032812415600281475   0.006766506364798466
-0.2541629153279743   -0.032812415600281475   0.006766506364798466
-0.24503057779937462   -0.014959285704500148   -0.00240978632370379
-0.24503057779937462   -0.014959285704500148   -0.00240978632370379
-0.24503057779937462   -0.014959285704500148   -0.00240978632370379
-0.24503057779937462   -0.014959285704500148   -0.00240978632370379
-0.21079995443752805   -0.004401548704800418   0.002218525120462035
-0.21079995443752805   -0.004401548704800418   0.002218525120462035
-0.21079995443752805   -0.004401548704800418   0.002218525120462035
-0.21079995443752805   -0.004401548704800418   0.002218525120462035
-0.2334962688640888   -0.019687319833012196   -0.006248598647807961
-0.2334962688640888   -0.019687319833012196   -0.006248598647807961
-0.2334962688640888   -0.019687319833012196   -0.006248598647807961
-0.2334962688640888   -0.019687319833012196   -0.006248598647807961
-0.21095900778030643   -0.006882227079660873   0.003903936781428915
-0.21095900778030643   -0.006882227079660873   0.003903936781428915
-0.21095900778030643   -0.006882227079660873   0.003903936781428915
-0.21095900778030643   -0.006882227079660873   0.003903936781428915
-0.24337746430199256   -0.010984547175031924   0.0018810426337382922
-0.24337746430199256   -0.010984547175031924   0.0018810426337382922
-0.24337746430199256   -0.010984547175031924   0.0018810426337382922
-0.24337746430199256   -0.010984547175031924   0.0018810426337382922
-0.23303187841881542   0.009783098708968957   -0.006108354976628226
-0.23303187841881542   0.009783098708968957   -0.006108354976628226
-0.23303187841881542   0.009783098708968957   -0.006108354976628226
-0.23303187841881542   0.009783098708968957   -0.006108354976628226
-0.19942104156164345   0.0180279405285829   -0.0025042635243548404
-0.19942104156164345   0.0180279405285829   -0.0025042635243548404
-0.19942104156164345   0.0180279405285829   -0.0025042635243548404
-0.19942104156164345   0.0180279405285829   -0.0025042635243548404
-0.22095799743364394   0.002422315559017424   0.0033702909949706802
-0.22095799743364394   0.002422315559017424   0.0033702909949706802
-0.22095799743364394   0.002422315559017424   0.0033702909949706802
-0.22095799743364394   0.002422315559017424   0.0033702909949706802
-0.19900865685976094   0.017772111765696055   -0.0001865112520582357
-0.19900865685976094   0.017772111765696055   -0.0001865112520582357
-0.19900865685976094   0.017772111765696055   -0.0001865112520582357
-0.19900865685976094   0.017772111765696055   -0.0001865112520582357
-0.23214021436424048   0.011342976228314261   -0.0032099122231010017
-0.23214021436424048   0.011342976228314261   -0.0032099122231010017
-0.23214021436424048   0.011342976228314261   -0.0032099122231010017
-0.23214021436424048   0.011342976228314261   -0.0032099122231010017
-0.22154226390194898   0.03467894653555836   -0.010277919967471197
-0.22154226390194898   0.03467894653555836   -0.010277919967471197
-0.22154226390194898   0.03467894653555836   -0.010277919967471197
-0.22154226390194898   0.03467894653555836   -0.010277919967471197
-0.18858312990887555   0.04054929675408906   -0.007695183480300197
-0.18858312990887555   0.04054929675408906   -0.007695183480300197
-0.18858312990887555   0.04054929675408906   -0.007695183480300197
-0.18858312990887555   0.04054929675408906   -0.007695183480300197
-0.2090038849508258   0.024573099581380743   0.012538558057627092
-0.2090038849508258   0.024573099581380743   0.012538558057627092
-0.2090038849508258   0.024573099581380743   0.012538558057627092
-0.2090038849508258   0.024573099581380743   0.012538558057627092
-0.2614175954876103   -0.04968664776101212   -0.01263266227265301
-0.2614175954876103   -0.04968664776101212   -0.01263266227265301
-0.2614175954876103   -0.04968664776101212   -0.01263266227265301
-0.2614175954876103   -0.04968664776101212   -0.01263266227265301
-0.27989386845065967   -0.01419585861296032   0.023930615673723857
-0.27989386845065967   -0.01419585861296032   0.023930615673723857
-0.27989386845065967   -0.01419585861296032   0.023930615673723857
-0.27989386845065967   -0.01419585861296032   0.023930615673723857
-0.2844610696912771   -0.03431382353152034   -0.023636364044376995
-0.2844610696912771   -0.03431382353152034   -0.023636364044376995
-0.2844610696912771   -0.03431382353152034   -0.023636364044376995
-0.2844610696912771   -0.03431382353152034   -0.023636364044376995
-0.23453872150370605   0.014863651000359149   0.020226558449779938
-0.23453872150370605   0.014863651000359149   0.020226558449779938
-0.23453872150370605   0.014863651000359149   0.020226558449779938
-0.23453872150370605   0.014863651000359149   0.020226558449779938
-0.2639673974456758   -0.019491102162498344   -0.003930966937936648
-0.2639673974456758   -0.019491102162498344   -0.003930966937936648
-0.2639673974456758   -0.019491102162498344   -0.003930966937936648
-0.2639673974456758   -0.019491102162498344   -0.003930966937936648
-0.25010555260943973   -0.026053530434986927   -0.01669041564354449
-0.25010555260943973   -0.026053530434986927   -0.01669041564354449
-0.25010555260943973   -0.026053530434986927   -0.01669041564354449
-0.25010555260943973   -0.026053530434986927   -0.01669041564354449
-0.26732787591049867   0.008169720578869728   0.01954606074912541
-0.26732787591049867   0.008169720578869728   0.01954606074912541
-0.26732787591049867   0.008169720578869728   0.01954606074912541
-0.26732787591049867   0.008169720578869728   0.01954606074912541
-0.26870891900460014   -0.01085303414823497   -0.026520394698376637
-0.26870891900460014   -0.01085303414823497   -0.026520394698376637
-0.26870891900460014   -0.01085303414823497   -0.026520394698376637
-0.26870891900460014   -0.01085303414823497   -0.026520394698376637
-0.22374412561830367   0.03509073994117898   0.015022767793718358
-0.22374412561830367   0.03509073994117898   0.015022767793718358
-0.22374412561830367   0.03509073994117898   0.015022767793718358
-0.22374412561830367   0.03509073994117898   0.015022767793718358
-0.24970203428602736   0.0018070852764381987   0.006001195996860161
-0.24970203428602736   0.0018070852764381987   0.006001195996860161
-0.24970203428602736   0.0018070852764381987   0.006001195996860161
-0.24970203428602736   0.0018070852764381987   0.006001195996860161
-0.2388277046008234   -0.003861324802787787   -0.02144306237491544
-0.2388277046008234   -0.003861324802787787   -0.02144306237491544
-0.2388277046008234   -0.003861324802787787   -0.02144306237491544
-0.2388277046008234   -0.003861324802787787   -0.02144306237491544
-0.2520424138982585   0.029681956719553405   0.016277139965545303
-0.2520424138982585   0.029681956719553405   0.016277139965545303
-0.2520424138982585   0.029681956719553405   0.016277139965545303
-0.2520424138982585   0.029681956719553405   0.016277139965545303
-0.25492856710568873   0.01498291472030687   -0.029106414513773125
-0.25492856710568873   0.01498291472030687   -0.029106414513773125
-0.25492856710568873   0.01498291472030687   -0.029106414513773125
-0.25492856710568873   0.01498291472030687   -0.029106414513773125
-0.21292010292150226   0.057621930542114175   0.009889900928206626
-0.21292010292150226   0.057621930542114175   0.009889900928206626
-0.21292010292150226   0.057621930542114175   0.009889900928206626
-0.21292010292150226   0.057621930542114175   0.009889900928206626
-0.23761180563644596   0.02292461407350256   0.015492014509069126
-0.23761180563644596   0.02292461407350256   0.015492014509069126
-0.23761180563644596   0.02292461407350256   0.015492014509069126
-0.23761180563644596   0.02292461407350256   0.015492014509069126
-0.2999937859772229   -0.05907057331399589   -0.03169425725806155
-0.2999937859772229   -0.05907057331399589   -0.03169425725806155
-0.2999937859772229   -0.05907057331399589   -0.03169425725806155
-0.2999937859772229   -0.05907057331399589   -0.03169425725806155
-0.3326819429253901   0.004349200050819763   0.04313790032845727
-0.3326819429253901   0.004349200050819763   0.04313790032845727
-0.3326819429253901   0.004349200050819763   0.04313790032845727
-0.3326819429253901   0.004349200050819763   0.04313790032845727
-0.32833991127249607   -0.04929705985835428   -0.04224594902387466
-0.32833991127249607   -0.04929705985835428   -0.04224594902387466
-0.32833991127249607   -0.04929705985835428   -0.04224594902387466
-0.32833991127249607   -0.04929705985835428   -0.04224594902387466
-0.2576846861710034   0.03726675514435163   0.03866497488111741
-0.2576846861710034   0.03726675514435163   0.03866497488111741
-0.2576846861710034   0.03726675514435163   0.03866497488111741
-0.2576846861710034   0.03726675514435163   0.03866497488111741
-0.29244697686876736   -0.0127581291064056   -0.0018747161777773833
-0.29244697686876736   -0.0127581291064056   -0.0018747161777773833
-0.29244697686876736   -0.0127581291064056   -0.0018747161777773833
-0.29244697686876736   -0.0127581291064056   -0.0018747161777773833
-0.2881311168253547   -0.04005516317784047   -0.03624526006844881
-0.2881311168253547   -0.04005516317784047   -0.03624526006844881
-0.2881311168253547   -0.04005516317784047   -0.03624526006844881
-0.2881311168253547   -0.04005516317784047   -0.03624526006844881
-0.29623814037466034   0.02968019870732736   0.039285646899622335
-0.29623814037466034   0.02968019870732736   0.039285646899622335
-0.29623814037466034   0.02968019870732736   0.039285646899622335
-0.29623814037466034   0.02968019870732736   0.039285646899622335
-0.30107820931212964   -0.03560752473904003   -0.05036653685741927
-0.30107820931212964   -0.03560752473904003   -0.05036653685741927
-0.30107820931212964   -0.03560752473904003   -0.05036653685741927
-0.30107820931212964   -0.03560752473904003   -0.05036653685741927
-0.24552126323745752   0.046909509017618124   0.0316553409714829
-0.24552126323745752   0.046909509017618124   0.0316553409714829
-0.24552126323745752   0.046909509017618124   0.0316553409714829
-0.24552126323745752   0.046909509017618124   0.0316553409714829
-0.2740546631083747   0.00155756668070281   0.007646498169990885
-0.2740546631083747   0.00155756668070281   0.007646498169990885
-0.2740546631083747   0.00155756668070281   0.007646498169990885
-0.2740546631083747   0.00155756668070281   0.007646498169990885
-0.2753813312452602   -0.028784949803471453   -0.04195054024644328
-0.2753813312452602   -0.028784949803471453   -0.04195054024644328
-0.2753813312452602   -0.028784949803471453   -0.04195054024644328
-0.2753813312452602   -0.028784949803471453   -0.04195054024644328
-0.26948251310013094   0.041822562286245445   0.030181857177292916
-0.26948251310013094   0.041822562286245445   0.030181857177292916
-0.26948251310013094   0.041822562286245445   0.030181857177292916
-0.26948251310013094   0.041822562286245445   0.030181857177292916
-0.26525422718527764   -0.011942271766800586   -0.055058003256960864
-0.26525422718527764   -0.011942271766800586   -0.055058003256960864
-0.26525422718527764   -0.011942271766800586   -0.055058003256960864
-0.26525422718527764   -0.011942271766800586   -0.055058003256960864
-0.23463708525372792   0.06126007926316355   0.026073830203173394
-0.23463708525372792   0.06126007926316355   0.026073830203173394
-0.23463708525372792   0.06126007926316355   0.026073830203173394
-0.23463708525372792   0.06126007926316355   0.026073830203173394
-0.24877296260570086   0.015845507319946293   0.018684557165928043
-0.24877296260570086   0.015845507319946293   0.018684557165928043
-0.24877296260570086   0.015845507319946293   0.018684557165928043
-0.24877296260570086   0.015845507319946293   0.018684557165928043
0.1816995505946347   0.02932152339403739   0.047094988360559496
0.1816995505946347   0.02932152339403739   0.047094988360559496
0.1816995505946347   0.02932152339403739   0.047094988360559496
0.1816995505946347   0.02932152339403739   0.047094988360559496
-0.0040330748285283356   -0.0756293277138487   -0.031055104031289194
-0.0040330748285283356   -0.0756293277138487   -0.031055104031289194
-0.0040330748285283356   -0.0756293277138487   -0.031055104031289194
-0.0040330748285283356   -0.0756293277138487   -0.031055104031289194
0.04033200698218546   0.014705675490186088   0.03637132020627968
0.04033200698218546   0.014705675490186088   0.03637132020627968
0.04033200698218546   0.014705675490186088   0.03637132020627968
0.04033200698218546   0.014705675490186088   0.03637132020627968
0.18940493394009883   -0.02631253719306762   -0.038894467888389586
0.18940493394009883   -0.02631253719306762   -0.038894467888389586
0.18940493394009883   -0.02631253719306762   -0.038894467888389586
0.18940493394009883   -0.02631253719306762   -0.038894467888389586
0.09275800148396898   -0.014624248559362674   -0.022469444607030056
0.09275800148396898   -0.014624248559362674   -0.022469444607030056
0.09275800148396898   -0.014624248559362674   -0.022469444607030056
0.09275800148396898   -0.014624248559362674   -0.022469444607030056
0.22137249303490217   0.05213805561498631   0.04249273477757532
0.22137249303490217   0.05213805561498631   0.04249273477757532
0.22137249303490217   0.05213805561498631   0.04249273477757532
0.22137249303490217   0.05213805561498631   0.04249273477757532
0.0103395963292915   -0.06176976887595999   -0.03711528869204407
0.0103395963292915   -0.06176976887595999   -0.03711528869204407
0.0103395963292915   -0.06176976887595999   -0.03711528869204407
0.0103395963292915   -0.06176976887595999   -0.03711528869204407
0.056440272540415476   0.025687065698503368   0.03034382618027928
0.056440272540415476   0.025687065698503368   0.03034382618027928
0.056440272540415476   0.025687065698503368   0.03034382618027928
0.056440272540415476   0.025687065698503368   0.03034382618027928
0.22034844177059687   -0.01390958446149327   -0.04863144344518906
0.22034844177059687   -0.01390958446149327   -0.04863144344518906
0.22034844177059687   -0.01390958446149327   -0.04863144344518906
0.22034844177059687   -0.01390958446149327   -0.04863144344518906
0.1206922122329706   -0.0009437500239474622   -0.010591235554707819
0.1206922122329706   -0.0009437500239474622   -0.010591235554707819
0.1206922122329706   -0.0009437500239474622   -0.010591235554707819
0.1206922122329706   -0.0009437500239474622   -0.010591235554707819
0.25265798337608203   0.06555264887810701   0.033454031242634304
0.25265798337608203   0.06555264887810701   0.033454031242634304
0.25265798337608203   0.06555264887810701   0.033454031242634304
0.25265798337608203   0.06555264887810701   0.033454031242634304
0.026058834507145454   -0.051847064068882044   -0.04402923421868156
0.026058834507145454   -0.051847064068882044   -0.04402923421868156
0.026058834507145454   -0.051847064068882044   -0.04402923421868156
0.026058834507145454   -0.051847064068882044   -0.04402923421868156
0.07206923793970901   0.04586702377483676   0.026256916052589903
0.07206923793970901   0.04586702377483676   0.026256916052589903
0.07206923793970901   0.04586702377483676   0.026256916052589903
0.07206923793970901   0.04586702377483676   0.026256916052589903
0.261435213662939   0.013845250550683978   -0.053623789311129946
0.261435213662939   0.013845250550683978   -0.053623789311129946
0.261435213662939   0.013845250550683978   -0.053623789311129946
0.261435213662939   0.013845250550683978   -0.053623789311129946
0.14408854443897778   0.014402482722338041   0.0006278638657389625
0.14408854443897778   0.014402482722338041   0.0006278638657389625
0.14408854443897778   0.014402482722338041   0.0006278638657389625
0.14408854443897778   0.014402482722338041   0.0006278638657389625
0.025306470086005055   0.00799017924876566   0.03202311357875959
0.025306470086005055   0.00799017924876566   0.03202311357875959
0.025306470086005055   0.00799017924876566   0.03202311357875959
0.025306470086005055   0.00799017924876566   0.03202311357875959
-0.17185092106525593   -0.06423611292192731   -0.014251432673919241
-0.17185092106525593   -0.06423611292192731   -0.014251432673919241
-0.17185092106525593   -0.06423611292192731   -0.014251432673919241
-0.17185092106525593   -0.06423611292192731   -0.014251432673919241
-0.14389503672301338   -0.009378356504274689   0.014604147103469729
-0.14389503672301338   -0.009378356504274689   0.014604147103469729
-0.14389503672301338   -0.009378356504274689   0.014604147103469729
-0.14389503672301338   -0.009378356504274689   0.014604147103469729
0.026412072652501305   -0.007235389133034311   -0.011287286818919998
0.026412072652501305   -0.007235389133034311   -0.011287286818919998
0.026412072652501305   -0.007235389133034311   -0.011287286818919998
0.026412072652501305   -0.007235389133034311   -0.011287286818919998
-0.06743184409643417   -0.016570411681485164   -0.010786909900888743
-0.06743184409643417   -0.016570411681485164   -0.010786909900888743
-0.06743184409643417   -0.016570411681485164   -0.010786909900888743
-0.06743184409643417   -0.016570411681485164   -0.010786909900888743
0.041906836478804096   0.030542847792755345   0.028408295386807423
0.041906836478804096   0.030542847792755345   0.028408295386807423
0.041906836478804096   0.030542847792755345   0.028408295386807423
0.041906836478804096   0.030542847792755345   0.028408295386807423
-0.15794926310645835   -0.04571605598720653   -0.019329285330821414
-0.15794926310645835   -0.04571605598720653   -0.019329285330821414
-0.15794926310645835   -0.04571605598720653   -0.019329285330821414
-0.15794926310645835   -0.04571605598720653   -0.019329285330821414
-0.12921212597265547   0.011930934444932227   0.010318118376712449
-0.12921212597265547   0.011930934444932227   0.010318118376712449
-0.12921212597265547   0.011930934444932227   0.010318118376712449
-0.12921212597265547   0.011930934444932227   0.010318118376712449
0.044772970857357125   0.01297420289560844   -0.015279819432117274
0.044772970857357125   0.01297420289560844   -0.015279819432117274
0.044772970857357125   0.01297420289560844   -0.015279819432117274
0.044772970857357125   0.01297420289560844   -0.015279819432117274
-0.051866160646933765   0.0022180906824272473   -0.0013231053410595163
-0.051866160646933765   0.0022180906824272473   -0.0013231053410595163
-0.051866160646933765   0.0022180906824272473   -0.0013231053410595163
-0.051866160646933765   0.0022180906824272473   -0.0013231053410595163
0.060921048981233676   0.0529840838141218   0.02545069026875185
0.060921048981233676   0.0529840838141218   0.02545069026875185
0.060921048981233676   0.0529840838141218   0.02545069026875185
0.060921048981233676   0.0529840838141218   0.02545069026875185
-0.14397282484434804   -0.026691567221388855   -0.02486287431542929
-0.14397282484434804   -0.026691567221388855   -0.02486287431542929
-0.14397282484434804   -0.026691567221388855   -0.02486287431542929
-0.14397282484434804   -0.026691567221388855   -0.02486287431542929
-0.11443952590541087   0.03604447546087484   0.006232573061749744
-0.11443952590541087   0.03604447546087484   0.006232573061749744
-0.11443952590541087   0.03604447546087484   0.006232573061749744
-0.11443952590541087   0.03604447546087484   0.006232573061749744
0.06092449246426909   0.035905751886425766   -0.01950553943619511
0.06092449246426909   0.035905751886425766   -0.01950553943619511
0.06092449246426909   0.035905751886425766   -0.01950553943619511
0.06092449246426909   0.035905751886425766   -0.01950553943619511
-0.03463593470509149   0.02297789499051476   0.008772183362852345
-0.03463593470509149   0.02297789499051476   0.008772183362852345
-0.03463593470509149   0.02297789499051476   0.008772183362852345
-0.03463593470509149   0.02297789499051476   0.008772183362852345
-0.1563022099564063   -0.012285311507702422   0.011541321456105987
-0.1563022099564063   -0.012285311507702422   0.011541321456105987
-0.1563022099564063   -0.012285311507702422   0.011541321456105987
-0.1563022099564063   -0.012285311507702422   0.011541321456105987
-0.336616593329572   -0.04573407649794951   0.0029349777915717635
-0.336616593329572   -0.04573407649794951   0.0029349777915717635
-0.336616593329572   -0.04573407649794951   0.0029349777915717635
-0.336616593329572   -0.04573407649794951   0.0029349777915717635
-0.3237784780586291   -0.028708107359758595   -0.006335744533227838
-0.3237784780586291   -0.028708107359758595   -0.006335744533227838
-0.3237784780586291   -0.028708107359758595   -0.006335744533227838
-0.3237784780586291   -0.028708107359758595   -0.006335744533227838
-0.14112332126404084   0.011952548352792438   0.007131819541268017
-0.14112332126404084   0.011952548352792438   0.007131819541268017
-0.14112332126404084   0.011952548352792438   0.007131819541268017
-0.14112332126404084   0.011952548352792438   0.007131819541268017
-0.2398043609245011   -0.017169185657611226   -0.006292102063818698
-0.2398043609245011   -0.017169185657611226   -0.006292102063818698
-0.2398043609245011   -0.017169185657611226   -0.006292102063818698
-0.2398043609245011   -0.017169185657611226   -0.006292102063818698
-0.14129769042514953   0.010581419576074044   0.0076311025124421745
-0.14129769042514953   0.010581419576074044   0.0076311025124421745
-0.14129769042514953   0.010581419576074044   0.0076311025124421745
-0.14129769042514953   0.010581419576074044   0.0076311025124421745
-0.32236605728454   -0.026098926970058098   -0.0018828210524854533
-0.32236605728454   -0.026098926970058098   -0.0018828210524854533
-0.32236605728454   -0.026098926970058098   -0.0018828210524854533
-0.32236605728454   -0.026098926970058098   -0.0018828210524854533
-0.308334869308074   -0.005246539689929858   -0.009962836870457323
-0.308334869308074   -0.005246539689929858   -0.009962836870457323
-0.308334869308074   -0.005246539689929858   -0.009962836870457323
-0.308334869308074   -0.005246539689929858   -0.009962836870457323
-0.1265866349996019   0.0327417134991025   0.0026347941878113734
-0.1265866349996019   0.0327417134991025   0.0026347941878113734
-0.1265866349996019   0.0327417134991025   0.0026347941878113734
-0.1265866349996019   0.0327417134991025   0.0026347941878113734
-0.22385600370254935   0.003432747500474724   0.0032464489155509656
-0.22385600370254935   0.003432747500474724   0.0032464489155509656
-0.22385600370254935   0.003432747500474724   0.0032464489155509656
-0.22385600370254935   0.003432747500474724   0.0032464489155509656
-0.12620087818097403   0.033861570221326145   0.003443721558727523
-0.12620087818097403   0.033861570221326145   0.003443721558727523
-0.12620087818097403   0.033861570221326145   0.003443721558727523
-0.12620087818097403   0.033861570221326145   0.003443721558727523
-0.30772940789589615   -0.005375178181353954   -0.006806891318145981
-0.30772940789589615   -0.005375178181353954   -0.006806891318145981
-0.30772940789589615   -0.005375178181353954   -0.006806891318145981
-0.30772940789589615   -0.005375178181353954   -0.006806891318145981
-0.2935135789963385   0.018282924535020673   -0.014096595488179188
-0.2935135789963385   0.018282924535020673   -0.014096595488179188
-0.2935135789963385   0.018282924535020673   -0.014096595488179188
-0.2935135789963385   0.018282924535020673   -0.014096595488179188
-0.1126863104318745   0.053591986565803336   -0.002548860675495878
-0.1126863104318745   0.053591986565803336   -0.002548860675495878
-0.1126863104318745   0.053591986565803336   -0.002548860675495878
-0.1126863104318745   0.053591986565803336   -0.002548860675495878
-0.20874378862923276   0.02397967336319854   0.012162469918212158
-0.20874378862923276   0.02397967336319854   0.012162469918212158
-0.20874378862923276   0.02397967336319854   0.012162469918212158
-0.20874378862923276   0.02397967336319854   0.012162469918212158
-0.3364079805167552   -0.032196675907824907   -0.009559358734466322
-0.3364079805167552   -0.032196675907824907   -0.009559358734466322
-0.3364079805167552   -0.032196675907824907   -0.009559358734466322
-0.3364079805167552   -0.032196675907824907   -0.009559358734466322
-0.4998081117054641   -0.028340342722348297   0.019798222472145948
-0.4998081117054641   -0.028340342722348297   0.019798222472145948
-0.4998081117054641   -0.028340342722348297   0.019798222472145948
-0.4998081117054641   -0.028340342722348297   0.019798222472145948
-0.5000775948317563   -0.047648778053320434   -0.026796713490567652
-0.5000775948317563   -0.047648778053320434   -0.026796713490567652
-0.5000775948317563   -0.047648778053320434   -0.026796713490567652
-0.5000775948317563   -0.047648778053320434   -0.026796713490567652
-0.30585152359685347   0.030296761148486673   0.02429415926740235
-0.30585152359685347   0.030296761148486673   0.02429415926740235
-0.30585152359685347   0.030296761148486673   0.02429415926740235
-0.30585152359685347   0.030296761148486673   0.02429415926740235
-0.4082354440788472   -0.01748464817278378   -0.0026584369566864177
-0.4082354440788472   -0.01748464817278378   -0.0026584369566864177
-0.4082354440788472   -0.01748464817278378   -0.0026584369566864177
-0.4082354440788472   -0.01748464817278378   -0.0026584369566864177
-0.3212775839388432   -0.009197757862859687   -0.01334162343119728
-0.3212775839388432   -0.009197757862859687   -0.01334162343119728
-0.3212775839388432   -0.009197757862859687   -0.01334162343119728
-0.3212775839388432   -0.009197757862859687   -0.01334162343119728
-0.48362495143208545   -0.00712767598429348   0.014945401438764312
-0.48362495143208545   -0.00712767598429348   0.014945401438764312
-0.48362495143208545   -0.00712767598429348   0.014945401438764312
-0.48362495143208545   -0.00712767598429348   0.014945401438764312
-0.4807063968538599   -0.02526977643306262   -0.02981754284193342
-0.4807063968538599   -0.02526977643306262   -0.02981754284193342
-0.4807063968538599   -0.02526977643306262   -0.02981754284193342
-0.4807063968538599   -0.02526977643306262   -0.02981754284193342
-0.2915829725631474   0.049213771565368006   0.019336335598878145
-0.2915829725631474   0.049213771565368006   0.019336335598878145
-0.2915829725631474   0.049213771565368006   0.019336335598878145
-0.2915829725631474   0.049213771565368006   0.019336335598878145
-0.3890821025609183   0.003285735631113937   0.00717415761150891
-0.3890821025609183   0.003285735631113937   0.00717415761150891
-0.3890821025609183   0.003285735631113937   0.00717415761150891
-0.3890821025609183   0.003285735631113937   0.00717415761150891
-0.30649650807605683   0.011943496509021712   -0.017961066909322778
-0.30649650807605683   0.011943496509021712   -0.017961066909322778
-0.30649650807605683   0.011943496509021712   -0.017961066909322778
-0.30649650807605683   0.011943496509021712   -0.017961066909322778
-0.46463908413614324   0.013154275828092199   0.01209496848549492
-0.46463908413614324   0.013154275828092199   0.01209496848549492
-0.46463908413614324   0.013154275828092199   0.01209496848549492
-0.46463908413614324   0.013154275828092199   0.01209496848549492
-0.46338007038859286   -0.0008681246585747204   -0.032100407608147294
-0.46338007038859286   -0.0008681246585747204   -0.032100407608147294
-0.46338007038859286   -0.0008681246585747204   -0.032100407608147294
-0.46338007038859286   -0.0008681246585747204   -0.032100407608147294
-0.2774636949399156   0.0700953853496961   0.014340363979260057
-0.2774636949399156   0.0700953853496961   0.014340363979260057
-0.2774636949399156   0.0700953853496961   0.014340363979260057
-0.2774636949399156   0.0700953853496961   0.014340363979260057
-0.3747807384232907   0.0226454342232391   0.015983169126111425
-0.3747807384232907   0.0226454342232391   0.015983169126111425
-0.3747807384232907   0.0226454342232391   0.015983169126111425
-0.3747807384232907   0.0226454342232391   0.015983169126111425
-0.5131644947125109   -0.046199747857818246   -0.029124287427618068
-0.5131644947125109   -0.046199747857818246   -0.029124287427618068
-0.5131644947125109   -0.046199747857818246   -0.029124287427618068
-0.5131644947125109   -0.046199747857818246   -0.029124287427618068
-0.6859463617278201   -0.012228328025684382   0.04299341615426833
-0.6859463617278201   -0.012228328025684382   0.04299341615426833
-0.6859463617278201   -0.012228328025684382   0.04299341615426833
-0.6859463617278201   -0.012228328025684382   0.04299341615426833
-0.6765479817846795   -0.06202075879720832   -0.03890929921300618
-0.6765479817846795   -0.06202075879720832   -0.03890929921300618
-0.6765479817846795   -0.06202075879720832   -0.03890929921300618
-0.6765479817846795   -0.06202075879720832   -0.03890929921300618
-0.4664647089794694   0.05123663846311073   0.04238229925443653
-0.4664647089794694   0.05123663846311073   0.04238229925443653
-0.4664647089794694   0.05123663846311073   0.04238229925443653
-0.4664647089794694   0.05123663846311073   0.04238229925443653
-0.560277271465794   -0.009959044550754165   0.00470288293323335
-0.560277271465794   -0.009959044550754165   0.00470288293323335
-0.560277271465794   -0.009959044550754165   0.00470288293323335
-0.560277271465794   -0.009959044550754165   0.00470288293323335
-0.49675155468726057   -0.02486889308283821   -0.03294639773856861
-0.49675155468726057   -0.02486889308283821   -0.03294639773856861
-0.49675155468726057   -0.02486889308283821   -0.03294639773856861
-0.49675155468726057   -0.02486889308283821   -0.03294639773856861
-0.6453272871191593   0.015018621706466811   0.040154793610906715
-0.6453272871191593   0.015018621706466811   0.040154793610906715
-0.6453272871191593   0.015018621706466811   0.040154793610906715
-0.6453272871191593   0.015018621706466811   0.040154793610906715
-0.6458404468574358   -0.04874954867536849   -0.04632076387347175
-0.6458404468574358   -0.04874954867536849   -0.04632076387347175
-0.6458404468574358   -0.04874954867536849   -0.04632076387347175
-0.6458404468574358   -0.04874954867536849   -0.04632076387347175
-0.45070682340669954   0.059963321433417274   0.034947226527383246
-0.45070682340669954   0.059963321433417274   0.034947226527383246
-0.45070682340669954   0.059963321433417274   0.034947226527383246
-0.45070682340669954   0.059963321433417274   0.034947226527383246
-0.5429474542682422   0.0039765591607043155   0.012636895238943638
-0.5429474542682422   0.0039765591607043155   0.012636895238943638
-0.5429474542682422   0.0039765591607043155   0.012636895238943638
-0.5429474542682422   0.0039765591607043155   0.012636895238943638
-0.48008994642315095   -0.013946924365089902   -0.03805814275636192
-0.48008994642315095   -0.013946924365089902   -0.03805814275636192
-0.48008994642315095   -0.013946924365089902   -0.03805814275636192
-0.48008994642315095   -0.013946924365089902   -0.03805814275636192
-0.6153172832445318   0.02630073771958996   0.031244767796078852
-0.6153172832445318   0.02630073771958996   0.031244767796078852
-0.6153172832445318   0.02630073771958996   0.031244767796078852
-0.6153172832445318   0.02630073771958996   0.031244767796078852
-0.6079698448203339   -0.02895548230790801   -0.0516712180855785
-0.6079698448203339   -0.02895548230790801   -0.0516712180855785
-0.6079698448203339   -0.02895548230790801   -0.0516712180855785
-0.6079698448203339   -0.02895548230790801   -0.0516712180855785
-0.43687251101483887   0.07045986388159044   0.029109400720455317
-0.43687251101483887   0.07045986388159044   0.029109400720455317
-0.43687251101483887   0.07045986388159044   0.029109400720455317
-0.43687251101483887   0.07045986388159044   0.029109400720455317
-0.5102828052888744   0.017016415662812825   0.023829869408851265
-0.5102828052888744   0.017016415662812825   0.023829869408851265
-0.5102828052888744   0.017016415662812825   0.023829869408851265
-0.5102828052888744   0.017016415662812825   0.023829869408851265
0.5429402055202813   0.04936600826606302   0.046948295519473056
0.5429402055202813   0.04936600826606302   0.046948295519473056
0.5429402055202813   0.04936600826606302   0.046948295519473056
0.5429402055202813   0.04936600826606302   0.046948295519473056
0.19867075383283217   -0.08995108962702614   -0.030895193179568445
0.19867075383283217   -0.08995108962702614   -0.030895193179568445
0.19867075383283217   -0.08995108962702614   -0.030895193179568445
0.19867075383283217   -0.08995108962702614   -0.030895193179568445
0.2450785544158345   -0.0006461479668457906   0.03376385776698392
0.2450785544158345   -0.0006461479668457906   0.03376385776698392
0.2450785544158345   -0.0006461479668457906   0.03376385776698392
0.2450785544158345   -0.0006461479668457906   0.03376385776698392
0.5526491210870864   -0.012252175182901726   -0.03945408398338035
0.5526491210870864   -0.012252175182901726   -0.03945408398338035
0.5526491210870864   -0.012252175182901726   -0.03945408398338035
0.5526491210870864   -0.012252175182901726   -0.03945408398338035
0.3611666214415712   -0.01620714408313456   -0.03479897615047175
0.3611666214415712   -0.01620714408313456   -0.03479897615047175
0.3611666214415712   -0.01620714408313456   -0.03479897615047175
0.3611666214415712   -0.01620714408313456   -0.03479897615047175
0.5848965684363772   0.06872573233324795   0.04080524524691524
0.5848965684363772   0.06872573233324795   0.04080524524691524
0.5848965684363772   0.06872573233324795   0.04080524524691524
0.5848965684363772   0.06872573233324795   0.04080524524691524
0.21512121607489929   -0.07933394647464159   -0.03733503542989247
0.21512121607489929   -0.07933394647464159   -0.03733503542989247
0.21512121607489929   -0.07933394647464159   -0.03733503542989247
0.21512121607489929   -0.07933394647464159   -0.03733503542989247
0.2633243908464451   0.00997814462503114   0.027831252911584774
0.2633243908464451   0.00997814462503114   0.027831252911584774
0.2633243908464451   0.00997814462503114   0.027831252911584774
0.2633243908464451   0.00997814462503114   0.027831252911584774
0.5860075777437793   -0.00018236003112620525   -0.04966679410129632
0.5860075777437793   -0.00018236003112620525   -0.04966679410129632
0.5860075777437793   -0.00018236003112620525   -0.04966679410129632
0.5860075777437793   -0.00018236003112620525   -0.04966679410129632
0.39603365441859156   -0.003179085657290401   -0.02109776165486052
0.39603365441859156   -0.003179085657290401   -0.02109776165486052
0.39603365441859156   -0.003179085657290401   -0.02109776165486052
0.39603365441859156   -0.003179085657290401   -0.02109776165486052
0.6186046577779516   0.08174599719724987   0.03139024884118574
0.6186046577779516   0.08174599719724987   0.03139024884118574
0.6186046577779516   0.08174599719724987   0.03139024884118574
0.6186046577779516   0.08174599719724987   0.03139024884118574
0.23315709746872673   -0.06952042594688873   -0.043506643405087024
0.23315709746872673   -0.06952042594688873   -0.043506643405087024
0.23315709746872673   -0.06952042594688873   -0.043506643405087024
0.23315709746872673   -0.06952042594688873   -0.043506643405087024
0.2815464942154436   0.03341646524037688   0.024121003584829923
0.2815464942154436   0.03341646524037688   0.024121003584829923
0.2815464942154436   0.03341646524037688   0.024121003584829923
0.2815464942154436   0.03341646524037688   0.024121003584829923
0.629829583236238   0.0312913088368961   -0.05356571405801919
0.629829583236238   0.0312913088368961   -0.05356571405801919
0.629829583236238   0.0312913088368961   -0.05356571405801919
0.629829583236238   0.0312913088368961   -0.05356571405801919
0.4174625468502433   0.01268702091451078   -0.009265145872555723
0.4174625468502433   0.01268702091451078   -0.009265145872555723
0.4174625468502433   0.01268702091451078   -0.009265145872555723
0.4174625468502433   0.01268702091451078   -0.009265145872555723
0.2358949377443601   0.027681893937489082   0.037592742813556054
0.2358949377443601   0.027681893937489082   0.037592742813556054
0.2358949377443601   0.027681893937489082   0.037592742813556054
0.2358949377443601   0.027681893937489082   0.037592742813556054
-0.11527379336252258   -0.0839416548786256   -0.01619672968003505
-0.11527379336252258   -0.0839416548786256   -0.01619672968003505
-0.11527379336252258   -0.0839416548786256   -0.01619672968003505
-0.11527379336252258   -0.0839416548786256   -0.01619672968003505
-0.08340282674731973   -0.024670656140003935   0.011351277546052925
-0.08340282674731973   -0.024670656140003935   0.011351277546052925
-0.08340282674731973   -0.024670656140003935   0.011351277546052925
-0.08340282674731973   -0.024670656140003935   0.011351277546052925
0.2376552005940778   0.0009241888277238819   -0.0049232481363694494
0.2376552005940778   0.0009241888277238819   -0.0049232481363694494
0.2376552005940778   0.0009241888277238819   -0.0049232481363694494
0.2376552005940778   0.0009241888277238819   -0.0049232481363694494
0.06561275896205238   -0.017677016816459293   -0.014801948145522305
0.06561275896205238   -0.017677016816459293   -0.014801948145522305
0.06561275896205238   -0.017677016816459293   -0.014801948145522305
0.06561275896205238   -0.017677016816459293   -0.014801948145522305
0.2546473470391016   0.047384548076136526   0.03357712484033724
0.2546473470391016   0.047384548076136526   0.03357712484033724
0.2546473470391016   0.047384548076136526   0.03357712484033724
0.2546473470391016   0.047384548076136526   0.03357712484033724
-0.09900935453212542   -0.0697453967281993   -0.021606620789782077
-0.09900935453212542   -0.0697453967281993   -0.021606620789782077
-0.09900935453212542   -0.0697453967281993   -0.021606620789782077
-0.09900935453212542   -0.0697453967281993   -0.021606620789782077
-0.0664094882366157   -0.004772863404832135   0.007167308159621972
-0.0664094882366157   -0.004772863404832135   0.007167308159621972
-0.0664094882366157   -0.004772863404832135   0.007167308159621972
-0.0664094882366157   -0.004772863404832135   0.007167308159621972
0.25767476482655066   0.018765669851481502   -0.009204402414337605
0.25767476482655066   0.018765669851481502   -0.009204402414337605
0.25767476482655066   0.018765669851481502   -0.009204402414337605
0.25767476482655066   0.018765669851481502   -0.009204402414337605
0.08202258409319318   -0.001960553880379006   -0.0058825769436858305
0.08202258409319318   -0.001960553880379006   -0.0058825769436858305
0.08202258409319318   -0.001960553880379006   -0.0058825769436858305
0.08202258409319318   -0.001960553880379006   -0.0058825769436858305
0.2753483415724212   0.06810922596528887   0.02981992520120794
0.2753483415724212   0.06810922596528887   0.02981992520120794
0.2753483415724212   0.06810922596528887   0.02981992520120794
0.2753483415724212   0.06810922596528887   0.02981992520120794
-0.0826953574323981   -0.052728711968559425   -0.026306189255562773
-0.0826953574323981   -0.052728711968559425   -0.026306189255562773
-0.0826953574323981   -0.052728711968559425   -0.026306189255562773
-0.0826953574323981   -0.052728711968559425   -0.026306189255562773
-0.04962584484003916   0.018297665977859562   0.003004368325282126
-0.04962584484003916   0.018297665977859562   0.003004368325282126
-0.04962584484003916   0.018297665977859562   0.003004368325282126
-0.04962584484003916   0.018297665977859562   0.003004368325282126
0.275415159151168   0.0400264494858741   -0.013145655982045855
0.275415159151168   0.0400264494858741   -0.013145655982045855
0.275415159151168   0.0400264494858741   -0.013145655982045855
0.275415159151168   0.0400264494858741   -0.013145655982045855
0.1023338773592248   0.01732925591346097   0.004535517258452134
0.1023338773592248   0.01732925591346097   0.004535517258452134
0.1023338773592248   0.01732925591346097   0.004535517258452134
0.1023338773592248   0.01732925591346097   0.004535517258452134
-0.0908378458527772   0.0060357900309200435   0.016005562959146263
-0.0908378458527772   0.0060357900309200435   0.016005562959146263
-0.0908378458527772   0.0060357900309200435   0.016005562959146263
-0.0908378458527772   0.0060357900309200435   0.016005562959146263
-0.42299416379309884   -0.07416201233601775   -0.0021684924830680206
-0.42299416379309884   -0.07416201233601775   -0.0021684924830680206
-0.42299416379309884   -0.07416201233601775   -0.0021684924830680206
-0.42299416379309884   -0.07416201233601775   -0.0021684924830680206
-0.40286342136470066   -0.04380765633204793   -0.009929103782273959
-0.40286342136470066   -0.04380765633204793   -0.009929103782273959
-0.40286342136470066   -0.04380765633204793   -0.009929103782273959
-0.40286342136470066   -0.04380765633204793   -0.009929103782273959
-0.07636611519281053   0.011242535207466688   0.010621643971126154
-0.07636611519281053   0.011242535207466688   0.010621643971126154
-0.07636611519281053   0.011242535207466688   0.010621643971126154
-0.07636611519281053   0.011242535207466688   0.010621643971126154
-0.24869959844035924   -0.022777665609647786   -0.009246766287380697
-0.24869959844035924   -0.022777665609647786   -0.009246766287380697
-0.24869959844035924   -0.022777665609647786   -0.009246766287380697
-0.24869959844035924   -0.022777665609647786   -0.009246766287380697
-0.07300032692468371   0.026574506180211857   0.012118614339017265
-0.07300032692468371   0.026574506180211857   0.012118614339017265
-0.07300032692468371   0.026574506180211857   0.012118614339017265
-0.07300032692468371   0.026574506180211857   0.012118614339017265
-0.40529786642420573   -0.05820828409617253   -0.007700701315674674
-0.40529786642420573   -0.05820828409617253   -0.007700701315674674
-0.40529786642420573   -0.05820828409617253   -0.007700701315674674
-0.40529786642420573   -0.05820828409617253   -0.007700701315674674
-0.3841304511373391   -0.02197624109564597   -0.013411162648163038
-0.3841304511373391   -0.02197624109564597   -0.013411162648163038
-0.3841304511373391   -0.02197624109564597   -0.013411162648163038
-0.3841304511373391   -0.02197624109564597   -0.013411162648163038
-0.059828232322788236   0.029268367771834756   0.006032356552092229
-0.059828232322788236   0.029268367771834756   0.006032356552092229
-0.059828232322788236   0.029268367771834756   0.006032356552092229
-0.059828232322788236   0.029268367771834756   0.006032356552092229
-0.22980246306029284   -0.004514182548791053   -0.0001382248236750372
-0.22980246306029284   -0.004514182548791053   -0.0001382248236750372
-0.22980246306029284   -0.004514182548791053   -0.0001382248236750372
-0.22980246306029284   -0.004514182548791053   -0.0001382248236750372
-0.055764284164198846   0.04791943154332985   0.007701033573544168
-0.055764284164198846   0.04791943154332985   0.007701033573544168
-0.055764284164198846   0.04791943154332985   0.007701033573544168
-0.055764284164198846   0.04791943154332985   0.007701033573544168
-0.3873305526937516   -0.03976345826495891   -0.011624453260912713
-0.3873305526937516   -0.03976345826495891   -0.011624453260912713
-0.3873305526937516   -0.03976345826495891   -0.011624453260912713
-0.3873305526937516   -0.03976345826495891   -0.011624453260912713
-0.3666905113965128   -0.00021239246710288984   -0.017566554875419346
-0.3666905113965128   -0.00021239246710288984   -0.017566554875419346
-0.3666905113965128   -0.00021239246710288984   -0.017566554875419346
-0.3666905113965128   -0.00021239246710288984   -0.017566554875419346
-0.04405096697066786   0.04767332701625361   0.0015030966337458186
-0.04405096697066786   0.04767332701625361   0.0015030966337458186
-0.04405096697066786   0.04767332701625361   0.0015030966337458186
-0.04405096697066786   0.04767332701625361   0.0015030966337458186
-0.21244808081715322   0.013681828414421462   0.008526777701510693
-0.21244808081715322   0.013681828414421462   0.008526777701510693
-0.21244808081715322   0.013681828414421462   0.008526777701510693
-0.21244808081715322   0.013681828414421462   0.008526777701510693
-0.41217930678770553   -0.016021225159708885   -0.006234994632406791
-0.41217930678770553   -0.016021225159708885   -0.006234994632406791
-0.41217930678770553   -0.016021225159708885   -0.006234994632406791
-0.41217930678770553   -0.016021225159708885   -0.006234994632406791
-0.7239074334622126   -0.060167006947635646   0.013833156886528688
-0.7239074334622126   -0.060167006947635646   0.013833156886528688
-0.7239074334622126   -0.060167006947635646   0.013833156886528688
-0.7239074334622126   -0.060167006947635646   0.013833156886528688
-0.7142227016573032   -0.06220794969983373   -0.02985821691371912
-0.7142227016573032   -0.06220794969983373   -0.02985821691371912
-0.7142227016573032   -0.06220794969983373   -0.02985821691371912
-0.7142227016573032   -0.06220794969983373   -0.02985821691371912
-0.3811695590733135   0.02808643367877059   0.026646117663846614
-0.3811695590733135   0.02808643367877059   0.026646117663846614
-0.3811695590733135   0.02808643367877059   0.026646117663846614
-0.3811695590733135   0.02808643367877059   0.026646117663846614
-0.554010976776405   -0.024120812578680817   -0.0032295964675264632
-0.554010976776405   -0.024120812578680817   -0.0032295964675264632
-0.554010976776405   -0.024120812578680817   -0.0032295964675264632
-0.554010976776405   -0.024120812578680817   -0.0032295964675264632
-0.3927905187651501   0.006146400698358631   -0.009518647814924262
-0.3927905187651501   0.006146400698358631   -0.009518647814924262
-0.3927905187651501   0.006146400698358631   -0.009518647814924262
-0.3927905187651501   0.006146400698358631   -0.009518647814924262
-0.702536762080429   -0.04020293683438178   0.006566468105200181
-0.702536762080429   -0.04020293683438178   0.006566468105200181
-0.702536762080429   -0.04020293683438178   0.006566468105200181
-0.702536762080429   -0.04020293683438178   0.006566468105200181
-0.6897239403067398   -0.0408869388864455   -0.033026248916597126
-0.6897239403067398   -0.0408869388864455   -0.033026248916597126
-0.6897239403067398   -0.0408869388864455   -0.033026248916597126
-0.6897239403067398   -0.0408869388864455   -0.033026248916597126
-0.3637390352020742   0.04526412848711077   0.021305547445408343
-0.3637390352020742   0.04526412848711077   0.021305547445408343
-0.3637390352020742   0.04526412848711077   0.021305547445408343
-0.3637390352020742   0.04526412848711077   0.021305547445408343
-0.5290673981337263   -0.003939271890623944   0.005912391191686916
-0.5290673981337263   -0.003939271890623944   0.005912391191686916
-0.5290673981337263   -0.003939271890623944   0.005912391191686916
-0.5290673981337263   -0.003939271890623944   0.005912391191686916
-0.3746485435274402   0.025948180928227635   -0.013926046622538567
-0.3746485435274402   0.025948180928227635   -0.013926046622538567
-0.3746485435274402   0.025948180928227635   -0.013926046622538567
-0.3746485435274402   0.025948180928227635   -0.013926046622538567
-0.6782196993266886   -0.02097625867287589   0.00458427577008929
-0.6782196993266886   -0.02097625867287589   0.00458427577008929
-0.6782196993266886   -0.02097625867287589   0.00458427577008929
-0.6782196993266886   -0.02097625867287589   0.00458427577008929
-0.6678197575756362   -0.017789900257192154   -0.034730001419460685
-0.6678197575756362   -0.017789900257192154   -0.034730001419460685
-0.6678197575756362   -0.017789900257192154   -0.034730001419460685
-0.6678197575756362   -0.017789900257192154   -0.034730001419460685
-0.34685736178753285   0.06413660344088137   0.01725019726149929
-0.34685736178753285   0.06413660344088137   0.01725019726149929
-0.34685736178753285   0.06413660344088137   0.01725019726149929
-0.34685736178753285   0.06413660344088137   0.01725019726149929
-0.5122517103370018   0.013301888694999889   0.013794279646589521
-0.5122517103370018   0.013301888694999889   0.013794279646589521
-0.5122517103370018   0.013301888694999889   0.013794279646589521
-0.5122517103370018   0.013301888694999889   0.013794279646589521
-0.7268812442647874   -0.03437880714894484   -0.026824096925035873
-0.7268812442647874   -0.03437880714894484   -0.026824096925035873
-0.7268812442647874   -0.03437880714894484   -0.026824096925035873
-0.7268812442647874   -0.03437880714894484   -0.026824096925035873
-1.0364121154275918   -0.03743431580792447   0.04645860056953459
-1.0364121154275918   -0.03743431580792447   0.04645860056953459
-1.0364121154275918   -0.03743431580792447   0.04645860056953459
-1.0364121154275918   -0.03743431580792447   0.04645860056953459
-1.0167553429378897   -0.07441926153748163   -0.035606566790104974
-1.0167553429378897   -0.07441926153748163   -0.035606566790104974
-1.0167553429378897   -0.07441926153748163   -0.035606566790104974
-1.0167553429378897   -0.07441926153748163   -0.035606566790104974
-0.6747920987147211   0.0578310190614974   0.04725582903785323
-0.6747920987147211   0.0578310190614974   0.04725582903785323
-0.6747920987147211   0.0578310190614974   0.04725582903785323
-0.6747920987147211   0.0578310190614974   0.04725582903785323
-0.82538639654238   -0.010197188636272198   0.009652813750428972
-0.82538639654238   -0.010197188636272198   0.009652813750428972
-0.82538639654238   -0.010197188636272198   0.009652813750428972
-0.82538639654238   -0.010197188636272198   0.009652813750428972
-0.7039135627800562   -0.010694738827793732   -0.029825733399527987
-0.7039135627800562   -0.010694738827793732   -0.029825733399527987
-0.7039135627800562   -0.010694738827793732   -0.029825733399527987
-0.7039135627800562   -0.010694738827793732   -0.029825733399527987
-0.9871393764893812   -0.00539900126501347   0.043453005179958974
-0.9871393764893812   -0.00539900126501347   0.043453005179958974
-0.9871393764893812   -0.00539900126501347   0.043453005179958974
-0.9871393764893812   -0.00539900126501347   0.043453005179958974
-0.9796145357997866   -0.06119681504581151   -0.04194574347567373
-0.9796145357997866   -0.06119681504581151   -0.04194574347567373
-0.9796145357997866   -0.06119681504581151   -0.04194574347567373
-0.9796145357997866   -0.06119681504581151   -0.04194574347567373
-0.6542522200171783   0.06598454146669755   0.037460872178066346
-0.6542522200171783   0.06598454146669755   0.037460872178066346
-0.6542522200171783   0.06598454146669755   0.037460872178066346
-0.6542522200171783   0.06598454146669755   0.037460872178066346
-0.8063465386817599   0.00424098176167742   0.0172385236918487
-0.8063465386817599   0.00424098176167742   0.0172385236918487
-0.8063465386817599   0.00424098176167742   0.0172385236918487
-0.8063465386817599   0.00424098176167742   0.0172385236918487
-0.6817383444522596   -2.4558156081100346e-05   -0.03396065037456123
-0.6817383444522596   -2.4558156081100346e-05   -0.03396065037456123
-0.6817383444522596   -2.4558156081100346e-05   -0.03396065037456123
-0.6817383444522596   -2.4558156081100346e-05   -0.03396065037456123
-0.9516325587530224   0.005308137188654527   0.031459189523664596
-0.9516325587530224   0.005308137188654527   0.031459189523664596
-0.9516325587530224   0.005308137188654527   0.031459189523664596
-0.9516325587530224   0.005308137188654527   0.031459189523664596
-0.9389812587792428   -0.04534729248576838   -0.04781763335193489
-0.9389812587792428   -0.04534729248576838   -0.04781763335193489
-0.9389812587792428   -0.04534729248576838   -0.04781763335193489
-0.9389812587792428   -0.04534729248576838   -0.04781763335193489
-0.6362193863901017   0.07358530346586256   0.03189665078515452
-0.6362193863901017   0.07358530346586256   0.03189665078515452
-0.6362193863901017   0.07358530346586256   0.03189665078515452
-0.6362193863901017   0.07358530346586256   0.03189665078515452
-0.7652970149568802   0.016228783444519057   0.028738523474410412
-0.7652970149568802   0.016228783444519057   0.028738523474410412
-0.7652970149568802   0.016228783444519057   0.028738523474410412
-0.7652970149568802   0.016228783444519057   0.028738523474410412
0.9097333153611666   0.06804489510016043   0.048022168928048135
0.9097333153611666   0.06804489510016043   0.048022168928048135
0.9097333153611666   0.06804489510016043   0.048022168928048135
0.9097333153611666   0.06804489510016043   0.048022168928048135
0.40100730041564364   -0.1068137322847099   -0.022141804000584357
0.40100730041564364   -0.1068137322847099   -0.022141804000584357
0.40100730041564364   -0.1068137322847099   -0.022141804000584357
0.40100730041564364   -0.1068137322847099   -0.022141804000584357
0.4468993211794207   -0.018919969504931355   0.032956744314168056
0.4468993211794207   -0.018919969504931355   0.032956744314168056
0.4468993211794207   -0.018919969504931355   0.032956744314168056
0.4468993211794207   -0.018919969504931355   0.032956744314168056
0.9196345722438143   -0.0013606882334358528   -0.03465355024868136
0.9196345722438143   -0.0013606882334358528   -0.03465355024868136
0.9196345722438143   -0.0013606882334358528   -0.03465355024868136
0.9196345722438143   -0.0013606882334358528   -0.03465355024868136
0.6301298257765902   -0.018973115593828332   -0.049170696611189876
0.6301298257765902   -0.018973115593828332   -0.049170696611189876
0.6301298257765902   -0.018973115593828332   -0.049170696611189876
0.6301298257765902   -0.018973115593828332   -0.049170696611189876
0.9515629609759667   0.08345579218939489   0.040171912989245
0.9515629609759667   0.08345579218939489   0.040171912989245
0.9515629609759667   0.08345579218939489   0.040171912989245
0.9515629609759667   0.08345579218939489   0.040171912989245
0.41804003092212494   -0.10066735145290462   -0.029592325024335862
0.41804003092212494   -0.10066735145290462   -0.029592325024335862
0.41804003092212494   -0.10066735145290462   -0.029592325024335862
0.41804003092212494   -0.10066735145290462   -0.029592325024335862
0.46479351404693   -0.009165178394106577   0.02663317778062051
0.46479351404693   -0.009165178394106577   0.02663317778062051
0.46479351404693   -0.009165178394106577   0.02663317778062051
0.46479351404693   -0.009165178394106577   0.02663317778062051
0.9509833313507114   0.009390305917733127   -0.04326498605805812
0.9509833313507114   0.009390305917733127   -0.04326498605805812
0.9509833313507114   0.009390305917733127   -0.04326498605805812
0.9509833313507114   0.009390305917733127   -0.04326498605805812
0.6695492053090725   -0.007494629365035255   -0.03346674620419472
0.6695492053090725   -0.007494629365035255   -0.03346674620419472
0.6695492053090725   -0.007494629365035255   -0.03346674620419472
0.6695492053090725   -0.007494629365035255   -0.03346674620419472
0.9827201834119004   0.0950461966299044   0.029763383535715324
0.9827201834119004   0.0950461966299044   0.029763383535715324
0.9827201834119004   0.0950461966299044   0.029763383535715324
0.9827201834119004   0.0950461966299044   0.029763383535715324
0.43573985247474206   -0.0921378786172785   -0.035662429857147
0.43573985247474206   -0.0921378786172785   -0.035662429857147
0.43573985247474206   -0.0921378786172785   -0.035662429857147
0.43573985247474206   -0.0921378786172785   -0.035662429857147
0.48101070710578253   0.016910738713286896   0.023350311454359608
0.48101070710578253   0.016910738713286896   0.023350311454359608
0.48101070710578253   0.016910738713286896   0.023350311454359608
0.48101070710578253   0.016910738713286896   0.023350311454359608
0.9895771322558391   0.04085798808527455   -0.04529548018311703
0.9895771322558391   0.04085798808527455   -0.04529548018311703
0.9895771322558391   0.04085798808527455   -0.04529548018311703
0.9895771322558391   0.04085798808527455   -0.04529548018311703
0.6841858047633911   0.007978708407665513   -0.02261501587858831
0.6841858047633911   0.007978708407665513   -0.02261501587858831
0.6841858047633911   0.007978708407665513   -0.02261501587858831
0.6841858047633911   0.007978708407665513   -0.02261501587858831
0.44358526511110435   0.039880300158760346   0.04405398703324316
0.44358526511110435   0.039880300158760346   0.04405398703324316
0.44358526511110435   0.039880300158760346   0.04405398703324316
0.44358526511110435   0.039880300158760346   0.04405398703324316
-0.05541365097183331   -0.1314772496271536   -0.01262821900496269
-0.05541365097183331   -0.1314772496271536   -0.01262821900496269
-0.05541365097183331   -0.1314772496271536   -0.01262821900496269
-0.05541365097183331   -0.1314772496271536   -0.01262821900496269
-0.01594598773440446   -0.046583298673364304   0.011140502686641187
-0.01594598773440446   -0.046583298673364304   0.011140502686641187
-0.01594598773440446   -0.046583298673364304   0.011140502686641187
-0.01594598773440446   -0.046583298673364304   0.011140502686641187
0.43978463137848617   -0.02376090237030122   0.002224228174865863
0.43978463137848617   -0.02376090237030122   0.002224228174865863
0.43978463137848617   -0.02376090237030122   0.002224228174865863
0.43978463137848617   -0.02376090237030122   0.002224228174865863
0.19749876395584043   -0.036505936157933065   -0.023373211661676673
0.19749876395584043   -0.036505936157933065   -0.023373211661676673
0.19749876395584043   -0.036505936157933065   -0.023373211661676673
0.19749876395584043   -0.036505936157933065   -0.023373211661676673
0.4628481038490375   0.05475296394788261   0.03902772420943999
0.4628481038490375   0.05475296394788261   0.03902772420943999
0.4628481038490375   0.05475296394788261   0.03902772420943999
0.4628481038490375   0.05475296394788261   0.03902772420943999
-0.03738619245746175   -0.12347389724405491   -0.01916992235795465
-0.03738619245746175   -0.12347389724405491   -0.01916992235795465
-0.03738619245746175   -0.12347389724405491   -0.01916992235795465
-0.03738619245746175   -0.12347389724405491   -0.01916992235795465
0.0022980769197885765   -0.029112498206001494   0.006781445205040211
0.0022980769197885765   -0.029112498206001494   0.006781445205040211
0.0022980769197885765   -0.029112498206001494   0.006781445205040211
0.0022980769197885765   -0.029112498206001494   0.006781445205040211
0.4584853722504911   -0.010585769272999548   -0.003486940322682014
0.4584853722504911   -0.010585769272999548   -0.003486940322682014
0.4584853722504911   -0.010585769272999548   -0.003486940322682014
0.4584853722504911   -0.010585769272999548   -0.003486940322682014
0.21332474651639374   -0.025774255252479013   -0.01513979702298463
0.21332474651639374   -0.025774255252479013   -0.01513979702298463
0.21332474651639374   -0.025774255252479013   -0.01513979702298463
0.21332474651639374   -0.025774255252479013   -0.01513979702298463
0.4827881323161357   0.07259786831564166   0.03484322241690081
0.4827881323161357   0.07259786831564166   0.03484322241690081
0.4827881323161357   0.07259786831564166   0.03484322241690081
0.4827881323161357   0.07259786831564166   0.03484322241690081
-0.02103391858785824   -0.1113253712366434   -0.027665659302551972
-0.02103391858785824   -0.1113253712366434   -0.027665659302551972
-0.02103391858785824   -0.1113253712366434   -0.027665659302551972
-0.02103391858785824   -0.1113253712366434   -0.027665659302551972
0.01662253576175212   -0.008627414208552316   0.002377648935268601
0.01662253576175212   -0.008627414208552316   0.002377648935268601
0.01662253576175212   -0.008627414208552316   0.002377648935268601
0.01662253576175212   -0.008627414208552316   0.002377648935268601
0.4724773077635472   0.006234513776997269   -0.008640460320530934
0.4724773077635472   0.006234513776997269   -0.008640460320530934
0.4724773077635472   0.006234513776997269   -0.008640460320530934
0.4724773077635472   0.006234513776997269   -0.008640460320530934
0.23277112966766603   -0.009712601213381931   -0.006290813380515037
0.23277112966766603   -0.009712601213381931   -0.006290813380515037
0.23277112966766603   -0.009712601213381931   -0.006290813380515037
0.23277112966766603   -0.009712601213381931   -0.006290813380515037
-0.019959263915064935   0.011259966222119718   0.02190650042960588
-0.019959263915064935   0.011259966222119718   0.02190650042960588
-0.019959263915064935   0.011259966222119718   0.02190650042960588
-0.019959263915064935   0.011259966222119718   0.02190650042960588
-0.5082856733198844   -0.16486908700127267   -0.010118787103145208
-0.5082856733198844   -0.16486908700127267   -0.010118787103145208
-0.5082856733198844   -0.16486908700127267   -0.010118787103145208
-0.5082856733198844   -0.16486908700127267   -0.010118787103145208
-0.4684328653813335   -0.07143740592830376   -0.010711311519172446
-0.4684328653813335   -0.07143740592830376   -0.010711311519172446
-0.4684328653813335   -0.07143740592830376   -0.010711311519172446
-0.4684328653813335   -0.07143740592830376   -0.010711311519172446
-0.018090218710100654   -0.05607989019834935   0.009915939333144611
-0.018090218710100654   -0.05607989019834935   0.009915939333144611
-0.018090218710100654   -0.05607989019834935   0.009915939333144611
-0.018090218710100654   -0.05607989019834935   0.009915939333144611
-0.25483399582619687   -0.0665120966346676   -0.02086265899295558
-0.25483399582619687   -0.0665120966346676   -0.02086265899295558
-0.25483399582619687   -0.0665120966346676   -0.02086265899295558
-0.25483399582619687   -0.0665120966346676   -0.02086265899295558
0.00030723465717829353   0.028014616314560366   0.017808699656630275
0.00030723465717829353   0.028014616314560366   0.017808699656630275
0.00030723465717829353   0.028014616314560366   0.017808699656630275
0.00030723465717829353   0.028014616314560366   0.017808699656630275
-0.4856557880437391   -0.154357381736339   -0.01390594902316514
-0.4856557880437391   -0.154357381736339   -0.01390594902316514
-0.4856557880437391   -0.154357381736339   -0.01390594902316514
-0.4856557880437391   -0.154357381736339   -0.01390594902316514
-0.44579885679214176   -0.05204591348589573   -0.014568425267206636
-0.44579885679214176   -0.05204591348589573   -0.014568425267206636
-0.44579885679214176   -0.05204591348589573   -0.014568425267206636
-0.44579885679214176   -0.05204591348589573   -0.014568425267206636
-0.001098666438198585   -0.04341427673800471   0.00409950694710799
-0.001098666438198585   -0.04341427673800471   0.00409950694710799
-0.001098666438198585   -0.04341427673800471   0.00409950694710799
-0.001098666438198585   -0.04341427673800471   0.00409950694710799
-0.23286176890631602   -0.05256239163865003   -0.011564117341004206
-0.23286176890631602   -0.05256239163865003   -0.011564117341004206
-0.23286176890631602   -0.05256239163865003   -0.011564117341004206
-0.23286176890631602   -0.05256239163865003   -0.011564117341004206
0.018850921564035318   0.04657030106903027   0.013862869151242168
0.018850921564035318   0.04657030106903027   0.013862869151242168
0.018850921564035318   0.04657030106903027   0.013862869151242168
0.018850921564035318   0.04657030106903027   0.013862869151242168
-0.4657425910617958   -0.14202463756035014   -0.024308372541022038
-0.4657425910617958   -0.14202463756035014   -0.024308372541022038
-0.4657425910617958   -0.14202463756035014   -0.024308372541022038
-0.4657425910617958   -0.14202463756035014   -0.024308372541022038
-0.4298011964310629   -0.03355262111838668   -0.01887641457906063
-0.4298011964310629   -0.03355262111838668   -0.01887641457906063
-0.4298011964310629   -0.03355262111838668   -0.01887641457906063
-0.4298011964310629   -0.03355262111838668   -0.01887641457906063
0.010050663669602987   -0.03327121427524688   -0.005837911458780589
0.010050663669602987   -0.03327121427524688   -0.005837911458780589
0.010050663669602987   -0.03327121427524688   -0.005837911458780589
0.010050663669602987   -0.03327121427524688   -0.005837911458780589
-0.21674917722297116   -0.039540493957772496   -0.0057266827495164
-0.21674917722297116   -0.039540493957772496   -0.0057266827495164
-0.21674917722297116   -0.039540493957772496   -0.0057266827495164
-0.21674917722297116   -0.039540493957772496   -0.0057266827495164
-0.47612272302381886   -0.01350943396840118   -0.0006636886556888044
-0.47612272302381886   -0.01350943396840118   -0.0006636886556888044
-0.47612272302381886   -0.01350943396840118   -0.0006636886556888044
-0.47612272302381886   -0.01350943396840118   -0.0006636886556888044
-0.9633762037216407   -0.17725393216631605   -0.008101379185232398
-0.9633762037216407   -0.17725393216631605   -0.008101379185232398
-0.9633762037216407   -0.17725393216631605   -0.008101379185232398
-0.9633762037216407   -0.17725393216631605   -0.008101379185232398
-0.9206514491369959   -0.09149543420678047   -0.031781331700257
-0.9206514491369959   -0.09149543420678047   -0.031781331700257
-0.9206514491369959   -0.09149543420678047   -0.031781331700257
-0.9206514491369959   -0.09149543420678047   -0.031781331700257
-0.45946762085831866   -0.058284279684853176   0.020961784852451874
-0.45946762085831866   -0.058284279684853176   0.020961784852451874
-0.45946762085831866   -0.058284279684853176   0.020961784852451874
-0.45946762085831866   -0.058284279684853176   0.020961784852451874
-0.6987499304589668   -0.08003108812392316   -0.014695435178189938
-0.6987499304589668   -0.08003108812392316   -0.014695435178189938
-0.6987499304589668   -0.08003108812392316   -0.014695435178189938
-0.6987499304589668   -0.08003108812392316   -0.014695435178189938
-0.45111689911618985   0.00804497076089912   -0.0036138568826571196
-0.45111689911618985   0.00804497076089912   -0.0036138568826571196
-0.45111689911618985   0.00804497076089912   -0.0036138568826571196
-0.45111689911618985   0.00804497076089912   -0.0036138568826571196
-0.9293517942749445   -0.1581743080483527   -0.00860418354841981
-0.9293517942749445   -0.1581743080483527   -0.00860418354841981
-0.9293517942749445   -0.1581743080483527   -0.00860418354841981
-0.9293517942749445   -0.1581743080483527   -0.00860418354841981
-0.8882763061056352   -0.07126313109299592   -0.03679347955156412
-0.8882763061056352   -0.07126313109299592   -0.03679347955156412
-0.8882763061056352   -0.07126313109299592   -0.03679347955156412
-0.8882763061056352   -0.07126313109299592   -0.03679347955156412
-0.4375021888825263   -0.043106038634471724   0.01797503942945084
-0.4375021888825263   -0.043106038634471724   0.01797503942945084
-0.4375021888825263   -0.043106038634471724   0.01797503942945084
-0.4375021888825263   -0.043106038634471724   0.01797503942945084
-0.665444774423032   -0.06061840485274764   -0.004781189429239791
-0.665444774423032   -0.06061840485274764   -0.004781189429239791
-0.665444774423032   -0.06061840485274764   -0.004781189429239791
-0.665444774423032   -0.06061840485274764   -0.004781189429239791
-0.42843299477689234   0.026756017789744707   -0.006541046466599948
-0.42843299477689234   0.026756017789744707   -0.006541046466599948
-0.42843299477689234   0.026756017789744707   -0.006541046466599948
-0.42843299477689234   0.026756017789744707   -0.006541046466599948
-0.8988870311001739   -0.1426667184061171   -0.018443517211128337
-0.8988870311001739   -0.1426667184061171   -0.018443517211128337
-0.8988870311001739   -0.1426667184061171   -0.018443517211128337
-0.8988870311001739   -0.1426667184061171   -0.018443517211128337
-0.8620452770085792   -0.04994597568955261   -0.03797478316962414
-0.8620452770085792   -0.04994597568955261   -0.03797478316962414
-0.8620452770085792   -0.04994597568955261   -0.03797478316962414
-0.8620452770085792   -0.04994597568955261   -0.03797478316962414
-0.42489154762138276   -0.033456296090144326   0.005575504441101942
-0.42489154762138276   -0.033456296090144326   0.005575504441101942
-0.42489154762138276   -0.033456296090144326   0.005575504441101942
-0.42489154762138276   -0.033456296090144326   0.005575504441101942
-0.647166651443517   -0.04879097809821778   -0.0015348350824576952
-0.647166651443517   -0.04879097809821778   -0.0015348350824576952
-0.647166651443517   -0.04879097809821778   -0.0015348350824576952
-0.647166651443517   -0.04879097809821778   -0.0015348350824576952
-0.9372267037980921   -0.03150876328557595   -0.02309904844823027
-0.9372267037980921   -0.03150876328557595   -0.02309904844823027
-0.9372267037980921   -0.03150876328557595   -0.02309904844823027
-0.9372267037980921   -0.03150876328557595   -0.02309904844823027
-1.4133041008359433   -0.12017512601971864   0.0530725732494889
-1.4133041008359433   -0.12017512601971864   0.0530725732494889
-1.4133041008359433   -0.12017512601971864   0.0530725732494889
-1.4133041008359433   -0.12017512601971864   0.0530725732494889
-1.3652196180010405   -0.0959050603750532   -0.030997048858580276
-1.3652196180010405   -0.0959050603750532   -0.030997048858580276
-1.3652196180010405   -0.0959050603750532   -0.030997048858580276
-1.3652196180010405   -0.0959050603750532   -0.030997048858580276
-0.8811400773328071   0.025402883823418626   0.04887720929048062
-0.8811400773328071   0.025402883823418626   0.04887720929048062
-0.8811400773328071   0.025402883823418626   0.04887720929048062
-0.8811400773328071   0.025402883823418626   0.04887720929048062
-1.097768211598891   -0.03761485816205276   0.005456150221495738
-1.097768211598891   -0.03761485816205276   0.005456150221495738
-1.097768211598891   -0.03761485816205276   0.005456150221495738
-1.097768211598891   -0.03761485816205276   0.005456150221495738
-0.9015365841492545   -0.002091276688868937   -0.025611164279457567
-0.9015365841492545   -0.002091276688868937   -0.025611164279457567
-0.9015365841492545   -0.002091276688868937   -0.025611164279457567
-0.9015365841492545   -0.002091276688868937   -0.025611164279457567
-1.341535008241476   -0.06512279691964651   0.05664373648382421
-1.341535008241476   -0.06512279691964651   0.05664373648382421
-1.341535008241476   -0.06512279691964651   0.05664373648382421
-1.341535008241476   -0.06512279691964651   0.05664373648382421
-1.313612249363945   -0.08076249236109684   -0.03691426761416962
-1.313612249363945   -0.08076249236109684   -0.03691426761416962
-1.313612249363945   -0.08076249236109684   -0.03691426761416962
-1.313612249363945   -0.08076249236109684   -0.03691426761416962
-0.8491386487376258   0.04046530752231056   0.047166368673176515
-0.8491386487376258   0.04046530752231056   0.047166368673176515
-0.8491386487376258   0.04046530752231056   0.047166368673176515
-0.8491386487376258   0.04046530752231056   0.047166368673176515
-1.0674831907844857   -0.015170569257967392   0.021920597462800673
-1.0674831907844857   -0.015170569257967392   0.021920597462800673
-1.0674831907844857   -0.015170569257967392   0.021920597462800673
-1.0674831907844857   -0.015170569257967392   0.021920597462800673
-0.8702482381951017   0.009758257647608182   -0.02767452873949213
-0.8702482381951017   0.009758257647608182   -0.02767452873949213
-0.8702482381951017   0.009758257647608182   -0.02767452873949213
-0.8702482381951017   0.009758257647608182   -0.02767452873949213
-1.2918254761499823   -0.049378258729903424   0.04063536482446281
-1.2918254761499823   -0.049378258729903424   0.04063536482446281
-1.2918254761499823   -0.049378258729903424   0.04063536482446281
-1.2918254761499823   -0.049378258729903424   0.04063536482446281
-1.2602207929098233   -0.06651908848353943   -0.04462390244213396
-1.2602207929098233   -0.06651908848353943   -0.04462390244213396
-1.2602207929098233   -0.06651908848353943   -0.04462390244213396
-1.2602207929098233   -0.06651908848353943   -0.04462390244213396
-0.8254927302569982   0.058394406883335304   0.03644756801539756
-0.8254927302569982   0.058394406883335304   0.03644756801539756
-0.8254927302569982   0.058394406883335304   0.03644756801539756
-0.8254927302569982   0.058394406883335304   0.03644756801539756
-1.0099746247977721   0.003993621545918202   0.03847407958260203
-1.0099746247977721   0.003993621545918202   0.03847407958260203
-1.0099746247977721   0.003993621545918202   0.03847407958260203
-1.0099746247977721   0.003993621545918202   0.03847407958260203
1.2409255225519011   0.07455586295269545   0.04478795005016227
1.2409255225519011   0.07455586295269545   0.04478795005016227
1.2409255225519011   0.07455586295269545   0.04478795005016227
1.2409255225519011   0.07455586295269545   0.04478795005016227
0.5911751330003244   -0.11048552308271806   0.009819868642116952
0.5911751330003244   -0.11048552308271806   0.009819868642116952
0.5911751330003244   -0.11048552308271806   0.009819868642116952
0.5911751330003244   -0.11048552308271806   0.009819868642116952
0.6236199789585312   -0.046754376258092895   0.03439260291331647
0.6236199789585312   -0.046754376258092895   0.03439260291331647
0.6236199789585312   -0.046754376258092895   0.03439260291331647
0.6236199789585312   -0.046754376258092895   0.03439260291331647
1.2473575864088937   0.010987431187375829   -0.01013593916639835
1.2473575864088937   0.010987431187375829   -0.01013593916639835
1.2473575864088937   0.010987431187375829   -0.01013593916639835
1.2473575864088937   0.010987431187375829   -0.01013593916639835
0.8722258965970419   -0.023620214472768075   -0.05782640854468095
0.8722258965970419   -0.023620214472768075   -0.05782640854468095
0.8722258965970419   -0.023620214472768075   -0.05782640854468095
0.8722258965970419   -0.023620214472768075   -0.05782640854468095
1.270847929409606   0.08289444554530456   0.035408761479235065
1.270847929409606   0.08289444554530456   0.035408761479235065
1.270847929409606   0.08289444554530456   0.035408761479235065
1.270847929409606   0.08289444554530456   0.035408761479235065
0.6057526720344547   -0.11303835453938663   0.01134004657422824
0.6057526720344547   -0.11303835453938663   0.01134004657422824
0.6057526720344547   -0.11303835453938663   0.01134004657422824
0.6057526720344547   -0.11303835453938663   0.01134004657422824
0.6358665491405904   -0.03974871201113739   0.026156706507710396
0.6358665491405904   -0.03974871201113739   0.026156706507710396
0.6358665491405904   -0.03974871201113739   0.026156706507710396
0.6358665491405904   -0.03974871201113739   0.026156706507710396
1.2690738033526752   0.018878351677508176   -0.003256661622498193
1.2690738033526752   0.018878351677508176   -0.003256661622498193
1.2690738033526752   0.018878351677508176   -0.003256661622498193
1.2690738033526752   0.018878351677508176   -0.003256661622498193
0.908063735696635   -0.018650335302683146   -0.03954339995279954
0.908063735696635   -0.018650335302683146   -0.03954339995279954
0.908063735696635   -0.018650335302683146   -0.03954339995279954
0.908063735696635   -0.018650335302683146   -0.03954339995279954
1.2889616649929319   0.09054264125753844   0.024518356998753897
1.2889616649929319   0.09054264125753844   0.024518356998753897
1.2889616649929319   0.09054264125753844   0.024518356998753897
1.2889616649929319   0.09054264125753844   0.024518356998753897
0.619889826342238   -0.10750186274926446   0.01402624325407574
0.619889826342238   -0.10750186274926446   0.01402624325407574
0.619889826342238   -0.10750186274926446   0.01402624325407574
0.619889826342238   -0.10750186274926446   0.01402624325407574
0.653910252065773   -0.01243379870751915   0.0239124660430112
0.653910252065773   -0.01243379870751915   0.0239124660430112
0.653910252065773   -0.01243379870751915   0.0239124660430112
0.653910252065773   -0.01243379870751915   0.0239124660430112
1.2916909144021227   0.03703177405429417   -0.0007050762587342482
1.2916909144021227   0.03703177405429417   -0.0007050762587342482
1.2916909144021227   0.03703177405429417   -0.0007050762587342482
1.2916909144021227   0.03703177405429417   -0.0007050762587342482
0.9123867884150234   -0.008517762098233433   -0.0296122248528041
0.9123867884150234   -0.008517762098233433   -0.0296122248528041
0.9123867884150234   -0.008517762098233433   -0.0296122248528041
0.9123867884150234   -0.008517762098233433   -0.0296122248528041
0.6239954617486704   0.01634784548180454   0.047088143819323844
0.6239954617486704   0.01634784548180454   0.047088143819323844
0.6239954617486704   0.01634784548180454   0.047088143819323844
0.6239954617486704   0.01634784548180454   0.047088143819323844
0.03187929122183977   -0.21950272190014392   0.02234354472520049
0.03187929122183977   -0.21950272190014392   0.02234354472520049
0.03187929122183977   -0.21950272190014392   0.02234354472520049
0.03187929122183977   -0.21950272190014392   0.02234354472520049
0.074082491050214   -0.0931592543812014   0.02093460844863718
0.074082491050214   -0.0931592543812014   0.02093460844863718
0.074082491050214   -0.0931592543812014   0.02093460844863718
0.074082491050214   -0.0931592543812014   0.02093460844863718
0.6080407307130735   -0.10462342281106837   0.014365408238996749
0.6080407307130735   -0.10462342281106837   0.014365408238996749
0.6080407307130735   -0.10462342281106837   0.014365408238996749
0.6080407307130735   -0.10462342281106837   0.014365408238996749
0.3236561320170051   -0.09810128321157945   -0.03683171218472704
0.3236561320170051   -0.09810128321157945   -0.03683171218472704
0.3236561320170051   -0.09810128321157945   -0.03683171218472704
0.3236561320170051   -0.09810128321157945   -0.03683171218472704
0.6386499442529971   0.023437437662613372   0.039350615464941785
0.6386499442529971   0.023437437662613372   0.039350615464941785
0.6386499442529971   0.023437437662613372   0.039350615464941785
0.6386499442529971   0.023437437662613372   0.039350615464941785
0.051556376200551715   -0.2131370161646227   0.028281795983747082
0.051556376200551715   -0.2131370161646227   0.028281795983747082
0.051556376200551715   -0.2131370161646227   0.028281795983747082
0.051556376200551715   -0.2131370161646227   0.028281795983747082
0.09102255828424627   -0.08035377349361722   0.015135852540474382
0.09102255828424627   -0.08035377349361722   0.015135852540474382
0.09102255828424627   -0.08035377349361722   0.015135852540474382
0.09102255828424627   -0.08035377349361722   0.015135852540474382
0.6225527090417711   -0.09789077573424382   0.017729569736720227
0.6225527090417711   -0.09789077573424382   0.017729569736720227
0.6225527090417711   -0.09789077573424382   0.017729569736720227
0.6225527090417711   -0.09789077573424382   0.017729569736720227
0.33804579996840406   -0.09317901406687203   -0.01841974712303045
0.33804579996840406   -0.09317901406687203   -0.01841974712303045
0.33804579996840406   -0.09317901406687203   -0.01841974712303045
0.33804579996840406   -0.09317901406687203   -0.01841974712303045
0.6523254224105276   0.03551675082732769   0.033185610018931624
0.6523254224105276   0.03551675082732769   0.033185610018931624
0.6523254224105276   0.03551675082732769   0.033185610018931624
0.6523254224105276   0.03551675082732769   0.033185610018931624
0.06902385023823722   -0.20598729473244323   0.030775833549257003
0.06902385023823722   -0.20598729473244323   0.030775833549257003
0.06902385023823722   -0.20598729473244323   0.030775833549257003
0.06902385023823722   -0.20598729473244323   0.030775833549257003
0.117042068131212   -0.06112658294546396   0.009989295699498083
0.117042068131212   -0.06112658294546396   0.009989295699498083
0.117042068131212   -0.06112658294546396   0.009989295699498083
0.117042068131212   -0.06112658294546396   0.009989295699498083
0.6384206361594663   -0.08766849163618148   0.02169907944013791
0.6384206361594663   -0.08766849163618148   0.02169907944013791
0.6384206361594663   -0.08766849163618148   0.02169907944013791
0.6384206361594663   -0.08766849163618148   0.02169907944013791
0.36338356321199394   -0.0812894107215696   0.00301893577569589
0.36338356321199394   -0.0812894107215696   0.00301893577569589
0.36338356321199394   -0.0812894107215696   0.00301893577569589
0.36338356321199394   -0.0812894107215696   0.00301893577569589
0.06911285356263316   -0.04130324774861481   0.030311882277638282
0.06911285356263316   -0.04130324774861481   0.030311882277638282
0.06911285356263316   -0.04130324774861481   0.030311882277638282
0.06911285356263316   -0.04130324774861481   0.030311882277638282
-0.5318702185719849   -0.37660709057020325   0.03251402283251373
-0.5318702185719849   -0.37660709057020325   0.03251402283251373
-0.5318702185719849   -0.37660709057020325   0.03251402283251373
-0.5318702185719849   -0.37660709057020325   0.03251402283251373
-0.46522650066017746   -0.14708016821789943   0.002050831185470954
-0.46522650066017746   -0.14708016821789943   0.002050831185470954
-0.46522650066017746   -0.14708016821789943   0.002050831185470954
-0.46522650066017746   -0.14708016821789943   0.002050831185470954
0.03644837268836841   -0.27296095261694   0.012565714875147127
0.03644837268836841   -0.27296095261694   0.012565714875147127
0.03644837268836841   -0.27296095261694   0.012565714875147127
0.03644837268836841   -0.27296095261694   0.012565714875147127
-0.22977443547717488   -0.21097954675622813   -0.04418745822427892
-0.22977443547717488   -0.21097954675622813   -0.04418745822427892
-0.22977443547717488   -0.21097954675622813   -0.04418745822427892
-0.22977443547717488   -0.21097954675622813   -0.04418745822427892
0.08685187283508299   -0.03229183929798707   0.023914102289767838
0.08685187283508299   -0.03229183929798707   0.023914102289767838
0.08685187283508299   -0.03229183929798707   0.023914102289767838
0.08685187283508299   -0.03229183929798707   0.023914102289767838
-0.5039083684279824   -0.37602764915794135   0.037588973286491134
-0.5039083684279824   -0.37602764915794135   0.037588973286491134
-0.5039083684279824   -0.37602764915794135   0.037588973286491134
-0.5039083684279824   -0.37602764915794135   0.037588973286491134
-0.4395155190407975   -0.1319571171072999   -0.0001978422967691528
-0.4395155190407975   -0.1319571171072999   -0.0001978422967691528
-0.4395155190407975   -0.1319571171072999   -0.0001978422967691528
-0.4395155190407975   -0.1319571171072999   -0.0001978422967691528
0.05431465284857587   -0.2668485855648085   0.018091137433314725
0.05431465284857587   -0.2668485855648085   0.018091137433314725
0.05431465284857587   -0.2668485855648085   0.018091137433314725
0.05431465284857587   -0.2668485855648085   0.018091137433314725
-0.20371297153274875   -0.20367210244267284   -0.016414738290644503
-0.20371297153274875   -0.20367210244267284   -0.016414738290644503
-0.20371297153274875   -0.20367210244267284   -0.016414738290644503
-0.20371297153274875   -0.20367210244267284   -0.016414738290644503
0.10307120103390532   -0.020329288394979498   0.015354581190133734
0.10307120103390532   -0.020329288394979498   0.015354581190133734
0.10307120103390532   -0.020329288394979498   0.015354581190133734
0.10307120103390532   -0.020329288394979498   0.015354581190133734
-0.47771376620089   -0.3679181132518859   0.04477191804736291
-0.47771376620089   -0.3679181132518859   0.04477191804736291
-0.47771376620089   -0.3679181132518859   0.04477191804736291
-0.47771376620089   -0.3679181132518859   0.04477191804736291
-0.3970820815190228   -0.11454630171384941   -0.005080603463167508
-0.3970820815190228   -0.11454630171384941   -0.005080603463167508
-0.3970820815190228   -0.11454630171384941   -0.005080603463167508
-0.3970820815190228   -0.11454630171384941   -0.005080603463167508
0.08219779073258732   -0.24997229569475624   0.02461362145566469
0.08219779073258732   -0.24997229569475624   0.02461362145566469
0.08219779073258732   -0.24997229569475624   0.02461362145566469
0.08219779073258732   -0.24997229569475624   0.02461362145566469
-0.1699150675410793   -0.18746932390033216   0.012590340061584437
-0.1699150675410793   -0.18746932390033216   0.012590340061584437
-0.1699150675410793   -0.18746932390033216   0.012590340061584437
-0.1699150675410793   -0.18746932390033216   0.012590340061584437
-0.4751812974226779   -0.0751036395564246   0.014455177565265737
-0.4751812974226779   -0.0751036395564246   0.014455177565265737
-0.4751812974226779   -0.0751036395564246   0.014455177565265737
-0.4751812974226779   -0.0751036395564246   0.014455177565265737
-1.1813136662687975   -0.5856174175858478   -0.027118495615532603
-1.1813136662687975   -0.5856174175858478   -0.027118495615532603
-1.1813136662687975   -0.5856174175858478   -0.027118495615532603
-1.1813136662687975   -0.5856174175858478   -0.027118495615532603
-1.0714163775791385   -0.19137303490020977   -0.03253323450351117
-1.0714163775791385   -0.19137303490020977   -0.03253323450351117
-1.0714163775791385   -0.19137303490020977   -0.03253323450351117
-1.0714163775791385   -0.19137303490020977   -0.03253323450351117
-0.5319895471872045   -0.4888801207425608   0.010035551074997762
-0.5319895471872045   -0.4888801207425608   0.010035551074997762
-0.5319895471872045   -0.4888801207425608   0.010035551074997762
-0.5319895471872045   -0.4888801207425608   0.010035551074997762
-0.814072459856994   -0.3464280725298719   -0.04646493431319422
-0.814072459856994   -0.3464280725298719   -0.04646493431319422
-0.814072459856994   -0.3464280725298719   -0.04646493431319422
-0.814072459856994   -0.3464280725298719   -0.04646493431319422
-0.4448247112682215   -0.05679344395987922   0.0137730538872303
-0.4448247112682215   -0.05679344395987922   0.0137730538872303
-0.4448247112682215   -0.05679344395987922   0.0137730538872303
-0.4448247112682215   -0.05679344395987922   0.0137730538872303
-1.1558060980813722   -0.6206845962661414   -0.02517027564873743
-1.1558060980813722   -0.6206845962661414   -0.02517027564873743
-1.1558060980813722   -0.6206845962661414   -0.02517027564873743
-1.1558060980813722   -0.6206845962661414   -0.02517027564873743
-1.037132254133621   -0.17326264828403942   -0.03317794356729285
-1.037132254133621   -0.17326264828403942   -0.03317794356729285
-1.037132254133621   -0.17326264828403942   -0.03317794356729285
-1.037132254133621   -0.17326264828403942   -0.03317794356729285
-0.5070233273357678   -0.4848879268461982   0.015193925967282126
-0.5070233273357678   -0.4848879268461982   0.015193925967282126
-0.5070233273357678   -0.4848879268461982   0.015193925967282126
-0.5070233273357678   -0.4848879268461982   0.015193925967282126
-0.7780067896981817   -0.33688081881882614   -0.03234714178906937
-0.7780067896981817   -0.33688081881882614   -0.03234714178906937
-0.7780067896981817   -0.33688081881882614   -0.03234714178906937
-0.7780067896981817   -0.33688081881882614   -0.03234714178906937
-0.42063712338899706   -0.04240052470889167   0.004637543563829619
-0.42063712338899706   -0.04240052470889167   0.004637543563829619
-0.42063712338899706   -0.04240052470889167   0.004637543563829619
-0.42063712338899706   -0.04240052470889167   0.004637543563829619
-1.1233772936130564   -0.6156088859540108   -0.022056903294491934
-1.1233772936130564   -0.6156088859540108   -0.022056903294491934
-1.1233772936130564   -0.6156088859540108   -0.022056903294491934
-1.1233772936130564   -0.6156088859540108   -0.022056903294491934
-0.9835975252509807   -0.15383650726697665   -0.037619573813461885
-0.9835975252509807   -0.15383650726697665   -0.037619573813461885
-0.9835975252509807   -0.15383650726697665   -0.037619573813461885
-0.9835975252509807   -0.15383650726697665   -0.037619573813461885
-0.45300058881270605   -0.4354313481840036   0.036211906538576075
-0.45300058881270605   -0.4354313481840036   0.036211906538576075
-0.45300058881270605   -0.4354313481840036   0.036211906538576075
-0.45300058881270605   -0.4354313481840036   0.036211906538576075
-0.7378505943329996   -0.30502810616714615   -0.017691264144489963
-0.7378505943329996   -0.30502810616714615   -0.017691264144489963
-0.7378505943329996   -0.30502810616714615   -0.017691264144489963
-0.7378505943329996   -0.30502810616714615   -0.017691264144489963
-1.0731028075067106   -0.06423808823496904   -0.007443531155976839
-1.0731028075067106   -0.06423808823496904   -0.007443531155976839
-1.0731028075067106   -0.06423808823496904   -0.007443531155976839
-1.0731028075067106   -0.06423808823496904   -0.007443531155976839
-1.891396290883207   -0.37441265769903953   0.019333002388009463
-1.891396290883207   -0.37441265769903953   0.019333002388009463
-1.891396290883207   -0.37441265769903953   0.019333002388009463
-1.891396290883207   -0.37441265769903953   0.019333002388009463
-1.8172694970894103   -0.17951618556818372   -0.03958871791089702
-1.8172694970894103   -0.17951618556818372   -0.03958871791089702
-1.8172694970894103   -0.17951618556818372   -0.03958871791089702
-1.8172694970894103   -0.17951618556818372   -0.03958871791089702
-1.0500757704550505   -0.19454650070638843   0.0773432669231084
-1.0500757704550505   -0.19454650070638843   0.0773432669231084
-1.0500757704550505   -0.19454650070638843   0.0773432669231084
-1.0500757704550505   -0.19454650070638843   0.0773432669231084
-1.398954896748472   -0.21697475357982615   0.01972090435292758
-1.398954896748472   -0.21697475357982615   0.01972090435292758
-1.398954896748472   -0.21697475357982615   0.01972090435292758
-1.398954896748472   -0.21697475357982615   0.01972090435292758
-1.0293844445681841   -0.013975626959620457   0.00022902261067868357
-1.0293844445681841   -0.013975626959620457   0.00022902261067868357
-1.0293844445681841   -0.013975626959620457   0.00022902261067868357
-1.0293844445681841   -0.013975626959620457   0.00022902261067868357
-1.8449503089995976   -0.3670765453382716   0.0095675823082395
-1.8449503089995976   -0.3670765453382716   0.0095675823082395
-1.8449503089995976   -0.3670765453382716   0.0095675823082395
-1.8449503089995976   -0.3670765453382716   0.0095675823082395
-1.7766496582969369   -0.16452197390922352   -0.05025902892518293
-1.7766496582969369   -0.16452197390922352   -0.05025902892518293
-1.7766496582969369   -0.16452197390922352   -0.05025902892518293
-1.7766496582969369   -0.16452197390922352   -0.05025902892518293
-1.0147912999535165   -0.18492118681738623   0.09018536586658518
-1.0147912999535165   -0.18492118681738623   0.09018536586658518
-1.0147912999535165   -0.18492118681738623   0.09018536586658518
-1.0147912999535165   -0.18492118681738623   0.09018536586658518
-1.377692546498186   -0.17876916449759017   0.019033417377449565
-1.377692546498186   -0.17876916449759017   0.019033417377449565
-1.377692546498186   -0.17876916449759017   0.019033417377449565
-1.377692546498186   -0.17876916449759017   0.019033417377449565
-0.9979582074522487   -0.0007049580367868846   -0.009865400407677395
-0.9979582074522487   -0.0007049580367868846   -0.009865400407677395
-0.9979582074522487   -0.0007049580367868846   -0.009865400407677395
-0.9979582074522487   -0.0007049580367868846   -0.009865400407677395
-1.7959865154349903   -0.3512419673266133   0.03977667880192389
-1.7959865154349903   -0.3512419673266133   0.03977667880192389
-1.7959865154349903   -0.3512419673266133   0.03977667880192389
-1.7959865154349903   -0.3512419673266133   0.03977667880192389
-1.6922777465181165   -0.1335083307006299   -0.056281103643310015
-1.6922777465181165   -0.1335083307006299   -0.056281103643310015
-1.6922777465181165   -0.1335083307006299   -0.056281103643310015
-1.6922777465181165   -0.1335083307006299   -0.056281103643310015
-0.9598569176446259   -0.17210166011554773   0.09934861706688719
-0.9598569176446259   -0.17210166011554773   0.09934861706688719
-0.9598569176446259   -0.17210166011554773   0.09934861706688719
-0.9598569176446259   -0.17210166011554773   0.09934861706688719
-1.2957605300467707   -0.1367198085999005   0.039322915501050534
-1.2957605300467707   -0.1367198085999005   0.039322915501050534
-1.2957605300467707   -0.1367198085999005   0.039322915501050534
-1.2957605300467707   -0.1367198085999005   0.039322915501050534
1.3592406539114696   0.04497108853168019   0.01903740580297772
1.3592406539114696   0.04497108853168019   0.01903740580297772
1.3592406539114696   0.04497108853168019   0.01903740580297772
1.3592406539114696   0.04497108853168019   0.01903740580297772
0.6933796047608285   -0.03678860673549028   0.013834790878708848
0.6933796047608285   -0.03678860673549028   0.013834790878708848
0.6933796047608285   -0.03678860673549028   0.013834790878708848
0.6933796047608285   -0.03678860673549028   0.013834790878708848
0.6664905061670318   -0.09766957025970466   0.027446133840061226
0.6664905061670318   -0.09766957025970466   0.027446133840061226
0.6664905061670318   -0.09766957025970466   0.027446133840061226
0.6664905061670318   -0.09766957025970466   0.027446133840061226
1.3493997719246216   0.07599879170929069   0.00994886781483642
1.3493997719246216   0.07599879170929069   0.00994886781483642
1.3493997719246216   0.07599879170929069   0.00994886781483642
1.3493997719246216   0.07599879170929069   0.00994886781483642
0.9629228879199722   -0.01356267448034254   -0.0355954834283451
0.9629228879199722   -0.01356267448034254   -0.0355954834283451
0.9629228879199722   -0.01356267448034254   -0.0355954834283451
0.9629228879199722   -0.01356267448034254   -0.0355954834283451
1.3420936025526466   0.034870987318548874   0.014545825345704241
1.3420936025526466   0.034870987318548874   0.014545825345704241
1.3420936025526466   0.034870987318548874   0.014545825345704241
1.3420936025526466   0.034870987318548874   0.014545825345704241
0.6716078516021543   -0.05873058980581347   0.014093880561782873
0.6716078516021543   -0.05873058980581347   0.014093880561782873
0.6716078516021543   -0.05873058980581347   0.014093880561782873
0.6716078516021543   -0.05873058980581347   0.014093880561782873
0.649310311244915   -0.09988663057781733   0.022681919208634355
0.649310311244915   -0.09988663057781733   0.022681919208634355
0.649310311244915   -0.09988663057781733   0.022681919208634355
0.649310311244915   -0.09988663057781733   0.022681919208634355
1.3337263064236153   0.07275333273816398   0.01733067965389712
1.3337263064236153   0.07275333273816398   0.01733067965389712
1.3337263064236153   0.07275333273816398   0.01733067965389712
1.3337263064236153   0.07275333273816398   0.01733067965389712
0.9602005384643094   -0.018701380275696344   -0.04110757756488333
0.9602005384643094   -0.018701380275696344   -0.04110757756488333
0.9602005384643094   -0.018701380275696344   -0.04110757756488333
0.9602005384643094   -0.018701380275696344   -0.04110757756488333
1.3228064792117438   0.031144328700299484   0.004340547632391015
1.3228064792117438   0.031144328700299484   0.004340547632391015
1.3228064792117438   0.031144328700299484   0.004340547632391015
1.3228064792117438   0.031144328700299484   0.004340547632391015
0.6562847333911714   -0.062223031605570356   0.01989043096766953
0.6562847333911714   -0.062223031605570356   0.01989043096766953
0.6562847333911714   -0.062223031605570356   0.01989043096766953
0.6562847333911714   -0.062223031605570356   0.01989043096766953
0.6312043751571512   -0.09100688898913004   0.019588147769085358
0.6312043751571512   -0.09100688898913004   0.019588147769085358
0.6312043751571512   -0.09100688898913004   0.019588147769085358
0.6312043751571512   -0.09100688898913004   0.019588147769085358
1.3095957250618053   0.0737064240510914   0.025013967980463542
1.3095957250618053   0.0737064240510914   0.025013967980463542
1.3095957250618053   0.0737064240510914   0.025013967980463542
1.3095957250618053   0.0737064240510914   0.025013967980463542
0.9242646829805805   -0.01879339004487604   -0.055414879733576686
0.9242646829805805   -0.01879339004487604   -0.055414879733576686
0.9242646829805805   -0.01879339004487604   -0.055414879733576686
0.9242646829805805   -0.01879339004487604   -0.055414879733576686
0.6875600359160509   -0.08603801160206268   0.03398635152139376
0.6875600359160509   -0.08603801160206268   0.03398635152139376
0.6875600359160509   -0.08603801160206268   0.03398635152139376
0.6875600359160509   -0.08603801160206268   0.03398635152139376
0.13199746416865116   -0.08184749595388408   0.007087076238708835
0.13199746416865116   -0.08184749595388408   0.007087076238708835
0.13199746416865116   -0.08184749595388408   0.007087076238708835
0.13199746416865116   -0.08184749595388408   0.007087076238708835
0.08561074999145442   -0.20477544211600113   0.0360352924359522
0.08561074999145442   -0.20477544211600113   0.0360352924359522
0.08561074999145442   -0.20477544211600113   0.0360352924359522
0.08561074999145442   -0.20477544211600113   0.0360352924359522
0.6912168210527058   0.02720681877045364   0.026201319238272985
0.6912168210527058   0.02720681877045364   0.026201319238272985
0.6912168210527058   0.02720681877045364   0.026201319238272985
0.6912168210527058   0.02720681877045364   0.026201319238272985
0.3929548538906661   -0.08671313560015205   -0.0015404693661845298
0.3929548538906661   -0.08671313560015205   -0.0015404693661845298
0.3929548538906661   -0.08671313560015205   -0.0015404693661845298
0.3929548538906661   -0.08671313560015205   -0.0015404693661845298
0.6682870295215484   -0.08974617385548572   0.0285053542084273
0.6682870295215484   -0.08974617385548572   0.0285053542084273
0.6682870295215484   -0.08974617385548572   0.0285053542084273
0.6682870295215484   -0.08974617385548572   0.0285053542084273
0.1027457846700649   -0.09361720634261214   0.010552230055615654
0.1027457846700649   -0.09361720634261214   0.010552230055615654
0.1027457846700649   -0.09361720634261214   0.010552230055615654
0.1027457846700649   -0.09361720634261214   0.010552230055615654
0.0648079674334704   -0.2065351401152051   0.03225248944021443
0.0648079674334704   -0.2065351401152051   0.03225248944021443
0.0648079674334704   -0.2065351401152051   0.03225248944021443
0.0648079674334704   -0.2065351401152051   0.03225248944021443
0.6753762812619504   0.022109545217573356   0.03101559349841953
0.6753762812619504   0.022109545217573356   0.03101559349841953
0.6753762812619504   0.022109545217573356   0.03101559349841953
0.6753762812619504   0.022109545217573356   0.03101559349841953
0.3646774356609742   -0.09239582987828338   -0.018763054202330643
0.3646774356609742   -0.09239582987828338   -0.018763054202330643
0.3646774356609742   -0.09239582987828338   -0.018763054202330643
0.3646774356609742   -0.09239582987828338   -0.018763054202330643
0.6512795647557088   -0.0909691727515353   0.023610728936315648
0.6512795647557088   -0.0909691727515353   0.023610728936315648
0.6512795647557088   -0.0909691727515353   0.023610728936315648
0.6512795647557088   -0.0909691727515353   0.023610728936315648
0.08260408795157123   -0.09975701813423637   0.01445497004974989
0.08260408795157123   -0.09975701813423637   0.01445497004974989
0.08260408795157123   -0.09975701813423637   0.01445497004974989
0.08260408795157123   -0.09975701813423637   0.01445497004974989
0.04153706449560449   -0.20634357790368502   0.025207219766481964
0.04153706449560449   -0.20634357790368502   0.025207219766481964
0.04153706449560449   -0.20634357790368502   0.025207219766481964
0.04153706449560449   -0.20634357790368502   0.025207219766481964
0.6573985641197705   0.022495333465454376   0.03705687012759445
0.6573985641197705   0.022495333465454376   0.03705687012759445
0.6573985641197705   0.022495333465454376   0.03705687012759445
0.6573985641197705   0.022495333465454376   0.03705687012759445
0.34745470213840357   -0.0916104950205013   -0.03339160671394474
0.34745470213840357   -0.0916104950205013   -0.03339160671394474
0.34745470213840357   -0.0916104950205013   -0.03339160671394474
0.34745470213840357   -0.0916104950205013   -0.03339160671394474
0.1030362699681393   -0.25003489631018805   0.030468505592451692
0.1030362699681393   -0.25003489631018805   0.030468505592451692
0.1030362699681393   -0.25003489631018805   0.030468505592451692
0.1030362699681393   -0.25003489631018805   0.030468505592451692
-0.4077965076186561   -0.12678112819310897   0.0002924059777009297
-0.4077965076186561   -0.12678112819310897   0.0002924059777009297
-0.4077965076186561   -0.12678112819310897   0.0002924059777009297
-0.4077965076186561   -0.12678112819310897   0.0002924059777009297
-0.4917152423727188   -0.3728474285071931   0.04129695048496884
-0.4917152423727188   -0.3728474285071931   0.04129695048496884
-0.4917152423727188   -0.3728474285071931   0.04129695048496884
-0.4917152423727188   -0.3728474285071931   0.04129695048496884
0.1185292108846629   -0.020758974988911133   0.016611129774905635
0.1185292108846629   -0.020758974988911133   0.016611129774905635
0.1185292108846629   -0.020758974988911133   0.016611129774905635
0.1185292108846629   -0.020758974988911133   0.016611129774905635
-0.1672492447783312   -0.1898877373139102   0.0071752204997910865
-0.1672492447783312   -0.1898877373139102   0.0071752204997910865
-0.1672492447783312   -0.1898877373139102   0.0071752204997910865
-0.1672492447783312   -0.1898877373139102   0.0071752204997910865
0.07090813154354897   -0.2641939935040393   0.02194075158446318
0.07090813154354897   -0.2641939935040393   0.02194075158446318
0.07090813154354897   -0.2641939935040393   0.02194075158446318
0.07090813154354897   -0.2641939935040393   0.02194075158446318
-0.45221780024707614   -0.13753604720754095   0.003472779813526285
-0.45221780024707614   -0.13753604720754095   0.003472779813526285
-0.45221780024707614   -0.13753604720754095   0.003472779813526285
-0.45221780024707614   -0.13753604720754095   0.003472779813526285
-0.520666442913189   -0.3787233901662612   0.03369821018778549
-0.520666442913189   -0.3787233901662612   0.03369821018778549
-0.520666442913189   -0.3787233901662612   0.03369821018778549
-0.520666442913189   -0.3787233901662612   0.03369821018778549
0.0990317051635088   -0.026414014539687947   0.023250052514889385
0.0990317051635088   -0.026414014539687947   0.023250052514889385
0.0990317051635088   -0.026414014539687947   0.023250052514889385
0.0990317051635088   -0.026414014539687947   0.023250052514889385
-0.20343954720001373   -0.20136794919333365   -0.016981429348277816
-0.20343954720001373   -0.20136794919333365   -0.016981429348277816
-0.20343954720001373   -0.20136794919333365   -0.016981429348277816
-0.20343954720001373   -0.20136794919333365   -0.016981429348277816
0.04874910252799651   -0.2687460984633796   0.014169123261021474
0.04874910252799651   -0.2687460984633796   0.014169123261021474
0.04874910252799651   -0.2687460984633796   0.014169123261021474
0.04874910252799651   -0.2687460984633796   0.014169123261021474
-0.48006808252761823   -0.14607554849251334   0.004042170441889488
-0.48006808252761823   -0.14607554849251334   0.004042170441889488
-0.48006808252761823   -0.14607554849251334   0.004042170441889488
-0.48006808252761823   -0.14607554849251334   0.004042170441889488
-0.5520710511947452   -0.376095803782877   0.02826492294239341
-0.5520710511947452   -0.376095803782877   0.02826492294239341
-0.5520710511947452   -0.376095803782877   0.02826492294239341
-0.5520710511947452   -0.376095803782877   0.02826492294239341
0.07734492682793145   -0.029542989939531736   0.027445943463962563
0.07734492682793145   -0.029542989939531736   0.027445943463962563
0.07734492682793145   -0.029542989939531736   0.027445943463962563
0.07734492682793145   -0.029542989939531736   0.027445943463962563
-0.23282426017768454   -0.20570424097519566   -0.041157266350077465
-0.23282426017768454   -0.20570424097519566   -0.041157266350077465
-0.23282426017768454   -0.20570424097519566   -0.041157266350077465
-0.23282426017768454   -0.20570424097519566   -0.041157266350077465
-0.4610323759028702   -0.4288925609307115   0.03622449729423484
-0.4610323759028702   -0.4288925609307115   0.03622449729423484
-0.4610323759028702   -0.4288925609307115   0.03622449729423484
-0.4610323759028702   -0.4288925609307115   0.03622449729423484
-1.020721633330121   -0.15777392909099747   -0.02352727648494071
-1.020721633330121   -0.15777392909099747   -0.02352727648494071
-1.020721633330121   -0.15777392909099747   -0.02352727648494071
-1.020721633330121   -0.15777392909099747   -0.02352727648494071
-1.167438478905962   -0.6243968877359073   -0.03209935217297717
-1.167438478905962   -0.6243968877359073   -0.03209935217297717
-1.167438478905962   -0.6243968877359073   -0.03209935217297717
-1.167438478905962   -0.6243968877359073   -0.03209935217297717
-0.4294916188989125   -0.034784975011223886   0.014352614358026627
-0.4294916188989125   -0.034784975011223886   0.014352614358026627
-0.4294916188989125   -0.034784975011223886   0.014352614358026627
-0.4294916188989125   -0.034784975011223886   0.014352614358026627
-0.7622576286041733   -0.2992373586206624   -0.025454298914428394
-0.7622576286041733   -0.2992373586206624   -0.025454298914428394
-0.7622576286041733   -0.2992373586206624   -0.025454298914428394
-0.7622576286041733   -0.2992373586206624   -0.025454298914428394
-0.5201482588304263   -0.48605173779029626   0.012336177479530822
-0.5201482588304263   -0.48605173779029626   0.012336177479530822
-0.5201482588304263   -0.48605173779029626   0.012336177479530822
-0.5201482588304263   -0.48605173779029626   0.012336177479530822
-1.0745210410049801   -0.17086932698736637   -0.021039723416618132
-1.0745210410049801   -0.17086932698736637   -0.021039723416618132
-1.0745210410049801   -0.17086932698736637   -0.021039723416618132
-1.0745210410049801   -0.17086932698736637   -0.021039723416618132
-1.2019028055191807   -0.6343261950551576   -0.03711793689410221
-1.2019028055191807   -0.6343261950551576   -0.03711793689410221
-1.2019028055191807   -0.6343261950551576   -0.03711793689410221
-1.2019028055191807   -0.6343261950551576   -0.03711793689410221
-0.45620880652260143   -0.04409898835455768   0.021361990329017692
-0.45620880652260143   -0.04409898835455768   0.021361990329017692
-0.45620880652260143   -0.04409898835455768   0.021361990329017692
-0.45620880652260143   -0.04409898835455768   0.021361990329017692
-0.8044067887055338   -0.331676704317562   -0.036302563729042524
-0.8044067887055338   -0.331676704317562   -0.036302563729042524
-0.8044067887055338   -0.331676704317562   -0.036302563729042524
-0.8044067887055338   -0.331676704317562   -0.036302563729042524
-0.5497970500845988   -0.4955142497971031   0.004836033961576863
-0.5497970500845988   -0.4955142497971031   0.004836033961576863
-0.5497970500845988   -0.4955142497971031   0.004836033961576863
-0.5497970500845988   -0.4955142497971031   0.004836033961576863
-1.108562074256523   -0.18315844591195132   -0.02158202972402897
-1.108562074256523   -0.18315844591195132   -0.02158202972402897
-1.108562074256523   -0.18315844591195132   -0.02158202972402897
-1.108562074256523   -0.18315844591195132   -0.02158202972402897
-1.2312633280966352   -0.6066966082797768   -0.04185165465636085
-1.2312633280966352   -0.6066966082797768   -0.04185165465636085
-1.2312633280966352   -0.6066966082797768   -0.04185165465636085
-1.2312633280966352   -0.6066966082797768   -0.04185165465636085
-0.48999459437444526   -0.057267145425007895   0.019818548686025016
-0.48999459437444526   -0.057267145425007895   0.019818548686025016
-0.48999459437444526   -0.057267145425007895   0.019818548686025016
-0.48999459437444526   -0.057267145425007895   0.019818548686025016
-0.8432970043615122   -0.3426875140573712   -0.0467282909470158
-0.8432970043615122   -0.3426875140573712   -0.0467282909470158
-0.8432970043615122   -0.3426875140573712   -0.0467282909470158
-0.8432970043615122   -0.3426875140573712   -0.0467282909470158
-1.0032160688067566   -0.18283157529431657   0.08905819233518081
-1.0032160688067566   -0.18283157529431657   0.08905819233518081
-1.0032160688067566   -0.18283157529431657   0.08905819233518081
-1.0032160688067566   -0.18283157529431657   0.08905819233518081
-1.7635866432488359   -0.13161904482505588   -0.030996461162675168
-1.7635866432488359   -0.13161904482505588   -0.030996461162675168
-1.7635866432488359   -0.13161904482505588   -0.030996461162675168
-1.7635866432488359   -0.13161904482505588   -0.030996461162675168
-1.871096337454281   -0.369337669341808   0.02440799074524088
-1.871096337454281   -0.369337669341808   0.02440799074524088
-1.871096337454281   -0.369337669341808   0.02440799074524088
-1.871096337454281   -0.369337669341808   0.02440799074524088
-1.0313167153069447   0.01517007095691647   0.008942507129276994
-1.0313167153069447   0.01517007095691647   0.008942507129276994
-1.0313167153069447   0.01517007095691647   0.008942507129276994
-1.0313167153069447   0.01517007095691647   0.008942507129276994
-1.3498140202350164   -0.12971693721694802   0.027058246633584786
-1.3498140202350164   -0.12971693721694802   0.027058246633584786
-1.3498140202350164   -0.12971693721694802   0.027058246633584786
-1.3498140202350164   -0.12971693721694802   0.027058246633584786
-1.0595636279099894   -0.19611426880650218   0.07899228387746701
-1.0595636279099894   -0.19611426880650218   0.07899228387746701
-1.0595636279099894   -0.19611426880650218   0.07899228387746701
-1.0595636279099894   -0.19611426880650218   0.07899228387746701
-1.8382027777132144   -0.15340668244036382   -0.027055197450854593
-1.8382027777132144   -0.15340668244036382   -0.027055197450854593
-1.8382027777132144   -0.15340668244036382   -0.027055197450854593
-1.8382027777132144   -0.15340668244036382   -0.027055197450854593
-1.9165236786664006   -0.38496988775497243   -0.00832576010846137
-1.9165236786664006   -0.38496988775497243   -0.00832576010846137
-1.9165236786664006   -0.38496988775497243   -0.00832576010846137
-1.9165236786664006   -0.38496988775497243   -0.00832576010846137
-1.0634184746008326   0.0046857228173227405   0.016291799825149236
-1.0634184746008326   0.0046857228173227405   0.016291799825149236
-1.0634184746008326   0.0046857228173227405   0.016291799825149236
-1.0634184746008326   0.0046857228173227405   0.016291799825149236
-1.4301153154590969   -0.17114759346076686   0.011075821188447181
-1.4301153154590969   -0.17114759346076686   0.011075821188447181
-1.4301153154590969   -0.17114759346076686   0.011075821188447181
-1.4301153154590969   -0.17114759346076686   0.011075821188447181
-1.0957543288606624   -0.20607601291955463   0.06537426426287773
-1.0957543288606624   -0.20607601291955463   0.06537426426287773
-1.0957543288606624   -0.20607601291955463   0.06537426426287773
-1.0957543288606624   -0.20607601291955463   0.06537426426287773
-1.8747937895616793   -0.1648141171731988   -0.019832085166611967
-1.8747937895616793   -0.1648141171731988   -0.019832085166611967
-1.8747937895616793   -0.1648141171731988   -0.019832085166611967
-1.8747937895616793   -0.1648141171731988   -0.019832085166611967
-1.9558541998491272   -0.3912088884301475   -0.00019024230161033428
-1.9558541998491272   -0.3912088884301475   -0.00019024230161033428
-1.9558541998491272   -0.3912088884301475   -0.00019024230161033428
-1.9558541998491272   -0.3912088884301475   -0.00019024230161033428
-1.1085362779836863   -0.04163985923694036   0.006726846865541092
-1.1085362779836863   -0.04163985923694036   0.006726846865541092
-1.1085362779836863   -0.04163985923694036   0.006726846865541092
-1.1085362779836863   -0.04163985923694036   0.006726846865541092
-1.4472177597858065   -0.20667140863516625   0.017459832009035083
-1.4472177597858065   -0.20667140863516625   0.017459832009035083
-1.4472177597858065   -0.20667140863516625   0.017459832009035083
-1.4472177597858065   -0.20667140863516625   0.017459832009035083
1.192196589188827   0.05507242349951552   -0.025677042374277877
1.192196589188827   0.05507242349951552   -0.025677042374277877
1.192196589188827   0.05507242349951552   -0.025677042374277877
1.192196589188827   0.05507242349951552   -0.025677042374277877
0.5995954980931907   -0.012381060155609636   0.012545331043700134
0.5995954980931907   -0.012381060155609636   0.012545331043700134
0.5995954980931907   -0.012381060155609636   0.012545331043700134
0.5995954980931907   -0.012381060155609636   0.012545331043700134
0.5616905624098175   -0.08808529479741295   -0.022762355203877697
0.5616905624098175   -0.08808529479741295   -0.022762355203877697
0.5616905624098175   -0.08808529479741295   -0.022762355203877697
0.5616905624098175   -0.08808529479741295   -0.022762355203877697
1.1784588308294957   0.08594012875387555   0.014677838579024063
1.1784588308294957   0.08594012875387555   0.014677838579024063
1.1784588308294957   0.08594012875387555   0.014677838579024063
1.1784588308294957   0.08594012875387555   0.014677838579024063
0.8367022294041194   0.0020585312103705844   -0.03231247525301024
0.8367022294041194   0.0020585312103705844   -0.03231247525301024
0.8367022294041194   0.0020585312103705844   -0.03231247525301024
0.8367022294041194   0.0020585312103705844   -0.03231247525301024
1.1593068791762764   0.03080173450834839   -0.02594352544153339
1.1593068791762764   0.03080173450834839   -0.02594352544153339
1.1593068791762764   0.03080173450834839   -0.02594352544153339
1.1593068791762764   0.03080173450834839   -0.02594352544153339
0.5797858945010388   -0.03400352011388216   0.013632530568692368
0.5797858945010388   -0.03400352011388216   0.013632530568692368
0.5797858945010388   -0.03400352011388216   0.013632530568692368
0.5797858945010388   -0.03400352011388216   0.013632530568692368
0.5412709235127489   -0.09296808041018326   -0.018821003176972433
0.5412709235127489   -0.09296808041018326   -0.018821003176972433
0.5412709235127489   -0.09296808041018326   -0.018821003176972433
0.5412709235127489   -0.09296808041018326   -0.018821003176972433
1.1501135784344652   0.07900508875788603   0.02151095512383884
1.1501135784344652   0.07900508875788603   0.02151095512383884
1.1501135784344652   0.07900508875788603   0.02151095512383884
1.1501135784344652   0.07900508875788603   0.02151095512383884
0.8256642089817768   -0.008295920795348743   -0.038492884950216834
0.8256642089817768   -0.008295920795348743   -0.038492884950216834
0.8256642089817768   -0.008295920795348743   -0.038492884950216834
0.8256642089817768   -0.008295920795348743   -0.038492884950216834
1.1308158200869516   0.02459212497406882   -0.020564872829912137
1.1308158200869516   0.02459212497406882   -0.020564872829912137
1.1308158200869516   0.02459212497406882   -0.020564872829912137
1.1308158200869516   0.02459212497406882   -0.020564872829912137
0.5590944754232205   -0.040029323063408395   0.01735799902861128
0.5590944754232205   -0.040029323063408395   0.01735799902861128
0.5590944754232205   -0.040029323063408395   0.01735799902861128
0.5590944754232205   -0.040029323063408395   0.01735799902861128
0.5215100314271129   -0.09149738426327003   -0.01291937995668184
0.5215100314271129   -0.09149738426327003   -0.01291937995668184
0.5215100314271129   -0.09149738426327003   -0.01291937995668184
0.5215100314271129   -0.09149738426327003   -0.01291937995668184
1.1150317200990605   0.07438716151080277   0.02804066463430755
1.1150317200990605   0.07438716151080277   0.02804066463430755
1.1150317200990605   0.07438716151080277   0.02804066463430755
1.1150317200990605   0.07438716151080277   0.02804066463430755
0.7850144310286572   -0.014453696630890495   -0.05050796729462446
0.7850144310286572   -0.014453696630890495   -0.05050796729462446
0.7850144310286572   -0.014453696630890495   -0.05050796729462446
0.7850144310286572   -0.014453696630890495   -0.05050796729462446
0.6030841008057141   0.012061560846603273   0.005545723604104585
0.6030841008057141   0.012061560846603273   0.005545723604104585
0.6030841008057141   0.012061560846603273   0.005545723604104585
0.6030841008057141   0.012061560846603273   0.005545723604104585
0.057144584851458   -0.03629612588372662   -0.0014674259913560299
0.057144584851458   -0.03629612588372662   -0.0014674259913560299
0.057144584851458   -0.03629612588372662   -0.0014674259913560299
0.057144584851458   -0.03629612588372662   -0.0014674259913560299
0.02142390377576555   -0.11637880819001399   -0.021933898287094293
0.02142390377576555   -0.11637880819001399   -0.021933898287094293
0.02142390377576555   -0.11637880819001399   -0.021933898287094293
0.02142390377576555   -0.11637880819001399   -0.021933898287094293
0.6037579041672007   0.06969586207999565   0.029793196705623082
0.6037579041672007   0.06969586207999565   0.029793196705623082
0.6037579041672007   0.06969586207999565   0.029793196705623082
0.6037579041672007   0.06969586207999565   0.029793196705623082
0.31545709263146193   -0.016214964176876262   -0.012438315645761137
0.31545709263146193   -0.016214964176876262   -0.012438315645761137
0.31545709263146193   -0.016214964176876262   -0.012438315645761137
0.31545709263146193   -0.016214964176876262   -0.012438315645761137
0.5863005523764091   0.002853134294889814   0.009349165536774562
0.5863005523764091   0.002853134294889814   0.009349165536774562
0.5863005523764091   0.002853134294889814   0.009349165536774562
0.5863005523764091   0.002853134294889814   0.009349165536774562
0.039549339433264365   -0.04886799653819921   0.0011824683485849898
0.039549339433264365   -0.04886799653819921   0.0011824683485849898
0.039549339433264365   -0.04886799653819921   0.0011824683485849898
0.039549339433264365   -0.04886799653819921   0.0011824683485849898
0.0017346814354580395   -0.1218825034499642   -0.015303050012775977
0.0017346814354580395   -0.1218825034499642   -0.015303050012775977
0.0017346814354580395   -0.1218825034499642   -0.015303050012775977
0.0017346814354580395   -0.1218825034499642   -0.015303050012775977
0.5821462109086508   0.05973504626613661   0.03285230712621845
0.5821462109086508   0.05973504626613661   0.03285230712621845
0.5821462109086508   0.05973504626613661   0.03285230712621845
0.5821462109086508   0.05973504626613661   0.03285230712621845
0.2927689104450403   -0.0253964413352962   -0.017609696554655836
0.2927689104450403   -0.0253964413352962   -0.017609696554655836
0.2927689104450403   -0.0253964413352962   -0.017609696554655836
0.2927689104450403   -0.0253964413352962   -0.017609696554655836
0.5656733949435461   -0.003324580027019741   0.013547853593855123
0.5656733949435461   -0.003324580027019741   0.013547853593855123
0.5656733949435461   -0.003324580027019741   0.013547853593855123
0.5656733949435461   -0.003324580027019741   0.013547853593855123
0.01811752595435456   -0.058912848603014885   0.0036415177347573283
0.01811752595435456   -0.058912848603014885   0.0036415177347573283
0.01811752595435456   -0.058912848603014885   0.0036415177347573283
0.01811752595435456   -0.058912848603014885   0.0036415177347573283
-0.019393029623123954   -0.12236767632949147   -0.010466585104240245
-0.019393029623123954   -0.12236767632949147   -0.010466585104240245
-0.019393029623123954   -0.12236767632949147   -0.010466585104240245
-0.019393029623123954   -0.12236767632949147   -0.010466585104240245
0.5603402779911325   0.05343453703772659   0.03629993156242042
0.5603402779911325   0.05343453703772659   0.03629993156242042
0.5603402779911325   0.05343453703772659   0.03629993156242042
0.5603402779911325   0.05343453703772659   0.03629993156242042
0.2750710401066296   -0.0290111131210785   -0.022034153582668185
0.2750710401066296   -0.0290111131210785   -0.022034153582668185
0.2750710401066296   -0.0290111131210785   -0.022034153582668185
0.2750710401066296   -0.0290111131210785   -0.022034153582668185
0.05849054323242739   -0.033157459343730364   0.0021236993734946863
0.05849054323242739   -0.033157459343730364   0.0021236993734946863
0.05849054323242739   -0.033157459343730364   0.0021236993734946863
0.05849054323242739   -0.033157459343730364   0.0021236993734946863
-0.4672972513299473   -0.053948463597327065   -0.01468638388614123
-0.4672972513299473   -0.053948463597327065   -0.01468638388614123
-0.4672972513299473   -0.053948463597327065   -0.01468638388614123
-0.4672972513299473   -0.053948463597327065   -0.01468638388614123
-0.5070100515547966   -0.1541956967353805   -0.0250332165179816
-0.5070100515547966   -0.1541956967353805   -0.0250332165179816
-0.5070100515547966   -0.1541956967353805   -0.0250332165179816
-0.5070100515547966   -0.1541956967353805   -0.0250332165179816
0.06274097315565613   0.0511346363134302   0.017138004108915084
0.06274097315565613   0.0511346363134302   0.017138004108915084
0.06274097315565613   0.0511346363134302   0.017138004108915084
0.06274097315565613   0.0511346363134302   0.017138004108915084
-0.21388891676575875   -0.04526811091091687   -0.012325289766492036
-0.21388891676575875   -0.04526811091091687   -0.012325289766492036
-0.21388891676575875   -0.04526811091091687   -0.012325289766492036
-0.21388891676575875   -0.04526811091091687   -0.012325289766492036
0.04369034765390224   -0.037037559172775396   0.010057072086350583
0.04369034765390224   -0.037037559172775396   0.010057072086350583
0.04369034765390224   -0.037037559172775396   0.010057072086350583
0.04369034765390224   -0.037037559172775396   0.010057072086350583
-0.4864959527963284   -0.06456002799246155   -0.012098391468559207
-0.4864959527963284   -0.06456002799246155   -0.012098391468559207
-0.4864959527963284   -0.06456002799246155   -0.012098391468559207
-0.4864959527963284   -0.06456002799246155   -0.012098391468559207
-0.530092831849262   -0.16021659985240286   -0.01663833703588357
-0.530092831849262   -0.16021659985240286   -0.01663833703588357
-0.530092831849262   -0.16021659985240286   -0.01663833703588357
-0.530092831849262   -0.16021659985240286   -0.01663833703588357
0.04114082181389648   0.040475653580917675   0.019369494848534632
0.04114082181389648   0.040475653580917675   0.019369494848534632
0.04114082181389648   0.040475653580917675   0.019369494848534632
0.04114082181389648   0.040475653580917675   0.019369494848534632
-0.2329920098255828   -0.05159731819478018   -0.014777497973143384
-0.2329920098255828   -0.05159731819478018   -0.014777497973143384
-0.2329920098255828   -0.05159731819478018   -0.014777497973143384
-0.2329920098255828   -0.05159731819478018   -0.014777497973143384
0.02325065514526045   -0.04345114335755267   0.01384545844382456
0.02325065514526045   -0.04345114335755267   0.01384545844382456
0.02325065514526045   -0.04345114335755267   0.01384545844382456
0.02325065514526045   -0.04345114335755267   0.01384545844382456
-0.5118916916368111   -0.07597882937011419   -0.00987040645591711
-0.5118916916368111   -0.07597882937011419   -0.00987040645591711
-0.5118916916368111   -0.07597882937011419   -0.00987040645591711
-0.5118916916368111   -0.07597882937011419   -0.00987040645591711
-0.5556972807042132   -0.16459826253931098   -0.014788212002788995
-0.5556972807042132   -0.16459826253931098   -0.014788212002788995
-0.5556972807042132   -0.16459826253931098   -0.014788212002788995
-0.5556972807042132   -0.16459826253931098   -0.014788212002788995
0.017775912980429544   0.03137890560288344   0.021631545981151745
0.017775912980429544   0.03137890560288344   0.021631545981151745
0.017775912980429544   0.03137890560288344   0.021631545981151745
0.017775912980429544   0.03137890560288344   0.021631545981151745
-0.2578013116064577   -0.05917401247858044   -0.020694944807214
-0.2578013116064577   -0.05917401247858044   -0.020694944807214
-0.2578013116064577   -0.05917401247858044   -0.020694944807214
-0.2578013116064577   -0.05917401247858044   -0.020694944807214
-0.4599992614780386   -0.03946081589031576   0.007315917666383041
-0.4599992614780386   -0.03946081589031576   0.007315917666383041
-0.4599992614780386   -0.03946081589031576   0.007315917666383041
-0.4599992614780386   -0.03946081589031576   0.007315917666383041
-0.9794419607670466   -0.06315359582692248   -0.025822938166448366
-0.9794419607670466   -0.06315359582692248   -0.025822938166448366
-0.9794419607670466   -0.06315359582692248   -0.025822938166448366
-0.9794419607670466   -0.06315359582692248   -0.025822938166448366
-1.0245598170046695   -0.16168454477532368   -0.025077036356715487
-1.0245598170046695   -0.16168454477532368   -0.025077036356715487
-1.0245598170046695   -0.16168454477532368   -0.025077036356715487
-1.0245598170046695   -0.16168454477532368   -0.025077036356715487
-0.4623548923616799   0.03912925173770085   0.004917630974517785
-0.4623548923616799   0.03912925173770085   0.004917630974517785
-0.4623548923616799   0.03912925173770085   0.004917630974517785
-0.4623548923616799   0.03912925173770085   0.004917630974517785
-0.7255751364779007   -0.05368737182133447   -0.010313716011628563
-0.7255751364779007   -0.05368737182133447   -0.010313716011628563
-0.7255751364779007   -0.05368737182133447   -0.010313716011628563
-0.7255751364779007   -0.05368737182133447   -0.010313716011628563
-0.4763863056708605   -0.04354706000329884   0.017436876169617643
-0.4763863056708605   -0.04354706000329884   0.017436876169617643
-0.4763863056708605   -0.04354706000329884   0.017436876169617643
-0.4763863056708605   -0.04354706000329884   0.017436876169617643
-1.0076691307299075   -0.07614896006874625   -0.026159189689490193
-1.0076691307299075   -0.07614896006874625   -0.026159189689490193
-1.0076691307299075   -0.07614896006874625   -0.026159189689490193
-1.0076691307299075   -0.07614896006874625   -0.026159189689490193
-1.0564745509258464   -0.17195400760591015   -0.017647361524499628
-1.0564745509258464   -0.17195400760591015   -0.017647361524499628
-1.0564745509258464   -0.17195400760591015   -0.017647361524499628
-1.0564745509258464   -0.17195400760591015   -0.017647361524499628
-0.4880322994150722   0.027451150397065666   0.005996574885597444
-0.4880322994150722   0.027451150397065666   0.005996574885597444
-0.4880322994150722   0.027451150397065666   0.005996574885597444
-0.4880322994150722   0.027451150397065666   0.005996574885597444
-0.7457031036529636   -0.05934244052824314   -0.010323631849975985
-0.7457031036529636   -0.05934244052824314   -0.010323631849975985
-0.7457031036529636   -0.05934244052824314   -0.010323631849975985
-0.7457031036529636   -0.05934244052824314   -0.010323631849975985
-0.5018739184323189   -0.05388040230251797   0.018120032498948287
-0.5018739184323189   -0.05388040230251797   0.018120032498948287
-0.5018739184323189   -0.05388040230251797   0.018120032498948287
-0.5018739184323189   -0.05388040230251797   0.018120032498948287
-1.0407146843672697   -0.08870420736500018   -0.022097828972534317
-1.0407146843672697   -0.08870420736500018   -0.022097828972534317
-1.0407146843672697   -0.08870420736500018   -0.022097828972534317
-1.0407146843672697   -0.08870420736500018   -0.022097828972534317
-1.09257187920739   -0.18551747128663576   -0.01885579578913877
-1.09257187920739   -0.18551747128663576   -0.01885579578913877
-1.09257187920739   -0.18551747128663576   -0.01885579578913877
-1.09257187920739   -0.18551747128663576   -0.01885579578913877
-0.5157860042483308   0.01301950903458271   0.00715039870271832
-0.5157860042483308   0.01301950903458271   0.00715039870271832
-0.5157860042483308   0.01301950903458271   0.00715039870271832
-0.5157860042483308   0.01301950903458271   0.00715039870271832
-0.7815888763624387   -0.0732876433562762   -0.016836981383085547
-0.7815888763624387   -0.0732876433562762   -0.016836981383085547
-0.7815888763624387   -0.0732876433562762   -0.016836981383085547
-0.7815888763624387   -0.0732876433562762   -0.016836981383085547
-0.9464214455047126   0.04436541284996648   0.031760629468333045
-0.9464214455047126   0.04436541284996648   0.031760629468333045
-0.9464214455047126   0.04436541284996648   0.031760629468333045
-0.9464214455047126   0.04436541284996648   0.031760629468333045
-1.4671852702747572   -0.07307551660715073   -0.019543207235733204
-1.4671852702747572   -0.07307551660715073   -0.019543207235733204
-1.4671852702747572   -0.07307551660715073   -0.019543207235733204
-1.4671852702747572   -0.07307551660715073   -0.019543207235733204
-1.5029559137977686   -0.07443288690478528   0.0325669163115922
-1.5029559137977686   -0.07443288690478528   0.0325669163115922
-1.5029559137977686   -0.07443288690478528   0.0325669163115922
-1.5029559137977686   -0.07443288690478528   0.0325669163115922
-0.9826236248906761   0.03062327605309112   -0.007703896615171277
-0.9826236248906761   0.03062327605309112   -0.007703896615171277
-0.9826236248906761   0.03062327605309112   -0.007703896615171277
-0.9826236248906761   0.03062327605309112   -0.007703896615171277
-1.1676984369273384   0.0008082750795944116   0.029677452555510818
-1.1676984369273384   0.0008082750795944116   0.029677452555510818
-1.1676984369273384   0.0008082750795944116   0.029677452555510818
-1.1676984369273384   0.0008082750795944116   0.029677452555510818
-0.9725407612052033   0.03316958327039107   0.04016411459488921
-0.9725407612052033   0.03316958327039107   0.04016411459488921
-0.9725407612052033   0.03316958327039107   0.04016411459488921
-0.9725407612052033   0.03316958327039107   0.04016411459488921
-1.512365972808986   -0.07630638944782736   -0.012609876201453776
-1.512365972808986   -0.07630638944782736   -0.012609876201453776
-1.512365972808986   -0.07630638944782736   -0.012609876201453776
-1.512365972808986   -0.07630638944782736   -0.012609876201453776
-1.5480758999583775   -0.08663939510581156   0.04432363556702264
-1.5480758999583775   -0.08663939510581156   0.04432363556702264
-1.5480758999583775   -0.08663939510581156   0.04432363556702264
-1.5480758999583775   -0.08663939510581156   0.04432363556702264
-1.015703677593062   0.022324420484896607   -0.008071422951392529
-1.015703677593062   0.022324420484896607   -0.008071422951392529
-1.015703677593062   0.022324420484896607   -0.008071422951392529
-1.015703677593062   0.022324420484896607   -0.008071422951392529
-1.2260687508036558   -0.013460051884698843   0.016360772801044247
-1.2260687508036558   -0.013460051884698843   0.016360772801044247
-1.2260687508036558   -0.013460051884698843   0.016360772801044247
-1.2260687508036558   -0.013460051884698843   0.016360772801044247
-1.0064844378658135   0.02073667452770292   0.03961252164204394
-1.0064844378658135   0.02073667452770292   0.03961252164204394
-1.0064844378658135   0.02073667452770292   0.03961252164204394
-1.0064844378658135   0.02073667452770292   0.03961252164204394
-1.5590317073804507   -0.08678821684344223   -0.010306579805697852
-1.5590317073804507   -0.08678821684344223   -0.010306579805697852
-1.5590317073804507   -0.08678821684344223   -0.010306579805697852
-1.5590317073804507   -0.08678821684344223   -0.010306579805697852
-1.612261911514453   -0.13604472139656384   0.03842816959815943
-1.612261911514453   -0.13604472139656384   0.03842816959815943
-1.612261911514453   -0.13604472139656384   0.03842816959815943
-1.612261911514453   -0.13604472139656384   0.03842816959815943
-1.0538457171136555   -0.0031327187985800697   -0.007609737808526917
-1.0538457171136555   -0.0031327187985800697   -0.007609737808526917
-1.0538457171136555   -0.0031327187985800697   -0.007609737808526917
-1.0538457171136555   -0.0031327187985800697   -0.007609737808526917
-1.2506642527758174   -0.031471056983768175   0.004713649536120329
-1.2506642527758174   -0.031471056983768175   0.004713649536120329
-1.2506642527758174   -0.031471056983768175   0.004713649536120329
-1.2506642527758174   -0.031471056983768175   0.004713649536120329
0.9679250180953145   0.05192957051287017   -0.034231035616013025
0.9679250180953145   0.05192957051287017   -0.034231035616013025
0.9679250180953145   0.05192957051287017   -0.034231035616013025
0.9679250180953145   0.05192957051287017   -0.034231035616013025
0.4794204933660757   -0.0007879532616507506   0.012325716253282548
0.4794204933660757   -0.0007879532616507506   0.012325716253282548
0.4794204933660757   -0.0007879532616507506   0.012325716253282548
0.4794204933660757   -0.0007879532616507506   0.012325716253282548
0.43846914885327765   -0.07128554240813657   -0.03146083525478792
0.43846914885327765   -0.07128554240813657   -0.03146083525478792
0.43846914885327765   -0.07128554240813657   -0.03146083525478792
0.43846914885327765   -0.07128554240813657   -0.03146083525478792
0.9498432846024664   0.078128093565704   0.015468001418565823
0.9498432846024664   0.078128093565704   0.015468001418565823
0.9498432846024664   0.078128093565704   0.015468001418565823
0.9498432846024664   0.078128093565704   0.015468001418565823
0.672264335300844   0.005924326666542801   -0.022132376783851597
0.672264335300844   0.005924326666542801   -0.022132376783851597
0.672264335300844   0.005924326666542801   -0.022132376783851597
0.672264335300844   0.005924326666542801   -0.022132376783851597
0.9298600774944394   0.026684018549905736   -0.03300395910576235
0.9298600774944394   0.026684018549905736   -0.03300395910576235
0.9298600774944394   0.026684018549905736   -0.03300395910576235
0.9298600774944394   0.026684018549905736   -0.03300395910576235
0.4576016525026877   -0.020692170850951097   0.013608311435069138
0.4576016525026877   -0.020692170850951097   0.013608311435069138
0.4576016525026877   -0.020692170850951097   0.013608311435069138
0.4576016525026877   -0.020692170850951097   0.013608311435069138
0.41799000577674095   -0.07719479732198413   -0.027364902617787786
0.41799000577674095   -0.07719479732198413   -0.027364902617787786
0.41799000577674095   -0.07719479732198413   -0.027364902617787786
0.41799000577674095   -0.07719479732198413   -0.027364902617787786
0.9192206902400031   0.06999146796452829   0.02119173417247129
0.9192206902400031   0.06999146796452829   0.02119173417247129
0.9192206902400031   0.06999146796452829   0.02119173417247129
0.9192206902400031   0.06999146796452829   0.02119173417247129
0.656351622773861   -0.004757965993629043   -0.028982644046795066
0.656351622773861   -0.004757965993629043   -0.028982644046795066
0.656351622773861   -0.004757965993629043   -0.028982644046795066
0.656351622773861   -0.004757965993629043   -0.028982644046795066
0.8996592415580444   0.019406018419398957   -0.02603005969217641
0.8996592415580444   0.019406018419398957   -0.02603005969217641
0.8996592415580444   0.019406018419398957   -0.02603005969217641
0.8996592415580444   0.019406018419398957   -0.02603005969217641
0.4367830618198192   -0.02737774041573321   0.016783320691347567
0.4367830618198192   -0.02737774041573321   0.016783320691347567
0.4367830618198192   -0.02737774041573321   0.016783320691347567
0.4367830618198192   -0.02737774041573321   0.016783320691347567
0.39930441391809873   -0.07883881498353894   -0.022361911656439307
0.39930441391809873   -0.07883881498353894   -0.022361911656439307
0.39930441391809873   -0.07883881498353894   -0.022361911656439307
0.39930441391809873   -0.07883881498353894   -0.022361911656439307
0.884698968327724   0.06294039687739547   0.026413144359440623
0.884698968327724   0.06294039687739547   0.026413144359440623
0.884698968327724   0.06294039687739547   0.026413144359440623
0.884698968327724   0.06294039687739547   0.026413144359440623
0.6189038342884784   -0.012079347689561315   -0.039319584833038664
0.6189038342884784   -0.012079347689561315   -0.039319584833038664
0.6189038342884784   -0.012079347689561315   -0.039319584833038664
0.6189038342884784   -0.012079347689561315   -0.039319584833038664
0.48781184690873125   0.05069143155581631   0.002803099149093333
0.48781184690873125   0.05069143155581631   0.002803099149093333
0.48781184690873125   0.05069143155581631   0.002803099149093333
0.48781184690873125   0.05069143155581631   0.002803099149093333
0.01606363106042675   -0.016196655521171752   -0.002069696244242229
0.01606363106042675   -0.016196655521171752   -0.002069696244242229
0.01606363106042675   -0.016196655521171752   -0.002069696244242229
0.01606363106042675   -0.016196655521171752   -0.002069696244242229
-0.014807512349390532   -0.06426623397437842   -0.021451867049656143
-0.014807512349390532   -0.06426623397437842   -0.021451867049656143
-0.014807512349390532   -0.06426623397437842   -0.021451867049656143
-0.014807512349390532   -0.06426623397437842   -0.021451867049656143
0.47847148825361824   0.07080984454637408   0.026455474792396075
0.47847148825361824   0.07080984454637408   0.026455474792396075
0.47847148825361824   0.07080984454637408   0.026455474792396075
0.47847148825361824   0.07080984454637408   0.026455474792396075
0.23811325747113646   0.01009076011383487   -0.0026923682046365947
0.23811325747113646   0.01009076011383487   -0.0026923682046365947
0.23811325747113646   0.01009076011383487   -0.0026923682046365947
0.23811325747113646   0.01009076011383487   -0.0026923682046365947
0.46764872087226217   0.037621402138565935   0.005530080293426578
0.46764872087226217   0.037621402138565935   0.005530080293426578
0.46764872087226217   0.037621402138565935   0.005530080293426578
0.46764872087226217   0.037621402138565935   0.005530080293426578
-0.0037904437377587917   -0.03088349033629642   0.0002507323704205571
-0.0037904437377587917   -0.03088349033629642   0.0002507323704205571
-0.0037904437377587917   -0.03088349033629642   0.0002507323704205571
-0.0037904437377587917   -0.03088349033629642   0.0002507323704205571
-0.03420613308612585   -0.07381759304957608   -0.01855854545756827
-0.03420613308612585   -0.07381759304957608   -0.01855854545756827
-0.03420613308612585   -0.07381759304957608   -0.01855854545756827
-0.03420613308612585   -0.07381759304957608   -0.01855854545756827
0.4564945913832594   0.058698245592868285   0.0292649824999473
0.4564945913832594   0.058698245592868285   0.0292649824999473
0.4564945913832594   0.058698245592868285   0.0292649824999473
0.4564945913832594   0.058698245592868285   0.0292649824999473
0.21438972372292148   -0.0018561841562468179   -0.009476721593797413
0.21438972372292148   -0.0018561841562468179   -0.009476721593797413
0.21438972372292148   -0.0018561841562468179   -0.009476721593797413
0.21438972372292148   -0.0018561841562468179   -0.009476721593797413
0.44608002618738735   0.027607856932773928   0.008282545180681247
0.44608002618738735   0.027607856932773928   0.008282545180681247
0.44608002618738735   0.027607856932773928   0.008282545180681247
0.44608002618738735   0.027607856932773928   0.008282545180681247
-0.023773642778087974   -0.04270927927731804   0.0024955923103630578
-0.023773642778087974   -0.04270927927731804   0.0024955923103630578
-0.023773642778087974   -0.04270927927731804   0.0024955923103630578
-0.023773642778087974   -0.04270927927731804   0.0024955923103630578
-0.05340384476745634   -0.07953157412945384   -0.014786501514892848
-0.05340384476745634   -0.07953157412945384   -0.014786501514892848
-0.05340384476745634   -0.07953157412945384   -0.014786501514892848
-0.05340384476745634   -0.07953157412945384   -0.014786501514892848
0.4355914108215839   0.048511432752162596   0.031722825125279665
0.4355914108215839   0.048511432752162596   0.031722825125279665
0.4355914108215839   0.048511432752162596   0.031722825125279665
0.4355914108215839   0.048511432752162596   0.031722825125279665
0.19689367267931207   -0.009459186157047807   -0.014464267000779884
0.19689367267931207   -0.009459186157047807   -0.014464267000779884
0.19689367267931207   -0.009459186157047807   -0.014464267000779884
0.19689367267931207   -0.009459186157047807   -0.014464267000779884
0.03213298647639567   0.05107578817004632   0.011004637144386212
0.03213298647639567   0.05107578817004632   0.011004637144386212
0.03213298647639567   0.05107578817004632   0.011004637144386212
0.03213298647639567   0.05107578817004632   0.011004637144386212
-0.43300428043572653   -0.028179367786774226   -0.014877780371544795
-0.43300428043572653   -0.028179367786774226   -0.014877780371544795
-0.43300428043572653   -0.028179367786774226   -0.014877780371544795
-0.43300428043572653   -0.028179367786774226   -0.014877780371544795
-0.45708766383182564   -0.05898921524922857   -0.013652616716897015
-0.45708766383182564   -0.05898921524922857   -0.013652616716897015
-0.45708766383182564   -0.05898921524922857   -0.013652616716897015
-0.45708766383182564   -0.05898921524922857   -0.013652616716897015
0.016507312432265504   0.05799804312490471   0.012857979759340795
0.016507312432265504   0.05799804312490471   0.012857979759340795
0.016507312432265504   0.05799804312490471   0.012857979759340795
0.016507312432265504   0.05799804312490471   0.012857979759340795
-0.21009719885969622   0.006442486872017643   0.0008191001384497097
-0.21009719885969622   0.006442486872017643   0.0008191001384497097
-0.21009719885969622   0.006442486872017643   0.0008191001384497097
-0.21009719885969622   0.006442486872017643   0.0008191001384497097
0.013208186681043241   0.040560464185294555   0.013799929942839746
0.013208186681043241   0.040560464185294555   0.013799929942839746
0.013208186681043241   0.040560464185294555   0.013799929942839746
0.013208186681043241   0.040560464185294555   0.013799929942839746
-0.45325806391313556   -0.04102116214214894   -0.012472670230526358
-0.45325806391313556   -0.04102116214214894   -0.012472670230526358
-0.45325806391313556   -0.04102116214214894   -0.012472670230526358
-0.45325806391313556   -0.04102116214214894   -0.012472670230526358
-0.4779029944687838   -0.06947975779816343   -0.01136374576419061
-0.4779029944687838   -0.06947975779816343   -0.01136374576419061
-0.4779029944687838   -0.06947975779816343   -0.01136374576419061
-0.4779029944687838   -0.06947975779816343   -0.01136374576419061
-0.003504130411160591   0.045540984803901584   0.015592890063779742
-0.003504130411160591   0.045540984803901584   0.015592890063779742
-0.003504130411160591   0.045540984803901584   0.015592890063779742
-0.003504130411160591   0.045540984803901584   0.015592890063779742
-0.23004232044261314   -0.0038404403250286018   -0.004271656116101736
-0.23004232044261314   -0.0038404403250286018   -0.004271656116101736
-0.23004232044261314   -0.0038404403250286018   -0.004271656116101736
-0.23004232044261314   -0.0038404403250286018   -0.004271656116101736
-0.006319291396074575   0.03043445496486482   0.016623614978247197
-0.006319291396074575   0.03043445496486482   0.016623614978247197
-0.006319291396074575   0.03043445496486482   0.016623614978247197
-0.006319291396074575   0.03043445496486482   0.016623614978247197
-0.4746342855015396   -0.053919679976797266   -0.010580278749335547
-0.4746342855015396   -0.053919679976797266   -0.010580278749335547
-0.4746342855015396   -0.053919679976797266   -0.010580278749335547
-0.4746342855015396   -0.053919679976797266   -0.010580278749335547
-0.498573632244712   -0.07772866497819801   -0.007556761699113942
-0.498573632244712   -0.07772866497819801   -0.007556761699113942
-0.498573632244712   -0.07772866497819801   -0.007556761699113942
-0.498573632244712   -0.07772866497819801   -0.007556761699113942
-0.024237828560742837   0.03380616198327159   0.01770584340595017
-0.024237828560742837   0.03380616198327159   0.01770584340595017
-0.024237828560742837   0.03380616198327159   0.01770584340595017
-0.024237828560742837   0.03380616198327159   0.01770584340595017
-0.2515044624434856   -0.014297104310788622   -0.009839030945232929
-0.2515044624434856   -0.014297104310788622   -0.009839030945232929
-0.2515044624434856   -0.014297104310788622   -0.009839030945232929
-0.2515044624434856   -0.014297104310788622   -0.009839030945232929
-0.40836368337698975   0.060213178926213876   0.0199326582091588
-0.40836368337698975   0.060213178926213876   0.0199326582091588
-0.40836368337698975   0.060213178926213876   0.0199326582091588
-0.40836368337698975   0.060213178926213876   0.0199326582091588
-0.8674437568637074   -0.038705736889942   -0.024345916441252807
-0.8674437568637074   -0.038705736889942   -0.024345916441252807
-0.8674437568637074   -0.038705736889942   -0.024345916441252807
-0.8674437568637074   -0.038705736889942   -0.024345916441252807
-0.8862123998525542   -0.047432330540636   -0.004032772926292165
-0.8862123998525542   -0.047432330540636   -0.004032772926292165
-0.8862123998525542   -0.047432330540636   -0.004032772926292165
-0.8862123998525542   -0.047432330540636   -0.004032772926292165
-0.4339034780620043   0.043917369352025074   -0.0006382724690400313
-0.4339034780620043   0.043917369352025074   -0.0006382724690400313
-0.4339034780620043   0.043917369352025074   -0.0006382724690400313
-0.4339034780620043   0.043917369352025074   -0.0006382724690400313
-0.6442899151504906   0.006466991653132914   0.004711294877784392
-0.6442899151504906   0.006466991653132914   0.004711294877784392
-0.6442899151504906   0.006466991653132914   0.004711294877784392
-0.6442899151504906   0.006466991653132914   0.004711294877784392
-0.42819657806946493   0.04945008980864683   0.02236350703703514
-0.42819657806946493   0.04945008980864683   0.02236350703703514
-0.42819657806946493   0.04945008980864683   0.02236350703703514
-0.42819657806946493   0.04945008980864683   0.02236350703703514
-0.8912047227186104   -0.052250473870771086   -0.02417624392644547
-0.8912047227186104   -0.052250473870771086   -0.02417624392644547
-0.8912047227186104   -0.052250473870771086   -0.02417624392644547
-0.8912047227186104   -0.052250473870771086   -0.02417624392644547
-0.9118424175002453   -0.059232290836510576   -0.0036105131971106846
-0.9118424175002453   -0.059232290836510576   -0.0036105131971106846
-0.9118424175002453   -0.059232290836510576   -0.0036105131971106846
-0.9118424175002453   -0.059232290836510576   -0.0036105131971106846
-0.4549691873662989   0.032030162035670315   0.0017953699144048693
-0.4549691873662989   0.032030162035670315   0.0017953699144048693
-0.4549691873662989   0.032030162035670315   0.0017953699144048693
-0.4549691873662989   0.032030162035670315   0.0017953699144048693
-0.6621975482719636   -0.0029178183484261377   0.0005390450808423555
-0.6621975482719636   -0.0029178183484261377   0.0005390450808423555
-0.6621975482719636   -0.0029178183484261377   0.0005390450808423555
-0.6621975482719636   -0.0029178183484261377   0.0005390450808423555
-0.44871532832689687   0.039278495889163406   0.02581633125792123
-0.44871532832689687   0.039278495889163406   0.02581633125792123
-0.44871532832689687   0.039278495889163406   0.02581633125792123
-0.44871532832689687   0.039278495889163406   0.02581633125792123
-0.9166365351147197   -0.0650208832650779   -0.021792508840915367
-0.9166365351147197   -0.0650208832650779   -0.021792508840915367
-0.9166365351147197   -0.0650208832650779   -0.021792508840915367
-0.9166365351147197   -0.0650208832650779   -0.021792508840915367
-0.935432590720651   -0.07187500182756984   0.0023244308642758407
-0.935432590720651   -0.07187500182756984   0.0023244308642758407
-0.935432590720651   -0.07187500182756984   0.0023244308642758407
-0.935432590720651   -0.07187500182756984   0.0023244308642758407
-0.4772940410859476   0.017867352489476268   0.0032451766270375805
-0.4772940410859476   0.017867352489476268   0.0032451766270375805
-0.4772940410859476   0.017867352489476268   0.0032451766270375805
-0.4772940410859476   0.017867352489476268   0.0032451766270375805
-0.6902506072496912   -0.016138785186332022   -0.005088225517413794
-0.6902506072496912   -0.016138785186332022   -0.005088225517413794
-0.6902506072496912   -0.016138785186332022   -0.005088225517413794
-0.6902506072496912   -0.016138785186332022   -0.005088225517413794
-0.8367687090951604   0.06248429514851553   0.02783929036301671
-0.8367687090951604   0.06248429514851553   0.02783929036301671
-0.8367687090951604   0.06248429514851553   0.02783929036301671
-0.8367687090951604   0.06248429514851553   0.02783929036301671
-1.2807253602388378   -0.05927895248039705   -0.022342909637967534
-1.2807253602388378   -0.05927895248039705   -0.022342909637967534
-1.2807253602388378   -0.05927895248039705   -0.022342909637967534
-1.2807253602388378   -0.05927895248039705   -0.022342909637967534
-1.2981264231044314   -0.026208094961117978   0.023642046527538527
-1.2981264231044314   -0.026208094961117978   0.023642046527538527
-1.2981264231044314   -0.026208094961117978   0.023642046527538527
-1.2981264231044314   -0.026208094961117978   0.023642046527538527
-0.8731213924743453   0.026441858007924812   -0.012451924583806714
-0.8731213924743453   0.026441858007924812   -0.012451924583806714
-0.8731213924743453   0.026441858007924812   -0.012451924583806714
-0.8731213924743453   0.026441858007924812   -0.012451924583806714
-1.0247752188446506   0.0129297845649885   0.023616066810408697
-1.0247752188446506   0.0129297845649885   0.023616066810408697
-1.0247752188446506   0.0129297845649885   0.023616066810408697
-1.0247752188446506   0.0129297845649885   0.023616066810408697
-0.8567734188367115   0.06373338075781265   0.03199642085446073
-0.8567734188367115   0.06373338075781265   0.03199642085446073
-0.8567734188367115   0.06373338075781265   0.03199642085446073
-0.8567734188367115   0.06373338075781265   0.03199642085446073
-1.3135103046773013   -0.06253552564624557   -0.0169499306516721
-1.3135103046773013   -0.06253552564624557   -0.0169499306516721
-1.3135103046773013   -0.06253552564624557   -0.0169499306516721
-1.3135103046773013   -0.06253552564624557   -0.0169499306516721
-1.3299658580477465   -0.03238275634135007   0.032654873372089346
-1.3299658580477465   -0.03238275634135007   0.032654873372089346
-1.3299658580477465   -0.03238275634135007   0.032654873372089346
-1.3299658580477465   -0.03238275634135007   0.032654873372089346
-0.8975667469737179   0.019611752168608637   -0.011076203569590687
-0.8975667469737179   0.019611752168608637   -0.011076203569590687
-0.8975667469737179   0.019611752168608637   -0.011076203569590687
-0.8975667469737179   0.019611752168608637   -0.011076203569590687
-1.0687205422244859   0.006393343716319666   0.015255079681283444
-1.0687205422244859   0.006393343716319666   0.015255079681283444
-1.0687205422244859   0.006393343716319666   0.015255079681283444
-1.0687205422244859   0.006393343716319666   0.015255079681283444
-0.8795083435573282   0.05911940418209108   0.039708161498872754
-0.8795083435573282   0.05911940418209108   0.039708161498872754
-0.8795083435573282   0.05911940418209108   0.039708161498872754
-0.8795083435573282   0.05911940418209108   0.039708161498872754
-1.3470895103445168   -0.07095565723520886   -0.014390487217879083
-1.3470895103445168   -0.07095565723520886   -0.014390487217879083
-1.3470895103445168   -0.07095565723520886   -0.014390487217879083
-1.3470895103445168   -0.07095565723520886   -0.014390487217879083
-1.373156426439812   -0.058987176199883945   0.03242868451114059
-1.373156426439812   -0.058987176199883945   0.03242868451114059
-1.373156426439812   -0.058987176199883945   0.03242868451114059
-1.373156426439812   -0.058987176199883945   0.03242868451114059
-0.9237983401621747   -0.000965520811270576   -0.010413797359644997
-0.9237983401621747   -0.000965520811270576   -0.010413797359644997
-0.9237983401621747   -0.000965520811270576   -0.010413797359644997
-0.9237983401621747   -0.000965520811270576   -0.010413797359644997
-1.08132329402131   -0.003057915739389905   0.01252682944609916
-1.08132329402131   -0.003057915739389905   0.01252682944609916
-1.08132329402131   -0.003057915739389905   0.01252682944609916
-1.08132329402131   -0.003057915739389905   0.01252682944609916
0.7354330272332552   0.040980704695255055   -0.03484352782936618
0.7354330272332552   0.040980704695255055   -0.03484352782936618
0.7354330272332552   0.040980704695255055   -0.03484352782936618
0.7354330272332552   0.040980704695255055   -0.03484352782936618
0.3494552143452646   0.006759845883610338   0.013225344443543938
0.3494552143452646   0.006759845883610338   0.013225344443543938
0.3494552143452646   0.006759845883610338   0.013225344443543938
0.3494552143452646   0.006759845883610338   0.013225344443543938
0.3107732780928504   -0.059404932551817655   -0.03312712265939577
0.3107732780928504   -0.059404932551817655   -0.03312712265939577
0.3107732780928504   -0.059404932551817655   -0.03312712265939577
0.3107732780928504   -0.059404932551817655   -0.03312712265939577
0.7196543992544104   0.06746285114750043   0.016362749236312844
0.7196543992544104   0.06746285114750043   0.016362749236312844
0.7196543992544104   0.06746285114750043   0.016362749236312844
0.7196543992544104   0.06746285114750043   0.016362749236312844
0.501517167404271   0.006772331698282688   -0.014836907852985498
0.501517167404271   0.006772331698282688   -0.014836907852985498
0.501517167404271   0.006772331698282688   -0.014836907852985498
0.501517167404271   0.006772331698282688   -0.014836907852985498
0.6999922932232344   0.018472757543105678   -0.03295768731516637
0.6999922932232344   0.018472757543105678   -0.03295768731516637
0.6999922932232344   0.018472757543105678   -0.03295768731516637
0.6999922932232344   0.018472757543105678   -0.03295768731516637
0.33004991845271175   -0.010800304618736545   0.014651451206826625
0.33004991845271175   -0.010800304618736545   0.014651451206826625
0.33004991845271175   -0.010800304618736545   0.014651451206826625
0.33004991845271175   -0.010800304618736545   0.014651451206826625
0.2927141053541858   -0.06520244647085165   -0.028271253118611207
0.2927141053541858   -0.06520244647085165   -0.028271253118611207
0.2927141053541858   -0.06520244647085165   -0.028271253118611207
0.2927141053541858   -0.06520244647085165   -0.028271253118611207
0.6915709907030666   0.05916802595221027   0.02155491506848723
0.6915709907030666   0.05916802595221027   0.02155491506848723
0.6915709907030666   0.05916802595221027   0.02155491506848723
0.6915709907030666   0.05916802595221027   0.02155491506848723
0.4854345689254192   -0.003302727345005377   -0.0207622775657789
0.4854345689254192   -0.003302727345005377   -0.0207622775657789
0.4854345689254192   -0.003302727345005377   -0.0207622775657789
0.4854345689254192   -0.003302727345005377   -0.0207622775657789
0.6723610734433769   0.011096557262634532   -0.0264232025403804
0.6723610734433769   0.011096557262634532   -0.0264232025403804
0.6723610734433769   0.011096557262634532   -0.0264232025403804
0.6723610734433769   0.011096557262634532   -0.0264232025403804
0.31143235277502046   -0.01762264762012898   0.017740185134837126
0.31143235277502046   -0.01762264762012898   0.017740185134837126
0.31143235277502046   -0.01762264762012898   0.017740185134837126
0.31143235277502046   -0.01762264762012898   0.017740185134837126
0.2764498189739877   -0.06870168523351493   -0.023548116841375026
0.2764498189739877   -0.06870168523351493   -0.023548116841375026
0.2764498189739877   -0.06870168523351493   -0.023548116841375026
0.2764498189739877   -0.06870168523351493   -0.023548116841375026
0.659891772302468   0.0502397257875241   0.02563524878123873
0.659891772302468   0.0502397257875241   0.02563524878123873
0.659891772302468   0.0502397257875241   0.02563524878123873
0.659891772302468   0.0502397257875241   0.02563524878123873
0.4533886726109776   -0.010890636623001507   -0.02957404439420528
0.4533886726109776   -0.010890636623001507   -0.02957404439420528
0.4533886726109776   -0.010890636623001507   -0.02957404439420528
0.4533886726109776   -0.010890636623001507   -0.02957404439420528
0.35539901968536536   0.0516876707151615   -0.0019834536874966217
0.35539901968536536   0.0516876707151615   -0.0019834536874966217
0.35539901968536536   0.0516876707151615   -0.0019834536874966217
0.35539901968536536   0.0516876707151615   -0.0019834536874966217
-0.023486767670238787   -0.005220868073212834   -0.0002527987846185296
-0.023486767670238787   -0.005220868073212834   -0.0002527987846185296
-0.023486767670238787   -0.005220868073212834   -0.0002527987846185296
-0.023486767670238787   -0.005220868073212834   -0.0002527987846185296
-0.050738231788285945   -0.04454306454420425   -0.02109935061859145
-0.050738231788285945   -0.04454306454420425   -0.02109935061859145
-0.050738231788285945   -0.04454306454420425   -0.02109935061859145
-0.050738231788285945   -0.04454306454420425   -0.02109935061859145
0.34625167743575014   0.061356061348636096   0.023503880154646238
0.34625167743575014   0.061356061348636096   0.023503880154646238
0.34625167743575014   0.061356061348636096   0.023503880154646238
0.34625167743575014   0.061356061348636096   0.023503880154646238
0.15443559672265303   0.015107361944127443   0.0011199719108205466
0.15443559672265303   0.015107361944127443   0.0011199719108205466
0.15443559672265303   0.015107361944127443   0.0011199719108205466
0.15443559672265303   0.015107361944127443   0.0011199719108205466
0.33699156210618475   0.037445531107920024   0.0011138337475429128
0.33699156210618475   0.037445531107920024   0.0011138337475429128
0.33699156210618475   0.037445531107920024   0.0011138337475429128
0.33699156210618475   0.037445531107920024   0.0011138337475429128
-0.04132089539244045   -0.020475313237198985   0.0019195800536307398
-0.04132089539244045   -0.020475313237198985   0.0019195800536307398
-0.04132089539244045   -0.020475313237198985   0.0019195800536307398
-0.04132089539244045   -0.020475313237198985   0.0019195800536307398
-0.06774601580198801   -0.05549542618667071   -0.017462769212500277
-0.06774601580198801   -0.05549542618667071   -0.017462769212500277
-0.06774601580198801   -0.05549542618667071   -0.017462769212500277
-0.06774601580198801   -0.05549542618667071   -0.017462769212500277
0.3261971504143239   0.048250472656940824   0.025691053054284603
0.3261971504143239   0.048250472656940824   0.025691053054284603
0.3261971504143239   0.048250472656940824   0.025691053054284603
0.3261971504143239   0.048250472656940824   0.025691053054284603
0.13345038034491977   0.002139813510105504   -0.005387583132227905
0.13345038034491977   0.002139813510105504   -0.005387583132227905
0.13345038034491977   0.002139813510105504   -0.005387583132227905
0.13345038034491977   0.002139813510105504   -0.005387583132227905
0.31724554675418715   0.02569345137431351   0.0034900560362305013
0.31724554675418715   0.02569345137431351   0.0034900560362305013
0.31724554675418715   0.02569345137431351   0.0034900560362305013
0.31724554675418715   0.02569345137431351   0.0034900560362305013
-0.058927388003911396   -0.033071380766100625   0.004206324357312692
-0.058927388003911396   -0.033071380766100625   0.004206324357312692
-0.058927388003911396   -0.033071380766100625   0.004206324357312692
-0.058927388003911396   -0.033071380766100625   0.004206324357312692
-0.08452785367633592   -0.06466631664087695   -0.01404665734199825
-0.08452785367633592   -0.06466631664087695   -0.01404665734199825
-0.08452785367633592   -0.06466631664087695   -0.01404665734199825
-0.08452785367633592   -0.06466631664087695   -0.01404665734199825
0.30768075033648307   0.03615871713869211   0.0277461375988938
0.30768075033648307   0.03615871713869211   0.0277461375988938
0.30768075033648307   0.03615871713869211   0.0277461375988938
0.30768075033648307   0.03615871713869211   0.0277461375988938
0.11739283422195418   -0.007655054301136079   -0.01079742247077815
0.11739283422195418   -0.007655054301136079   -0.01079742247077815
0.11739283422195418   -0.007655054301136079   -0.01079742247077815
0.11739283422195418   -0.007655054301136079   -0.01079742247077815
-0.008392828936696434   0.0614314032910957   0.008564623518786606
-0.008392828936696434   0.0614314032910957   0.008564623518786606
-0.008392828936696434   0.0614314032910957   0.008564623518786606
-0.008392828936696434   0.0614314032910957   0.008564623518786606
-0.38850425600912253   -0.017029867311599292   -0.012883924909178668
-0.38850425600912253   -0.017029867311599292   -0.012883924909178668
-0.38850425600912253   -0.017029867311599292   -0.012883924909178668
-0.38850425600912253   -0.017029867311599292   -0.012883924909178668
-0.4060643432445943   -0.03110277899742509   -0.010074475175448442
-0.4060643432445943   -0.03110277899742509   -0.010074475175448442
-0.4060643432445943   -0.03110277899742509   -0.010074475175448442
-0.4060643432445943   -0.03110277899742509   -0.010074475175448442
-0.025646703208695387   0.04954653334402048   0.010268694391136935
-0.025646703208695387   0.04954653334402048   0.010268694391136935
-0.025646703208695387   0.04954653334402048   0.010268694391136935
-0.025646703208695387   0.04954653334402048   0.010268694391136935
-0.20665995101152945   0.015808130257542477   0.004050155393872297
-0.20665995101152945   0.015808130257542477   0.004050155393872297
-0.20665995101152945   0.015808130257542477   0.004050155393872297
-0.20665995101152945   0.015808130257542477   0.004050155393872297
-0.02531346976419236   0.049465474771065984   0.012015920186606268
-0.02531346976419236   0.049465474771065984   0.012015920186606268
-0.02531346976419236   0.049465474771065984   0.012015920186606268
-0.02531346976419236   0.049465474771065984   0.012015920186606268
-0.40607073587738274   -0.03069487961276137   -0.010514337724054338
-0.40607073587738274   -0.03069487961276137   -0.010514337724054338
-0.40607073587738274   -0.03069487961276137   -0.010514337724054338
-0.40607073587738274   -0.03069487961276137   -0.010514337724054338
-0.4234863554400351   -0.04295505982929647   -0.006905108073336056
-0.4234863554400351   -0.04295505982929647   -0.006905108073336056
-0.4234863554400351   -0.04295505982929647   -0.006905108073336056
-0.4234863554400351   -0.04295505982929647   -0.006905108073336056
-0.04338120412314857   0.03605273503341422   0.012813127961611616
-0.04338120412314857   0.03605273503341422   0.012813127961611616
-0.04338120412314857   0.03605273503341422   0.012813127961611616
-0.04338120412314857   0.03605273503341422   0.012813127961611616
-0.22426145165981665   0.004100311899087071   -0.001223394946386883
-0.22426145165981665   0.004100311899087071   -0.001223394946386883
-0.22426145165981665   0.004100311899087071   -0.001223394946386883
-0.22426145165981665   0.004100311899087071   -0.001223394946386883
-0.04269502702605324   0.037536314303557576   0.014760434176945288
-0.04269502702605324   0.037536314303557576   0.014760434176945288
-0.04269502702605324   0.037536314303557576   0.014760434176945288
-0.04269502702605324   0.037536314303557576   0.014760434176945288
-0.4240793714832849   -0.04434547804559182   -0.008479770073282227
-0.4240793714832849   -0.04434547804559182   -0.008479770073282227
-0.4240793714832849   -0.04434547804559182   -0.008479770073282227
-0.4240793714832849   -0.04434547804559182   -0.008479770073282227
-0.44069875779022666   -0.05378024998558117   -0.003765287208829758
-0.44069875779022666   -0.05378024998558117   -0.003765287208829758
-0.44069875779022666   -0.05378024998558117   -0.003765287208829758
-0.44069875779022666   -0.05378024998558117   -0.003765287208829758
-0.06119118827665119   0.02300209379963749   0.014968259215912421
-0.06119118827665119   0.02300209379963749   0.014968259215912421
-0.06119118827665119   0.02300209379963749   0.014968259215912421
-0.06119118827665119   0.02300209379963749   0.014968259215912421
-0.24267258755428403   -0.007704172504454758   -0.00709882910906437
-0.24267258755428403   -0.007704172504454758   -0.00709882910906437
-0.24267258755428403   -0.007704172504454758   -0.00709882910906437
-0.24267258755428403   -0.007704172504454758   -0.00709882910906437
-0.3647430120044052   0.07040173410894045   0.018490693693862487
-0.3647430120044052   0.07040173410894045   0.018490693693862487
-0.3647430120044052   0.07040173410894045   0.018490693693862487
-0.3647430120044052   0.07040173410894045   0.018490693693862487
-0.7453749557975731   -0.02910730664259706   -0.02318626229401209
-0.7453749557975731   -0.02910730664259706   -0.02318626229401209
-0.7453749557975731   -0.02910730664259706   -0.02318626229401209
-0.7453749557975731   -0.02910730664259706   -0.02318626229401209
-0.7549627303165601   -0.019779728495671972   0.001935490547030523
-0.7549627303165601   -0.019779728495671972   0.001935490547030523
-0.7549627303165601   -0.019779728495671972   0.001935490547030523
-0.7549627303165601   -0.019779728495671972   0.001935490547030523
-0.3912893435354496   0.03561059443748062   -0.0029128500646281655
-0.3912893435354496   0.03561059443748062   -0.0029128500646281655
-0.3912893435354496   0.03561059443748062   -0.0029128500646281655
-0.3912893435354496   0.03561059443748062   -0.0029128500646281655
-0.5604182291616726   0.014983628213802003   0.006859729900527821
-0.5604182291616726   0.014983628213802003   0.006859729900527821
-0.5604182291616726   0.014983628213802003   0.006859729900527821
-0.5604182291616726   0.014983628213802003   0.006859729900527821
-0.3816962986670306   0.05884921122318376   0.021813757491761218
-0.3816962986670306   0.05884921122318376   0.021813757491761218
-0.3816962986670306   0.05884921122318376   0.021813757491761218
-0.3816962986670306   0.05884921122318376   0.021813757491761218
-0.7644721062772682   -0.04293467637366297   -0.022456441378527287
-0.7644721062772682   -0.04293467637366297   -0.022456441378527287
-0.7644721062772682   -0.04293467637366297   -0.022456441378527287
-0.7644721062772682   -0.04293467637366297   -0.022456441378527287
-0.7752531564760412   -0.03176340932282773   0.00311148223165705
-0.7752531564760412   -0.03176340932282773   0.00311148223165705
-0.7752531564760412   -0.03176340932282773   0.00311148223165705
-0.7752531564760412   -0.03176340932282773   0.00311148223165705
-0.40895808323309085   0.02311168700395079   -0.0003304938718532366
-0.40895808323309085   0.02311168700395079   -0.0003304938718532366
-0.40895808323309085   0.02311168700395079   -0.0003304938718532366
-0.40895808323309085   0.02311168700395079   -0.0003304938718532366
-0.5752677064675112   0.004559749420887493   0.001955662714650752
-0.5752677064675112   0.004559749420887493   0.001955662714650752
-0.5752677064675112   0.004559749420887493   0.001955662714650752
-0.5752677064675112   0.004559749420887493   0.001955662714650752
-0.3989616243237951   0.04785441516416844   0.024909072514406518
-0.3989616243237951   0.04785441516416844   0.024909072514406518
-0.3989616243237951   0.04785441516416844   0.024909072514406518
-0.3989616243237951   0.04785441516416844   0.024909072514406518
-0.7847372818786494   -0.05599380397636049   -0.02007875012785099
-0.7847372818786494   -0.05599380397636049   -0.02007875012785099
-0.7847372818786494   -0.05599380397636049   -0.02007875012785099
-0.7847372818786494   -0.05599380397636049   -0.02007875012785099
-0.7936473879784656   -0.044677554965171506   0.006873986246316563
-0.7936473879784656   -0.044677554965171506   0.006873986246316563
-0.7936473879784656   -0.044677554965171506   0.006873986246316563
-0.7936473879784656   -0.044677554965171506   0.006873986246316563
-0.42712346059490147   0.008792034223920234   0.0015389145582969076
-0.42712346059490147   0.008792034223920234   0.0015389145582969076
-0.42712346059490147   0.008792034223920234   0.0015389145582969076
-0.42712346059490147   0.008792034223920234   0.0015389145582969076
-0.5979791556432595   -0.008555745625310793   -0.00428752581770005
-0.5979791556432595   -0.008555745625310793   -0.00428752581770005
-0.5979791556432595   -0.008555745625310793   -0.00428752581770005
-0.5979791556432595   -0.008555745625310793   -0.00428752581770005
-0.7170684122879344   0.06314070729974533   0.0260984413118388
-0.7170684122879344   0.06314070729974533   0.0260984413118388
-0.7170684122879344   0.06314070729974533   0.0260984413118388
-0.7170684122879344   0.06314070729974533   0.0260984413118388
-1.0851655055078873   -0.0501237213072494   -0.02543390991454675
-1.0851655055078873   -0.0501237213072494   -0.02543390991454675
-1.0851655055078873   -0.0501237213072494   -0.02543390991454675
-1.0851655055078873   -0.0501237213072494   -0.02543390991454675
-1.0970980419306562   -0.011057727148575586   0.024026799090032684
-1.0970980419306562   -0.011057727148575586   0.024026799090032684
-1.0970980419306562   -0.011057727148575586   0.024026799090032684
-1.0970980419306562   -0.011057727148575586   0.024026799090032684
-0.7507360607605917   0.018105109824413185   -0.014815999993213605
-0.7507360607605917   0.018105109824413185   -0.014815999993213605
-0.7507360607605917   0.018105109824413185   -0.014815999993213605
-0.7507360607605917   0.018105109824413185   -0.014815999993213605
-0.8721216825347762   0.014114456116294194   0.021418405195646785
-0.8721216825347762   0.014114456116294194   0.021418405195646785
-0.8721216825347762   0.014114456116294194   0.021418405195646785
-0.8721216825347762   0.014114456116294194   0.021418405195646785
-0.7326400594712056   0.06315194398411447   0.030617172294012934
-0.7326400594712056   0.06315194398411447   0.030617172294012934
-0.7326400594712056   0.06315194398411447   0.030617172294012934
-0.7326400594712056   0.06315194398411447   0.030617172294012934
-1.1148938269040898   -0.05580434499231943   -0.020205507933378837
-1.1148938269040898   -0.05580434499231943   -0.020205507933378837
-1.1148938269040898   -0.05580434499231943   -0.020205507933378837
-1.1148938269040898   -0.05580434499231943   -0.020205507933378837
-1.1236727561805058   -0.01738465846191406   0.03004775248455294
-1.1236727561805058   -0.01738465846191406   0.03004775248455294
-1.1236727561805058   -0.01738465846191406   0.03004775248455294
-1.1236727561805058   -0.01738465846191406   0.03004775248455294
-0.7698092520378128   0.01125377529656757   -0.012686180196589854
-0.7698092520378128   0.01125377529656757   -0.012686180196589854
-0.7698092520378128   0.01125377529656757   -0.012686180196589854
-0.7698092520378128   0.01125377529656757   -0.012686180196589854
-0.9093739368216779   0.007063722441247783   0.01309819697197371
-0.9093739368216779   0.007063722441247783   0.01309819697197371
-0.9093739368216779   0.007063722441247783   0.01309819697197371
-0.9093739368216779   0.007063722441247783   0.01309819697197371
-0.7506143797552531   0.058438214690647056   0.03610374182212244
-0.7506143797552531   0.058438214690647056   0.03610374182212244
-0.7506143797552531   0.058438214690647056   0.03610374182212244
-0.7506143797552531   0.058438214690647056   0.03610374182212244
-1.1423664022570696   -0.06406787165000033   -0.016737264710172464
-1.1423664022570696   -0.06406787165000033   -0.016737264710172464
-1.1423664022570696   -0.06406787165000033   -0.016737264710172464
-1.1423664022570696   -0.06406787165000033   -0.016737264710172464
-1.1587500038210214   -0.03997852600451307   0.029472840332958463
-1.1587500038210214   -0.03997852600451307   0.029472840332958463
-1.1587500038210214   -0.03997852600451307   0.029472840332958463
-1.1587500038210214   -0.03997852600451307   0.029472840332958463
-0.7899622690139863   -0.007877489280681299   -0.011500484615782201
-0.7899622690139863   -0.007877489280681299   -0.011500484615782201
-0.7899622690139863   -0.007877489280681299   -0.011500484615782201
-0.7899622690139863   -0.007877489280681299   -0.011500484615782201
-0.918808775258882   -0.0017391542013649453   0.010352861126804912
-0.918808775258882   -0.0017391542013649453   0.010352861126804912
-0.918808775258882   -0.0017391542013649453   0.010352861126804912
-0.918808775258882   -0.0017391542013649453   0.010352861126804912
0.5068033667193015   0.028796252051731072   -0.033940777089862234
0.5068033667193015   0.028796252051731072   -0.033940777089862234
0.5068033667193015   0.028796252051731072   -0.033940777089862234
0.5068033667193015   0.028796252051731072   -0.033940777089862234
0.21646215769152982   0.013576690030729748   0.014513661468836763
0.21646215769152982   0.013576690030729748   0.014513661468836763
0.21646215769152982   0.013576690030729748   0.014513661468836763
0.21646215769152982   0.013576690030729748   0.014513661468836763
0.18151931403505814   -0.04977028823195466   -0.03166786244161034
0.18151931403505814   -0.04977028823195466   -0.03166786244161034
0.18151931403505814   -0.04977028823195466   -0.03166786244161034
0.18151931403505814   -0.04977028823195466   -0.03166786244161034
0.49505722576472166   0.05740000484537725   0.017640201225905885
0.49505722576472166   0.05740000484537725   0.017640201225905885
0.49505722576472166   0.05740000484537725   0.017640201225905885
0.49505722576472166   0.05740000484537725   0.017640201225905885
0.33143285607321266   0.007335069769512342   -0.009050603677551363
0.33143285607321266   0.007335069769512342   -0.009050603677551363
0.33143285607321266   0.007335069769512342   -0.009050603677551363
0.33143285607321266   0.007335069769512342   -0.009050603677551363
0.4755175753857369   0.009026106134813944   -0.03168415195845796
0.4755175753857369   0.009026106134813944   -0.03168415195845796
0.4755175753857369   0.009026106134813944   -0.03168415195845796
0.4755175753857369   0.009026106134813944   -0.03168415195845796
0.2006914283297231   -0.0017639256057090727   0.016186346405472805
0.2006914283297231   -0.0017639256057090727   0.016186346405472805
0.2006914283297231   -0.0017639256057090727   0.016186346405472805
0.2006914283297231   -0.0017639256057090727   0.016186346405472805
0.1666498451841728   -0.05552175694780489   -0.02697285391269474
0.1666498451841728   -0.05552175694780489   -0.02697285391269474
0.1666498451841728   -0.05552175694780489   -0.02697285391269474
0.1666498451841728   -0.05552175694780489   -0.02697285391269474
0.47058366491731984   0.04923610959839208   0.0227655171043719
0.47058366491731984   0.04923610959839208   0.0227655171043719
0.47058366491731984   0.04923610959839208   0.0227655171043719
0.47058366491731984   0.04923610959839208   0.0227655171043719
0.31612505182082745   -0.0021679147348617617   -0.014674326380679753
0.31612505182082745   -0.0021679147348617617   -0.014674326380679753
0.31612505182082745   -0.0021679147348617617   -0.014674326380679753
0.31612505182082745   -0.0021679147348617617   -0.014674326380679753
0.45135698674116986   0.0016565744254473797   -0.025788338603436226
0.45135698674116986   0.0016565744254473797   -0.025788338603436226
0.45135698674116986   0.0016565744254473797   -0.025788338603436226
0.45135698674116986   0.0016565744254473797   -0.025788338603436226
0.18533094801479139   -0.008487797120390904   0.01939870041298549
0.18533094801479139   -0.008487797120390904   0.01939870041298549
0.18533094801479139   -0.008487797120390904   0.01939870041298549
0.18533094801479139   -0.008487797120390904   0.01939870041298549
0.15336754192100688   -0.060689395361878964   -0.022486126584315588
0.15336754192100688   -0.060689395361878964   -0.022486126584315588
0.15336754192100688   -0.060689395361878964   -0.022486126584315588
0.15336754192100688   -0.060689395361878964   -0.022486126584315588
0.4419974139564373   0.03854245578206755   0.026008132518903167
0.4419974139564373   0.03854245578206755   0.026008132518903167
0.4419974139564373   0.03854245578206755   0.026008132518903167
0.4419974139564373   0.03854245578206755   0.026008132518903167
0.2900374542473491   -0.009942818608783682   -0.022428862292117494
0.2900374542473491   -0.009942818608783682   -0.022428862292117494
0.2900374542473491   -0.009942818608783682   -0.022428862292117494
0.2900374542473491   -0.009942818608783682   -0.022428862292117494
0.21802381310610938   0.041926277961224986   -0.006027649388764144
0.21802381310610938   0.041926277961224986   -0.006027649388764144
0.21802381310610938   0.041926277961224986   -0.006027649388764144
0.21802381310610938   0.041926277961224986   -0.006027649388764144
-0.06662637790002984   0.0034622671707827454   0.0019138583986705458
-0.06662637790002984   0.0034622671707827454   0.0019138583986705458
-0.06662637790002984   0.0034622671707827454   0.0019138583986705458
-0.06662637790002984   0.0034622671707827454   0.0019138583986705458
-0.09051588971919473   -0.03460533128044732   -0.01953551583585667
-0.09051588971919473   -0.03460533128044732   -0.01953551583585667
-0.09051588971919473   -0.03460533128044732   -0.01953551583585667
-0.09051588971919473   -0.03460533128044732   -0.01953551583585667
0.21208088116634696   0.05037301402102394   0.020996670961859056
0.21208088116634696   0.05037301402102394   0.020996670961859056
0.21208088116634696   0.05037301402102394   0.020996670961859056
0.21208088116634696   0.05037301402102394   0.020996670961859056
0.0667466953347227   0.014543306827761697   0.0025677394393777914
0.0667466953347227   0.014543306827761697   0.0025677394393777914
0.0667466953347227   0.014543306827761697   0.0025677394393777914
0.0667466953347227   0.014543306827761697   0.0025677394393777914
0.20262062637491024   0.027285631092235724   -0.0032172200665391594
0.20262062637491024   0.027285631092235724   -0.0032172200665391594
0.20262062637491024   0.027285631092235724   -0.0032172200665391594
0.20262062637491024   0.027285631092235724   -0.0032172200665391594
-0.08119833651841801   -0.011660649942320784   0.0041075688299004095
-0.08119833651841801   -0.011660649942320784   0.0041075688299004095
-0.08119833651841801   -0.011660649942320784   0.0041075688299004095
-0.08119833651841801   -0.011660649942320784   0.0041075688299004095
-0.10434247130714497   -0.04615999666102495   -0.01582167181407536
-0.10434247130714497   -0.04615999666102495   -0.01582167181407536
-0.10434247130714497   -0.04615999666102495   -0.01582167181407536
-0.10434247130714497   -0.04615999666102495   -0.01582167181407536
0.19511836694289877   0.03701956556990163   0.022828432363230157
0.19511836694289877   0.03701956556990163   0.022828432363230157
0.19511836694289877   0.03701956556990163   0.022828432363230157
0.19511836694289877   0.03701956556990163   0.022828432363230157
0.04967607475772409   0.0014486135361892662   -0.003722186197524777
0.04967607475772409   0.0014486135361892662   -0.003722186197524777
0.04967607475772409   0.0014486135361892662   -0.003722186197524777
0.04967607475772409   0.0014486135361892662   -0.003722186197524777
0.1859572626367132   0.014893983142499009   -0.0008515067402986029
0.1859572626367132   0.014893983142499009   -0.0008515067402986029
0.1859572626367132   0.014893983142499009   -0.0008515067402986029
0.1859572626367132   0.014893983142499009   -0.0008515067402986029
-0.09553909032729482   -0.02439213755996055   0.006427373984112872
-0.09553909032729482   -0.02439213755996055   0.006427373984112872
-0.09553909032729482   -0.02439213755996055   0.006427373984112872
-0.09553909032729482   -0.02439213755996055   0.006427373984112872
-0.11798262125579491   -0.05700132700782397   -0.012390711541408576
-0.11798262125579491   -0.05700132700782397   -0.012390711541408576
-0.11798262125579491   -0.05700132700782397   -0.012390711541408576
-0.11798262125579491   -0.05700132700782397   -0.012390711541408576
0.1798114211287095   0.02420959969372938   0.024834274398593165
0.1798114211287095   0.02420959969372938   0.024834274398593165
0.1798114211287095   0.02420959969372938   0.024834274398593165
0.1798114211287095   0.02420959969372938   0.024834274398593165
0.036000668511710514   -0.009391909200453984   -0.009269273981459034
0.036000668511710514   -0.009391909200453984   -0.009269273981459034
0.036000668511710514   -0.009391909200453984   -0.009269273981459034
0.036000668511710514   -0.009391909200453984   -0.009269273981459034
-0.05613053189432081   0.05299394467732556   0.004861410920672866
-0.05613053189432081   0.05299394467732556   0.004861410920672866
-0.05613053189432081   0.05299394467732556   0.004861410920672866
-0.05613053189432081   0.05299394467732556   0.004861410920672866
-0.34548632662477213   -0.008887089157234324   -0.010522549501251918
-0.34548632662477213   -0.008887089157234324   -0.010522549501251918
-0.34548632662477213   -0.008887089157234324   -0.010522549501251918
-0.34548632662477213   -0.008887089157234324   -0.010522549501251918
-0.3591400105414643   -0.020757174449408562   -0.007756537243208716
-0.3591400105414643   -0.020757174449408562   -0.007756537243208716
-0.3591400105414643   -0.020757174449408562   -0.007756537243208716
-0.3591400105414643   -0.020757174449408562   -0.007756537243208716
-0.07037722996145174   0.038401014266816275   0.008151437405592807
-0.07037722996145174   0.038401014266816275   0.008151437405592807
-0.07037722996145174   0.038401014266816275   0.008151437405592807
-0.07037722996145174   0.038401014266816275   0.008151437405592807
-0.207274865913832   0.01519009311704874   0.004112680263273778
-0.207274865913832   0.01519009311704874   0.004112680263273778
-0.207274865913832   0.01519009311704874   0.004112680263273778
-0.207274865913832   0.01519009311704874   0.004112680263273778
-0.06995831230462436   0.04029990053159524   0.008347139424952663
-0.06995831230462436   0.04029990053159524   0.008347139424952663
-0.06995831230462436   0.04029990053159524   0.008347139424952663
-0.06995831230462436   0.04029990053159524   0.008347139424952663
-0.35960137003250475   -0.022698502548396712   -0.008122006599419092
-0.35960137003250475   -0.022698502548396712   -0.008122006599419092
-0.35960137003250475   -0.022698502548396712   -0.008122006599419092
-0.35960137003250475   -0.022698502548396712   -0.008122006599419092
-0.37311156159874764   -0.03334652858664886   -0.004452832663104643
-0.37311156159874764   -0.03334652858664886   -0.004452832663104643
-0.37311156159874764   -0.03334652858664886   -0.004452832663104643
-0.37311156159874764   -0.03334652858664886   -0.004452832663104643
-0.08488755865602991   0.024659200324693882   0.010633694455780926
-0.08488755865602991   0.024659200324693882   0.010633694455780926
-0.08488755865602991   0.024659200324693882   0.010633694455780926
-0.08488755865602991   0.024659200324693882   0.010633694455780926
-0.22163823875680774   0.002923117482877123   -0.0012897847337386536
-0.22163823875680774   0.002923117482877123   -0.0012897847337386536
-0.22163823875680774   0.002923117482877123   -0.0012897847337386536
-0.22163823875680774   0.002923117482877123   -0.0012897847337386536
-0.08417003390874081   0.02759037265612946   0.011290145860792892
-0.08417003390874081   0.02759037265612946   0.011290145860792892
-0.08417003390874081   0.02759037265612946   0.011290145860792892
-0.08417003390874081   0.02759037265612946   0.011290145860792892
-0.3740572469595262   -0.036505861531569914   -0.006021926522072455
-0.3740572469595262   -0.036505861531569914   -0.006021926522072455
-0.3740572469595262   -0.036505861531569914   -0.006021926522072455
-0.3740572469595262   -0.036505861531569914   -0.006021926522072455
-0.3868434215756253   -0.045369480833193976   -0.0012373806492707844
-0.3868434215756253   -0.045369480833193976   -0.0012373806492707844
-0.3868434215756253   -0.045369480833193976   -0.0012373806492707844
-0.3868434215756253   -0.045369480833193976   -0.0012373806492707844
-0.09927875698265765   0.011307845542851698   0.01281943727360264
-0.09927875698265765   0.011307845542851698   0.01281943727360264
-0.09927875698265765   0.011307845542851698   0.01281943727360264
-0.09927875698265765   0.011307845542851698   0.01281943727360264
-0.23659709490971884   -0.009355962037958944   -0.007148060972768497
-0.23659709490971884   -0.009355962037958944   -0.007148060972768497
-0.23659709490971884   -0.009355962037958944   -0.007148060972768497
-0.23659709490971884   -0.009355962037958944   -0.007148060972768497
-0.32599715523378153   0.06251062465688098   0.015525593639585708
-0.32599715523378153   0.06251062465688098   0.015525593639585708
-0.32599715523378153   0.06251062465688098   0.015525593639585708
-0.32599715523378153   0.06251062465688098   0.015525593639585708
-0.6195728720583542   -0.021191770576749036   -0.02136569682088646
-0.6195728720583542   -0.021191770576749036   -0.02136569682088646
-0.6195728720583542   -0.021191770576749036   -0.02136569682088646
-0.6195728720583542   -0.021191770576749036   -0.02136569682088646
-0.6246920398650849   -0.009513560803458082   0.004869070060313629
-0.6246920398650849   -0.009513560803458082   0.004869070060313629
-0.6246920398650849   -0.009513560803458082   0.004869070060313629
-0.6246920398650849   -0.009513560803458082   0.004869070060313629
-0.34932998038261964   0.02504191793581538   -0.004505478834211596
-0.34932998038261964   0.02504191793581538   -0.004505478834211596
-0.34932998038261964   0.02504191793581538   -0.004505478834211596
-0.34932998038261964   0.02504191793581538   -0.004505478834211596
-0.47703671790616975   0.014345946190517864   0.005960983674475093
-0.47703671790616975   0.014345946190517864   0.005960983674475093
-0.47703671790616975   0.014345946190517864   0.005960983674475093
-0.47703671790616975   0.014345946190517864   0.005960983674475093
-0.3395720150778615   0.05033490272249838   0.01899136290290216
-0.3395720150778615   0.05033490272249838   0.01899136290290216
-0.3395720150778615   0.05033490272249838   0.01899136290290216
-0.3395720150778615   0.05033490272249838   0.01899136290290216
-0.6348818053600509   -0.03523834578034836   -0.020354972437629727
-0.6348818053600509   -0.03523834578034836   -0.020354972437629727
-0.6348818053600509   -0.03523834578034836   -0.020354972437629727
-0.6348818053600509   -0.03523834578034836   -0.020354972437629727
-0.6411681152470563   -0.02198537729585627   0.006394216643076829
-0.6411681152470563   -0.02198537729585627   0.006394216643076829
-0.6411681152470563   -0.02198537729585627   0.006394216643076829
-0.6411681152470563   -0.02198537729585627   0.006394216643076829
-0.36345235896985423   0.01237429647660171   -0.0018776445818894302
-0.36345235896985423   0.01237429647660171   -0.0018776445818894302
-0.36345235896985423   0.01237429647660171   -0.0018776445818894302
-0.36345235896985423   0.01237429647660171   -0.0018776445818894302
-0.4891030626494681   0.0032372607609708476   0.0005487372975327039
-0.4891030626494681   0.0032372607609708476   0.0005487372975327039
-0.4891030626494681   0.0032372607609708476   0.0005487372975327039
-0.4891030626494681   0.0032372607609708476   0.0005487372975327039
-0.353342265316044   0.03875864449540341   0.02228847566836504
-0.353342265316044   0.03875864449540341   0.02228847566836504
-0.353342265316044   0.03875864449540341   0.02228847566836504
-0.353342265316044   0.03875864449540341   0.02228847566836504
-0.6513187888799712   -0.048410305293763556   -0.017934223523598768
-0.6513187888799712   -0.048410305293763556   -0.017934223523598768
-0.6513187888799712   -0.048410305293763556   -0.017934223523598768
-0.6513187888799712   -0.048410305293763556   -0.017934223523598768
-0.6558277241029239   -0.03528772598419187   0.00984437702572807
-0.6558277241029239   -0.03528772598419187   0.00984437702572807
-0.6558277241029239   -0.03528772598419187   0.00984437702572807
-0.6558277241029239   -0.03528772598419187   0.00984437702572807
-0.377823699326687   -0.0016951712904881011   0.0001869210527117096
-0.377823699326687   -0.0016951712904881011   0.0001869210527117096
-0.377823699326687   -0.0016951712904881011   0.0001869210527117096
-0.377823699326687   -0.0016951712904881011   0.0001869210527117096
-0.5072872944618442   -0.00969129560768095   -0.005746864301062551
-0.5072872944618442   -0.00969129560768095   -0.005746864301062551
-0.5072872944618442   -0.00969129560768095   -0.005746864301062551
-0.5072872944618442   -0.00969129560768095   -0.005746864301062551
-0.5945942117622358   0.05795373853448452   0.02438209554847186
-0.5945942117622358   0.05795373853448452   0.02438209554847186
-0.5945942117622358   0.05795373853448452   0.02438209554847186
-0.5945942117622358   0.05795373853448452   0.02438209554847186
-0.87780271108425   -0.040485245420907034   -0.02762938402964383
-0.87780271108425   -0.040485245420907034   -0.02762938402964383
-0.87780271108425   -0.040485245420907034   -0.02762938402964383
-0.87780271108425   -0.040485245420907034   -0.02762938402964383
-0.8861786743215008   -0.0011901799711351302   0.024150164589953765
-0.8861786743215008   -0.0011901799711351302   0.024150164589953765
-0.8861786743215008   -0.0011901799711351302   0.024150164589953765
-0.8861786743215008   -0.0011901799711351302   0.024150164589953765
-0.6253357795306258   0.008680612607610216   -0.016543801678469097
-0.6253357795306258   0.008680612607610216   -0.016543801678469097
-0.6253357795306258   0.008680612607610216   -0.016543801678469097
-0.6253357795306258   0.008680612607610216   -0.016543801678469097
-0.7131264021580463   0.013360513580217559   0.0181092191997024
-0.7131264021580463   0.013360513580217559   0.0181092191997024
-0.7131264021580463   0.013360513580217559   0.0181092191997024
-0.7131264021580463   0.013360513580217559   0.0181092191997024
-0.6068922582608298   0.05558996148219844   0.02876445579593293
-0.6068922582608298   0.05558996148219844   0.02876445579593293
-0.6068922582608298   0.05558996148219844   0.02876445579593293
-0.6068922582608298   0.05558996148219844   0.02876445579593293
-0.9049926322530661   -0.04846996550749444   -0.022639839531521495
-0.9049926322530661   -0.04846996550749444   -0.022639839531521495
-0.9049926322530661   -0.04846996550749444   -0.022639839531521495
-0.9049926322530661   -0.04846996550749444   -0.022639839531521495
-0.909474306703754   -0.00805640268361682   0.030427984568429385
-0.909474306703754   -0.00805640268361682   0.030427984568429385
-0.909474306703754   -0.00805640268361682   0.030427984568429385
-0.909474306703754   -0.00805640268361682   0.030427984568429385
-0.6405204071564037   0.0017353362010848195   -0.014087956400613694
-0.6405204071564037   0.0017353362010848195   -0.014087956400613694
-0.6405204071564037   0.0017353362010848195   -0.014087956400613694
-0.6405204071564037   0.0017353362010848195   -0.014087956400613694
-0.7446468782113599   0.005478183945020171   0.009561872070817747
-0.7446468782113599   0.005478183945020171   0.009561872070817747
-0.7446468782113599   0.005478183945020171   0.009561872070817747
-0.7446468782113599   0.005478183945020171   0.009561872070817747
-0.6212164454664985   0.05028584191679175   0.033881346333209564
-0.6212164454664985   0.05028584191679175   0.033881346333209564
-0.6212164454664985   0.05028584191679175   0.033881346333209564
-0.6212164454664985   0.05028584191679175   0.033881346333209564
-0.9290450299303649   -0.0568736699360243   -0.01860836431222882
-0.9290450299303649   -0.0568736699360243   -0.01860836431222882
-0.9290450299303649   -0.0568736699360243   -0.01860836431222882
-0.9290450299303649   -0.0568736699360243   -0.01860836431222882
-0.9406383702826692   -0.029612738967006252   0.03049936822130675
-0.9406383702826692   -0.029612738967006252   0.03049936822130675
-0.9406383702826692   -0.029612738967006252   0.03049936822130675
-0.9406383702826692   -0.029612738967006252   0.03049936822130675
-0.6564176098341984   -0.015934042465963555   -0.012458735148884424
-0.6564176098341984   -0.015934042465963555   -0.012458735148884424
-0.6564176098341984   -0.015934042465963555   -0.012458735148884424
-0.6564176098341984   -0.015934042465963555   -0.012458735148884424
-0.753422146251561   -0.0035419448915872676   0.005522621929379384
-0.753422146251561   -0.0035419448915872676   0.005522621929379384
-0.753422146251561   -0.0035419448915872676   0.005522621929379384
-0.753422146251561   -0.0035419448915872676   0.005522621929379384
0.28083235719170113   0.01688650306817053   -0.03330747284413956
0.28083235719170113   0.01688650306817053   -0.03330747284413956
0.28083235719170113   0.01688650306817053   -0.03330747284413956
0.28083235719170113   0.01688650306817053   -0.03330747284413956
0.0822645121433395   0.019918930916902517   0.0158822051466599
0.0822645121433395   0.019918930916902517   0.0158822051466599
0.0822645121433395   0.019918930916902517   0.0158822051466599
0.0822645121433395   0.019918930916902517   0.0158822051466599
0.05128983349778779   -0.040759106383752325   -0.02938796265280818
0.05128983349778779   -0.040759106383752325   -0.02938796265280818
0.05128983349778779   -0.040759106383752325   -0.02938796265280818
0.05128983349778779   -0.040759106383752325   -0.02938796265280818
0.2732307204681209   0.04751722438894887   0.019107007564380843
0.2732307204681209   0.04751722438894887   0.019107007564380843
0.2732307204681209   0.04751722438894887   0.019107007564380843
0.2732307204681209   0.04751722438894887   0.019107007564380843
0.16188953970523298   0.007937470786832015   -0.0037259028095514178
0.16188953970523298   0.007937470786832015   -0.0037259028095514178
0.16188953970523298   0.007937470786832015   -0.0037259028095514178
0.16188953970523298   0.007937470786832015   -0.0037259028095514178
0.2536904383217506   -0.0005140238700868313   -0.030563154908437924
0.2536904383217506   -0.0005140238700868313   -0.030563154908437924
0.2536904383217506   -0.0005140238700868313   -0.030563154908437924
0.2536904383217506   -0.0005140238700868313   -0.030563154908437924
0.07022065732065938   0.006662683551783314   0.017844366526014593
0.07022065732065938   0.006662683551783314   0.017844366526014593
0.07022065732065938   0.006662683551783314   0.017844366526014593
0.07022065732065938   0.006662683551783314   0.017844366526014593
0.03960365188493706   -0.04650904289732661   -0.024980232341808045
0.03960365188493706   -0.04650904289732661   -0.024980232341808045
0.03960365188493706   -0.04650904289732661   -0.024980232341808045
0.03960365188493706   -0.04650904289732661   -0.024980232341808045
0.2522228447405554   0.03958565478593084   0.02457459011806143
0.2522228447405554   0.03958565478593084   0.02457459011806143
0.2522228447405554   0.03958565478593084   0.02457459011806143
0.2522228447405554   0.03958565478593084   0.02457459011806143
0.1472822527949983   -0.0010559167271889207   -0.009543062676700612
0.1472822527949983   -0.0010559167271889207   -0.009543062676700612
0.1472822527949983   -0.0010559167271889207   -0.009543062676700612
0.1472822527949983   -0.0010559167271889207   -0.009543062676700612
0.23278600411230083   -0.007901098025787555   -0.025122860211495436
0.23278600411230083   -0.007901098025787555   -0.025122860211495436
0.23278600411230083   -0.007901098025787555   -0.025122860211495436
0.23278600411230083   -0.007901098025787555   -0.025122860211495436
0.05822192109715298   0.00015913849835605398   0.021442932323589903
0.05822192109715298   0.00015913849835605398   0.021442932323589903
0.05822192109715298   0.00015913849835605398   0.021442932323589903
0.05822192109715298   0.00015913849835605398   0.021442932323589903
0.029160598407053352   -0.05338968317550692   -0.020815746719585224
0.029160598407053352   -0.05338968317550692   -0.020815746719585224
0.029160598407053352   -0.05338968317550692   -0.020815746719585224
0.029160598407053352   -0.05338968317550692   -0.020815746719585224
0.22619288824124412   0.026934562028262003   0.02730760368021515
0.22619288824124412   0.026934562028262003   0.02730760368021515
0.22619288824124412   0.026934562028262003   0.02730760368021515
0.22619288824124412   0.026934562028262003   0.02730760368021515
0.1269454825201145   -0.00904159902936958   -0.016680981740985555
0.1269454825201145   -0.00904159902936958   -0.016680981740985555
0.1269454825201145   -0.00904159902936958   -0.016680981740985555
0.1269454825201145   -0.00904159902936958   -0.016680981740985555
0.07925772297720662   0.030341461427559065   -0.009574271194661992
0.07925772297720662   0.030341461427559065   -0.009574271194661992
0.07925772297720662   0.030341461427559065   -0.009574271194661992
0.07925772297720662   0.030341461427559065   -0.009574271194661992
-0.11249160787587767   0.009616830931158369   0.003815756144322816
-0.11249160787587767   0.009616830931158369   0.003815756144322816
-0.11249160787587767   0.009616830931158369   0.003815756144322816
-0.11249160787587767   0.009616830931158369   0.003815756144322816
-0.13245069565477743   -0.026168049221729002   -0.017177068430781255
-0.13245069565477743   -0.026168049221729002   -0.017177068430781255
-0.13245069565477743   -0.026168049221729002   -0.017177068430781255
-0.13245069565477743   -0.026168049221729002   -0.017177068430781255
0.07650098258017804   0.03763580277062017   0.018272873604771124
0.07650098258017804   0.03763580277062017   0.018272873604771124
0.07650098258017804   0.03763580277062017   0.018272873604771124
0.07650098258017804   0.03763580277062017   0.018272873604771124
-0.022972177951745554   0.012310713173596659   0.003162787534946948
-0.022972177951745554   0.012310713173596659   0.003162787534946948
-0.022972177951745554   0.012310713173596659   0.003162787534946948
-0.022972177951745554   0.012310713173596659   0.003162787534946948
0.06706537185457011   0.01576391876313965   -0.007033296015788167
0.06706537185457011   0.01576391876313965   -0.007033296015788167
0.06706537185457011   0.01576391876313965   -0.007033296015788167
0.06706537185457011   0.01576391876313965   -0.007033296015788167
-0.12353746714021492   -0.004818547425293508   0.006039572345595712
-0.12353746714021492   -0.004818547425293508   0.006039572345595712
-0.12353746714021492   -0.004818547425293508   0.006039572345595712
-0.12353746714021492   -0.004818547425293508   0.006039572345595712
-0.14290251460848424   -0.037844296430157034   -0.013469996085680131
-0.14290251460848424   -0.037844296430157034   -0.013469996085680131
-0.14290251460848424   -0.037844296430157034   -0.013469996085680131
-0.14290251460848424   -0.037844296430157034   -0.013469996085680131
0.06278848860726743   0.02450792691628232   0.019926981456235993
0.06278848860726743   0.02450792691628232   0.019926981456235993
0.06278848860726743   0.02450792691628232   0.019926981456235993
0.06278848860726743   0.02450792691628232   0.019926981456235993
-0.035898756816685834   -0.0003076100244615125   -0.002886480857534762
-0.035898756816685834   -0.0003076100244615125   -0.002886480857534762
-0.035898756816685834   -0.0003076100244615125   -0.002886480857534762
-0.035898756816685834   -0.0003076100244615125   -0.002886480857534762
0.05362952879828828   0.003236777778215361   -0.004596668450593875
0.05362952879828828   0.003236777778215361   -0.004596668450593875
0.05362952879828828   0.003236777778215361   -0.004596668450593875
0.05362952879828828   0.003236777778215361   -0.004596668450593875
-0.13442008875222644   -0.017249681244811084   0.00834751801026283
-0.13442008875222644   -0.017249681244811084   0.00834751801026283
-0.13442008875222644   -0.017249681244811084   0.00834751801026283
-0.13442008875222644   -0.017249681244811084   0.00834751801026283
-0.15327291620374436   -0.049398245196163565   -0.010120612718417719
-0.15327291620374436   -0.049398245196163565   -0.010120612718417719
-0.15327291620374436   -0.049398245196163565   -0.010120612718417719
-0.15327291620374436   -0.049398245196163565   -0.010120612718417719
0.05078183575087764   0.01164805772447185   0.022252699099557998
0.05078183575087764   0.01164805772447185   0.022252699099557998
0.05078183575087764   0.01164805772447185   0.022252699099557998
0.05078183575087764   0.01164805772447185   0.022252699099557998
-0.04706172746901963   -0.011572902518410606   -0.00858989460169061
-0.04706172746901963   -0.011572902518410606   -0.00858989460169061
-0.04706172746901963   -0.011572902518410606   -0.00858989460169061
-0.04706172746901963   -0.011572902518410606   -0.00858989460169061
-0.10662531515316791   0.04128536097928638   0.001478689709743592
-0.10662531515316791   0.04128536097928638   0.001478689709743592
-0.10662531515316791   0.04128536097928638   0.001478689709743592
-0.10662531515316791   0.04128536097928638   0.001478689709743592
-0.3045875615869035   -0.003785666805552673   -0.008409347331526092
-0.3045875615869035   -0.003785666805552673   -0.008409347331526092
-0.3045875615869035   -0.003785666805552673   -0.008409347331526092
-0.3045875615869035   -0.003785666805552673   -0.008409347331526092
-0.31401197719965573   -0.012964869811353572   -0.0050432357470524165
-0.31401197719965573   -0.012964869811353572   -0.0050432357470524165
-0.31401197719965573   -0.012964869811353572   -0.0050432357470524165
-0.31401197719965573   -0.012964869811353572   -0.0050432357470524165
-0.11766141701604758   0.02478570617590022   0.005815569365237226
-0.11766141701604758   0.02478570617590022   0.005815569365237226
-0.11766141701604758   0.02478570617590022   0.005815569365237226
-0.11766141701604758   0.02478570617590022   0.005815569365237226
-0.21021761105699524   0.01206257343668228   0.0032673797026729883
-0.21021761105699524   0.01206257343668228   0.0032673797026729883
-0.21021761105699524   0.01206257343668228   0.0032673797026729883
-0.21021761105699524   0.01206257343668228   0.0032673797026729883
-0.11711143044362914   0.028411773641589134   0.004939434761640129
-0.11711143044362914   0.028411773641589134   0.004939434761640129
-0.11711143044362914   0.028411773641589134   0.004939434761640129
-0.11711143044362914   0.028411773641589134   0.004939434761640129
-0.3150204861648866   -0.01704945966985591   -0.006001190714704389
-0.3150204861648866   -0.01704945966985591   -0.006001190714704389
-0.3150204861648866   -0.01704945966985591   -0.006001190714704389
-0.3150204861648866   -0.01704945966985591   -0.006001190714704389
-0.324420477918179   -0.02571182078361149   -0.0016884918235968594
-0.324420477918179   -0.02571182078361149   -0.0016884918235968594
-0.324420477918179   -0.02571182078361149   -0.0016884918235968594
-0.324420477918179   -0.02571182078361149   -0.0016884918235968594
-0.12869206694863158   0.01147131992870988   0.008266625854712974
-0.12869206694863158   0.01147131992870988   0.008266625854712974
-0.12869206694863158   0.01147131992870988   0.008266625854712974
-0.12869206694863158   0.01147131992870988   0.008266625854712974
-0.22107467454633062   -5.0211620013271285e-05   -0.0021519303135951844
-0.22107467454633062   -5.0211620013271285e-05   -0.0021519303135951844
-0.22107467454633062   -5.0211620013271285e-05   -0.0021519303135951844
-0.22107467454633062   -5.0211620013271285e-05   -0.0021519303135951844
-0.12795417547082158   0.01550384892089706   0.007923554251578918
-0.12795417547082158   0.01550384892089706   0.007923554251578918
-0.12795417547082158   0.01550384892089706   0.007923554251578918
-0.12795417547082158   0.01550384892089706   0.007923554251578918
-0.32580976466433365   -0.0303957450441412   -0.00395100129384039
-0.32580976466433365   -0.0303957450441412   -0.00395100129384039
-0.32580976466433365   -0.0303957450441412   -0.00395100129384039
-0.32580976466433365   -0.0303957450441412   -0.00395100129384039
-0.33462540363929466   -0.03801275870160278   0.0015630627079672643
-0.33462540363929466   -0.03801275870160278   0.0015630627079672643
-0.33462540363929466   -0.03801275870160278   0.0015630627079672643
-0.33462540363929466   -0.03801275870160278   0.0015630627079672643
-0.1395385033807678   -0.0013504709443449558   0.010503677144647689
-0.1395385033807678   -0.0013504709443449558   0.010503677144647689
-0.1395385033807678   -0.0013504709443449558   0.010503677144647689
-0.1395385033807678   -0.0013504709443449558   0.010503677144647689
-0.23250140339230452   -0.012189813378335128   -0.008037707917474305
-0.23250140339230452   -0.012189813378335128   -0.008037707917474305
-0.23250140339230452   -0.012189813378335128   -0.008037707917474305
-0.23250140339230452   -0.012189813378335128   -0.008037707917474305
-0.2892350439399165   0.05171870769224174   0.012848866405614494
-0.2892350439399165   0.05171870769224174   0.012848866405614494
-0.2892350439399165   0.05171870769224174   0.012848866405614494
-0.2892350439399165   0.05171870769224174   0.012848866405614494
-0.49263279240810764   -0.014832218687099163   -0.01912903946191523
-0.49263279240810764   -0.014832218687099163   -0.01912903946191523
-0.49263279240810764   -0.014832218687099163   -0.01912903946191523
-0.49263279240810764   -0.014832218687099163   -0.01912903946191523
-0.4935600875233706   -0.0013416300887440502   0.007806888183711544
-0.4935600875233706   -0.0013416300887440502   0.007806888183711544
-0.4935600875233706   -0.0013416300887440502   0.007806888183711544
-0.4935600875233706   -0.0013416300887440502   0.007806888183711544
-0.3090565057764465   0.012762711971637544   -0.005993460413996704
-0.3090565057764465   0.012762711971637544   -0.005993460413996704
-0.3090565057764465   0.012762711971637544   -0.005993460413996704
-0.3090565057764465   0.012762711971637544   -0.005993460413996704
-0.39408424385107976   0.012046280709844898   0.004280647230802979
-0.39408424385107976   0.012046280709844898   0.004280647230802979
-0.39408424385107976   0.012046280709844898   0.004280647230802979
-0.39408424385107976   0.012046280709844898   0.004280647230802979
-0.2993040129599871   0.03921212526264485   0.01631959037729263
-0.2993040129599871   0.03921212526264485   0.01631959037729263
-0.2993040129599871   0.03921212526264485   0.01631959037729263
-0.2993040129599871   0.03921212526264485   0.01631959037729263
-0.5041910127376588   -0.028669475777584885   -0.018019892198896555
-0.5041910127376588   -0.028669475777584885   -0.018019892198896555
-0.5041910127376588   -0.028669475777584885   -0.018019892198896555
-0.5041910127376588   -0.028669475777584885   -0.018019892198896555
-0.5063782120716214   -0.0139131897418215   0.009610777427761775
-0.5063782120716214   -0.0139131897418215   0.009610777427761775
-0.5063782120716214   -0.0139131897418215   0.009610777427761775
-0.5063782120716214   -0.0139131897418215   0.009610777427761775
-0.3195197069877787   0.0004955708250850011   -0.00339202878029465
-0.3195197069877787   0.0004955708250850011   -0.00339202878029465
-0.3195197069877787   0.0004955708250850011   -0.00339202878029465
-0.3195197069877787   0.0004955708250850011   -0.00339202878029465
-0.4032928744359092   0.0007679908744595981   -0.0013979151693329292
-0.4032928744359092   0.0007679908744595981   -0.0013979151693329292
-0.4032928744359092   0.0007679908744595981   -0.0013979151693329292
-0.4032928744359092   0.0007679908744595981   -0.0013979151693329292
-0.30950851922884826   0.027475407924223552   0.01968407291522179
-0.30950851922884826   0.027475407924223552   0.01968407291522179
-0.30950851922884826   0.027475407924223552   0.01968407291522179
-0.30950851922884826   0.027475407924223552   0.01968407291522179
-0.5169376561464889   -0.041441283156898545   -0.015658349531502146
-0.5169376561464889   -0.041441283156898545   -0.015658349531502146
-0.5169376561464889   -0.041441283156898545   -0.015658349531502146
-0.5169376561464889   -0.041441283156898545   -0.015658349531502146
-0.5174412670070995   -0.027032709015799225   0.013116800106568592
-0.5174412670070995   -0.027032709015799225   0.013116800106568592
-0.5174412670070995   -0.027032709015799225   0.013116800106568592
-0.5174412670070995   -0.027032709015799225   0.013116800106568592
-0.33011615490391366   -0.012641934986503255   -0.0012615173302288462
-0.33011615490391366   -0.012641934986503255   -0.0012615173302288462
-0.33011615490391366   -0.012641934986503255   -0.0012615173302288462
-0.33011615490391366   -0.012641934986503255   -0.0012615173302288462
-0.41704296883545744   -0.011551431348411773   -0.0075986798625030175
-0.41704296883545744   -0.011551431348411773   -0.0075986798625030175
-0.41704296883545744   -0.011551431348411773   -0.0075986798625030175
-0.41704296883545744   -0.011551431348411773   -0.0075986798625030175
-0.4711038216125612   0.05093094037091611   0.02275265545780538
-0.4711038216125612   0.05093094037091611   0.02275265545780538
-0.4711038216125612   0.05093094037091611   0.02275265545780538
-0.4711038216125612   0.05093094037091611   0.02275265545780538
-0.6638718339740245   -0.0306432998679136   -0.028907422940369448
-0.6638718339740245   -0.0306432998679136   -0.028907422940369448
-0.6638718339740245   -0.0306432998679136   -0.028907422940369448
-0.6638718339740245   -0.0306432998679136   -0.028907422940369448
-0.6686832972466347   0.008102269754696079   0.023912001772999764
-0.6686832972466347   0.008102269754696079   0.023912001772999764
-0.6686832972466347   0.008102269754696079   0.023912001772999764
-0.6686832972466347   0.008102269754696079   0.023912001772999764
-0.49864846516303274   -0.0013424165232264196   -0.017634213580125783
-0.49864846516303274   -0.0013424165232264196   -0.017634213580125783
-0.49864846516303274   -0.0013424165232264196   -0.017634213580125783
-0.49864846516303274   -0.0013424165232264196   -0.017634213580125783
-0.5508062158924026   0.012120700056314507   0.013409377601537213
-0.5508062158924026   0.012120700056314507   0.013409377601537213
-0.5508062158924026   0.012120700056314507   0.013409377601537213
-0.5508062158924026   0.012120700056314507   0.013409377601537213
-0.48019082498043686   0.046400565012721245   0.026911005796907167
-0.48019082498043686   0.046400565012721245   0.026911005796907167
-0.48019082498043686   0.046400565012721245   0.026911005796907167
-0.48019082498043686   0.046400565012721245   0.026911005796907167
-0.6880774710814745   -0.040577245433490644   -0.024379352213005127
-0.6880774710814745   -0.040577245433490644   -0.024379352213005127
-0.6880774710814745   -0.040577245433490644   -0.024379352213005127
-0.6880774710814745   -0.040577245433490644   -0.024379352213005127
-0.6886645952938129   0.0010292104646848488   0.030525603054764906
-0.6886645952938129   0.0010292104646848488   0.030525603054764906
-0.6886645952938129   0.0010292104646848488   0.030525603054764906
-0.6886645952938129   0.0010292104646848488   0.030525603054764906
-0.5101793518410203   -0.008187038580841605   -0.015121072580220319
-0.5101793518410203   -0.008187038580841605   -0.015121072580220319
-0.5101793518410203   -0.008187038580841605   -0.015121072580220319
-0.5101793518410203   -0.008187038580841605   -0.015121072580220319
-0.5764196355128937   0.0037665278014963055   0.004930098652437445
-0.5764196355128937   0.0037665278014963055   0.004930098652437445
-0.5764196355128937   0.0037665278014963055   0.004930098652437445
-0.5764196355128937   0.0037665278014963055   0.004930098652437445
-0.4909450872809992   0.040867194820082636   0.03199601681896482
-0.4909450872809992   0.040867194820082636   0.03199601681896482
-0.4909450872809992   0.040867194820082636   0.03199601681896482
-0.4909450872809992   0.040867194820082636   0.03199601681896482
-0.7087820078542931   -0.048908170936700704   -0.020124078346242986
-0.7087820078542931   -0.048908170936700704   -0.020124078346242986
-0.7087820078542931   -0.048908170936700704   -0.020124078346242986
-0.7087820078542931   -0.048908170936700704   -0.020124078346242986
-0.716281282461007   -0.019115839716436267   0.03149595122556058
-0.716281282461007   -0.019115839716436267   0.03149595122556058
-0.716281282461007   -0.019115839716436267   0.03149595122556058
-0.716281282461007   -0.019115839716436267   0.03149595122556058
-0.5220835224083009   -0.023939933135638858   -0.013187252779612649
-0.5220835224083009   -0.023939933135638858   -0.013187252779612649
-0.5220835224083009   -0.023939933135638858   -0.013187252779612649
-0.5220835224083009   -0.023939933135638858   -0.013187252779612649
-0.584658145604188   -0.0051419599576333075   -8.89673184668871e-05
-0.584658145604188   -0.0051419599576333075   -8.89673184668871e-05
-0.584658145604188   -0.0051419599576333075   -8.89673184668871e-05
-0.584658145604188   -0.0051419599576333075   -8.89673184668871e-05
0.054089769110413924   0.004440224754161458   -0.03333658263411808
0.054089769110413924   0.004440224754161458   -0.03333658263411808
0.054089769110413924   0.004440224754161458   -0.03333658263411808
0.054089769110413924   0.004440224754161458   -0.03333658263411808
-0.052228660840719664   0.02491148662344194   0.01699758691852753
-0.052228660840719664   0.02491148662344194   0.01699758691852753
-0.052228660840719664   0.02491148662344194   0.01699758691852753
-0.052228660840719664   0.02491148662344194   0.01699758691852753
-0.07940173294698431   -0.032205868560318145   -0.026876003766848993
-0.07940173294698431   -0.032205868560318145   -0.026876003766848993
-0.07940173294698431   -0.032205868560318145   -0.026876003766848993
-0.07940173294698431   -0.032205868560318145   -0.026876003766848993
0.04997329800220524   0.03563224257093695   0.020841752868364663
0.04997329800220524   0.03563224257093695   0.020841752868364663
0.04997329800220524   0.03563224257093695   0.020841752868364663
0.04997329800220524   0.03563224257093695   0.020841752868364663
-0.008175763147903775   0.007825144249326753   0.002876101470341213
-0.008175763147903775   0.007825144249326753   0.002876101470341213
-0.008175763147903775   0.007825144249326753   0.002876101470341213
-0.008175763147903775   0.007825144249326753   0.002876101470341213
0.030549045736830798   -0.010808304373084016   -0.02983896151448646
0.030549045736830798   -0.010808304373084016   -0.02983896151448646
0.030549045736830798   -0.010808304373084016   -0.02983896151448646
0.030549045736830798   -0.010808304373084016   -0.02983896151448646
-0.06111803523060496   0.013094123834706591   0.019242492420023072
-0.06111803523060496   0.013094123834706591   0.019242492420023072
-0.06111803523060496   0.013094123834706591   0.019242492420023072
-0.06111803523060496   0.013094123834706591   0.019242492420023072
-0.08837291168567638   -0.03801019929171519   -0.022808923843952278
-0.08837291168567638   -0.03801019929171519   -0.022808923843952278
-0.08837291168567638   -0.03801019929171519   -0.022808923843952278
-0.08837291168567638   -0.03801019929171519   -0.022808923843952278
0.03154665923445251   0.027760732450206195   0.028618229661063838
0.03154665923445251   0.027760732450206195   0.028618229661063838
0.03154665923445251   0.027760732450206195   0.028618229661063838
0.03154665923445251   0.027760732450206195   0.028618229661063838
-0.022655970452027146   -0.0008754588231998373   -0.003813058793179185
-0.022655970452027146   -0.0008754588231998373   -0.003813058793179185
-0.022655970452027146   -0.0008754588231998373   -0.003813058793179185
-0.022655970452027146   -0.0008754588231998373   -0.003813058793179185
0.011664374635921473   -0.018372874529069036   -0.02465958635231563
0.011664374635921473   -0.018372874529069036   -0.02465958635231563
0.011664374635921473   -0.018372874529069036   -0.02465958635231563
0.011664374635921473   -0.018372874529069036   -0.02465958635231563
-0.0700768585735301   0.006537176201174567   0.024123966223888314
-0.0700768585735301   0.006537176201174567   0.024123966223888314
-0.0700768585735301   0.006537176201174567   0.024123966223888314
-0.0700768585735301   0.006537176201174567   0.024123966223888314
-0.0965876433090021   -0.04686794444717673   -0.018924397146747658
-0.0965876433090021   -0.04686794444717673   -0.018924397146747658
-0.0965876433090021   -0.04686794444717673   -0.018924397146747658
-0.0965876433090021   -0.04686794444717673   -0.018924397146747658
0.005954277766618931   0.011303907687105798   0.032658553794275944
0.005954277766618931   0.011303907687105798   0.032658553794275944
0.005954277766618931   0.011303907687105798   0.032658553794275944
0.005954277766618931   0.011303907687105798   0.032658553794275944
-0.03834434678057843   -0.009608493981873995   -0.011552557766116672
-0.03834434678057843   -0.009608493981873995   -0.011552557766116672
-0.03834434678057843   -0.009608493981873995   -0.011552557766116672
-0.03834434678057843   -0.009608493981873995   -0.011552557766116672
-0.05990121788454822   0.016734179470937402   -0.013187891148110682
-0.05990121788454822   0.016734179470937402   -0.013187891148110682
-0.05990121788454822   0.016734179470937402   -0.013187891148110682
-0.05990121788454822   0.016734179470937402   -0.013187891148110682
-0.15916686444569395   0.006709054648226083   0.0044063809246501625
-0.15916686444569395   0.006709054648226083   0.0044063809246501625
-0.15916686444569395   0.006709054648226083   0.0044063809246501625
-0.15916686444569395   0.006709054648226083   0.0044063809246501625
-0.17321992311672482   -0.01876417469555556   -0.014006108029189314
-0.17321992311672482   -0.01876417469555556   -0.014006108029189314
-0.17321992311672482   -0.01876417469555556   -0.014006108029189314
-0.17321992311672482   -0.01876417469555556   -0.014006108029189314
-0.06164302842885915   0.016316028489372636   0.013395621774085778
-0.06164302842885915   0.016316028489372636   0.013395621774085778
-0.06164302842885915   0.016316028489372636   0.013395621774085778
-0.06164302842885915   0.016316028489372636   0.013395621774085778
-0.1132638755264487   0.004915917973162619   0.0026427551994037297
-0.1132638755264487   0.004915917973162619   0.0026427551994037297
-0.1132638755264487   0.004915917973162619   0.0026427551994037297
-0.1132638755264487   0.004915917973162619   0.0026427551994037297
-0.06922019556695741   0.002668462779026156   -0.010842648206060207
-0.06922019556695741   0.002668462779026156   -0.010842648206060207
-0.06922019556695741   0.002668462779026156   -0.010842648206060207
-0.06922019556695741   0.002668462779026156   -0.010842648206060207
-0.1665844685891839   -0.00605832159576461   0.006465311508724312
-0.1665844685891839   -0.00605832159576461   0.006465311508724312
-0.1665844685891839   -0.00605832159576461   0.006465311508724312
-0.1665844685891839   -0.00605832159576461   0.006465311508724312
-0.18021226018585818   -0.03014995259300504   -0.010361667297075232
-0.18021226018585818   -0.03014995259300504   -0.010361667297075232
-0.18021226018585818   -0.03014995259300504   -0.010361667297075232
-0.18021226018585818   -0.03014995259300504   -0.010361667297075232
-0.07244197768294507   0.0037305564294786465   0.015104990448509447
-0.07244197768294507   0.0037305564294786465   0.015104990448509447
-0.07244197768294507   0.0037305564294786465   0.015104990448509447
-0.07244197768294507   0.0037305564294786465   0.015104990448509447
-0.12209516942236917   -0.006530466910242838   -0.0031078632554663076
-0.12209516942236917   -0.006530466910242838   -0.0031078632554663076
-0.12209516942236917   -0.006530466910242838   -0.0031078632554663076
-0.12209516942236917   -0.006530466910242838   -0.0031078632554663076
-0.07975133192391726   -0.009606398622147934   -0.008104825704724941
-0.07975133192391726   -0.009606398622147934   -0.008104825704724941
-0.07975133192391726   -0.009606398622147934   -0.008104825704724941
-0.07975133192391726   -0.009606398622147934   -0.008104825704724941
-0.17391495335100646   -0.017825044947499875   0.008799959231678232
-0.17391495335100646   -0.017825044947499875   0.008799959231678232
-0.17391495335100646   -0.017825044947499875   0.008799959231678232
-0.17391495335100646   -0.017825044947499875   0.008799959231678232
-0.18725064626718307   -0.04183615619563036   -0.007135888482892357
-0.18725064626718307   -0.04183615619563036   -0.007135888482892357
-0.18725064626718307   -0.04183615619563036   -0.007135888482892357
-0.18725064626718307   -0.04183615619563036   -0.007135888482892357
-0.08147829187852017   -0.0089848573034751   0.01873927286196036
-0.08147829187852017   -0.0089848573034751   0.01873927286196036
-0.08147829187852017   -0.0089848573034751   0.01873927286196036
-0.08147829187852017   -0.0089848573034751   0.01873927286196036
-0.13089503649163173   -0.017814609948277015   -0.008946350607942015
-0.13089503649163173   -0.017814609948277015   -0.008946350607942015
-0.13089503649163173   -0.017814609948277015   -0.008946350607942015
-0.13089503649163173   -0.017814609948277015   -0.008946350607942015
-0.15620982770268796   0.027293227745980864   -0.0013926084580747206
-0.15620982770268796   0.027293227745980864   -0.0013926084580747206
-0.15620982770268796   0.027293227745980864   -0.0013926084580747206
-0.15620982770268796   0.027293227745980864   -0.0013926084580747206
-0.26500226793148995   -0.009155158214791306   -0.007534926982873865
-0.26500226793148995   -0.009155158214791306   -0.007534926982873865
-0.26500226793148995   -0.009155158214791306   -0.007534926982873865
-0.26500226793148995   -0.009155158214791306   -0.007534926982873865
-0.2678165251019539   -0.00673753192605582   -0.0016455130586366367
-0.2678165251019539   -0.00673753192605582   -0.0016455130586366367
-0.2678165251019539   -0.00673753192605582   -0.0016455130586366367
-0.2678165251019539   -0.00673753192605582   -0.0016455130586366367
-0.16589691411017932   0.001771835204895482   0.0020729271030869465
-0.16589691411017932   0.001771835204895482   0.0020729271030869465
-0.16589691411017932   0.001771835204895482   0.0020729271030869465
-0.16589691411017932   0.001771835204895482   0.0020729271030869465
-0.21327960464124351   0.0030767657449199334   0.0009423114269993833
-0.21327960464124351   0.0030767657449199334   0.0009423114269993833
-0.21327960464124351   0.0030767657449199334   0.0009423114269993833
-0.21327960464124351   0.0030767657449199334   0.0009423114269993833
-0.16327717092287336   0.014906780975324725   0.002036697269187586
-0.16327717092287336   0.014906780975324725   0.002036697269187586
-0.16327717092287336   0.014906780975324725   0.002036697269187586
-0.16327717092287336   0.014906780975324725   0.002036697269187586
-0.27134402882105196   -0.020780238228277494   -0.005240325351905259
-0.27134402882105196   -0.020780238228277494   -0.005240325351905259
-0.27134402882105196   -0.020780238228277494   -0.005240325351905259
-0.27134402882105196   -0.020780238228277494   -0.005240325351905259
-0.274377282400078   -0.01897039576882946   0.0017432628184626923
-0.274377282400078   -0.01897039576882946   0.0017432628184626923
-0.274377282400078   -0.01897039576882946   0.0017432628184626923
-0.274377282400078   -0.01897039576882946   0.0017432628184626923
-0.17330537043096167   -0.010258305479266198   0.004281134363668502
-0.17330537043096167   -0.010258305479266198   0.004281134363668502
-0.17330537043096167   -0.010258305479266198   0.004281134363668502
-0.17330537043096167   -0.010258305479266198   0.004281134363668502
-0.22038550493968934   -0.008049023075234557   -0.004337995353946168
-0.22038550493968934   -0.008049023075234557   -0.004337995353946168
-0.22038550493968934   -0.008049023075234557   -0.004337995353946168
-0.22038550493968934   -0.008049023075234557   -0.004337995353946168
-0.17061162907616811   0.0024436578866110503   0.00504787777175892
-0.17061162907616811   0.0024436578866110503   0.00504787777175892
-0.17061162907616811   0.0024436578866110503   0.00504787777175892
-0.17061162907616811   0.0024436578866110503   0.00504787777175892
-0.27816603433697984   -0.032767369716815625   -0.003403522918060453
-0.27816603433697984   -0.032767369716815625   -0.003403522918060453
-0.27816603433697984   -0.032767369716815625   -0.003403522918060453
-0.27816603433697984   -0.032767369716815625   -0.003403522918060453
-0.28076494796652246   -0.030696951124498387   0.004997720829650573
-0.28076494796652246   -0.030696951124498387   0.004997720829650573
-0.28076494796652246   -0.030696951124498387   0.004997720829650573
-0.28076494796652246   -0.030696951124498387   0.004997720829650573
-0.18042714986534317   -0.021597576323027126   0.0067430136537053095
-0.18042714986534317   -0.021597576323027126   0.0067430136537053095
-0.18042714986534317   -0.021597576323027126   0.0067430136537053095
-0.18042714986534317   -0.021597576323027126   0.0067430136537053095
-0.22803186578814635   -0.019239713395050373   -0.010076424635395393
-0.22803186578814635   -0.019239713395050373   -0.010076424635395393
-0.22803186578814635   -0.019239713395050373   -0.010076424635395393
-0.22803186578814635   -0.019239713395050373   -0.010076424635395393
-0.25163098820387714   0.039356010611843927   0.010810302828558634
-0.25163098820387714   0.039356010611843927   0.010810302828558634
-0.25163098820387714   0.039356010611843927   0.010810302828558634
-0.25163098820387714   0.039356010611843927   0.010810302828558634
-0.36679796802134573   -0.01529977191604806   -0.0168733992200408
-0.36679796802134573   -0.01529977191604806   -0.0168733992200408
-0.36679796802134573   -0.01529977191604806   -0.0168733992200408
-0.36679796802134573   -0.01529977191604806   -0.0168733992200408
-0.361944981612985   0.005602814764623057   0.011095529387453987
-0.361944981612985   0.005602814764623057   0.011095529387453987
-0.361944981612985   0.005602814764623057   0.011095529387453987
-0.361944981612985   0.005602814764623057   0.011095529387453987
-0.26866800547792835   -0.005169503346133114   -0.007470943518429897
-0.26866800547792835   -0.005169503346133114   -0.007470943518429897
-0.26866800547792835   -0.005169503346133114   -0.007470943518429897
-0.26866800547792835   -0.005169503346133114   -0.007470943518429897
-0.31115767872026817   0.0061577336917866266   0.0015470310756146716
-0.31115767872026817   0.0061577336917866266   0.0015470310756146716
-0.31115767872026817   0.0061577336917866266   0.0015470310756146716
-0.31115767872026817   0.0061577336917866266   0.0015470310756146716
-0.25788171132169146   0.02704547310726175   0.014245550809358153
-0.25788171132169146   0.02704547310726175   0.014245550809358153
-0.25788171132169146   0.02704547310726175   0.014245550809358153
-0.25788171132169146   0.02704547310726175   0.014245550809358153
-0.3740575234712675   -0.027938409390816453   -0.015925955748522805
-0.3740575234712675   -0.027938409390816453   -0.015925955748522805
-0.3740575234712675   -0.027938409390816453   -0.015925955748522805
-0.3740575234712675   -0.027938409390816453   -0.015925955748522805
-0.37072960646831726   -0.006444527575902109   0.013117378695308424
-0.37072960646831726   -0.006444527575902109   0.013117378695308424
-0.37072960646831726   -0.006444527575902109   0.013117378695308424
-0.37072960646831726   -0.006444527575902109   0.013117378695308424
-0.27517122733106125   -0.016122616830858742   -0.0050742407744234445
-0.27517122733106125   -0.016122616830858742   -0.0050742407744234445
-0.27517122733106125   -0.016122616830858742   -0.0050742407744234445
-0.27517122733106125   -0.016122616830858742   -0.0050742407744234445
-0.3171194758332685   -0.004560387239463809   -0.00417619839692069
-0.3171194758332685   -0.004560387239463809   -0.00417619839692069
-0.3171194758332685   -0.004560387239463809   -0.00417619839692069
-0.3171194758332685   -0.004560387239463809   -0.00417619839692069
-0.2642665012815181   0.01574164354240168   0.01758512910003145
-0.2642665012815181   0.01574164354240168   0.01758512910003145
-0.2642665012815181   0.01574164354240168   0.01758512910003145
-0.2642665012815181   0.01574164354240168   0.01758512910003145
-0.3826816471701459   -0.03935610260145177   -0.013731249788288678
-0.3826816471701459   -0.03935610260145177   -0.013731249788288678
-0.3826816471701459   -0.03935610260145177   -0.013731249788288678
-0.3826816471701459   -0.03935610260145177   -0.013731249788288678
-0.37786819126695   -0.018595082060317264   0.01672478366372207
-0.37786819126695   -0.018595082060317264   0.01672478366372207
-0.37786819126695   -0.018595082060317264   0.01672478366372207
-0.37786819126695   -0.018595082060317264   0.01672478366372207
-0.2817011123151517   -0.02735248955638605   -0.003027562481608931
-0.2817011123151517   -0.02735248955638605   -0.003027562481608931
-0.2817011123151517   -0.02735248955638605   -0.003027562481608931
-0.2817011123151517   -0.02735248955638605   -0.003027562481608931
-0.3261129880178187   -0.015516861660016514   -0.010051362092054704
-0.3261129880178187   -0.015516861660016514   -0.010051362092054704
-0.3261129880178187   -0.015516861660016514   -0.010051362092054704
-0.3261129880178187   -0.015516861660016514   -0.010051362092054704
-0.3475491169178945   0.04268078750635029   0.021390296874817215
-0.3475491169178945   0.04268078750635029   0.021390296874817215
-0.3475491169178945   0.04268078750635029   0.021390296874817215
-0.3475491169178945   0.04268078750635029   0.021390296874817215
-0.4485280791933802   -0.022530227978507927   -0.028102532516307722
-0.4485280791933802   -0.022530227978507927   -0.028102532516307722
-0.4485280791933802   -0.022530227978507927   -0.028102532516307722
-0.4485280791933802   -0.022530227978507927   -0.028102532516307722
-0.4489190003456271   0.016846541570894102   0.02358111207307117
-0.4489190003456271   0.016846541570894102   0.02358111207307117
-0.4489190003456271   0.016846541570894102   0.02358111207307117
-0.4489190003456271   0.016846541570894102   0.02358111207307117
-0.3712120582703365   -0.012450646873375812   -0.017186392261304587
-0.3712120582703365   -0.012450646873375812   -0.017186392261304587
-0.3712120582703365   -0.012450646873375812   -0.017186392261304587
-0.3712120582703365   -0.012450646873375812   -0.017186392261304587
-0.38766419651761747   0.010032309152867833   0.007590456163456938
-0.38766419651761747   0.010032309152867833   0.007590456163456938
-0.38766419651761747   0.010032309152867833   0.007590456163456938
-0.38766419651761747   0.010032309152867833   0.007590456163456938
-0.3529645214011228   0.036367786656213735   0.025232858555170434
-0.3529645214011228   0.036367786656213735   0.025232858555170434
-0.3529645214011228   0.036367786656213735   0.025232858555170434
-0.3529645214011228   0.036367786656213735   0.025232858555170434
-0.46854770843229016   -0.03335306317614638   -0.024362823613203705
-0.46854770843229016   -0.03335306317614638   -0.024362823613203705
-0.46854770843229016   -0.03335306317614638   -0.024362823613203705
-0.46854770843229016   -0.03335306317614638   -0.024362823613203705
-0.464892891484877   0.009967781838576648   0.030366569160727604
-0.464892891484877   0.009967781838576648   0.030366569160727604
-0.464892891484877   0.009967781838576648   0.030366569160727604
-0.464892891484877   0.009967781838576648   0.030366569160727604
-0.3788224561101714   -0.018750113909770327   -0.015041283180094327
-0.3788224561101714   -0.018750113909770327   -0.015041283180094327
-0.3788224561101714   -0.018750113909770327   -0.015041283180094327
-0.3788224561101714   -0.018750113909770327   -0.015041283180094327
-0.40671865492403747   0.0016798852965914934   -0.0003770284804922759
-0.40671865492403747   0.0016798852965914934   -0.0003770284804922759
-0.40671865492403747   0.0016798852965914934   -0.0003770284804922759
-0.40671865492403747   0.0016798852965914934   -0.0003770284804922759
-0.35982395059339267   0.030957068569610488   0.030244061924418864
-0.35982395059339267   0.030957068569610488   0.030244061924418864
-0.35982395059339267   0.030957068569610488   0.030244061924418864
-0.35982395059339267   0.030957068569610488   0.030244061924418864
-0.4852942863549332   -0.04114228999407875   -0.020530333356889932
-0.4852942863549332   -0.04114228999407875   -0.020530333356889932
-0.4852942863549332   -0.04114228999407875   -0.020530333356889932
-0.4852942863549332   -0.04114228999407875   -0.020530333356889932
-0.4884535518298373   -0.008158165682110405   0.032091613909566004
-0.4884535518298373   -0.008158165682110405   0.032091613909566004
-0.4884535518298373   -0.008158165682110405   0.032091613909566004
-0.4884535518298373   -0.008158165682110405   0.032091613909566004
-0.38646690729644895   -0.03187233104236238   -0.012991547501731385
-0.38646690729644895   -0.03187233104236238   -0.012991547501731385
-0.38646690729644895   -0.03187233104236238   -0.012991547501731385
-0.38646690729644895   -0.03187233104236238   -0.012991547501731385
-0.4139726923691393   -0.006614758228915094   -0.00601196551051111
-0.4139726923691393   -0.006614758228915094   -0.00601196551051111
-0.4139726923691393   -0.006614758228915094   -0.00601196551051111
-0.4139726923691393   -0.006614758228915094   -0.00601196551051111
-0.1841153167828584   -0.011964422572143953   -0.03549530311726424
-0.1841153167828584   -0.011964422572143953   -0.03549530311726424
-0.1841153167828584   -0.011964422572143953   -0.03549530311726424
-0.1841153167828584   -0.011964422572143953   -0.03549530311726424
-0.18448940534155214   0.027034627207319875   0.015931370307292282
-0.18448940534155214   0.027034627207319875   0.015931370307292282
-0.18448940534155214   0.027034627207319875   0.015931370307292282
-0.18448940534155214   0.027034627207319875   0.015931370307292282
-0.20796911079053204   -0.024949114417195942   -0.024122623279562518
-0.20796911079053204   -0.024949114417195942   -0.024122623279562518
-0.20796911079053204   -0.024949114417195942   -0.024122623279562518
-0.20796911079053204   -0.024949114417195942   -0.024122623279562518
-0.1880852399935621   0.014533041189604273   0.023839279357665014
-0.1880852399935621   0.014533041189604273   0.023839279357665014
-0.1880852399935621   0.014533041189604273   0.023839279357665014
-0.1880852399935621   0.014533041189604273   0.023839279357665014
-0.18155767146435214   0.00465125117314618   0.016255848617750923
-0.18155767146435214   0.00465125117314618   0.016255848617750923
-0.18155767146435214   0.00465125117314618   0.016255848617750923
-0.18155767146435214   0.00465125117314618   0.016255848617750923
-0.20689245352530827   -0.025868339775442353   -0.029795407336018005
-0.20689245352530827   -0.025868339775442353   -0.029795407336018005
-0.20689245352530827   -0.025868339775442353   -0.029795407336018005
-0.20689245352530827   -0.025868339775442353   -0.029795407336018005
-0.1914736572299728   0.013140506576663886   0.020265023529373788
-0.1914736572299728   0.013140506576663886   0.020265023529373788
-0.1914736572299728   0.013140506576663886   0.020265023529373788
-0.1914736572299728   0.013140506576663886   0.020265023529373788
-0.21510008208829423   -0.03138209384400743   -0.020449160487257596
-0.21510008208829423   -0.03138209384400743   -0.020449160487257596
-0.21510008208829423   -0.03138209384400743   -0.020449160487257596
-0.21510008208829423   -0.03138209384400743   -0.020449160487257596
-0.206295782935018   0.005800394563993394   0.044427310823493445
-0.206295782935018   0.005800394563993394   0.044427310823493445
-0.206295782935018   0.005800394563993394   0.044427310823493445
-0.206295782935018   0.005800394563993394   0.044427310823493445
-0.1982774181982262   -0.0063905235802678775   0.006542376372157405
-0.1982774181982262   -0.0063905235802678775   0.006542376372157405
-0.1982774181982262   -0.0063905235802678775   0.006542376372157405
-0.1982774181982262   -0.0063905235802678775   0.006542376372157405
-0.22789739574317522   -0.03450649684016226   -0.0232738618131365
-0.22789739574317522   -0.03450649684016226   -0.0232738618131365
-0.22789739574317522   -0.03450649684016226   -0.0232738618131365
-0.22789739574317522   -0.03450649684016226   -0.0232738618131365
-0.1990053615154727   0.0034179053248102192   0.02522444320803227
-0.1990053615154727   0.0034179053248102192   0.02522444320803227
-0.1990053615154727   0.0034179053248102192   0.02522444320803227
-0.1990053615154727   0.0034179053248102192   0.02522444320803227
-0.22095164247467683   -0.04383403362429553   -0.01612523252143499
-0.22095164247467683   -0.04383403362429553   -0.01612523252143499
-0.22095164247467683   -0.04383403362429553   -0.01612523252143499
-0.22095164247467683   -0.04383403362429553   -0.01612523252143499
-0.2345708690334533   -0.02305983887226821   0.04155860489614408
-0.2345708690334533   -0.02305983887226821   0.04155860489614408
-0.2345708690334533   -0.02305983887226821   0.04155860489614408
-0.2345708690334533   -0.02305983887226821   0.04155860489614408
-0.21290585874383267   -0.019430391120946064   -0.008903691268702277
-0.21290585874383267   -0.019430391120946064   -0.008903691268702277
-0.21290585874383267   -0.019430391120946064   -0.008903691268702277
-0.21290585874383267   -0.019430391120946064   -0.008903691268702277
-0.19783562396207743   -0.005549160464651572   -0.01821593512336272
-0.19783562396207743   -0.005549160464651572   -0.01821593512336272
-0.19783562396207743   -0.005549160464651572   -0.01821593512336272
-0.19783562396207743   -0.005549160464651572   -0.01821593512336272
-0.20220709179889618   -0.024912357190080107   -0.0010705548404283602
-0.20220709179889618   -0.024912357190080107   -0.0010705548404283602
-0.20220709179889618   -0.024912357190080107   -0.0010705548404283602
-0.20220709179889618   -0.024912357190080107   -0.0010705548404283602
-0.2037996843551627   -0.016632110258419784   -0.009188416038572783
-0.2037996843551627   -0.016632110258419784   -0.009188416038572783
-0.2037996843551627   -0.016632110258419784   -0.009188416038572783
-0.2037996843551627   -0.016632110258419784   -0.009188416038572783
-0.20491947927858062   -0.033551675179520145   -0.00027190495748141696
-0.20491947927858062   -0.033551675179520145   -0.00027190495748141696
-0.20491947927858062   -0.033551675179520145   -0.00027190495748141696
-0.20491947927858062   -0.033551675179520145   -0.00027190495748141696
-0.20047760671838205   -0.021040268337376655   -0.0006125297036755585
-0.20047760671838205   -0.021040268337376655   -0.0006125297036755585
-0.20047760671838205   -0.021040268337376655   -0.0006125297036755585
-0.20047760671838205   -0.021040268337376655   -0.0006125297036755585
-0.2049461856903308   -0.018179291464073245   -0.01577782073167798
-0.2049461856903308   -0.018179291464073245   -0.01577782073167798
-0.2049461856903308   -0.018179291464073245   -0.01577782073167798
-0.2049461856903308   -0.018179291464073245   -0.01577782073167798
-0.20507171863553075   -0.03330323466598371   0.001122536967150904
-0.20507171863553075   -0.03330323466598371   0.001122536967150904
-0.20507171863553075   -0.03330323466598371   0.001122536967150904
-0.20507171863553075   -0.03330323466598371   0.001122536967150904
-0.20732222717058502   -0.027458965349408143   -0.005962368958284545
-0.20732222717058502   -0.027458965349408143   -0.005962368958284545
-0.20732222717058502   -0.027458965349408143   -0.005962368958284545
-0.20732222717058502   -0.027458965349408143   -0.005962368958284545
-0.2125097345237162   -0.043591019386389374   0.004711502878014457
-0.2125097345237162   -0.043591019386389374   0.004711502878014457
-0.2125097345237162   -0.043591019386389374   0.004711502878014457
-0.2125097345237162   -0.043591019386389374   0.004711502878014457
-0.20521768949514396   -0.02980523322287283   -0.005651272481940256
-0.20521768949514396   -0.02980523322287283   -0.005651272481940256
-0.20521768949514396   -0.02980523322287283   -0.005651272481940256
-0.20521768949514396   -0.02980523322287283   -0.005651272481940256
-0.2130292967537329   -0.029752809171726013   -0.011724518486732371
-0.2130292967537329   -0.029752809171726013   -0.011724518486732371
-0.2130292967537329   -0.029752809171726013   -0.011724518486732371
-0.2130292967537329   -0.029752809171726013   -0.011724518486732371
-0.2084620433383167   -0.042956553961819154   0.003836138815466055
-0.2084620433383167   -0.042956553961819154   0.003836138815466055
-0.2084620433383167   -0.042956553961819154   0.003836138815466055
-0.2084620433383167   -0.042956553961819154   0.003836138815466055
-0.21049930067667555   -0.03909093112946809   -0.0027700874698492264
-0.21049930067667555   -0.03909093112946809   -0.0027700874698492264
-0.21049930067667555   -0.03909093112946809   -0.0027700874698492264
-0.21049930067667555   -0.03909093112946809   -0.0027700874698492264
-0.21833374803592281   -0.056287482325786314   0.009417688373822942
-0.21833374803592281   -0.056287482325786314   0.009417688373822942
-0.21833374803592281   -0.056287482325786314   0.009417688373822942
-0.21833374803592281   -0.056287482325786314   0.009417688373822942
-0.21167998197082777   -0.04034298337646949   -0.012038162123744752
-0.21167998197082777   -0.04034298337646949   -0.012038162123744752
-0.21167998197082777   -0.04034298337646949   -0.012038162123744752
-0.21167998197082777   -0.04034298337646949   -0.012038162123744752
-0.19660883719971062   0.00536015460101813   -0.0033517936355946867
-0.19660883719971062   0.00536015460101813   -0.0033517936355946867
-0.19660883719971062   0.00536015460101813   -0.0033517936355946867
-0.19660883719971062   0.00536015460101813   -0.0033517936355946867
-0.22386590205703316   -0.042518623985842226   -0.010767645929065548
-0.22386590205703316   -0.042518623985842226   -0.010767645929065548
-0.22386590205703316   -0.042518623985842226   -0.010767645929065548
-0.22386590205703316   -0.042518623985842226   -0.010767645929065548
-0.21483560081809353   -0.007879791604950004   0.002753479761773727
-0.21483560081809353   -0.007879791604950004   0.002753479761773727
-0.21483560081809353   -0.007879791604950004   0.002753479761773727
-0.21483560081809353   -0.007879791604950004   0.002753479761773727
-0.2090890363044739   -0.045669011450016755   -0.006598274593531205
-0.2090890363044739   -0.045669011450016755   -0.006598274593531205
-0.2090890363044739   -0.045669011450016755   -0.006598274593531205
-0.2090890363044739   -0.045669011450016755   -0.006598274593531205
-0.21095135363996015   -0.02339921282187684   -0.004713629053486285
-0.21095135363996015   -0.02339921282187684   -0.004713629053486285
-0.21095135363996015   -0.02339921282187684   -0.004713629053486285
-0.21095135363996015   -0.02339921282187684   -0.004713629053486285
-0.19972550395306393   -0.005415327534666732   -3.429675183205458e-05
-0.19972550395306393   -0.005415327534666732   -3.429675183205458e-05
-0.19972550395306393   -0.005415327534666732   -3.429675183205458e-05
-0.19972550395306393   -0.005415327534666732   -3.429675183205458e-05
-0.2253806022437217   -0.04931494459452152   -0.008536374376799579
-0.2253806022437217   -0.04931494459452152   -0.008536374376799579
-0.2253806022437217   -0.04931494459452152   -0.008536374376799579
-0.2253806022437217   -0.04931494459452152   -0.008536374376799579
-0.2173967978933159   -0.018741441821470056   0.005956880115003446
-0.2173967978933159   -0.018741441821470056   0.005956880115003446
-0.2173967978933159   -0.018741441821470056   0.005956880115003446
-0.2173967978933159   -0.018741441821470056   0.005956880115003446
-0.21238700981138556   -0.054221144314061595   -0.004524103197635673
-0.21238700981138556   -0.054221144314061595   -0.004524103197635673
-0.21238700981138556   -0.054221144314061595   -0.004524103197635673
-0.21238700981138556   -0.054221144314061595   -0.004524103197635673
-0.21366073692567722   -0.03166403336829016   -0.009035114153505408
-0.21366073692567722   -0.03166403336829016   -0.009035114153505408
-0.21366073692567722   -0.03166403336829016   -0.009035114153505408
-0.21366073692567722   -0.03166403336829016   -0.009035114153505408
-0.2032937057251698   -0.016473287355803452   0.0031945602751848666
-0.2032937057251698   -0.016473287355803452   0.0031945602751848666
-0.2032937057251698   -0.016473287355803452   0.0031945602751848666
-0.2032937057251698   -0.016473287355803452   0.0031945602751848666
-0.2278100263822709   -0.05780922318246652   -0.007041480968774964
-0.2278100263822709   -0.05780922318246652   -0.007041480968774964
-0.2278100263822709   -0.05780922318246652   -0.007041480968774964
-0.2278100263822709   -0.05780922318246652   -0.007041480968774964
-0.2195001983298756   -0.028941838647218686   0.009094750497279942
-0.2195001983298756   -0.028941838647218686   0.009094750497279942
-0.2195001983298756   -0.028941838647218686   0.009094750497279942
-0.2195001983298756   -0.028941838647218686   0.009094750497279942
-0.21487432007033255   -0.062400924857525714   -0.0013351907100784778
-0.21487432007033255   -0.062400924857525714   -0.0013351907100784778
-0.21487432007033255   -0.062400924857525714   -0.0013351907100784778
-0.21487432007033255   -0.062400924857525714   -0.0013351907100784778
-0.21687590395701203   -0.040302920329253825   -0.013781788876896382
-0.21687590395701203   -0.040302920329253825   -0.013781788876896382
-0.21687590395701203   -0.040302920329253825   -0.013781788876896382
-0.21687590395701203   -0.040302920329253825   -0.013781788876896382
-0.20669542569933186   0.02217386563923565   0.010392246234363162
-0.20669542569933186   0.02217386563923565   0.010392246234363162
-0.20669542569933186   0.02217386563923565   0.010392246234363162
-0.20669542569933186   0.02217386563923565   0.010392246234363162
-0.24554410445262212   -0.0318875706678587   -0.015060636433752023
-0.24554410445262212   -0.0318875706678587   -0.015060636433752023
-0.24554410445262212   -0.0318875706678587   -0.015060636433752023
-0.24554410445262212   -0.0318875706678587   -0.015060636433752023
-0.232472068525832   0.006431478917110885   0.01433803084569372
-0.232472068525832   0.006431478917110885   0.01433803084569372
-0.232472068525832   0.006431478917110885   0.01433803084569372
-0.232472068525832   0.006431478917110885   0.01433803084569372
-0.22268149334123324   -0.03527394589178239   -0.009081828567093723
-0.22268149334123324   -0.03527394589178239   -0.009081828567093723
-0.22268149334123324   -0.03527394589178239   -0.009081828567093723
-0.22268149334123324   -0.03527394589178239   -0.009081828567093723
-0.22680829773715655   -0.009406338887640475   -0.002813569796148472
-0.22680829773715655   -0.009406338887640475   -0.002813569796148472
-0.22680829773715655   -0.009406338887640475   -0.002813569796148472
-0.22680829773715655   -0.009406338887640475   -0.002813569796148472
-0.20888848313520397   0.011002037616959809   0.013607238954311733
-0.20888848313520397   0.011002037616959809   0.013607238954311733
-0.20888848313520397   0.011002037616959809   0.013607238954311733
-0.20888848313520397   0.011002037616959809   0.013607238954311733
-0.24783700257628033   -0.04141642843605042   -0.014638732053386777
-0.24783700257628033   -0.04141642843605042   -0.014638732053386777
-0.24783700257628033   -0.04141642843605042   -0.014638732053386777
-0.24783700257628033   -0.04141642843605042   -0.014638732053386777
-0.2368441635498991   -0.004189037809332032   0.016266590552047884
-0.2368441635498991   -0.004189037809332032   0.016266590552047884
-0.2368441635498991   -0.004189037809332032   0.016266590552047884
-0.2368441635498991   -0.004189037809332032   0.016266590552047884
-0.22492321819609634   -0.043195628809998776   -0.007221034410369953
-0.22492321819609634   -0.043195628809998776   -0.007221034410369953
-0.22492321819609634   -0.043195628809998776   -0.007221034410369953
-0.22492321819609634   -0.043195628809998776   -0.007221034410369953
-0.22905065502950728   -0.018373732903582123   -0.007884982977760649
-0.22905065502950728   -0.018373732903582123   -0.007884982977760649
-0.22905065502950728   -0.018373732903582123   -0.007884982977760649
-0.22905065502950728   -0.018373732903582123   -0.007884982977760649
-0.21129164097920916   0.0010136609726752663   0.01672756189139183
-0.21129164097920916   0.0010136609726752663   0.01672756189139183
-0.21129164097920916   0.0010136609726752663   0.01672756189139183
-0.21129164097920916   0.0010136609726752663   0.01672756189139183
-0.2518372494627706   -0.04975983628798999   -0.013128040533651783
-0.2518372494627706   -0.04975983628798999   -0.013128040533651783
-0.2518372494627706   -0.04975983628798999   -0.013128040533651783
-0.2518372494627706   -0.04975983628798999   -0.013128040533651783
-0.2397614168397829   -0.014389827713932941   0.01984605125528783
-0.2397614168397829   -0.014389827713932941   0.01984605125528783
-0.2397614168397829   -0.014389827713932941   0.01984605125528783
-0.2397614168397829   -0.014389827713932941   0.01984605125528783
-0.22686682747953787   -0.05115769778876702   -0.005522536109488561
-0.22686682747953787   -0.05115769778876702   -0.005522536109488561
-0.22686682747953787   -0.05115769778876702   -0.005522536109488561
-0.22686682747953787   -0.05115769778876702   -0.005522536109488561
-0.23293137545015008   -0.02684574460747576   -0.012806245055439917
-0.23293137545015008   -0.02684574460747576   -0.012806245055439917
-0.23293137545015008   -0.02684574460747576   -0.012806245055439917
-0.23293137545015008   -0.02684574460747576   -0.012806245055439917
-0.22563216916620338   0.03182646199690472   0.020785007333578232
-0.22563216916620338   0.03182646199690472   0.020785007333578232
-0.22563216916620338   0.03182646199690472   0.020785007333578232
-0.22563216916620338   0.03182646199690472   0.020785007333578232
-0.24265382531852855   -0.019396634775144438   -0.021776513838929996
-0.24265382531852855   -0.019396634775144438   -0.021776513838929996
-0.24265382531852855   -0.019396634775144438   -0.021776513838929996
-0.24265382531852855   -0.019396634775144438   -0.021776513838929996
-0.23738317368647674   0.022373861803970815   0.023107266541568826
-0.23738317368647674   0.022373861803970815   0.023107266541568826
-0.23738317368647674   0.022373861803970815   0.023107266541568826
-0.23738317368647674   0.022373861803970815   0.023107266541568826
-0.24419037804325425   -0.024508050671670473   -0.013313987152640774
-0.24419037804325425   -0.024508050671670473   -0.013313987152640774
-0.24419037804325425   -0.024508050671670473   -0.013313987152640774
-0.24419037804325425   -0.024508050671670473   -0.013313987152640774
-0.22934074116582687   0.005600219675113344   0.0010090345253398122
-0.22934074116582687   0.005600219675113344   0.0010090345253398122
-0.22934074116582687   0.005600219675113344   0.0010090345253398122
-0.22934074116582687   0.005600219675113344   0.0010090345253398122
-0.22688933551575535   0.02465650924369757   0.024026665569482453
-0.22688933551575535   0.02465650924369757   0.024026665569482453
-0.22688933551575535   0.02465650924369757   0.024026665569482453
-0.22688933551575535   0.02465650924369757   0.024026665569482453
-0.25597212596814567   -0.028078607865566693   -0.019385025197230475
-0.25597212596814567   -0.028078607865566693   -0.019385025197230475
-0.25597212596814567   -0.028078607865566693   -0.019385025197230475
-0.25597212596814567   -0.028078607865566693   -0.019385025197230475
-0.2478336593917598   0.016402106079125227   0.029731020045956617
-0.2478336593917598   0.016402106079125227   0.029731020045956617
-0.2478336593917598   0.016402106079125227   0.029731020045956617
-0.2478336593917598   0.016402106079125227   0.029731020045956617
-0.24752149955474045   -0.02918065126635493   -0.012128476015139795
-0.24752149955474045   -0.02918065126635493   -0.012128476015139795
-0.24752149955474045   -0.02918065126635493   -0.012128476015139795
-0.24752149955474045   -0.02918065126635493   -0.012128476015139795
-0.24061475220612544   -0.0016247600814325927   -0.0050090011915332
-0.24061475220612544   -0.0016247600814325927   -0.0050090011915332
-0.24061475220612544   -0.0016247600814325927   -0.0050090011915332
-0.24061475220612544   -0.0016247600814325927   -0.0050090011915332
-0.22953882285540284   0.019863100516868903   0.028741155698324184
-0.22953882285540284   0.019863100516868903   0.028741155698324184
-0.22953882285540284   0.019863100516868903   0.028741155698324184
-0.22953882285540284   0.019863100516868903   0.028741155698324184
-0.26748571950132777   -0.03431102911432998   -0.01781614530842778
-0.26748571950132777   -0.03431102911432998   -0.01781614530842778
-0.26748571950132777   -0.03431102911432998   -0.01781614530842778
-0.26748571950132777   -0.03431102911432998   -0.01781614530842778
-0.26614187501907427   0.0011424023909149053   0.03175708738728039
-0.26614187501907427   0.0011424023909149053   0.03175708738728039
-0.26614187501907427   0.0011424023909149053   0.03175708738728039
-0.26614187501907427   0.0011424023909149053   0.03175708738728039
-0.25057136317875234   -0.03805884344520695   -0.010534664708291563
-0.25057136317875234   -0.03805884344520695   -0.010534664708291563
-0.25057136317875234   -0.03805884344520695   -0.010534664708291563
-0.25057136317875234   -0.03805884344520695   -0.010534664708291563
-0.24595262305063093   -0.008292482635294529   -0.010415010009620846
-0.24595262305063093   -0.008292482635294529   -0.010415010009620846
-0.24595262305063093   -0.008292482635294529   -0.010415010009620846
-0.24595262305063093   -0.008292482635294529   -0.010415010009620846
-0.4763752624665221   -0.04361863016052343   -0.045449059406952576
-0.4763752624665221   -0.04361863016052343   -0.045449059406952576
-0.4763752624665221   -0.04361863016052343   -0.045449059406952576
-0.4763752624665221   -0.04361863016052343   -0.045449059406952576
-0.30327813004186427   0.025480844859448515   0.010680221952437056
-0.30327813004186427   0.025480844859448515   0.010680221952437056
-0.30327813004186427   0.025480844859448515   0.010680221952437056
-0.30327813004186427   0.025480844859448515   0.010680221952437056
-0.3185830792575597   -0.020409625539794668   -0.020376215025332104
-0.3185830792575597   -0.020409625539794668   -0.020376215025332104
-0.3185830792575597   -0.020409625539794668   -0.020376215025332104
-0.3185830792575597   -0.020409625539794668   -0.020376215025332104
-0.5070221198929697   -0.05768901917332265   0.050691141705086866
-0.5070221198929697   -0.05768901917332265   0.050691141705086866
-0.5070221198929697   -0.05768901917332265   0.050691141705086866
-0.5070221198929697   -0.05768901917332265   0.050691141705086866
-0.36880062981343836   -0.014230489198176363   0.04928611411882142
-0.36880062981343836   -0.014230489198176363   0.04928611411882142
-0.36880062981343836   -0.014230489198176363   0.04928611411882142
-0.36880062981343836   -0.014230489198176363   0.04928611411882142
-0.5251615432730031   -0.06432422850958089   -0.033370765858818395
-0.5251615432730031   -0.06432422850958089   -0.033370765858818395
-0.5251615432730031   -0.06432422850958089   -0.033370765858818395
-0.5251615432730031   -0.06432422850958089   -0.033370765858818395
-0.3132165693919485   -0.026547329717958708   0.01259403848088544
-0.3132165693919485   -0.026547329717958708   0.01259403848088544
-0.3132165693919485   -0.026547329717958708   0.01259403848088544
-0.3132165693919485   -0.026547329717958708   0.01259403848088544
-0.32366274660498656   -0.02949858277801181   -0.014700612216564048
-0.32366274660498656   -0.02949858277801181   -0.014700612216564048
-0.32366274660498656   -0.02949858277801181   -0.014700612216564048
-0.32366274660498656   -0.02949858277801181   -0.014700612216564048
-0.5234355887819229   -0.08053294820360554   0.0011015576230775466
-0.5234355887819229   -0.08053294820360554   0.0011015576230775466
-0.5234355887819229   -0.08053294820360554   0.0011015576230775466
-0.5234355887819229   -0.08053294820360554   0.0011015576230775466
-0.4087118223234318   -0.04858790425865898   0.01144114827876674
-0.4087118223234318   -0.04858790425865898   0.01144114827876674
-0.4087118223234318   -0.04858790425865898   0.01144114827876674
-0.4087118223234318   -0.04858790425865898   0.01144114827876674
-0.5274828908888018   -0.07271339117870537   -0.026954509936212963
-0.5274828908888018   -0.07271339117870537   -0.026954509936212963
-0.5274828908888018   -0.07271339117870537   -0.026954509936212963
-0.5274828908888018   -0.07271339117870537   -0.026954509936212963
-0.3234658443796709   -0.04116853968447565   -0.0020461441835249467
-0.3234658443796709   -0.04116853968447565   -0.0020461441835249467
-0.3234658443796709   -0.04116853968447565   -0.0020461441835249467
-0.3234658443796709   -0.04116853968447565   -0.0020461441835249467
-0.3240567733733217   -0.05141940079705272   -0.010753300387910069
-0.3240567733733217   -0.05141940079705272   -0.010753300387910069
-0.3240567733733217   -0.05141940079705272   -0.010753300387910069
-0.3240567733733217   -0.05141940079705272   -0.010753300387910069
-0.5362995433718977   -0.12286124561228001   0.007845135774882744
-0.5362995433718977   -0.12286124561228001   0.007845135774882744
-0.5362995433718977   -0.12286124561228001   0.007845135774882744
-0.5362995433718977   -0.12286124561228001   0.007845135774882744
-0.40848688098282154   -0.06674538778475522   0.000923920054856496
-0.40848688098282154   -0.06674538778475522   0.000923920054856496
-0.40848688098282154   -0.06674538778475522   0.000923920054856496
-0.40848688098282154   -0.06674538778475522   0.000923920054856496
-0.3274655209847343   -0.05558759136637807   -0.029188296536083645
-0.3274655209847343   -0.05558759136637807   -0.029188296536083645
-0.3274655209847343   -0.05558759136637807   -0.029188296536083645
-0.3274655209847343   -0.05558759136637807   -0.029188296536083645
-0.22587093282257273   -0.1469841477877109   -0.027508809811646457
-0.22587093282257273   -0.1469841477877109   -0.027508809811646457
-0.22587093282257273   -0.1469841477877109   -0.027508809811646457
-0.22587093282257273   -0.1469841477877109   -0.027508809811646457
-0.19833800692091805   -0.032545680210265285   -0.0018234024688697044
-0.19833800692091805   -0.032545680210265285   -0.0018234024688697044
-0.19833800692091805   -0.032545680210265285   -0.0018234024688697044
-0.19833800692091805   -0.032545680210265285   -0.0018234024688697044
-0.34846756370416637   -0.15562869087187448   -0.034579571926287946
-0.34846756370416637   -0.15562869087187448   -0.034579571926287946
-0.34846756370416637   -0.15562869087187448   -0.034579571926287946
-0.34846756370416637   -0.15562869087187448   -0.034579571926287946
-0.2718660168733408   -0.10362042027122415   -0.00795127568122956
-0.2718660168733408   -0.10362042027122415   -0.00795127568122956
-0.2718660168733408   -0.10362042027122415   -0.00795127568122956
-0.2718660168733408   -0.10362042027122415   -0.00795127568122956
-0.3273014970140027   -0.062374403003814374   -0.02200352634352773
-0.3273014970140027   -0.062374403003814374   -0.02200352634352773
-0.3273014970140027   -0.062374403003814374   -0.02200352634352773
-0.3273014970140027   -0.062374403003814374   -0.02200352634352773
-0.22082625774910866   -0.1271221522163528   -0.01968818460373723
-0.22082625774910866   -0.1271221522163528   -0.01968818460373723
-0.22082625774910866   -0.1271221522163528   -0.01968818460373723
-0.22082625774910866   -0.1271221522163528   -0.01968818460373723
-0.20074957974981714   -0.04213725694970248   0.00022016028754987774
-0.20074957974981714   -0.04213725694970248   0.00022016028754987774
-0.20074957974981714   -0.04213725694970248   0.00022016028754987774
-0.20074957974981714   -0.04213725694970248   0.00022016028754987774
-0.34986180230539393   -0.154807442782003   -0.0203870307146125
-0.34986180230539393   -0.154807442782003   -0.0203870307146125
-0.34986180230539393   -0.154807442782003   -0.0203870307146125
-0.34986180230539393   -0.154807442782003   -0.0203870307146125
-0.26895270417663286   -0.0971253878882321   -0.0084495381137378
-0.26895270417663286   -0.0971253878882321   -0.0084495381137378
-0.26895270417663286   -0.0971253878882321   -0.0084495381137378
-0.26895270417663286   -0.0971253878882321   -0.0084495381137378
-0.3324947413987138   -0.0718351292746954   -0.016524039688516977
-0.3324947413987138   -0.0718351292746954   -0.016524039688516977
-0.3324947413987138   -0.0718351292746954   -0.016524039688516977
-0.3324947413987138   -0.0718351292746954   -0.016524039688516977
-0.2208700994856012   -0.12786302928611415   -0.01465666605496092
-0.2208700994856012   -0.12786302928611415   -0.01465666605496092
-0.2208700994856012   -0.12786302928611415   -0.01465666605496092
-0.2208700994856012   -0.12786302928611415   -0.01465666605496092
-0.20084930234837814   -0.05404597010612339   0.0031408037845929307
-0.20084930234837814   -0.05404597010612339   0.0031408037845929307
-0.20084930234837814   -0.05404597010612339   0.0031408037845929307
-0.20084930234837814   -0.05404597010612339   0.0031408037845929307
-0.3491525667737328   -0.15725157288465016   -0.030400095302372247
-0.3491525667737328   -0.15725157288465016   -0.030400095302372247
-0.3491525667737328   -0.15725157288465016   -0.030400095302372247
-0.3491525667737328   -0.15725157288465016   -0.030400095302372247
-0.2731803471393343   -0.10443599040234344   -0.015713413101487245
-0.2731803471393343   -0.10443599040234344   -0.015713413101487245
-0.2731803471393343   -0.10443599040234344   -0.015713413101487245
-0.2731803471393343   -0.10443599040234344   -0.015713413101487245
-0.19864665128946069   -0.0358296288610599   -0.0025419210727371435
-0.19864665128946069   -0.0358296288610599   -0.0025419210727371435
-0.19864665128946069   -0.0358296288610599   -0.0025419210727371435
-0.19864665128946069   -0.0358296288610599   -0.0025419210727371435
-0.16749250178730524   -0.11264006855036794   -0.019442559091150696
-0.16749250178730524   -0.11264006855036794   -0.019442559091150696
-0.16749250178730524   -0.11264006855036794   -0.019442559091150696
-0.16749250178730524   -0.11264006855036794   -0.019442559091150696
-0.1443831549098463   -0.02987672353424843   0.007657283590690478
-0.1443831549098463   -0.02987672353424843   0.007657283590690478
-0.1443831549098463   -0.02987672353424843   0.007657283590690478
-0.1443831549098463   -0.02987672353424843   0.007657283590690478
-0.22019516121588426   -0.12223169018433452   -0.021423163969633615
-0.22019516121588426   -0.12223169018433452   -0.021423163969633615
-0.22019516121588426   -0.12223169018433452   -0.021423163969633615
-0.22019516121588426   -0.12223169018433452   -0.021423163969633615
-0.1818862180354676   -0.07616426548526047   -0.008954445732587838
-0.1818862180354676   -0.07616426548526047   -0.008954445732587838
-0.1818862180354676   -0.07616426548526047   -0.008954445732587838
-0.1818862180354676   -0.07616426548526047   -0.008954445732587838
-0.1998863286620348   -0.042442461066472884   0.0003317696817522202
-0.1998863286620348   -0.042442461066472884   0.0003317696817522202
-0.1998863286620348   -0.042442461066472884   0.0003317696817522202
-0.1998863286620348   -0.042442461066472884   0.0003317696817522202
-0.1658701990005779   -0.11084416418899143   -0.018810496208224427
-0.1658701990005779   -0.11084416418899143   -0.018810496208224427
-0.1658701990005779   -0.11084416418899143   -0.018810496208224427
-0.1658701990005779   -0.11084416418899143   -0.018810496208224427
-0.14457220014813413   -0.03776635703087472   0.00993502355504729
-0.14457220014813413   -0.03776635703087472   0.00993502355504729
-0.14457220014813413   -0.03776635703087472   0.00993502355504729
-0.14457220014813413   -0.03776635703087472   0.00993502355504729
-0.2210269220574039   -0.12416660098163582   -0.019137207218452926
-0.2210269220574039   -0.12416660098163582   -0.019137207218452926
-0.2210269220574039   -0.12416660098163582   -0.019137207218452926
-0.2210269220574039   -0.12416660098163582   -0.019137207218452926
-0.1816790813517486   -0.0791128007400699   -0.011623506213194156
-0.1816790813517486   -0.0791128007400699   -0.011623506213194156
-0.1816790813517486   -0.0791128007400699   -0.011623506213194156
-0.1816790813517486   -0.0791128007400699   -0.011623506213194156
-0.2017176958628638   -0.050444996941923746   0.003687319714535674
-0.2017176958628638   -0.050444996941923746   0.003687319714535674
-0.2017176958628638   -0.050444996941923746   0.003687319714535674
-0.2017176958628638   -0.050444996941923746   0.003687319714535674
-0.16453150303648864   -0.11213803776440182   -0.015489810153198173
-0.16453150303648864   -0.11213803776440182   -0.015489810153198173
-0.16453150303648864   -0.11213803776440182   -0.015489810153198173
-0.16453150303648864   -0.11213803776440182   -0.015489810153198173
-0.14302588360960772   -0.045279959353034735   0.012421200351643933
-0.14302588360960772   -0.045279959353034735   0.012421200351643933
-0.14302588360960772   -0.045279959353034735   0.012421200351643933
-0.14302588360960772   -0.045279959353034735   0.012421200351643933
-0.21856092970228733   -0.12570089737500056   -0.013762405716075482
-0.21856092970228733   -0.12570089737500056   -0.013762405716075482
-0.21856092970228733   -0.12570089737500056   -0.013762405716075482
-0.21856092970228733   -0.12570089737500056   -0.013762405716075482
-0.1812893268924654   -0.0830211803054377   -0.013497369283276583
-0.1812893268924654   -0.0830211803054377   -0.013497369283276583
-0.1812893268924654   -0.0830211803054377   -0.013497369283276583
-0.1812893268924654   -0.0830211803054377   -0.013497369283276583
-0.13932257451307795   -0.0048981130393968425   0.013665121769014585
-0.13932257451307795   -0.0048981130393968425   0.013665121769014585
-0.13932257451307795   -0.0048981130393968425   0.013665121769014585
-0.13932257451307795   -0.0048981130393968425   0.013665121769014585
-0.13260586290936682   -0.059802192775401095   -0.011718839791916895
-0.13260586290936682   -0.059802192775401095   -0.011718839791916895
-0.13260586290936682   -0.059802192775401095   -0.011718839791916895
-0.13260586290936682   -0.059802192775401095   -0.011718839791916895
-0.11447449611921164   -0.008656271729851485   0.015799545020531523
-0.11447449611921164   -0.008656271729851485   0.015799545020531523
-0.11447449611921164   -0.008656271729851485   0.015799545020531523
-0.11447449611921164   -0.008656271729851485   0.015799545020531523
-0.15537040860256426   -0.06888798471918076   -0.008267723687965203
-0.15537040860256426   -0.06888798471918076   -0.008267723687965203
-0.15537040860256426   -0.06888798471918076   -0.008267723687965203
-0.15537040860256426   -0.06888798471918076   -0.008267723687965203
-0.13588841516133746   -0.035218283084037016   -0.004866398834181305
-0.13588841516133746   -0.035218283084037016   -0.004866398834181305
-0.13588841516133746   -0.035218283084037016   -0.004866398834181305
-0.13588841516133746   -0.035218283084037016   -0.004866398834181305
-0.139521003945502   -0.013672682769654164   0.015763997647817843
-0.139521003945502   -0.013672682769654164   0.015763997647817843
-0.139521003945502   -0.013672682769654164   0.015763997647817843
-0.139521003945502   -0.013672682769654164   0.015763997647817843
-0.13158658864929548   -0.06513426155240148   -0.013282927807337646
-0.13158658864929548   -0.06513426155240148   -0.013282927807337646
-0.13158658864929548   -0.06513426155240148   -0.013282927807337646
-0.13158658864929548   -0.06513426155240148   -0.013282927807337646
-0.11477139087702184   -0.01632241798893215   0.016993192375888623
-0.11477139087702184   -0.01632241798893215   0.016993192375888623
-0.11477139087702184   -0.01632241798893215   0.016993192375888623
-0.11477139087702184   -0.01632241798893215   0.016993192375888623
-0.15546111792508124   -0.07309672933769795   -0.009179193022866421
-0.15546111792508124   -0.07309672933769795   -0.009179193022866421
-0.15546111792508124   -0.07309672933769795   -0.009179193022866421
-0.15546111792508124   -0.07309672933769795   -0.009179193022866421
-0.13541534505172703   -0.04136150667726317   -0.0082732677023431
-0.13541534505172703   -0.04136150667726317   -0.0082732677023431
-0.13541534505172703   -0.04136150667726317   -0.0082732677023431
-0.13541534505172703   -0.04136150667726317   -0.0082732677023431
-0.13964115087677992   -0.021108521573227495   0.01793243445417103
-0.13964115087677992   -0.021108521573227495   0.01793243445417103
-0.13964115087677992   -0.021108521573227495   0.01793243445417103
-0.13964115087677992   -0.021108521573227495   0.01793243445417103
-0.1313566634012967   -0.06907593122937611   -0.013179657005041787
-0.1313566634012967   -0.06907593122937611   -0.013179657005041787
-0.1313566634012967   -0.06907593122937611   -0.013179657005041787
-0.1313566634012967   -0.06907593122937611   -0.013179657005041787
-0.11393260986974157   -0.023526433454584585   0.019699567951635005
-0.11393260986974157   -0.023526433454584585   0.019699567951635005
-0.11393260986974157   -0.023526433454584585   0.019699567951635005
-0.11393260986974157   -0.023526433454584585   0.019699567951635005
-0.15316231639186526   -0.07729379803440495   -0.006247124878274141
-0.15316231639186526   -0.07729379803440495   -0.006247124878274141
-0.15316231639186526   -0.07729379803440495   -0.006247124878274141
-0.15316231639186526   -0.07729379803440495   -0.006247124878274141
-0.13515877064500595   -0.04667081311285147   -0.010661363964868355
-0.13515877064500595   -0.04667081311285147   -0.010661363964868355
-0.13515877064500595   -0.04667081311285147   -0.010661363964868355
-0.13515877064500595   -0.04667081311285147   -0.010661363964868355
-0.11091430387136716   0.01557827067217473   0.02135849195050569
-0.11091430387136716   0.01557827067217473   0.02135849195050569
-0.11091430387136716   0.01557827067217473   0.02135849195050569
-0.11091430387136716   0.01557827067217473   0.02135849195050569
-0.07488394958529505   -0.019797850632227044   -0.007266028925689705
-0.07488394958529505   -0.019797850632227044   -0.007266028925689705
-0.07488394958529505   -0.019797850632227044   -0.007266028925689705
-0.07488394958529505   -0.019797850632227044   -0.007266028925689705
-0.06569150184443209   0.01807664329250437   0.021110606469418956
-0.06569150184443209   0.01807664329250437   0.021110606469418956
-0.06569150184443209   0.01807664329250437   0.021110606469418956
-0.06569150184443209   0.01807664329250437   0.021110606469418956
-0.122662457632944   -0.03002234508036001   -0.003774189197624166
-0.122662457632944   -0.03002234508036001   -0.003774189197624166
-0.122662457632944   -0.03002234508036001   -0.003774189197624166
-0.122662457632944   -0.03002234508036001   -0.003774189197624166
-0.0922052966213303   -0.0019599063513532702   -0.0037900114291829863
-0.0922052966213303   -0.0019599063513532702   -0.0037900114291829863
-0.0922052966213303   -0.0019599063513532702   -0.0037900114291829863
-0.0922052966213303   -0.0019599063513532702   -0.0037900114291829863
-0.10927995183133425   0.00980002578937874   0.023315968940688277
-0.10927995183133425   0.00980002578937874   0.023315968940688277
-0.10927995183133425   0.00980002578937874   0.023315968940688277
-0.10927995183133425   0.00980002578937874   0.023315968940688277
-0.07921340985147973   -0.021885129782671715   -0.006537160490650814
-0.07921340985147973   -0.021885129782671715   -0.006537160490650814
-0.07921340985147973   -0.021885129782671715   -0.006537160490650814
-0.07921340985147973   -0.021885129782671715   -0.006537160490650814
-0.0687047852699487   0.014317937184098194   0.026547751952341762
-0.0687047852699487   0.014317937184098194   0.026547751952341762
-0.0687047852699487   0.014317937184098194   0.026547751952341762
-0.0687047852699487   0.014317937184098194   0.026547751952341762
-0.12225934680689637   -0.03198198177836714   -0.004787023484051077
-0.12225934680689637   -0.03198198177836714   -0.004787023484051077
-0.12225934680689637   -0.03198198177836714   -0.004787023484051077
-0.12225934680689637   -0.03198198177836714   -0.004787023484051077
-0.09510945943877042   -0.006060424743840689   -0.0054418716409596925
-0.09510945943877042   -0.006060424743840689   -0.0054418716409596925
-0.09510945943877042   -0.006060424743840689   -0.0054418716409596925
-0.09510945943877042   -0.006060424743840689   -0.0054418716409596925
-0.10824485070931457   0.006467557292379616   0.026835917933113212
-0.10824485070931457   0.006467557292379616   0.026835917933113212
-0.10824485070931457   0.006467557292379616   0.026835917933113212
-0.10824485070931457   0.006467557292379616   0.026835917933113212
-0.08367893475135157   -0.02509125527046904   -0.00891380300010535
-0.08367893475135157   -0.02509125527046904   -0.00891380300010535
-0.08367893475135157   -0.02509125527046904   -0.00891380300010535
-0.08367893475135157   -0.02509125527046904   -0.00891380300010535
-0.07855365616904492   0.003977214098513874   0.0276279160005974
-0.07855365616904492   0.003977214098513874   0.0276279160005974
-0.07855365616904492   0.003977214098513874   0.0276279160005974
-0.07855365616904492   0.003977214098513874   0.0276279160005974
-0.12072477760653569   -0.033791342155588516   -0.003996362031332146
-0.12072477760653569   -0.033791342155588516   -0.003996362031332146
-0.12072477760653569   -0.033791342155588516   -0.003996362031332146
-0.12072477760653569   -0.033791342155588516   -0.003996362031332146
-0.09656826605842975   -0.009057149275650154   -0.008060353962130729
-0.09656826605842975   -0.009057149275650154   -0.008060353962130729
-0.09656826605842975   -0.009057149275650154   -0.008060353962130729
-0.09656826605842975   -0.009057149275650154   -0.008060353962130729
-1.1304373274601214   -0.1610186023014849   -0.09465781643397533
-1.1304373274601214   -0.1610186023014849   -0.09465781643397533
-1.1304373274601214   -0.1610186023014849   -0.09465781643397533
-1.1304373274601214   -0.1610186023014849   -0.09465781643397533
-0.39345595949663514   -0.6280923668063576   -0.0739155411962761
-0.39345595949663514   -0.6280923668063576   -0.0739155411962761
-0.39345595949663514   -0.6280923668063576   -0.0739155411962761
-0.39345595949663514   -0.6280923668063576   -0.0739155411962761
-0.302812074426924   -0.026926860000441442   0.00029189210344718504
-0.302812074426924   -0.026926860000441442   0.00029189210344718504
-0.302812074426924   -0.026926860000441442   0.00029189210344718504
-0.302812074426924   -0.026926860000441442   0.00029189210344718504
-1.2094607949672098   -0.7363455281419629   -0.38916126462183454
-1.2094607949672098   -0.7363455281419629   -0.38916126462183454
-1.2094607949672098   -0.7363455281419629   -0.38916126462183454
-1.2094607949672098   -0.7363455281419629   -0.38916126462183454
-0.7400226251495373   -0.366045476148787   -0.05337328371859448
-0.7400226251495373   -0.366045476148787   -0.05337328371859448
-0.7400226251495373   -0.366045476148787   -0.05337328371859448
-0.7400226251495373   -0.366045476148787   -0.05337328371859448
-1.0505459178259322   -0.2022654070936803   -0.12866699996373906
-1.0505459178259322   -0.2022654070936803   -0.12866699996373906
-1.0505459178259322   -0.2022654070936803   -0.12866699996373906
-1.0505459178259322   -0.2022654070936803   -0.12866699996373906
-0.42526408835367113   -0.524544117834195   -0.11435091969653338
-0.42526408835367113   -0.524544117834195   -0.11435091969653338
-0.42526408835367113   -0.524544117834195   -0.11435091969653338
-0.42526408835367113   -0.524544117834195   -0.11435091969653338
-0.30924832922762696   -0.035600393047805774   0.011577073847780436
-0.30924832922762696   -0.035600393047805774   0.011577073847780436
-0.30924832922762696   -0.035600393047805774   0.011577073847780436
-0.30924832922762696   -0.035600393047805774   0.011577073847780436
-1.1319986089005754   -0.6579048645460135   -0.3579806946893178
-1.1319986089005754   -0.6579048645460135   -0.3579806946893178
-1.1319986089005754   -0.6579048645460135   -0.3579806946893178
-1.1319986089005754   -0.6579048645460135   -0.3579806946893178
-0.6971905427797944   -0.3304217000447281   0.027951041762317323
-0.6971905427797944   -0.3304217000447281   0.027951041762317323
-0.6971905427797944   -0.3304217000447281   0.027951041762317323
-0.6971905427797944   -0.3304217000447281   0.027951041762317323
-0.9865763435039301   -0.19261354760253716   -0.09616068464957489
-0.9865763435039301   -0.19261354760253716   -0.09616068464957489
-0.9865763435039301   -0.19261354760253716   -0.09616068464957489
-0.9865763435039301   -0.19261354760253716   -0.09616068464957489
-0.4141194305491851   -0.4603405459161956   -0.08803827989161835
-0.4141194305491851   -0.4603405459161956   -0.08803827989161835
-0.4141194305491851   -0.4603405459161956   -0.08803827989161835
-0.4141194305491851   -0.4603405459161956   -0.08803827989161835
-0.3561441226101459   -0.09215500728484494   -0.0187790933496936
-0.3561441226101459   -0.09215500728484494   -0.0187790933496936
-0.3561441226101459   -0.09215500728484494   -0.0187790933496936
-0.3561441226101459   -0.09215500728484494   -0.0187790933496936
-1.0318653580802144   -0.5543230869201691   -0.31723768900007665
-1.0318653580802144   -0.5543230869201691   -0.31723768900007665
-1.0318653580802144   -0.5543230869201691   -0.31723768900007665
-1.0318653580802144   -0.5543230869201691   -0.31723768900007665
-0.6460140662598448   -0.28672603350815395   0.11991756570877665
-0.6460140662598448   -0.28672603350815395   0.11991756570877665
-0.6460140662598448   -0.28672603350815395   0.11991756570877665
-0.6460140662598448   -0.28672603350815395   0.11991756570877665
-0.2895238977378831   -0.15890208220851576   -0.023445517000359507
-0.2895238977378831   -0.15890208220851576   -0.023445517000359507
-0.2895238977378831   -0.15890208220851576   -0.023445517000359507
-0.2895238977378831   -0.15890208220851576   -0.023445517000359507
-0.13490332678797473   -0.20138031115722096   -0.033381566704156276
-0.13490332678797473   -0.20138031115722096   -0.033381566704156276
-0.13490332678797473   -0.20138031115722096   -0.033381566704156276
-0.13490332678797473   -0.20138031115722096   -0.033381566704156276
-0.11834689878069696   -0.10209383144902927   0.00297406026446494
-0.11834689878069696   -0.10209383144902927   0.00297406026446494
-0.11834689878069696   -0.10209383144902927   0.00297406026446494
-0.11834689878069696   -0.10209383144902927   0.00297406026446494
-0.35585714540144825   -0.2925691814613723   0.0007088586917583448
-0.35585714540144825   -0.2925691814613723   0.0007088586917583448
-0.35585714540144825   -0.2925691814613723   0.0007088586917583448
-0.35585714540144825   -0.2925691814613723   0.0007088586917583448
-0.19067158619484137   -0.14161200143181896   0.061460133853502935
-0.19067158619484137   -0.14161200143181896   0.061460133853502935
-0.19067158619484137   -0.14161200143181896   0.061460133853502935
-0.19067158619484137   -0.14161200143181896   0.061460133853502935
-0.33011465800917084   -0.14805981042438618   -0.015088075383844438
-0.33011465800917084   -0.14805981042438618   -0.015088075383844438
-0.33011465800917084   -0.14805981042438618   -0.015088075383844438
-0.33011465800917084   -0.14805981042438618   -0.015088075383844438
-0.15424804205434423   -0.25676185836738574   -0.021863629185412993
-0.15424804205434423   -0.25676185836738574   -0.021863629185412993
-0.15424804205434423   -0.25676185836738574   -0.021863629185412993
-0.15424804205434423   -0.25676185836738574   -0.021863629185412993
-0.12812832923191197   -0.10575851637061492   0.0031241282688497726
-0.12812832923191197   -0.10575851637061492   0.0031241282688497726
-0.12812832923191197   -0.10575851637061492   0.0031241282688497726
-0.12812832923191197   -0.10575851637061492   0.0031241282688497726
-0.3736776565353777   -0.2892042883106175   -0.05696566742815918
-0.3736776565353777   -0.2892042883106175   -0.05696566742815918
-0.3736776565353777   -0.2892042883106175   -0.05696566742815918
-0.3736776565353777   -0.2892042883106175   -0.05696566742815918
-0.2279433578954203   -0.18131017303282487   0.027780564606719786
-0.2279433578954203   -0.18131017303282487   0.027780564606719786
-0.2279433578954203   -0.18131017303282487   0.027780564606719786
-0.2279433578954203   -0.18131017303282487   0.027780564606719786
-0.3410143347497742   -0.15460934374175778   -0.028244003069001808
-0.3410143347497742   -0.15460934374175778   -0.028244003069001808
-0.3410143347497742   -0.15460934374175778   -0.028244003069001808
-0.3410143347497742   -0.15460934374175778   -0.028244003069001808
-0.15985967611495666   -0.23942148603691596   -0.021869636480072577
-0.15985967611495666   -0.23942148603691596   -0.021869636480072577
-0.15985967611495666   -0.23942148603691596   -0.021869636480072577
-0.15985967611495666   -0.23942148603691596   -0.021869636480072577
-0.143308429724714   -0.10908028298279669   0.0046122171578801135
-0.143308429724714   -0.10908028298279669   0.0046122171578801135
-0.143308429724714   -0.10908028298279669   0.0046122171578801135
-0.143308429724714   -0.10908028298279669   0.0046122171578801135
-0.4000989818366072   -0.2812852631674857   -0.04942313359936079
-0.4000989818366072   -0.2812852631674857   -0.04942313359936079
-0.4000989818366072   -0.2812852631674857   -0.04942313359936079
-0.4000989818366072   -0.2812852631674857   -0.04942313359936079
-0.23890820124755657   -0.17095053202359398   0.029337078962744505
-0.23890820124755657   -0.17095053202359398   0.029337078962744505
-0.23890820124755657   -0.17095053202359398   0.029337078962744505
-0.23890820124755657   -0.17095053202359398   0.029337078962744505
-0.10555407081307315   -0.09497249177888747   0.006956893792018151
-0.10555407081307315   -0.09497249177888747   0.006956893792018151
-0.10555407081307315   -0.09497249177888747   0.006956893792018151
-0.10555407081307315   -0.09497249177888747   0.006956893792018151
-0.06533272704678986   -0.06432691786821158   -0.016372921648572566
-0.06533272704678986   -0.06432691786821158   -0.016372921648572566
-0.06533272704678986   -0.06432691786821158   -0.016372921648572566
-0.06533272704678986   -0.06432691786821158   -0.016372921648572566
-0.0630637596678652   -0.08513180882525351   0.006944841277760176
-0.0630637596678652   -0.08513180882525351   0.006944841277760176
-0.0630637596678652   -0.08513180882525351   0.006944841277760176
-0.0630637596678652   -0.08513180882525351   0.006944841277760176
-0.11740498286749043   -0.08733696327492968   -0.007073228343601069
-0.11740498286749043   -0.08733696327492968   -0.007073228343601069
-0.11740498286749043   -0.08733696327492968   -0.007073228343601069
-0.11740498286749043   -0.08733696327492968   -0.007073228343601069
-0.07408054456244298   -0.0698843365691687   0.03088686954137762
-0.07408054456244298   -0.0698843365691687   0.03088686954137762
-0.07408054456244298   -0.0698843365691687   0.03088686954137762
-0.07408054456244298   -0.0698843365691687   0.03088686954137762
-0.11613841831472546   -0.09562598548426568   0.007548616629556835
-0.11613841831472546   -0.09562598548426568   0.007548616629556835
-0.11613841831472546   -0.09562598548426568   0.007548616629556835
-0.11613841831472546   -0.09562598548426568   0.007548616629556835
-0.06540883987181156   -0.07792130226709877   -0.01199106630012631
-0.06540883987181156   -0.07792130226709877   -0.01199106630012631
-0.06540883987181156   -0.07792130226709877   -0.01199106630012631
-0.06540883987181156   -0.07792130226709877   -0.01199106630012631
-0.06395497071775638   -0.08768384667998759   0.006204612950140721
-0.06395497071775638   -0.08768384667998759   0.006204612950140721
-0.06395497071775638   -0.08768384667998759   0.006204612950140721
-0.06395497071775638   -0.08768384667998759   0.006204612950140721
-0.12494746439120703   -0.10173243493244394   0.015002371034202853
-0.12494746439120703   -0.10173243493244394   0.015002371034202853
-0.12494746439120703   -0.10173243493244394   0.015002371034202853
-0.12494746439120703   -0.10173243493244394   0.015002371034202853
-0.08086021653705891   -0.07793071185446139   0.02598033191726794
-0.08086021653705891   -0.07793071185446139   0.02598033191726794
-0.08086021653705891   -0.07793071185446139   0.02598033191726794
-0.08086021653705891   -0.07793071185446139   0.02598033191726794
-0.12540267274258746   -0.09917960900500926   0.010173503349862903
-0.12540267274258746   -0.09917960900500926   0.010173503349862903
-0.12540267274258746   -0.09917960900500926   0.010173503349862903
-0.12540267274258746   -0.09917960900500926   0.010173503349862903
-0.06897652414656572   -0.09571343438761246   -0.01087356648628109
-0.06897652414656572   -0.09571343438761246   -0.01087356648628109
-0.06897652414656572   -0.09571343438761246   -0.01087356648628109
-0.06897652414656572   -0.09571343438761246   -0.01087356648628109
-0.0650084201945259   -0.09048899118397732   0.008744615731279354
-0.0650084201945259   -0.09048899118397732   0.008744615731279354
-0.0650084201945259   -0.09048899118397732   0.008744615731279354
-0.0650084201945259   -0.09048899118397732   0.008744615731279354
-0.14662122811964096   -0.12474534010493744   0.0037132823053863014
-0.14662122811964096   -0.12474534010493744   0.0037132823053863014
-0.14662122811964096   -0.12474534010493744   0.0037132823053863014
-0.14662122811964096   -0.12474534010493744   0.0037132823053863014
-0.090614569019974   -0.08869600613936017   0.01201823135936236
-0.090614569019974   -0.08869600613936017   0.01201823135936236
-0.090614569019974   -0.08869600613936017   0.01201823135936236
-0.090614569019974   -0.08869600613936017   0.01201823135936236
-0.053090092731248116   -0.037877170307674804   0.018390502368599355
-0.053090092731248116   -0.037877170307674804   0.018390502368599355
-0.053090092731248116   -0.037877170307674804   0.018390502368599355
-0.053090092731248116   -0.037877170307674804   0.018390502368599355
-0.03783017765802162   -0.0013386122759591846   -0.003714686487022941
-0.03783017765802162   -0.0013386122759591846   -0.003714686487022941
-0.03783017765802162   -0.0013386122759591846   -0.003714686487022941
-0.03783017765802162   -0.0013386122759591846   -0.003714686487022941
-0.0358582578114072   -0.041056026944588805   0.01137991439383747
-0.0358582578114072   -0.041056026944588805   0.01137991439383747
-0.0358582578114072   -0.041056026944588805   0.01137991439383747
-0.0358582578114072   -0.041056026944588805   0.01137991439383747
-0.049571746644223556   -0.008642967029055992   -0.002083935400228184
-0.049571746644223556   -0.008642967029055992   -0.002083935400228184
-0.049571746644223556   -0.008642967029055992   -0.002083935400228184
-0.049571746644223556   -0.008642967029055992   -0.002083935400228184
-0.04073438370964027   -0.0212463187203958   0.009118971879791599
-0.04073438370964027   -0.0212463187203958   0.009118971879791599
-0.04073438370964027   -0.0212463187203958   0.009118971879791599
-0.04073438370964027   -0.0212463187203958   0.009118971879791599
-0.05259262401801425   -0.04320428410360434   0.017372994805365798
-0.05259262401801425   -0.04320428410360434   0.017372994805365798
-0.05259262401801425   -0.04320428410360434   0.017372994805365798
-0.05259262401801425   -0.04320428410360434   0.017372994805365798
-0.03194176706098858   -0.005599096493412498   -0.004494562305245695
-0.03194176706098858   -0.005599096493412498   -0.004494562305245695
-0.03194176706098858   -0.005599096493412498   -0.004494562305245695
-0.03194176706098858   -0.005599096493412498   -0.004494562305245695
-0.033024430391681195   -0.044669043745324544   0.010522547405600557
-0.033024430391681195   -0.044669043745324544   0.010522547405600557
-0.033024430391681195   -0.044669043745324544   0.010522547405600557
-0.033024430391681195   -0.044669043745324544   0.010522547405600557
-0.05014591438090608   -0.01589977608089248   0.0034658240352960566
-0.05014591438090608   -0.01589977608089248   0.0034658240352960566
-0.05014591438090608   -0.01589977608089248   0.0034658240352960566
-0.05014591438090608   -0.01589977608089248   0.0034658240352960566
-0.03757789315289095   -0.02439843339092396   0.01073195113496564
-0.03757789315289095   -0.02439843339092396   0.01073195113496564
-0.03757789315289095   -0.02439843339092396   0.01073195113496564
-0.03757789315289095   -0.02439843339092396   0.01073195113496564
-0.053044740285632344   -0.04680269293256685   0.019874611363340157
-0.053044740285632344   -0.04680269293256685   0.019874611363340157
-0.053044740285632344   -0.04680269293256685   0.019874611363340157
-0.053044740285632344   -0.04680269293256685   0.019874611363340157
-0.03045396368728391   -0.01409448609397897   -0.007199676723758557
-0.03045396368728391   -0.01409448609397897   -0.007199676723758557
-0.03045396368728391   -0.01409448609397897   -0.007199676723758557
-0.03045396368728391   -0.01409448609397897   -0.007199676723758557
-0.027901518096442517   -0.04867385597844242   0.011591787106115772
-0.027901518096442517   -0.04867385597844242   0.011591787106115772
-0.027901518096442517   -0.04867385597844242   0.011591787106115772
-0.027901518096442517   -0.04867385597844242   0.011591787106115772
-0.05442598389585129   -0.033342852000591866   0.004510658041265921
-0.05442598389585129   -0.033342852000591866   0.004510658041265921
-0.05442598389585129   -0.033342852000591866   0.004510658041265921
-0.05442598389585129   -0.033342852000591866   0.004510658041265921
-0.03640372633741679   -0.030709169441975562   0.009113590727258418
-0.03640372633741679   -0.030709169441975562   0.009113590727258418
-0.03640372633741679   -0.030709169441975562   0.009113590727258418
-0.03640372633741679   -0.030709169441975562   0.009113590727258418
-0.03441198755741501   -0.006535601744585623   0.018573253484636558
-0.03441198755741501   -0.006535601744585623   0.018573253484636558
-0.03441198755741501   -0.006535601744585623   0.018573253484636558
-0.03441198755741501   -0.006535601744585623   0.018573253484636558
-0.006473522162129471   0.0037794601928831744   -0.00037544409715334543
-0.006473522162129471   0.0037794601928831744   -0.00037544409715334543
-0.006473522162129471   0.0037794601928831744   -0.00037544409715334543
-0.006473522162129471   0.0037794601928831744   -0.00037544409715334543
0.0014893669913409817   -0.002128647304959996   0.011542475055090907
0.0014893669913409817   -0.002128647304959996   0.011542475055090907
0.0014893669913409817   -0.002128647304959996   0.011542475055090907
0.0014893669913409817   -0.002128647304959996   0.011542475055090907
-0.02964256399434295   0.0026764981947206175   -0.0012741416601512508
-0.02964256399434295   0.0026764981947206175   -0.0012741416601512508
-0.02964256399434295   0.0026764981947206175   -0.0012741416601512508
-0.02964256399434295   0.0026764981947206175   -0.0012741416601512508
-0.01752618971815231   -0.0013658865772104615   -0.001392016654806386
-0.01752618971815231   -0.0013658865772104615   -0.001392016654806386
-0.01752618971815231   -0.0013658865772104615   -0.001392016654806386
-0.01752618971815231   -0.0013658865772104615   -0.001392016654806386
-0.027323865190631083   -0.00633384886812186   0.019329699421251133
-0.027323865190631083   -0.00633384886812186   0.019329699421251133
-0.027323865190631083   -0.00633384886812186   0.019329699421251133
-0.027323865190631083   -0.00633384886812186   0.019329699421251133
0.00018787103428684077   0.007898902604539444   -0.004992554639686909
0.00018787103428684077   0.007898902604539444   -0.004992554639686909
0.00018787103428684077   0.007898902604539444   -0.004992554639686909
0.00018787103428684077   0.007898902604539444   -0.004992554639686909
0.005407182693946133   -0.002644244152494467   0.0142351351444698
0.005407182693946133   -0.002644244152494467   0.0142351351444698
0.005407182693946133   -0.002644244152494467   0.0142351351444698
0.005407182693946133   -0.002644244152494467   0.0142351351444698
-0.026199511441839785   0.0018369919101795026   -0.0018588935006975142
-0.026199511441839785   0.0018369919101795026   -0.0018588935006975142
-0.026199511441839785   0.0018369919101795026   -0.0018588935006975142
-0.026199511441839785   0.0018369919101795026   -0.0018588935006975142
-0.011736075260813097   -0.00042224252909026224   0.0017857001702663064
-0.011736075260813097   -0.00042224252909026224   0.0017857001702663064
-0.011736075260813097   -0.00042224252909026224   0.0017857001702663064
-0.011736075260813097   -0.00042224252909026224   0.0017857001702663064
-0.023457325081675258   -0.007105305578710019   0.020794335789015735
-0.023457325081675258   -0.007105305578710019   0.020794335789015735
-0.023457325081675258   -0.007105305578710019   0.020794335789015735
-0.023457325081675258   -0.007105305578710019   0.020794335789015735
0.00356142908348993   0.007194486086101898   -0.004832363146415252
0.00356142908348993   0.007194486086101898   -0.004832363146415252
0.00356142908348993   0.007194486086101898   -0.004832363146415252
0.00356142908348993   0.007194486086101898   -0.004832363146415252
0.009313031799398406   -0.0042124370784453954   0.013860353948449344
0.009313031799398406   -0.0042124370784453954   0.013860353948449344
0.009313031799398406   -0.0042124370784453954   0.013860353948449344
0.009313031799398406   -0.0042124370784453954   0.013860353948449344
-0.02058484820119131   0.0015901975097293878   -0.002088916905798366
-0.02058484820119131   0.0015901975097293878   -0.002088916905798366
-0.02058484820119131   0.0015901975097293878   -0.002088916905798366
-0.02058484820119131   0.0015901975097293878   -0.002088916905798366
-0.006602319902241547   9.837993813680517e-05   0.004530154684898623
-0.006602319902241547   9.837993813680517e-05   0.004530154684898623
-0.006602319902241547   9.837993813680517e-05   0.004530154684898623
-0.006602319902241547   9.837993813680517e-05   0.004530154684898623
              </DataArray>   
             <DataArray type="Float64" NumberOfComponents="3" Name="Displacements" format="ascii">   
0.0   0.0   0.0
-0.0031540164059563947   -0.002074344014332649   -0.0010568747920604716
0.0   0.0   0.0
0.0   0.0   0.0
-0.0031540164059563947   -0.002074344014332649   -0.0010568747920604716
-0.0020065307114824705   -0.0018650482074584539   -0.000776550059314691
0.0   0.0   0.0
-0.0019665555776178416   -0.001958345416324077   -0.0006506809899449175
0.0   0.0   0.0
0.0   0.0   0.0
-0.0019665555776178416   -0.001958345416324077   -0.0006506809899449175
0.0   0.0   0.0
0.0   0.0   0.0
-0.0019665555776178416   -0.001958345416324077   -0.0006506809899449175
-0.003300465792407504   -0.002209676563314831   -0.0008486705985899185
-0.0031540164059563947   -0.002074344014332649   -0.0010568747920604716
0.0   0.0   0.0
-0.0019665555776178416   -0.001958345416324077   -0.0006506809899449175
-0.0031540164059563947   -0.002074344014332649   -0.0010568747920604716
0.0   0.0   0.0
0.0   0.0   0.0
-0.003300465792407504   -0.002209676563314831   -0.0008486705985899185
0.0   0.0   0.0
0.0   0.0   0.0
-0.003300465792407504   -0.002209676563314831   -0.0008486705985899185
-0.0019665555776178416   -0.001958345416324077   -0.0006506809899449175
0.0   0.0   0.0
-0.0019717853780985947   -0.0020061937130751023   -0.0005250292869008689
0.0   0.0   0.0
0.0   0.0   0.0
-0.0019717853780985947   -0.0020061937130751023   -0.0005250292869008689
0.0   0.0   0.0
0.0   0.0   0.0
-0.0019717853780985947   -0.0020061937130751023   -0.0005250292869008689
-0.0034031705847044256   -0.0022755022313250893   -0.0006492470407499653
-0.003300465792407504   -0.002209676563314831   -0.0008486705985899185
0.0   0.0   0.0
-0.0019717853780985947   -0.0020061937130751023   -0.0005250292869008689
-0.003300465792407504   -0.002209676563314831   -0.0008486705985899185
0.0   0.0   0.0
0.0   0.0   0.0
-0.0034031705847044256   -0.0022755022313250893   -0.0006492470407499653
0.0   0.0   0.0
0.0   0.0   0.0
-0.0034031705847044256   -0.0022755022313250893   -0.0006492470407499653
-0.0019717853780985947   -0.0020061937130751023   -0.0005250292869008689
0.0   0.0   0.0
-0.0019703924798416383   -0.0020185386838448734   -0.0003951487210063859
0.0   0.0   0.0
0.0   0.0   0.0
-0.0019703924798416383   -0.0020185386838448734   -0.0003951487210063859
0.0   0.0   0.0
0.0   0.0   0.0
-0.0019703924798416383   -0.0020185386838448734   -0.0003951487210063859
-0.0036247388296652095   -0.002325477035355985   -0.00041793186702671417
-0.0034031705847044256   -0.0022755022313250893   -0.0006492470407499653
0.0   0.0   0.0
-0.0019703924798416383   -0.0020185386838448734   -0.0003951487210063859
-0.0034031705847044256   -0.0022755022313250893   -0.0006492470407499653
0.0   0.0   0.0
0.0   0.0   0.0
-0.0020065307114824705   -0.0018650482074584539   -0.000776550059314691
0.0   0.0   0.0
0.0   0.0   0.0
-0.0020065307114824705   -0.0018650482074584539   -0.000776550059314691
-0.0009141506383384551   -0.0017883536700189736   -0.0005907956209698838
0.0   0.0   0.0
-0.0008789089372207827   -0.0018490418696598596   -0.0005313359826865117
0.0   0.0   0.0
0.0   0.0   0.0
-0.0008789089372207827   -0.0018490418696598596   -0.0005313359826865117
0.0   0.0   0.0
0.0   0.0   0.0
-0.0008789089372207827   -0.0018490418696598596   -0.0005313359826865117
-0.0019665555776178416   -0.001958345416324077   -0.0006506809899449175
-0.0020065307114824705   -0.0018650482074584539   -0.000776550059314691
0.0   0.0   0.0
-0.0008789089372207827   -0.0018490418696598596   -0.0005313359826865117
-0.0020065307114824705   -0.0018650482074584539   -0.000776550059314691
0.0   0.0   0.0
0.0   0.0   0.0
-0.0019665555776178416   -0.001958345416324077   -0.0006506809899449175
0.0   0.0   0.0
0.0   0.0   0.0
-0.0019665555776178416   -0.001958345416324077   -0.0006506809899449175
-0.0008789089372207827   -0.0018490418696598596   -0.0005313359826865117
0.0   0.0   0.0
-0.0008589868441895605   -0.0018721869358373357   -0.0004734646183058669
0.0   0.0   0.0
0.0   0.0   0.0
-0.0008589868441895605   -0.0018721869358373357   -0.0004734646183058669
0.0   0.0   0.0
0.0   0.0   0.0
-0.0008589868441895605   -0.0018721869358373357   -0.0004734646183058669
-0.0019717853780985947   -0.0020061937130751023   -0.0005250292869008689
-0.0019665555776178416   -0.001958345416324077   -0.0006506809899449175
0.0   0.0   0.0
-0.0008589868441895605   -0.0018721869358373357   -0.0004734646183058669
-0.0019665555776178416   -0.001958345416324077   -0.0006506809899449175
0.0   0.0   0.0
0.0   0.0   0.0
-0.0019717853780985947   -0.0020061937130751023   -0.0005250292869008689
0.0   0.0   0.0
0.0   0.0   0.0
-0.0019717853780985947   -0.0020061937130751023   -0.0005250292869008689
-0.0008589868441895605   -0.0018721869358373357   -0.0004734646183058669
0.0   0.0   0.0
-0.0008407939779048097   -0.0018625611523146169   -0.00041367317327558256
0.0   0.0   0.0
0.0   0.0   0.0
-0.0008407939779048097   -0.0018625611523146169   -0.00041367317327558256
0.0   0.0   0.0
0.0   0.0   0.0
-0.0008407939779048097   -0.0018625611523146169   -0.00041367317327558256
-0.0019703924798416383   -0.0020185386838448734   -0.0003951487210063859
-0.0019717853780985947   -0.0020061937130751023   -0.0005250292869008689
0.0   0.0   0.0
-0.0008407939779048097   -0.0018625611523146169   -0.00041367317327558256
-0.0019717853780985947   -0.0020061937130751023   -0.0005250292869008689
0.0   0.0   0.0
0.0   0.0   0.0
-0.0009141506383384551   -0.0017883536700189736   -0.0005907956209698838
0.0   0.0   0.0
0.0   0.0   0.0
-0.0009141506383384551   -0.0017883536700189736   -0.0005907956209698838
0.00011767305670592679   -0.0017982297455757543   -0.0004725255797903829
0.0   0.0   0.0
0.00014031436866849235   -0.0018296417961914098   -0.0004806617414588284
0.0   0.0   0.0
0.0   0.0   0.0
0.00014031436866849235   -0.0018296417961914098   -0.0004806617414588284
0.0   0.0   0.0
0.0   0.0   0.0
0.00014031436866849235   -0.0018296417961914098   -0.0004806617414588284
-0.0008789089372207827   -0.0018490418696598596   -0.0005313359826865117
-0.0009141506383384551   -0.0017883536700189736   -0.0005907956209698838
0.0   0.0   0.0
0.00014031436866849235   -0.0018296417961914098   -0.0004806617414588284
-0.0009141506383384551   -0.0017883536700189736   -0.0005907956209698838
0.0   0.0   0.0
0.0   0.0   0.0
-0.0008789089372207827   -0.0018490418696598596   -0.0005313359826865117
0.0   0.0   0.0
0.0   0.0   0.0
-0.0008789089372207827   -0.0018490418696598596   -0.0005313359826865117
0.00014031436866849235   -0.0018296417961914098   -0.0004806617414588284
0.0   0.0   0.0
0.00015822612531370126   -0.001826999932961326   -0.00048804170684557153
0.0   0.0   0.0
0.0   0.0   0.0
0.00015822612531370126   -0.001826999932961326   -0.00048804170684557153
0.0   0.0   0.0
0.0   0.0   0.0
0.00015822612531370126   -0.001826999932961326   -0.00048804170684557153
-0.0008589868441895605   -0.0018721869358373357   -0.0004734646183058669
-0.0008789089372207827   -0.0018490418696598596   -0.0005313359826865117
0.0   0.0   0.0
0.00015822612531370126   -0.001826999932961326   -0.00048804170684557153
-0.0008789089372207827   -0.0018490418696598596   -0.0005313359826865117
0.0   0.0   0.0
0.0   0.0   0.0
-0.0008589868441895605   -0.0018721869358373357   -0.0004734646183058669
0.0   0.0   0.0
0.0   0.0   0.0
-0.0008589868441895605   -0.0018721869358373357   -0.0004734646183058669
0.00015822612531370126   -0.001826999932961326   -0.00048804170684557153
0.0   0.0   0.0
0.00018222150357086658   -0.0017875175944021447   -0.0004956636792109951
0.0   0.0   0.0
0.0   0.0   0.0
0.00018222150357086658   -0.0017875175944021447   -0.0004956636792109951
0.0   0.0   0.0
0.0   0.0   0.0
0.00018222150357086658   -0.0017875175944021447   -0.0004956636792109951
-0.0008407939779048097   -0.0018625611523146169   -0.00041367317327558256
-0.0008589868441895605   -0.0018721869358373357   -0.0004734646183058669
0.0   0.0   0.0
0.00018222150357086658   -0.0017875175944021447   -0.0004956636792109951
-0.0008589868441895605   -0.0018721869358373357   -0.0004734646183058669
0.0   0.0   0.0
0.0   0.0   0.0
0.00011767305670592679   -0.0017982297455757543   -0.0004725255797903829
0.0   0.0   0.0
0.0   0.0   0.0
0.00011767305670592679   -0.0017982297455757543   -0.0004725255797903829
0.0012379711096366442   -0.0018853515651710527   -0.00041416633371302834
0.0   0.0   0.0
0.0012405507618527235   -0.0018952666367873627   -0.0004934312923754442
0.0   0.0   0.0
0.0   0.0   0.0
0.0012405507618527235   -0.0018952666367873627   -0.0004934312923754442
0.0   0.0   0.0
0.0   0.0   0.0
0.0012405507618527235   -0.0018952666367873627   -0.0004934312923754442
0.00014031436866849235   -0.0018296417961914098   -0.0004806617414588284
0.00011767305670592679   -0.0017982297455757543   -0.0004725255797903829
0.0   0.0   0.0
0.0012405507618527235   -0.0018952666367873627   -0.0004934312923754442
0.00011767305670592679   -0.0017982297455757543   -0.0004725255797903829
0.0   0.0   0.0
0.0   0.0   0.0
0.00014031436866849235   -0.0018296417961914098   -0.0004806617414588284
0.0   0.0   0.0
0.0   0.0   0.0
0.00014031436866849235   -0.0018296417961914098   -0.0004806617414588284
0.0012405507618527235   -0.0018952666367873627   -0.0004934312923754442
0.0   0.0   0.0
0.0012355637015820588   -0.0018682056552210872   -0.0005695186178294797
0.0   0.0   0.0
0.0   0.0   0.0
0.0012355637015820588   -0.0018682056552210872   -0.0005695186178294797
0.0   0.0   0.0
0.0   0.0   0.0
0.0012355637015820588   -0.0018682056552210872   -0.0005695186178294797
0.00015822612531370126   -0.001826999932961326   -0.00048804170684557153
0.00014031436866849235   -0.0018296417961914098   -0.0004806617414588284
0.0   0.0   0.0
0.0012355637015820588   -0.0018682056552210872   -0.0005695186178294797
0.00014031436866849235   -0.0018296417961914098   -0.0004806617414588284
0.0   0.0   0.0
0.0   0.0   0.0
0.00015822612531370126   -0.001826999932961326   -0.00048804170684557153
0.0   0.0   0.0
0.0   0.0   0.0
0.00015822612531370126   -0.001826999932961326   -0.00048804170684557153
0.0012355637015820588   -0.0018682056552210872   -0.0005695186178294797
0.0   0.0   0.0
0.0012598061325457507   -0.0017959213949199633   -0.000644194247368038
0.0   0.0   0.0
0.0   0.0   0.0
0.0012598061325457507   -0.0017959213949199633   -0.000644194247368038
0.0   0.0   0.0
0.0   0.0   0.0
0.0012598061325457507   -0.0017959213949199633   -0.000644194247368038
0.00018222150357086658   -0.0017875175944021447   -0.0004956636792109951
0.00015822612531370126   -0.001826999932961326   -0.00048804170684557153
0.0   0.0   0.0
0.0012598061325457507   -0.0017959213949199633   -0.000644194247368038
0.00015822612531370126   -0.001826999932961326   -0.00048804170684557153
0.0   0.0   0.0
0.0   0.0   0.0
0.0012379711096366442   -0.0018853515651710527   -0.00041416633371302834
0.0   0.0   0.0
0.0   0.0   0.0
0.0012379711096366442   -0.0018853515651710527   -0.00041416633371302834
0.002796896943816786   -0.0021063576864826764   -0.0003911215665152423
0.0   0.0   0.0
0.002627229014313052   -0.002083187783160076   -0.000570962004362663
0.0   0.0   0.0
0.0   0.0   0.0
0.002627229014313052   -0.002083187783160076   -0.000570962004362663
0.0   0.0   0.0
0.0   0.0   0.0
0.002627229014313052   -0.002083187783160076   -0.000570962004362663
0.0012405507618527235   -0.0018952666367873627   -0.0004934312923754442
0.0012379711096366442   -0.0018853515651710527   -0.00041416633371302834
0.0   0.0   0.0
0.002627229014313052   -0.002083187783160076   -0.000570962004362663
0.0012379711096366442   -0.0018853515651710527   -0.00041416633371302834
0.0   0.0   0.0
0.0   0.0   0.0
0.0012405507618527235   -0.0018952666367873627   -0.0004934312923754442
0.0   0.0   0.0
0.0   0.0   0.0
0.0012405507618527235   -0.0018952666367873627   -0.0004934312923754442
0.002627229014313052   -0.002083187783160076   -0.000570962004362663
0.0   0.0   0.0
0.0025491356163240457   -0.0020398807431404884   -0.0007230773465482807
0.0   0.0   0.0
0.0   0.0   0.0
0.0025491356163240457   -0.0020398807431404884   -0.0007230773465482807
0.0   0.0   0.0
0.0   0.0   0.0
0.0025491356163240457   -0.0020398807431404884   -0.0007230773465482807
0.0012355637015820588   -0.0018682056552210872   -0.0005695186178294797
0.0012405507618527235   -0.0018952666367873627   -0.0004934312923754442
0.0   0.0   0.0
0.0025491356163240457   -0.0020398807431404884   -0.0007230773465482807
0.0012405507618527235   -0.0018952666367873627   -0.0004934312923754442
0.0   0.0   0.0
0.0   0.0   0.0
0.0012355637015820588   -0.0018682056552210872   -0.0005695186178294797
0.0   0.0   0.0
0.0   0.0   0.0
0.0012355637015820588   -0.0018682056552210872   -0.0005695186178294797
0.0025491356163240457   -0.0020398807431404884   -0.0007230773465482807
0.0   0.0   0.0
0.002432648630192492   -0.0019292104861687513   -0.0008841306878727868
0.0   0.0   0.0
0.0   0.0   0.0
0.002432648630192492   -0.0019292104861687513   -0.0008841306878727868
0.0   0.0   0.0
0.0   0.0   0.0
0.002432648630192492   -0.0019292104861687513   -0.0008841306878727868
0.0012598061325457507   -0.0017959213949199633   -0.000644194247368038
0.0012355637015820588   -0.0018682056552210872   -0.0005695186178294797
0.0   0.0   0.0
0.002432648630192492   -0.0019292104861687513   -0.0008841306878727868
0.0012355637015820588   -0.0018682056552210872   -0.0005695186178294797
0.0   0.0   0.0
-0.0031540164059563947   -0.002074344014332649   -0.0010568747920604716
-0.005887348035790084   -0.005783136718863549   -0.0014240677240515342
-0.0020065307114824705   -0.0018650482074584539   -0.000776550059314691
-0.003300465792407504   -0.002209676563314831   -0.0008486705985899185
-0.005887348035790084   -0.005783136718863549   -0.0014240677240515342
-0.003757497380144107   -0.005595037774400978   -0.0011725530196711358
-0.0020065307114824705   -0.0018650482074584539   -0.000776550059314691
-0.0037614128358868233   -0.005690421522987927   -0.001056234775000436
-0.003300465792407504   -0.002209676563314831   -0.0008486705985899185
-0.0019665555776178416   -0.001958345416324077   -0.0006506809899449175
-0.0037614128358868233   -0.005690421522987927   -0.001056234775000436
-0.0020065307114824705   -0.0018650482074584539   -0.000776550059314691
-0.003300465792407504   -0.002209676563314831   -0.0008486705985899185
-0.0037614128358868233   -0.005690421522987927   -0.001056234775000436
-0.006063041570393407   -0.005916289645182618   -0.001235264401574362
-0.005887348035790084   -0.005783136718863549   -0.0014240677240515342
-0.003300465792407504   -0.002209676563314831   -0.0008486705985899185
-0.0037614128358868233   -0.005690421522987927   -0.001056234775000436
-0.005887348035790084   -0.005783136718863549   -0.0014240677240515342
-0.0020065307114824705   -0.0018650482074584539   -0.000776550059314691
-0.003300465792407504   -0.002209676563314831   -0.0008486705985899185
-0.006063041570393407   -0.005916289645182618   -0.001235264401574362
-0.0019665555776178416   -0.001958345416324077   -0.0006506809899449175
-0.0034031705847044256   -0.0022755022313250893   -0.0006492470407499653
-0.006063041570393407   -0.005916289645182618   -0.001235264401574362
-0.0037614128358868233   -0.005690421522987927   -0.001056234775000436
-0.0019665555776178416   -0.001958345416324077   -0.0006506809899449175
-0.0037756639290898474   -0.005748616540064905   -0.0009444919002914835
-0.0034031705847044256   -0.0022755022313250893   -0.0006492470407499653
-0.0019717853780985947   -0.0020061937130751023   -0.0005250292869008689
-0.0037756639290898474   -0.005748616540064905   -0.0009444919002914835
-0.0019665555776178416   -0.001958345416324077   -0.0006506809899449175
-0.0034031705847044256   -0.0022755022313250893   -0.0006492470407499653
-0.0037756639290898474   -0.005748616540064905   -0.0009444919002914835
-0.006184891070834869   -0.005991535053489774   -0.0010504409289707815
-0.006063041570393407   -0.005916289645182618   -0.001235264401574362
-0.0034031705847044256   -0.0022755022313250893   -0.0006492470407499653
-0.0037756639290898474   -0.005748616540064905   -0.0009444919002914835
-0.006063041570393407   -0.005916289645182618   -0.001235264401574362
-0.0019665555776178416   -0.001958345416324077   -0.0006506809899449175
-0.0034031705847044256   -0.0022755022313250893   -0.0006492470407499653
-0.006184891070834869   -0.005991535053489774   -0.0010504409289707815
-0.0019717853780985947   -0.0020061937130751023   -0.0005250292869008689
-0.0036247388296652095   -0.002325477035355985   -0.00041793186702671417
-0.006184891070834869   -0.005991535053489774   -0.0010504409289707815
-0.0037756639290898474   -0.005748616540064905   -0.0009444919002914835
-0.0019717853780985947   -0.0020061937130751023   -0.0005250292869008689
-0.003763831312173285   -0.005778896166514688   -0.000839930911427569
-0.0036247388296652095   -0.002325477035355985   -0.00041793186702671417
-0.0019703924798416383   -0.0020185386838448734   -0.0003951487210063859
-0.003763831312173285   -0.005778896166514688   -0.000839930911427569
-0.0019717853780985947   -0.0020061937130751023   -0.0005250292869008689
-0.0036247388296652095   -0.002325477035355985   -0.00041793186702671417
-0.003763831312173285   -0.005778896166514688   -0.000839930911427569
-0.006328888330984731   -0.006035429881789244   -0.0008823617894263086
-0.006184891070834869   -0.005991535053489774   -0.0010504409289707815
-0.0036247388296652095   -0.002325477035355985   -0.00041793186702671417
-0.003763831312173285   -0.005778896166514688   -0.000839930911427569
-0.006184891070834869   -0.005991535053489774   -0.0010504409289707815
-0.0019717853780985947   -0.0020061937130751023   -0.0005250292869008689
-0.0020065307114824705   -0.0018650482074584539   -0.000776550059314691
-0.003757497380144107   -0.005595037774400978   -0.0011725530196711358
-0.0009141506383384551   -0.0017883536700189736   -0.0005907956209698838
-0.0019665555776178416   -0.001958345416324077   -0.0006506809899449175
-0.003757497380144107   -0.005595037774400978   -0.0011725530196711358
-0.0017443755607278598   -0.005507508760877981   -0.0010009115185988739
-0.0009141506383384551   -0.0017883536700189736   -0.0005907956209698838
-0.0017287943186548864   -0.005568163806045669   -0.0009412552839213953
-0.0019665555776178416   -0.001958345416324077   -0.0006506809899449175
-0.0008789089372207827   -0.0018490418696598596   -0.0005313359826865117
-0.0017287943186548864   -0.005568163806045669   -0.0009412552839213953
-0.0009141506383384551   -0.0017883536700189736   -0.0005907956209698838
-0.0019665555776178416   -0.001958345416324077   -0.0006506809899449175
-0.0017287943186548864   -0.005568163806045669   -0.0009412552839213953
-0.0037614128358868233   -0.005690421522987927   -0.001056234775000436
-0.003757497380144107   -0.005595037774400978   -0.0011725530196711358
-0.0019665555776178416   -0.001958345416324077   -0.0006506809899449175
-0.0017287943186548864   -0.005568163806045669   -0.0009412552839213953
-0.003757497380144107   -0.005595037774400978   -0.0011725530196711358
-0.0009141506383384551   -0.0017883536700189736   -0.0005907956209698838
-0.0019665555776178416   -0.001958345416324077   -0.0006506809899449175
-0.0037614128358868233   -0.005690421522987927   -0.001056234775000436
-0.0008789089372207827   -0.0018490418696598596   -0.0005313359826865117
-0.0019717853780985947   -0.0020061937130751023   -0.0005250292869008689
-0.0037614128358868233   -0.005690421522987927   -0.001056234775000436
-0.0017287943186548864   -0.005568163806045669   -0.0009412552839213953
-0.0008789089372207827   -0.0018490418696598596   -0.0005313359826865117
-0.0017149269063342681   -0.005597599890003594   -0.0008871986947772358
-0.0019717853780985947   -0.0020061937130751023   -0.0005250292869008689
-0.0008589868441895605   -0.0018721869358373357   -0.0004734646183058669
-0.0017149269063342681   -0.005597599890003594   -0.0008871986947772358
-0.0008789089372207827   -0.0018490418696598596   -0.0005313359826865117
-0.0019717853780985947   -0.0020061937130751023   -0.0005250292869008689
-0.0017149269063342681   -0.005597599890003594   -0.0008871986947772358
-0.0037756639290898474   -0.005748616540064905   -0.0009444919002914835
-0.0037614128358868233   -0.005690421522987927   -0.001056234775000436
-0.0019717853780985947   -0.0020061937130751023   -0.0005250292869008689
-0.0017149269063342681   -0.005597599890003594   -0.0008871986947772358
-0.0037614128358868233   -0.005690421522987927   -0.001056234775000436
-0.0008789089372207827   -0.0018490418696598596   -0.0005313359826865117
-0.0019717853780985947   -0.0020061937130751023   -0.0005250292869008689
-0.0037756639290898474   -0.005748616540064905   -0.0009444919002914835
-0.0008589868441895605   -0.0018721869358373357   -0.0004734646183058669
-0.0019703924798416383   -0.0020185386838448734   -0.0003951487210063859
-0.0037756639290898474   -0.005748616540064905   -0.0009444919002914835
-0.0017149269063342681   -0.005597599890003594   -0.0008871986947772358
-0.0008589868441895605   -0.0018721869358373357   -0.0004734646183058669
-0.0016944807343511478   -0.005596925239135665   -0.0008401632746975659
-0.0019703924798416383   -0.0020185386838448734   -0.0003951487210063859
-0.0008407939779048097   -0.0018625611523146169   -0.00041367317327558256
-0.0016944807343511478   -0.005596925239135665   -0.0008401632746975659
-0.0008589868441895605   -0.0018721869358373357   -0.0004734646183058669
-0.0019703924798416383   -0.0020185386838448734   -0.0003951487210063859
-0.0016944807343511478   -0.005596925239135665   -0.0008401632746975659
-0.003763831312173285   -0.005778896166514688   -0.000839930911427569
-0.0037756639290898474   -0.005748616540064905   -0.0009444919002914835
-0.0019703924798416383   -0.0020185386838448734   -0.0003951487210063859
-0.0016944807343511478   -0.005596925239135665   -0.0008401632746975659
-0.0037756639290898474   -0.005748616540064905   -0.0009444919002914835
-0.0008589868441895605   -0.0018721869358373357   -0.0004734646183058669
-0.0009141506383384551   -0.0017883536700189736   -0.0005907956209698838
-0.0017443755607278598   -0.005507508760877981   -0.0010009115185988739
0.00011767305670592679   -0.0017982297455757543   -0.0004725255797903829
-0.0008789089372207827   -0.0018490418696598596   -0.0005313359826865117
-0.0017443755607278598   -0.005507508760877981   -0.0010009115185988739
0.00019654535517702815   -0.005510146744136307   -0.0008925236544949484
0.00011767305670592679   -0.0017982297455757543   -0.0004725255797903829
0.0002156043806344765   -0.005538798378007606   -0.0008884751401539459
-0.0008789089372207827   -0.0018490418696598596   -0.0005313359826865117
0.00014031436866849235   -0.0018296417961914098   -0.0004806617414588284
0.0002156043806344765   -0.005538798378007606   -0.0008884751401539459
0.00011767305670592679   -0.0017982297455757543   -0.0004725255797903829
-0.0008789089372207827   -0.0018490418696598596   -0.0005313359826865117
0.0002156043806344765   -0.005538798378007606   -0.0008884751401539459
-0.0017287943186548864   -0.005568163806045669   -0.0009412552839213953
-0.0017443755607278598   -0.005507508760877981   -0.0010009115185988739
-0.0008789089372207827   -0.0018490418696598596   -0.0005313359826865117
0.0002156043806344765   -0.005538798378007606   -0.0008884751401539459
-0.0017443755607278598   -0.005507508760877981   -0.0010009115185988739
0.00011767305670592679   -0.0017982297455757543   -0.0004725255797903829
-0.0008789089372207827   -0.0018490418696598596   -0.0005313359826865117
-0.0017287943186548864   -0.005568163806045669   -0.0009412552839213953
0.00014031436866849235   -0.0018296417961914098   -0.0004806617414588284
-0.0008589868441895605   -0.0018721869358373357   -0.0004734646183058669
-0.0017287943186548864   -0.005568163806045669   -0.0009412552839213953
0.0002156043806344765   -0.005538798378007606   -0.0008884751401539459
0.00014031436866849235   -0.0018296417961914098   -0.0004806617414588284
0.00022859720625741748   -0.005536961027863933   -0.0008907801080651926
-0.0008589868441895605   -0.0018721869358373357   -0.0004734646183058669
0.00015822612531370126   -0.001826999932961326   -0.00048804170684557153
0.00022859720625741748   -0.005536961027863933   -0.0008907801080651926
0.00014031436866849235   -0.0018296417961914098   -0.0004806617414588284
-0.0008589868441895605   -0.0018721869358373357   -0.0004734646183058669
0.00022859720625741748   -0.005536961027863933   -0.0008907801080651926
-0.0017149269063342681   -0.005597599890003594   -0.0008871986947772358
-0.0017287943186548864   -0.005568163806045669   -0.0009412552839213953
-0.0008589868441895605   -0.0018721869358373357   -0.0004734646183058669
0.00022859720625741748   -0.005536961027863933   -0.0008907801080651926
-0.0017287943186548864   -0.005568163806045669   -0.0009412552839213953
0.00014031436866849235   -0.0018296417961914098   -0.0004806617414588284
-0.0008589868441895605   -0.0018721869358373357   -0.0004734646183058669
-0.0017149269063342681   -0.005597599890003594   -0.0008871986947772358
0.00015822612531370126   -0.001826999932961326   -0.00048804170684557153
-0.0008407939779048097   -0.0018625611523146169   -0.00041367317327558256
-0.0017149269063342681   -0.005597599890003594   -0.0008871986947772358
0.00022859720625741748   -0.005536961027863933   -0.0008907801080651926
0.00015822612531370126   -0.001826999932961326   -0.00048804170684557153
0.00024249693399793772   -0.005503706908539622   -0.0008995383503699715
-0.0008407939779048097   -0.0018625611523146169   -0.00041367317327558256
0.00018222150357086658   -0.0017875175944021447   -0.0004956636792109951
0.00024249693399793772   -0.005503706908539622   -0.0008995383503699715
0.00015822612531370126   -0.001826999932961326   -0.00048804170684557153
-0.0008407939779048097   -0.0018625611523146169   -0.00041367317327558256
0.00024249693399793772   -0.005503706908539622   -0.0008995383503699715
-0.0016944807343511478   -0.005596925239135665   -0.0008401632746975659
-0.0017149269063342681   -0.005597599890003594   -0.0008871986947772358
-0.0008407939779048097   -0.0018625611523146169   -0.00041367317327558256
0.00024249693399793772   -0.005503706908539622   -0.0008995383503699715
-0.0017149269063342681   -0.005597599890003594   -0.0008871986947772358
0.00015822612531370126   -0.001826999932961326   -0.00048804170684557153
0.00011767305670592679   -0.0017982297455757543   -0.0004725255797903829
0.00019654535517702815   -0.005510146744136307   -0.0008925236544949484
0.0012379711096366442   -0.0018853515651710527   -0.00041416633371302834
0.00014031436866849235   -0.0018296417961914098   -0.0004806617414588284
0.00019654535517702815   -0.005510146744136307   -0.0008925236544949484
0.0022536736330743463   -0.0055997074644883425   -0.0008421697179675002
0.0012379711096366442   -0.0018853515651710527   -0.00041416633371302834
0.0022647700525585956   -0.0055992588677089275   -0.0008955284868671509
0.00014031436866849235   -0.0018296417961914098   -0.0004806617414588284
0.0012405507618527235   -0.0018952666367873627   -0.0004934312923754442
0.0022647700525585956   -0.0055992588677089275   -0.0008955284868671509
0.0012379711096366442   -0.0018853515651710527   -0.00041416633371302834
0.00014031436866849235   -0.0018296417961914098   -0.0004806617414588284
0.0022647700525585956   -0.0055992588677089275   -0.0008955284868671509
0.0002156043806344765   -0.005538798378007606   -0.0008884751401539459
0.00019654535517702815   -0.005510146744136307   -0.0008925236544949484
0.00014031436866849235   -0.0018296417961914098   -0.0004806617414588284
0.0022647700525585956   -0.0055992588677089275   -0.0008955284868671509
0.00019654535517702815   -0.005510146744136307   -0.0008925236544949484
0.0012379711096366442   -0.0018853515651710527   -0.00041416633371302834
0.00014031436866849235   -0.0018296417961914098   -0.0004806617414588284
0.0002156043806344765   -0.005538798378007606   -0.0008884751401539459
0.0012405507618527235   -0.0018952666367873627   -0.0004934312923754442
0.00015822612531370126   -0.001826999932961326   -0.00048804170684557153
0.0002156043806344765   -0.005538798378007606   -0.0008884751401539459
0.0022647700525585956   -0.0055992588677089275   -0.0008955284868671509
0.0012405507618527235   -0.0018952666367873627   -0.0004934312923754442
0.0022549205424387216   -0.005568930137558165   -0.0009560750681143254
0.00015822612531370126   -0.001826999932961326   -0.00048804170684557153
0.0012355637015820588   -0.0018682056552210872   -0.0005695186178294797
0.0022549205424387216   -0.005568930137558165   -0.0009560750681143254
0.0012405507618527235   -0.0018952666367873627   -0.0004934312923754442
0.00015822612531370126   -0.001826999932961326   -0.00048804170684557153
0.0022549205424387216   -0.005568930137558165   -0.0009560750681143254
0.00022859720625741748   -0.005536961027863933   -0.0008907801080651926
0.0002156043806344765   -0.005538798378007606   -0.0008884751401539459
0.00015822612531370126   -0.001826999932961326   -0.00048804170684557153
0.0022549205424387216   -0.005568930137558165   -0.0009560750681143254
0.0002156043806344765   -0.005538798378007606   -0.0008884751401539459
0.0012405507618527235   -0.0018952666367873627   -0.0004934312923754442
0.00015822612531370126   -0.001826999932961326   -0.00048804170684557153
0.00022859720625741748   -0.005536961027863933   -0.0008907801080651926
0.0012355637015820588   -0.0018682056552210872   -0.0005695186178294797
0.00018222150357086658   -0.0017875175944021447   -0.0004956636792109951
0.00022859720625741748   -0.005536961027863933   -0.0008907801080651926
0.0022549205424387216   -0.005568930137558165   -0.0009560750681143254
0.0012355637015820588   -0.0018682056552210872   -0.0005695186178294797
0.002249499578847963   -0.005500452837637022   -0.001021567229529085
0.00018222150357086658   -0.0017875175944021447   -0.0004956636792109951
0.0012598061325457507   -0.0017959213949199633   -0.000644194247368038
0.002249499578847963   -0.005500452837637022   -0.001021567229529085
0.0012355637015820588   -0.0018682056552210872   -0.0005695186178294797
0.00018222150357086658   -0.0017875175944021447   -0.0004956636792109951
0.002249499578847963   -0.005500452837637022   -0.001021567229529085
0.00024249693399793772   -0.005503706908539622   -0.0008995383503699715
0.00022859720625741748   -0.005536961027863933   -0.0008907801080651926
0.00018222150357086658   -0.0017875175944021447   -0.0004956636792109951
0.002249499578847963   -0.005500452837637022   -0.001021567229529085
0.00022859720625741748   -0.005536961027863933   -0.0008907801080651926
0.0012355637015820588   -0.0018682056552210872   -0.0005695186178294797
0.0012379711096366442   -0.0018853515651710527   -0.00041416633371302834
0.0022536736330743463   -0.0055997074644883425   -0.0008421697179675002
0.002796896943816786   -0.0021063576864826764   -0.0003911215665152423
0.0012405507618527235   -0.0018952666367873627   -0.0004934312923754442
0.0022536736330743463   -0.0055997074644883425   -0.0008421697179675002
0.004736840485961591   -0.005766069544418069   -0.0008290487772054036
0.002796896943816786   -0.0021063576864826764   -0.0003911215665152423
0.0046413896098589395   -0.005750082109110566   -0.0009491759015593461
0.0012405507618527235   -0.0018952666367873627   -0.0004934312923754442
0.002627229014313052   -0.002083187783160076   -0.000570962004362663
0.0046413896098589395   -0.005750082109110566   -0.0009491759015593461
0.002796896943816786   -0.0021063576864826764   -0.0003911215665152423
0.0012405507618527235   -0.0018952666367873627   -0.0004934312923754442
0.0046413896098589395   -0.005750082109110566   -0.0009491759015593461
0.0022647700525585956   -0.0055992588677089275   -0.0008955284868671509
0.0022536736330743463   -0.0055997074644883425   -0.0008421697179675002
0.0012405507618527235   -0.0018952666367873627   -0.0004934312923754442
0.0046413896098589395   -0.005750082109110566   -0.0009491759015593461
0.0022536736330743463   -0.0055997074644883425   -0.0008421697179675002
0.002796896943816786   -0.0021063576864826764   -0.0003911215665152423
0.0012405507618527235   -0.0018952666367873627   -0.0004934312923754442
0.0022647700525585956   -0.0055992588677089275   -0.0008955284868671509
0.002627229014313052   -0.002083187783160076   -0.000570962004362663
0.0012355637015820588   -0.0018682056552210872   -0.0005695186178294797
0.0022647700525585956   -0.0055992588677089275   -0.0008955284868671509
0.0046413896098589395   -0.005750082109110566   -0.0009491759015593461
0.002627229014313052   -0.002083187783160076   -0.000570962004362663
0.004556008453717062   -0.0057033600657152754   -0.0010844192746976731
0.0012355637015820588   -0.0018682056552210872   -0.0005695186178294797
0.0025491356163240457   -0.0020398807431404884   -0.0007230773465482807
0.004556008453717062   -0.0057033600657152754   -0.0010844192746976731
0.002627229014313052   -0.002083187783160076   -0.000570962004362663
0.0012355637015820588   -0.0018682056552210872   -0.0005695186178294797
0.004556008453717062   -0.0057033600657152754   -0.0010844192746976731
0.0022549205424387216   -0.005568930137558165   -0.0009560750681143254
0.0022647700525585956   -0.0055992588677089275   -0.0008955284868671509
0.0012355637015820588   -0.0018682056552210872   -0.0005695186178294797
0.004556008453717062   -0.0057033600657152754   -0.0010844192746976731
0.0022647700525585956   -0.0055992588677089275   -0.0008955284868671509
0.002627229014313052   -0.002083187783160076   -0.000570962004362663
0.0012355637015820588   -0.0018682056552210872   -0.0005695186178294797
0.0022549205424387216   -0.005568930137558165   -0.0009560750681143254
0.0025491356163240457   -0.0020398807431404884   -0.0007230773465482807
0.0012598061325457507   -0.0017959213949199633   -0.000644194247368038
0.0022549205424387216   -0.005568930137558165   -0.0009560750681143254
0.004556008453717062   -0.0057033600657152754   -0.0010844192746976731
0.0025491356163240457   -0.0020398807431404884   -0.0007230773465482807
0.004427677113697675   -0.005599614103305092   -0.0012252652765141678
0.0012598061325457507   -0.0017959213949199633   -0.000644194247368038
0.002432648630192492   -0.0019292104861687513   -0.0008841306878727868
0.004427677113697675   -0.005599614103305092   -0.0012252652765141678
0.0025491356163240457   -0.0020398807431404884   -0.0007230773465482807
0.0012598061325457507   -0.0017959213949199633   -0.000644194247368038
0.004427677113697675   -0.005599614103305092   -0.0012252652765141678
0.002249499578847963   -0.005500452837637022   -0.001021567229529085
0.0022549205424387216   -0.005568930137558165   -0.0009560750681143254
0.0012598061325457507   -0.0017959213949199633   -0.000644194247368038
0.004427677113697675   -0.005599614103305092   -0.0012252652765141678
0.0022549205424387216   -0.005568930137558165   -0.0009560750681143254
0.0025491356163240457   -0.0020398807431404884   -0.0007230773465482807
-0.005887348035790084   -0.005783136718863549   -0.0014240677240515342
-0.008062040762471858   -0.010835925596964458   -0.0016225562648357783
-0.003757497380144107   -0.005595037774400978   -0.0011725530196711358
-0.006063041570393407   -0.005916289645182618   -0.001235264401574362
-0.008062040762471858   -0.010835925596964458   -0.0016225562648357783
-0.0051838480052781724   -0.01069233734431463   -0.0014188501511604127
-0.003757497380144107   -0.005595037774400978   -0.0011725530196711358
-0.005194566321484016   -0.010774564544356487   -0.0013287001706403353
-0.006063041570393407   -0.005916289645182618   -0.001235264401574362
-0.0037614128358868233   -0.005690421522987927   -0.001056234775000436
-0.005194566321484016   -0.010774564544356487   -0.0013287001706403353
-0.003757497380144107   -0.005595037774400978   -0.0011725530196711358
-0.006063041570393407   -0.005916289645182618   -0.001235264401574362
-0.005194566321484016   -0.010774564544356487   -0.0013287001706403353
-0.008204510748118838   -0.010948340093737099   -0.0014819675210013834
-0.008062040762471858   -0.010835925596964458   -0.0016225562648357783
-0.006063041570393407   -0.005916289645182618   -0.001235264401574362
-0.005194566321484016   -0.010774564544356487   -0.0013287001706403353
-0.008062040762471858   -0.010835925596964458   -0.0016225562648357783
-0.003757497380144107   -0.005595037774400978   -0.0011725530196711358
-0.006063041570393407   -0.005916289645182618   -0.001235264401574362
-0.008204510748118838   -0.010948340093737099   -0.0014819675210013834
-0.0037614128358868233   -0.005690421522987927   -0.001056234775000436
-0.006184891070834869   -0.005991535053489774   -0.0010504409289707815
-0.008204510748118838   -0.010948340093737099   -0.0014819675210013834
-0.005194566321484016   -0.010774564544356487   -0.0013287001706403353
-0.0037614128358868233   -0.005690421522987927   -0.001056234775000436
-0.005207266967079606   -0.010831843414943839   -0.0012450980396388849
-0.006184891070834869   -0.005991535053489774   -0.0010504409289707815
-0.0037756639290898474   -0.005748616540064905   -0.0009444919002914835
-0.005207266967079606   -0.010831843414943839   -0.0012450980396388849
-0.0037614128358868233   -0.005690421522987927   -0.001056234775000436
-0.006184891070834869   -0.005991535053489774   -0.0010504409289707815
-0.005207266967079606   -0.010831843414943839   -0.0012450980396388849
-0.008294028420957444   -0.011018895123080755   -0.0013509746909634607
-0.008204510748118838   -0.010948340093737099   -0.0014819675210013834
-0.006184891070834869   -0.005991535053489774   -0.0010504409289707815
-0.005207266967079606   -0.010831843414943839   -0.0012450980396388849
-0.008204510748118838   -0.010948340093737099   -0.0014819675210013834
-0.0037614128358868233   -0.005690421522987927   -0.001056234775000436
-0.006184891070834869   -0.005991535053489774   -0.0010504409289707815
-0.008294028420957444   -0.011018895123080755   -0.0013509746909634607
-0.0037756639290898474   -0.005748616540064905   -0.0009444919002914835
-0.006328888330984731   -0.006035429881789244   -0.0008823617894263086
-0.008294028420957444   -0.011018895123080755   -0.0013509746909634607
-0.005207266967079606   -0.010831843414943839   -0.0012450980396388849
-0.0037756639290898474   -0.005748616540064905   -0.0009444919002914835
-0.005196820642001516   -0.01086961342029598   -0.001166647159069755
-0.006328888330984731   -0.006035429881789244   -0.0008823617894263086
-0.003763831312173285   -0.005778896166514688   -0.000839930911427569
-0.005196820642001516   -0.01086961342029598   -0.001166647159069755
-0.0037756639290898474   -0.005748616540064905   -0.0009444919002914835
-0.006328888330984731   -0.006035429881789244   -0.0008823617894263086
-0.005196820642001516   -0.01086961342029598   -0.001166647159069755
-0.008395880873269585   -0.011069776070188093   -0.0012304757480021172
-0.008294028420957444   -0.011018895123080755   -0.0013509746909634607
-0.006328888330984731   -0.006035429881789244   -0.0008823617894263086
-0.005196820642001516   -0.01086961342029598   -0.001166647159069755
-0.008294028420957444   -0.011018895123080755   -0.0013509746909634607
-0.0037756639290898474   -0.005748616540064905   -0.0009444919002914835
-0.003757497380144107   -0.005595037774400978   -0.0011725530196711358
-0.0051838480052781724   -0.01069233734431463   -0.0014188501511604127
-0.0017443755607278598   -0.005507508760877981   -0.0010009115185988739
-0.0037614128358868233   -0.005690421522987927   -0.001056234775000436
-0.0051838480052781724   -0.01069233734431463   -0.0014188501511604127
-0.0024710333837098704   -0.010620687481325356   -0.0012773541105785978
-0.0017443755607278598   -0.005507508760877981   -0.0010009115185988739
-0.00246420326971492   -0.010673214561656832   -0.0012263411827961588
-0.0037614128358868233   -0.005690421522987927   -0.001056234775000436
-0.0017287943186548864   -0.005568163806045669   -0.0009412552839213953
-0.00246420326971492   -0.010673214561656832   -0.0012263411827961588
-0.0017443755607278598   -0.005507508760877981   -0.0010009115185988739
-0.0037614128358868233   -0.005690421522987927   -0.001056234775000436
-0.00246420326971492   -0.010673214561656832   -0.0012263411827961588
-0.005194566321484016   -0.010774564544356487   -0.0013287001706403353
-0.0051838480052781724   -0.01069233734431463   -0.0014188501511604127
-0.0037614128358868233   -0.005690421522987927   -0.001056234775000436
-0.00246420326971492   -0.010673214561656832   -0.0012263411827961588
-0.0051838480052781724   -0.01069233734431463   -0.0014188501511604127
-0.0017443755607278598   -0.005507508760877981   -0.0010009115185988739
-0.0037614128358868233   -0.005690421522987927   -0.001056234775000436
-0.005194566321484016   -0.010774564544356487   -0.0013287001706403353
-0.0017287943186548864   -0.005568163806045669   -0.0009412552839213953
-0.0037756639290898474   -0.005748616540064905   -0.0009444919002914835
-0.005194566321484016   -0.010774564544356487   -0.0013287001706403353
-0.00246420326971492   -0.010673214561656832   -0.0012263411827961588
-0.0017287943186548864   -0.005568163806045669   -0.0009412552839213953
-0.0024559850372418454   -0.0107040906668976   -0.0011815592464935723
-0.0037756639290898474   -0.005748616540064905   -0.0009444919002914835
-0.0017149269063342681   -0.005597599890003594   -0.0008871986947772358
-0.0024559850372418454   -0.0107040906668976   -0.0011815592464935723
-0.0017287943186548864   -0.005568163806045669   -0.0009412552839213953
-0.0037756639290898474   -0.005748616540064905   -0.0009444919002914835
-0.0024559850372418454   -0.0107040906668976   -0.0011815592464935723
-0.005207266967079606   -0.010831843414943839   -0.0012450980396388849
-0.005194566321484016   -0.010774564544356487   -0.0013287001706403353
-0.0037756639290898474   -0.005748616540064905   -0.0009444919002914835
-0.0024559850372418454   -0.0107040906668976   -0.0011815592464935723
-0.005194566321484016   -0.010774564544356487   -0.0013287001706403353
-0.0017287943186548864   -0.005568163806045669   -0.0009412552839213953
-0.0037756639290898474   -0.005748616540064905   -0.0009444919002914835
-0.005207266967079606   -0.010831843414943839   -0.0012450980396388849
-0.0017149269063342681   -0.005597599890003594   -0.0008871986947772358
-0.003763831312173285   -0.005778896166514688   -0.000839930911427569
-0.005207266967079606   -0.010831843414943839   -0.0012450980396388849
-0.0024559850372418454   -0.0107040906668976   -0.0011815592464935723
-0.0017149269063342681   -0.005597599890003594   -0.0008871986947772358
-0.002442876540427004   -0.010713757060646405   -0.0011429916378485091
-0.003763831312173285   -0.005778896166514688   -0.000839930911427569
-0.0016944807343511478   -0.005596925239135665   -0.0008401632746975659
-0.002442876540427004   -0.010713757060646405   -0.0011429916378485091
-0.0017149269063342681   -0.005597599890003594   -0.0008871986947772358
-0.003763831312173285   -0.005778896166514688   -0.000839930911427569
-0.002442876540427004   -0.010713757060646405   -0.0011429916378485091
-0.005196820642001516   -0.01086961342029598   -0.001166647159069755
-0.005207266967079606   -0.010831843414943839   -0.0012450980396388849
-0.003763831312173285   -0.005778896166514688   -0.000839930911427569
-0.002442876540427004   -0.010713757060646405   -0.0011429916378485091
-0.005207266967079606   -0.010831843414943839   -0.0012450980396388849
-0.0017149269063342681   -0.005597599890003594   -0.0008871986947772358
-0.0017443755607278598   -0.005507508760877981   -0.0010009115185988739
-0.0024710333837098704   -0.010620687481325356   -0.0012773541105785978
0.00019654535517702815   -0.005510146744136307   -0.0008925236544949484
-0.0017287943186548864   -0.005568163806045669   -0.0009412552839213953
-0.0024710333837098704   -0.010620687481325356   -0.0012773541105785978
0.000161833055387633   -0.010616862568489146   -0.0011897638843371258
0.00019654535517702815   -0.005510146744136307   -0.0008925236544949484
0.00017387990209444569   -0.010640138874289768   -0.0011776825261558038
-0.0017287943186548864   -0.005568163806045669   -0.0009412552839213953
0.0002156043806344765   -0.005538798378007606   -0.0008884751401539459
0.00017387990209444569   -0.010640138874289768   -0.0011776825261558038
0.00019654535517702815   -0.005510146744136307   -0.0008925236544949484
-0.0017287943186548864   -0.005568163806045669   -0.0009412552839213953
0.00017387990209444569   -0.010640138874289768   -0.0011776825261558038
-0.00246420326971492   -0.010673214561656832   -0.0012263411827961588
-0.0024710333837098704   -0.010620687481325356   -0.0012773541105785978
-0.0017287943186548864   -0.005568163806045669   -0.0009412552839213953
0.00017387990209444569   -0.010640138874289768   -0.0011776825261558038
-0.0024710333837098704   -0.010620687481325356   -0.0012773541105785978
0.00019654535517702815   -0.005510146744136307   -0.0008925236544949484
-0.0017287943186548864   -0.005568163806045669   -0.0009412552839213953
-0.00246420326971492   -0.010673214561656832   -0.0012263411827961588
0.0002156043806344765   -0.005538798378007606   -0.0008884751401539459
-0.0017149269063342681   -0.005597599890003594   -0.0008871986947772358
-0.00246420326971492   -0.010673214561656832   -0.0012263411827961588
0.00017387990209444569   -0.010640138874289768   -0.0011776825261558038
0.0002156043806344765   -0.005538798378007606   -0.0008884751401539459
0.00018183181432850637   -0.010641849807103714   -0.0011716716071890284
-0.0017149269063342681   -0.005597599890003594   -0.0008871986947772358
0.00022859720625741748   -0.005536961027863933   -0.0008907801080651926
0.00018183181432850637   -0.010641849807103714   -0.0011716716071890284
0.0002156043806344765   -0.005538798378007606   -0.0008884751401539459
-0.0017149269063342681   -0.005597599890003594   -0.0008871986947772358
0.00018183181432850637   -0.010641849807103714   -0.0011716716071890284
-0.0024559850372418454   -0.0107040906668976   -0.0011815592464935723
-0.00246420326971492   -0.010673214561656832   -0.0012263411827961588
-0.0017149269063342681   -0.005597599890003594   -0.0008871986947772358
0.00018183181432850637   -0.010641849807103714   -0.0011716716071890284
-0.00246420326971492   -0.010673214561656832   -0.0012263411827961588
0.0002156043806344765   -0.005538798378007606   -0.0008884751401539459
-0.0017149269063342681   -0.005597599890003594   -0.0008871986947772358
-0.0024559850372418454   -0.0107040906668976   -0.0011815592464935723
0.00022859720625741748   -0.005536961027863933   -0.0008907801080651926
-0.0016944807343511478   -0.005596925239135665   -0.0008401632746975659
-0.0024559850372418454   -0.0107040906668976   -0.0011815592464935723
0.00018183181432850637   -0.010641849807103714   -0.0011716716071890284
0.00022859720625741748   -0.005536961027863933   -0.0008907801080651926
0.000187768697148818   -0.010621674731462003   -0.0011720975595039375
-0.0016944807343511478   -0.005596925239135665   -0.0008401632746975659
0.00024249693399793772   -0.005503706908539622   -0.0008995383503699715
0.000187768697148818   -0.010621674731462003   -0.0011720975595039375
0.00022859720625741748   -0.005536961027863933   -0.0008907801080651926
-0.0016944807343511478   -0.005596925239135665   -0.0008401632746975659
0.000187768697148818   -0.010621674731462003   -0.0011720975595039375
-0.002442876540427004   -0.010713757060646405   -0.0011429916378485091
-0.0024559850372418454   -0.0107040906668976   -0.0011815592464935723
-0.0016944807343511478   -0.005596925239135665   -0.0008401632746975659
0.000187768697148818   -0.010621674731462003   -0.0011720975595039375
-0.0024559850372418454   -0.0107040906668976   -0.0011815592464935723
0.00022859720625741748   -0.005536961027863933   -0.0008907801080651926
0.00019654535517702815   -0.005510146744136307   -0.0008925236544949484
0.000161833055387633   -0.010616862568489146   -0.0011897638843371258
0.0022536736330743463   -0.0055997074644883425   -0.0008421697179675002
0.0002156043806344765   -0.005538798378007606   -0.0008884751401539459
0.000161833055387633   -0.010616862568489146   -0.0011897638843371258
0.0029072548763133714   -0.01067682510464394   -0.0011546020478541152
0.0022536736330743463   -0.0055997074644883425   -0.0008421697179675002
0.0029179240557097178   -0.010673267402531772   -0.001182255470890654
0.0002156043806344765   -0.005538798378007606   -0.0008884751401539459
0.0022647700525585956   -0.0055992588677089275   -0.0008955284868671509
0.0029179240557097178   -0.010673267402531772   -0.001182255470890654
0.0022536736330743463   -0.0055997074644883425   -0.0008421697179675002
0.0002156043806344765   -0.005538798378007606   -0.0008884751401539459
0.0029179240557097178   -0.010673267402531772   -0.001182255470890654
0.00017387990209444569   -0.010640138874289768   -0.0011776825261558038
0.000161833055387633   -0.010616862568489146   -0.0011897638843371258
0.0002156043806344765   -0.005538798378007606   -0.0008884751401539459
0.0029179240557097178   -0.010673267402531772   -0.001182255470890654
0.000161833055387633   -0.010616862568489146   -0.0011897638843371258
0.0022536736330743463   -0.0055997074644883425   -0.0008421697179675002
0.0002156043806344765   -0.005538798378007606   -0.0008884751401539459
0.00017387990209444569   -0.010640138874289768   -0.0011776825261558038
0.0022647700525585956   -0.0055992588677089275   -0.0008955284868671509
0.00022859720625741748   -0.005536961027863933   -0.0008907801080651926
0.00017387990209444569   -0.010640138874289768   -0.0011776825261558038
0.0029179240557097178   -0.010673267402531772   -0.001182255470890654
0.0022647700525585956   -0.0055992588677089275   -0.0008955284868671509
0.0029112756434761244   -0.010648629291350646   -0.0012155332900493296
0.00022859720625741748   -0.005536961027863933   -0.0008907801080651926
0.0022549205424387216   -0.005568930137558165   -0.0009560750681143254
0.0029112756434761244   -0.010648629291350646   -0.0012155332900493296
0.0022647700525585956   -0.0055992588677089275   -0.0008955284868671509
0.00022859720625741748   -0.005536961027863933   -0.0008907801080651926
0.0029112756434761244   -0.010648629291350646   -0.0012155332900493296
0.00018183181432850637   -0.010641849807103714   -0.0011716716071890284
0.00017387990209444569   -0.010640138874289768   -0.0011776825261558038
0.00022859720625741748   -0.005536961027863933   -0.0008907801080651926
0.0029112756434761244   -0.010648629291350646   -0.0012155332900493296
0.00017387990209444569   -0.010640138874289768   -0.0011776825261558038
0.0022647700525585956   -0.0055992588677089275   -0.0008955284868671509
0.00022859720625741748   -0.005536961027863933   -0.0008907801080651926
0.00018183181432850637   -0.010641849807103714   -0.0011716716071890284
0.0022549205424387216   -0.005568930137558165   -0.0009560750681143254
0.00024249693399793772   -0.005503706908539622   -0.0008995383503699715
0.00018183181432850637   -0.010641849807103714   -0.0011716716071890284
0.0029112756434761244   -0.010648629291350646   -0.0012155332900493296
0.0022549205424387216   -0.005568930137558165   -0.0009560750681143254
0.0029009006588709653   -0.010597665915973584   -0.0012551038655401973
0.00024249693399793772   -0.005503706908539622   -0.0008995383503699715
0.002249499578847963   -0.005500452837637022   -0.001021567229529085
0.0029009006588709653   -0.010597665915973584   -0.0012551038655401973
0.0022549205424387216   -0.005568930137558165   -0.0009560750681143254
0.00024249693399793772   -0.005503706908539622   -0.0008995383503699715
0.0029009006588709653   -0.010597665915973584   -0.0012551038655401973
0.000187768697148818   -0.010621674731462003   -0.0011720975595039375
0.00018183181432850637   -0.010641849807103714   -0.0011716716071890284
0.00024249693399793772   -0.005503706908539622   -0.0008995383503699715
0.0029009006588709653   -0.010597665915973584   -0.0012551038655401973
0.00018183181432850637   -0.010641849807103714   -0.0011716716071890284
0.0022549205424387216   -0.005568930137558165   -0.0009560750681143254
0.0022536736330743463   -0.0055997074644883425   -0.0008421697179675002
0.0029072548763133714   -0.01067682510464394   -0.0011546020478541152
0.004736840485961591   -0.005766069544418069   -0.0008290487772054036
0.0022647700525585956   -0.0055992588677089275   -0.0008955284868671509
0.0029072548763133714   -0.01067682510464394   -0.0011546020478541152
0.006034264230131379   -0.010785436405810077   -0.0011558567922774282
0.004736840485961591   -0.005766069544418069   -0.0008290487772054036
0.005982872501088497   -0.010766380568941879   -0.0012282858295696562
0.0022647700525585956   -0.0055992588677089275   -0.0008955284868671509
0.0046413896098589395   -0.005750082109110566   -0.0009491759015593461
0.005982872501088497   -0.010766380568941879   -0.0012282858295696562
0.004736840485961591   -0.005766069544418069   -0.0008290487772054036
0.0022647700525585956   -0.0055992588677089275   -0.0008955284868671509
0.005982872501088497   -0.010766380568941879   -0.0012282858295696562
0.0029179240557097178   -0.010673267402531772   -0.001182255470890654
0.0029072548763133714   -0.01067682510464394   -0.0011546020478541152
0.0022647700525585956   -0.0055992588677089275   -0.0008955284868671509
0.005982872501088497   -0.010766380568941879   -0.0012282858295696562
0.0029072548763133714   -0.01067682510464394   -0.0011546020478541152
0.004736840485961591   -0.005766069544418069   -0.0008290487772054036
0.0022647700525585956   -0.0055992588677089275   -0.0008955284868671509
0.0029179240557097178   -0.010673267402531772   -0.001182255470890654
0.0046413896098589395   -0.005750082109110566   -0.0009491759015593461
0.0022549205424387216   -0.005568930137558165   -0.0009560750681143254
0.0029179240557097178   -0.010673267402531772   -0.001182255470890654
0.005982872501088497   -0.010766380568941879   -0.0012282858295696562
0.0046413896098589395   -0.005750082109110566   -0.0009491759015593461
0.005931417891443767   -0.010728490801827603   -0.0013108576406748033
0.0022549205424387216   -0.005568930137558165   -0.0009560750681143254
0.004556008453717062   -0.0057033600657152754   -0.0010844192746976731
0.005931417891443767   -0.010728490801827603   -0.0013108576406748033
0.0046413896098589395   -0.005750082109110566   -0.0009491759015593461
0.0022549205424387216   -0.005568930137558165   -0.0009560750681143254
0.005931417891443767   -0.010728490801827603   -0.0013108576406748033
0.0029112756434761244   -0.010648629291350646   -0.0012155332900493296
0.0029179240557097178   -0.010673267402531772   -0.001182255470890654
0.0022549205424387216   -0.005568930137558165   -0.0009560750681143254
0.005931417891443767   -0.010728490801827603   -0.0013108576406748033
0.0029179240557097178   -0.010673267402531772   -0.001182255470890654
0.0046413896098589395   -0.005750082109110566   -0.0009491759015593461
0.0022549205424387216   -0.005568930137558165   -0.0009560750681143254
0.0029112756434761244   -0.010648629291350646   -0.0012155332900493296
0.004556008453717062   -0.0057033600657152754   -0.0010844192746976731
0.002249499578847963   -0.005500452837637022   -0.001021567229529085
0.0029112756434761244   -0.010648629291350646   -0.0012155332900493296
0.005931417891443767   -0.010728490801827603   -0.0013108576406748033
0.004556008453717062   -0.0057033600657152754   -0.0010844192746976731
0.005839292837629507   -0.010649252423591068   -0.0014035832830607477
0.002249499578847963   -0.005500452837637022   -0.001021567229529085
0.004427677113697675   -0.005599614103305092   -0.0012252652765141678
0.005839292837629507   -0.010649252423591068   -0.0014035832830607477
0.004556008453717062   -0.0057033600657152754   -0.0010844192746976731
0.002249499578847963   -0.005500452837637022   -0.001021567229529085
0.005839292837629507   -0.010649252423591068   -0.0014035832830607477
0.0029009006588709653   -0.010597665915973584   -0.0012551038655401973
0.0029112756434761244   -0.010648629291350646   -0.0012155332900493296
0.002249499578847963   -0.005500452837637022   -0.001021567229529085
0.005839292837629507   -0.010649252423591068   -0.0014035832830607477
0.0029112756434761244   -0.010648629291350646   -0.0012155332900493296
0.004556008453717062   -0.0057033600657152754   -0.0010844192746976731
-0.008062040762471858   -0.010835925596964458   -0.0016225562648357783
-0.009622501107475877   -0.016821603286436265   -0.0017311739096433792
-0.0051838480052781724   -0.01069233734431463   -0.0014188501511604127
-0.008204510748118838   -0.010948340093737099   -0.0014819675210013834
-0.009622501107475877   -0.016821603286436265   -0.0017311739096433792
-0.006247266532960126   -0.01673039397936206   -0.0015653455015132288
-0.0051838480052781724   -0.01069233734431463   -0.0014188501511604127
-0.006254096119215242   -0.016801023172454684   -0.0015008937230669673
-0.008204510748118838   -0.010948340093737099   -0.0014819675210013834
-0.005194566321484016   -0.010774564544356487   -0.0013287001706403353
-0.006254096119215242   -0.016801023172454684   -0.0015008937230669673
-0.0051838480052781724   -0.01069233734431463   -0.0014188501511604127
-0.008204510748118838   -0.010948340093737099   -0.0014819675210013834
-0.006254096119215242   -0.016801023172454684   -0.0015008937230669673
-0.00971808182341198   -0.016917189488477882   -0.0016380006514480736
-0.009622501107475877   -0.016821603286436265   -0.0017311739096433792
-0.008204510748118838   -0.010948340093737099   -0.0014819675210013834
-0.006254096119215242   -0.016801023172454684   -0.0015008937230669673
-0.009622501107475877   -0.016821603286436265   -0.0017311739096433792
-0.0051838480052781724   -0.01069233734431463   -0.0014188501511604127
-0.008204510748118838   -0.010948340093737099   -0.0014819675210013834
-0.00971808182341198   -0.016917189488477882   -0.0016380006514480736
-0.005194566321484016   -0.010774564544356487   -0.0013287001706403353
-0.008294028420957444   -0.011018895123080755   -0.0013509746909634607
-0.00971808182341198   -0.016917189488477882   -0.0016380006514480736
-0.006254096119215242   -0.016801023172454684   -0.0015008937230669673
-0.005194566321484016   -0.010774564544356487   -0.0013287001706403353
-0.006258749492667649   -0.01685707741505296   -0.0014428766690770434
-0.008294028420957444   -0.011018895123080755   -0.0013509746909634607
-0.005207266967079606   -0.010831843414943839   -0.0012450980396388849
-0.006258749492667649   -0.01685707741505296   -0.0014428766690770434
-0.005194566321484016   -0.010774564544356487   -0.0013287001706403353
-0.008294028420957444   -0.011018895123080755   -0.0013509746909634607
-0.006258749492667649   -0.01685707741505296   -0.0014428766690770434
-0.00977258686009905   -0.016984891063904273   -0.001553797446339413
-0.00971808182341198   -0.016917189488477882   -0.0016380006514480736
-0.008294028420957444   -0.011018895123080755   -0.0013509746909634607
-0.006258749492667649   -0.01685707741505296   -0.0014428766690770434
-0.00971808182341198   -0.016917189488477882   -0.0016380006514480736
-0.005194566321484016   -0.010774564544356487   -0.0013287001706403353
-0.008294028420957444   -0.011018895123080755   -0.0013509746909634607
-0.00977258686009905   -0.016984891063904273   -0.001553797446339413
-0.005207266967079606   -0.010831843414943839   -0.0012450980396388849
-0.008395880873269585   -0.011069776070188093   -0.0012304757480021172
-0.00977258686009905   -0.016984891063904273   -0.001553797446339413
-0.006258749492667649   -0.01685707741505296   -0.0014428766690770434
-0.005207266967079606   -0.010831843414943839   -0.0012450980396388849
-0.006245106865781978   -0.016903211835687302   -0.0013904346197331134
-0.008395880873269585   -0.011069776070188093   -0.0012304757480021172
-0.005196820642001516   -0.01086961342029598   -0.001166647159069755
-0.006245106865781978   -0.016903211835687302   -0.0013904346197331134
-0.005207266967079606   -0.010831843414943839   -0.0012450980396388849
-0.008395880873269585   -0.011069776070188093   -0.0012304757480021172
-0.006245106865781978   -0.016903211835687302   -0.0013904346197331134
-0.009828672766229982   -0.017045701340257995   -0.0014796345245484735
-0.00977258686009905   -0.016984891063904273   -0.001553797446339413
-0.008395880873269585   -0.011069776070188093   -0.0012304757480021172
-0.006245106865781978   -0.016903211835687302   -0.0013904346197331134
-0.00977258686009905   -0.016984891063904273   -0.001553797446339413
-0.005207266967079606   -0.010831843414943839   -0.0012450980396388849
-0.0051838480052781724   -0.01069233734431463   -0.0014188501511604127
-0.006247266532960126   -0.01673039397936206   -0.0015653455015132288
-0.0024710333837098704   -0.010620687481325356   -0.0012773541105785978
-0.005194566321484016   -0.010774564544356487   -0.0013287001706403353
-0.006247266532960126   -0.01673039397936206   -0.0015653455015132288
-0.003083647542250258   -0.016683148854227864   -0.0014505408763873906
-0.0024710333837098704   -0.010620687481325356   -0.0012773541105785978
-0.003077123759155349   -0.01672741702667186   -0.0014079085060505103
-0.005194566321484016   -0.010774564544356487   -0.0013287001706403353
-0.00246420326971492   -0.010673214561656832   -0.0012263411827961588
-0.003077123759155349   -0.01672741702667186   -0.0014079085060505103
-0.0024710333837098704   -0.010620687481325356   -0.0012773541105785978
-0.005194566321484016   -0.010774564544356487   -0.0013287001706403353
-0.003077123759155349   -0.01672741702667186   -0.0014079085060505103
-0.006254096119215242   -0.016801023172454684   -0.0015008937230669673
-0.006247266532960126   -0.01673039397936206   -0.0015653455015132288
-0.005194566321484016   -0.010774564544356487   -0.0013287001706403353
-0.003077123759155349   -0.01672741702667186   -0.0014079085060505103
-0.006247266532960126   -0.01673039397936206   -0.0015653455015132288
-0.0024710333837098704   -0.010620687481325356   -0.0012773541105785978
-0.005194566321484016   -0.010774564544356487   -0.0013287001706403353
-0.006254096119215242   -0.016801023172454684   -0.0015008937230669673
-0.00246420326971492   -0.010673214561656832   -0.0012263411827961588
-0.005207266967079606   -0.010831843414943839   -0.0012450980396388849
-0.006254096119215242   -0.016801023172454684   -0.0015008937230669673
-0.003077123759155349   -0.01672741702667186   -0.0014079085060505103
-0.00246420326971492   -0.010673214561656832   -0.0012263411827961588
-0.003068464709302944   -0.01675946530350664   -0.0013716106539580642
-0.005207266967079606   -0.010831843414943839   -0.0012450980396388849
-0.0024559850372418454   -0.0107040906668976   -0.0011815592464935723
-0.003068464709302944   -0.01675946530350664   -0.0013716106539580642
-0.00246420326971492   -0.010673214561656832   -0.0012263411827961588
-0.005207266967079606   -0.010831843414943839   -0.0012450980396388849
-0.003068464709302944   -0.01675946530350664   -0.0013716106539580642
-0.006258749492667649   -0.01685707741505296   -0.0014428766690770434
-0.006254096119215242   -0.016801023172454684   -0.0015008937230669673
-0.005207266967079606   -0.010831843414943839   -0.0012450980396388849
-0.003068464709302944   -0.01675946530350664   -0.0013716106539580642
-0.006254096119215242   -0.016801023172454684   -0.0015008937230669673
-0.00246420326971492   -0.010673214561656832   -0.0012263411827961588
-0.005207266967079606   -0.010831843414943839   -0.0012450980396388849
-0.006258749492667649   -0.01685707741505296   -0.0014428766690770434
-0.0024559850372418454   -0.0107040906668976   -0.0011815592464935723
-0.005196820642001516   -0.01086961342029598   -0.001166647159069755
-0.006258749492667649   -0.01685707741505296   -0.0014428766690770434
-0.003068464709302944   -0.01675946530350664   -0.0013716106539580642
-0.0024559850372418454   -0.0107040906668976   -0.0011815592464935723
-0.003055864497752713   -0.016779504495844096   -0.0013417548213948871
-0.005196820642001516   -0.01086961342029598   -0.001166647159069755
-0.002442876540427004   -0.010713757060646405   -0.0011429916378485091
-0.003055864497752713   -0.016779504495844096   -0.0013417548213948871
-0.0024559850372418454   -0.0107040906668976   -0.0011815592464935723
-0.005196820642001516   -0.01086961342029598   -0.001166647159069755
-0.003055864497752713   -0.016779504495844096   -0.0013417548213948871
-0.006245106865781978   -0.016903211835687302   -0.0013904346197331134
-0.006258749492667649   -0.01685707741505296   -0.0014428766690770434
-0.005196820642001516   -0.01086961342029598   -0.001166647159069755
-0.003055864497752713   -0.016779504495844096   -0.0013417548213948871
-0.006258749492667649   -0.01685707741505296   -0.0014428766690770434
-0.0024559850372418454   -0.0107040906668976   -0.0011815592464935723
-0.0024710333837098704   -0.010620687481325356   -0.0012773541105785978
-0.003083647542250258   -0.016683148854227864   -0.0014505408763873906
0.000161833055387633   -0.010616862568489146   -0.0011897638843371258
-0.00246420326971492   -0.010673214561656832   -0.0012263411827961588
-0.003083647542250258   -0.016683148854227864   -0.0014505408763873906
-6.1032562445309446e-06   -0.016674959045301314   -0.0013838267232765319
0.000161833055387633   -0.010616862568489146   -0.0011897638843371258
5.609990540377214e-06   -0.016692703081131816   -0.0013631915944222568
-0.00246420326971492   -0.010673214561656832   -0.0012263411827961588
0.00017387990209444569   -0.010640138874289768   -0.0011776825261558038
5.609990540377214e-06   -0.016692703081131816   -0.0013631915944222568
0.000161833055387633   -0.010616862568489146   -0.0011897638843371258
-0.00246420326971492   -0.010673214561656832   -0.0012263411827961588
5.609990540377214e-06   -0.016692703081131816   -0.0013631915944222568
-0.003077123759155349   -0.01672741702667186   -0.0014079085060505103
-0.003083647542250258   -0.016683148854227864   -0.0014505408763873906
-0.00246420326971492   -0.010673214561656832   -0.0012263411827961588
5.609990540377214e-06   -0.016692703081131816   -0.0013631915944222568
-0.003083647542250258   -0.016683148854227864   -0.0014505408763873906
0.000161833055387633   -0.010616862568489146   -0.0011897638843371258
-0.00246420326971492   -0.010673214561656832   -0.0012263411827961588
-0.003077123759155349   -0.01672741702667186   -0.0014079085060505103
0.00017387990209444569   -0.010640138874289768   -0.0011776825261558038
-0.0024559850372418454   -0.0107040906668976   -0.0011815592464935723
-0.003077123759155349   -0.01672741702667186   -0.0014079085060505103
5.609990540377214e-06   -0.016692703081131816   -0.0013631915944222568
0.00017387990209444569   -0.010640138874289768   -0.0011776825261558038
1.4138309430082449e-05   -0.01669814211122241   -0.0013488131240556667
-0.0024559850372418454   -0.0107040906668976   -0.0011815592464935723
0.00018183181432850637   -0.010641849807103714   -0.0011716716071890284
1.4138309430082449e-05   -0.01669814211122241   -0.0013488131240556667
0.00017387990209444569   -0.010640138874289768   -0.0011776825261558038
-0.0024559850372418454   -0.0107040906668976   -0.0011815592464935723
1.4138309430082449e-05   -0.01669814211122241   -0.0013488131240556667
-0.003068464709302944   -0.01675946530350664   -0.0013716106539580642
-0.003077123759155349   -0.01672741702667186   -0.0014079085060505103
-0.0024559850372418454   -0.0107040906668976   -0.0011815592464935723
1.4138309430082449e-05   -0.01669814211122241   -0.0013488131240556667
-0.003077123759155349   -0.01672741702667186   -0.0014079085060505103
0.00017387990209444569   -0.010640138874289768   -0.0011776825261558038
-0.0024559850372418454   -0.0107040906668976   -0.0011815592464935723
-0.003068464709302944   -0.01675946530350664   -0.0013716106539580642
0.00018183181432850637   -0.010641849807103714   -0.0011716716071890284
-0.002442876540427004   -0.010713757060646405   -0.0011429916378485091
-0.003068464709302944   -0.01675946530350664   -0.0013716106539580642
1.4138309430082449e-05   -0.01669814211122241   -0.0013488131240556667
0.00018183181432850637   -0.010641849807103714   -0.0011716716071890284
1.980705182546254e-05   -0.016691106832016408   -0.0013409661348558687
-0.002442876540427004   -0.010713757060646405   -0.0011429916378485091
0.000187768697148818   -0.010621674731462003   -0.0011720975595039375
1.980705182546254e-05   -0.016691106832016408   -0.0013409661348558687
0.00018183181432850637   -0.010641849807103714   -0.0011716716071890284
-0.002442876540427004   -0.010713757060646405   -0.0011429916378485091
1.980705182546254e-05   -0.016691106832016408   -0.0013409661348558687
-0.003055864497752713   -0.016779504495844096   -0.0013417548213948871
-0.003068464709302944   -0.01675946530350664   -0.0013716106539580642
-0.002442876540427004   -0.010713757060646405   -0.0011429916378485091
1.980705182546254e-05   -0.016691106832016408   -0.0013409661348558687
-0.003068464709302944   -0.01675946530350664   -0.0013716106539580642
0.00018183181432850637   -0.010641849807103714   -0.0011716716071890284
0.000161833055387633   -0.010616862568489146   -0.0011897638843371258
-6.1032562445309446e-06   -0.016674959045301314   -0.0013838267232765319
0.0029072548763133714   -0.01067682510464394   -0.0011546020478541152
0.00017387990209444569   -0.010640138874289768   -0.0011776825261558038
-6.1032562445309446e-06   -0.016674959045301314   -0.0013838267232765319
0.0031773108031333524   -0.01670247140758616   -0.0013649591648417106
0.0029072548763133714   -0.01067682510464394   -0.0011546020478541152
0.003191548476426413   -0.016695212100695037   -0.0013667795596703702
0.00017387990209444569   -0.010640138874289768   -0.0011776825261558038
0.0029179240557097178   -0.010673267402531772   -0.001182255470890654
0.003191548476426413   -0.016695212100695037   -0.0013667795596703702
0.0029072548763133714   -0.01067682510464394   -0.0011546020478541152
0.00017387990209444569   -0.010640138874289768   -0.0011776825261558038
0.003191548476426413   -0.016695212100695037   -0.0013667795596703702
5.609990540377214e-06   -0.016692703081131816   -0.0013631915944222568
-6.1032562445309446e-06   -0.016674959045301314   -0.0013838267232765319
0.00017387990209444569   -0.010640138874289768   -0.0011776825261558038
0.003191548476426413   -0.016695212100695037   -0.0013667795596703702
-6.1032562445309446e-06   -0.016674959045301314   -0.0013838267232765319
0.0029072548763133714   -0.01067682510464394   -0.0011546020478541152
0.00017387990209444569   -0.010640138874289768   -0.0011776825261558038
5.609990540377214e-06   -0.016692703081131816   -0.0013631915944222568
0.0029179240557097178   -0.010673267402531772   -0.001182255470890654
0.00018183181432850637   -0.010641849807103714   -0.0011716716071890284
5.609990540377214e-06   -0.016692703081131816   -0.0013631915944222568
0.003191548476426413   -0.016695212100695037   -0.0013667795596703702
0.0029179240557097178   -0.010673267402531772   -0.001182255470890654
0.0031933645223112274   -0.01667661578017019   -0.0013745179909644847
0.00018183181432850637   -0.010641849807103714   -0.0011716716071890284
0.0029112756434761244   -0.010648629291350646   -0.0012155332900493296
0.0031933645223112274   -0.01667661578017019   -0.0013745179909644847
0.0029179240557097178   -0.010673267402531772   -0.001182255470890654
0.00018183181432850637   -0.010641849807103714   -0.0011716716071890284
0.0031933645223112274   -0.01667661578017019   -0.0013745179909644847
1.4138309430082449e-05   -0.01669814211122241   -0.0013488131240556667
5.609990540377214e-06   -0.016692703081131816   -0.0013631915944222568
0.00018183181432850637   -0.010641849807103714   -0.0011716716071890284
0.0031933645223112274   -0.01667661578017019   -0.0013745179909644847
5.609990540377214e-06   -0.016692703081131816   -0.0013631915944222568
0.0029179240557097178   -0.010673267402531772   -0.001182255470890654
0.00018183181432850637   -0.010641849807103714   -0.0011716716071890284
1.4138309430082449e-05   -0.01669814211122241   -0.0013488131240556667
0.0029112756434761244   -0.010648629291350646   -0.0012155332900493296
0.000187768697148818   -0.010621674731462003   -0.0011720975595039375
1.4138309430082449e-05   -0.01669814211122241   -0.0013488131240556667
0.0031933645223112274   -0.01667661578017019   -0.0013745179909644847
0.0029112756434761244   -0.010648629291350646   -0.0012155332900493296
0.0031871459595453964   -0.016642053594377676   -0.001388402231329159
0.000187768697148818   -0.010621674731462003   -0.0011720975595039375
0.0029009006588709653   -0.010597665915973584   -0.0012551038655401973
0.0031871459595453964   -0.016642053594377676   -0.001388402231329159
0.0029112756434761244   -0.010648629291350646   -0.0012155332900493296
0.000187768697148818   -0.010621674731462003   -0.0011720975595039375
0.0031871459595453964   -0.016642053594377676   -0.001388402231329159
1.980705182546254e-05   -0.016691106832016408   -0.0013409661348558687
1.4138309430082449e-05   -0.01669814211122241   -0.0013488131240556667
0.000187768697148818   -0.010621674731462003   -0.0011720975595039375
0.0031871459595453964   -0.016642053594377676   -0.001388402231329159
1.4138309430082449e-05   -0.01669814211122241   -0.0013488131240556667
0.0029112756434761244   -0.010648629291350646   -0.0012155332900493296
0.0029072548763133714   -0.01067682510464394   -0.0011546020478541152
0.0031773108031333524   -0.01670247140758616   -0.0013649591648417106
0.006034264230131379   -0.010785436405810077   -0.0011558567922774282
0.0029179240557097178   -0.010673267402531772   -0.001182255470890654
0.0031773108031333524   -0.01670247140758616   -0.0013649591648417106
0.006692512307537498   -0.016752911342182656   -0.001383612885770034
0.006034264230131379   -0.010785436405810077   -0.0011558567922774282
0.006687515947573212   -0.0167286905425624   -0.0014095837910101528
0.0029179240557097178   -0.010673267402531772   -0.001182255470890654
0.005982872501088497   -0.010766380568941879   -0.0012282858295696562
0.006687515947573212   -0.0167286905425624   -0.0014095837910101528
0.006034264230131379   -0.010785436405810077   -0.0011558567922774282
0.0029179240557097178   -0.010673267402531772   -0.001182255470890654
0.006687515947573212   -0.0167286905425624   -0.0014095837910101528
0.003191548476426413   -0.016695212100695037   -0.0013667795596703702
0.0031773108031333524   -0.01670247140758616   -0.0013649591648417106
0.0029179240557097178   -0.010673267402531772   -0.001182255470890654
0.006687515947573212   -0.0167286905425624   -0.0014095837910101528
0.0031773108031333524   -0.01670247140758616   -0.0013649591648417106
0.006034264230131379   -0.010785436405810077   -0.0011558567922774282
0.0029179240557097178   -0.010673267402531772   -0.001182255470890654
0.003191548476426413   -0.016695212100695037   -0.0013667795596703702
0.005982872501088497   -0.010766380568941879   -0.0012282858295696562
0.0029112756434761244   -0.010648629291350646   -0.0012155332900493296
0.003191548476426413   -0.016695212100695037   -0.0013667795596703702
0.006687515947573212   -0.0167286905425624   -0.0014095837910101528
0.005982872501088497   -0.010766380568941879   -0.0012282858295696562
0.006671808248751366   -0.016698407886924175   -0.0014451612150053008
0.0029112756434761244   -0.010648629291350646   -0.0012155332900493296
0.005931417891443767   -0.010728490801827603   -0.0013108576406748033
0.006671808248751366   -0.016698407886924175   -0.0014451612150053008
0.005982872501088497   -0.010766380568941879   -0.0012282858295696562
0.0029112756434761244   -0.010648629291350646   -0.0012155332900493296
0.006671808248751366   -0.016698407886924175   -0.0014451612150053008
0.0031933645223112274   -0.01667661578017019   -0.0013745179909644847
0.003191548476426413   -0.016695212100695037   -0.0013667795596703702
0.0029112756434761244   -0.010648629291350646   -0.0012155332900493296
0.006671808248751366   -0.016698407886924175   -0.0014451612150053008
0.003191548476426413   -0.016695212100695037   -0.0013667795596703702
0.005982872501088497   -0.010766380568941879   -0.0012282858295696562
0.0029112756434761244   -0.010648629291350646   -0.0012155332900493296
0.0031933645223112274   -0.01667661578017019   -0.0013745179909644847
0.005931417891443767   -0.010728490801827603   -0.0013108576406748033
0.0029009006588709653   -0.010597665915973584   -0.0012551038655401973
0.0031933645223112274   -0.01667661578017019   -0.0013745179909644847
0.006671808248751366   -0.016698407886924175   -0.0014451612150053008
0.005931417891443767   -0.010728490801827603   -0.0013108576406748033
0.006627239447022318   -0.01664091633407428   -0.0014902753953672438
0.0029009006588709653   -0.010597665915973584   -0.0012551038655401973
0.005839292837629507   -0.010649252423591068   -0.0014035832830607477
0.006627239447022318   -0.01664091633407428   -0.0014902753953672438
0.005931417891443767   -0.010728490801827603   -0.0013108576406748033
0.0029009006588709653   -0.010597665915973584   -0.0012551038655401973
0.006627239447022318   -0.01664091633407428   -0.0014902753953672438
0.0031871459595453964   -0.016642053594377676   -0.001388402231329159
0.0031933645223112274   -0.01667661578017019   -0.0013745179909644847
0.0029009006588709653   -0.010597665915973584   -0.0012551038655401973
0.006627239447022318   -0.01664091633407428   -0.0014902753953672438
0.0031933645223112274   -0.01667661578017019   -0.0013745179909644847
0.005931417891443767   -0.010728490801827603   -0.0013108576406748033
-0.009622501107475877   -0.016821603286436265   -0.0017311739096433792
-0.010565002543394342   -0.023331669410341024   -0.0017637131661268725
-0.006247266532960126   -0.01673039397936206   -0.0015653455015132288
-0.00971808182341198   -0.016917189488477882   -0.0016380006514480736
-0.010565002543394342   -0.023331669410341024   -0.0017637131661268725
-0.00694445759040105   -0.02329463481993616   -0.0016318544390921841
-0.006247266532960126   -0.01673039397936206   -0.0015653455015132288
-0.0069411032797475234   -0.02335478425334116   -0.0015923758141448182
-0.00971808182341198   -0.016917189488477882   -0.0016380006514480736
-0.006254096119215242   -0.016801023172454684   -0.0015008937230669673
-0.0069411032797475234   -0.02335478425334116   -0.0015923758141448182
-0.006247266532960126   -0.01673039397936206   -0.0015653455015132288
-0.00971808182341198   -0.016917189488477882   -0.0016380006514480736
-0.0069411032797475234   -0.02335478425334116   -0.0015923758141448182
-0.01060921403984151   -0.02341255844465641   -0.0017158317320305145
-0.010565002543394342   -0.023331669410341024   -0.0017637131661268725
-0.00971808182341198   -0.016917189488477882   -0.0016380006514480736
-0.0069411032797475234   -0.02335478425334116   -0.0015923758141448182
-0.010565002543394342   -0.023331669410341024   -0.0017637131661268725
-0.006247266532960126   -0.01673039397936206   -0.0015653455015132288
-0.00971808182341198   -0.016917189488477882   -0.0016380006514480736
-0.01060921403984151   -0.02341255844465641   -0.0017158317320305145
-0.006254096119215242   -0.016801023172454684   -0.0015008937230669673
-0.00977258686009905   -0.016984891063904273   -0.001553797446339413
-0.01060921403984151   -0.02341255844465641   -0.0017158317320305145
-0.0069411032797475234   -0.02335478425334116   -0.0015923758141448182
-0.006254096119215242   -0.016801023172454684   -0.0015008937230669673
-0.006931200222729068   -0.02341034428874855   -0.0015594547235155988
-0.00977258686009905   -0.016984891063904273   -0.001553797446339413
-0.006258749492667649   -0.01685707741505296   -0.0014428766690770434
-0.006931200222729068   -0.02341034428874855   -0.0015594547235155988
-0.006254096119215242   -0.016801023172454684   -0.0015008937230669673
-0.00977258686009905   -0.016984891063904273   -0.001553797446339413
-0.006931200222729068   -0.02341034428874855   -0.0015594547235155988
-0.010622806842326431   -0.023478621112767172   -0.0016773865626913942
-0.01060921403984151   -0.02341255844465641   -0.0017158317320305145
-0.00977258686009905   -0.016984891063904273   -0.001553797446339413
-0.006931200222729068   -0.02341034428874855   -0.0015594547235155988
-0.01060921403984151   -0.02341255844465641   -0.0017158317320305145
-0.006254096119215242   -0.016801023172454684   -0.0015008937230669673
-0.00977258686009905   -0.016984891063904273   -0.001553797446339413
-0.010622806842326431   -0.023478621112767172   -0.0016773865626913942
-0.006258749492667649   -0.01685707741505296   -0.0014428766690770434
-0.009828672766229982   -0.017045701340257995   -0.0014796345245484735
-0.010622806842326431   -0.023478621112767172   -0.0016773865626913942
-0.006931200222729068   -0.02341034428874855   -0.0015594547235155988
-0.006258749492667649   -0.01685707741505296   -0.0014428766690770434
-0.006907697239410085   -0.023465556826520205   -0.0015326254994431456
-0.009828672766229982   -0.017045701340257995   -0.0014796345245484735
-0.006245106865781978   -0.016903211835687302   -0.0013904346197331134
-0.006907697239410085   -0.023465556826520205   -0.0015326254994431456
-0.006258749492667649   -0.01685707741505296   -0.0014428766690770434
-0.009828672766229982   -0.017045701340257995   -0.0014796345245484735
-0.006907697239410085   -0.023465556826520205   -0.0015326254994431456
-0.010626812300858353   -0.023550482074436347   -0.0016491950608519134
-0.010622806842326431   -0.023478621112767172   -0.0016773865626913942
-0.009828672766229982   -0.017045701340257995   -0.0014796345245484735
-0.006907697239410085   -0.023465556826520205   -0.0015326254994431456
-0.010622806842326431   -0.023478621112767172   -0.0016773865626913942
-0.006258749492667649   -0.01685707741505296   -0.0014428766690770434
-0.006247266532960126   -0.01673039397936206   -0.0015653455015132288
-0.00694445759040105   -0.02329463481993616   -0.0016318544390921841
-0.003083647542250258   -0.016683148854227864   -0.0014505408763873906
-0.006254096119215242   -0.016801023172454684   -0.0015008937230669673
-0.00694445759040105   -0.02329463481993616   -0.0016318544390921841
-0.00358136445783798   -0.02327324344153153   -0.0015421069729211973
-0.003083647542250258   -0.016683148854227864   -0.0014505408763873906
-0.0035682212504273884   -0.02330959861489294   -0.0015075895899535452
-0.006254096119215242   -0.016801023172454684   -0.0015008937230669673
-0.003077123759155349   -0.01672741702667186   -0.0014079085060505103
-0.0035682212504273884   -0.02330959861489294   -0.0015075895899535452
-0.003083647542250258   -0.016683148854227864   -0.0014505408763873906
-0.006254096119215242   -0.016801023172454684   -0.0015008937230669673
-0.0035682212504273884   -0.02330959861489294   -0.0015075895899535452
-0.0069411032797475234   -0.02335478425334116   -0.0015923758141448182
-0.00694445759040105   -0.02329463481993616   -0.0016318544390921841
-0.006254096119215242   -0.016801023172454684   -0.0015008937230669673
-0.0035682212504273884   -0.02330959861489294   -0.0015075895899535452
-0.00694445759040105   -0.02329463481993616   -0.0016318544390921841
-0.003083647542250258   -0.016683148854227864   -0.0014505408763873906
-0.006254096119215242   -0.016801023172454684   -0.0015008937230669673
-0.0069411032797475234   -0.02335478425334116   -0.0015923758141448182
-0.003077123759155349   -0.01672741702667186   -0.0014079085060505103
-0.006258749492667649   -0.01685707741505296   -0.0014428766690770434
-0.0069411032797475234   -0.02335478425334116   -0.0015923758141448182
-0.0035682212504273884   -0.02330959861489294   -0.0015075895899535452
-0.003077123759155349   -0.01672741702667186   -0.0014079085060505103
-0.00355224500357121   -0.02334301361836629   -0.001479631884562837
-0.006258749492667649   -0.01685707741505296   -0.0014428766690770434
-0.003068464709302944   -0.01675946530350664   -0.0013716106539580642
-0.00355224500357121   -0.02334301361836629   -0.001479631884562837
-0.003077123759155349   -0.01672741702667186   -0.0014079085060505103
-0.006258749492667649   -0.01685707741505296   -0.0014428766690770434
-0.00355224500357121   -0.02334301361836629   -0.001479631884562837
-0.006931200222729068   -0.02341034428874855   -0.0015594547235155988
-0.0069411032797475234   -0.02335478425334116   -0.0015923758141448182
-0.006258749492667649   -0.01685707741505296   -0.0014428766690770434
-0.00355224500357121   -0.02334301361836629   -0.001479631884562837
-0.0069411032797475234   -0.02335478425334116   -0.0015923758141448182
-0.003077123759155349   -0.01672741702667186   -0.0014079085060505103
-0.006258749492667649   -0.01685707741505296   -0.0014428766690770434
-0.006931200222729068   -0.02341034428874855   -0.0015594547235155988
-0.003068464709302944   -0.01675946530350664   -0.0013716106539580642
-0.006245106865781978   -0.016903211835687302   -0.0013904346197331134
-0.006931200222729068   -0.02341034428874855   -0.0015594547235155988
-0.00355224500357121   -0.02334301361836629   -0.001479631884562837
-0.003068464709302944   -0.01675946530350664   -0.0013716106539580642
-0.0035331564282178496   -0.023373599537095825   -0.0014583946656189296
-0.006245106865781978   -0.016903211835687302   -0.0013904346197331134
-0.003055864497752713   -0.016779504495844096   -0.0013417548213948871
-0.0035331564282178496   -0.023373599537095825   -0.0014583946656189296
-0.003068464709302944   -0.01675946530350664   -0.0013716106539580642
-0.006245106865781978   -0.016903211835687302   -0.0013904346197331134
-0.0035331564282178496   -0.023373599537095825   -0.0014583946656189296
-0.006907697239410085   -0.023465556826520205   -0.0015326254994431456
-0.006931200222729068   -0.02341034428874855   -0.0015594547235155988
-0.006245106865781978   -0.016903211835687302   -0.0013904346197331134
-0.0035331564282178496   -0.023373599537095825   -0.0014583946656189296
-0.006931200222729068   -0.02341034428874855   -0.0015594547235155988
-0.003068464709302944   -0.01675946530350664   -0.0013716106539580642
-0.003083647542250258   -0.016683148854227864   -0.0014505408763873906
-0.00358136445783798   -0.02327324344153153   -0.0015421069729211973
-6.1032562445309446e-06   -0.016674959045301314   -0.0013838267232765319
-0.003077123759155349   -0.01672741702667186   -0.0014079085060505103
-0.00358136445783798   -0.02327324344153153   -0.0015421069729211973
-0.00030930913498855204   -0.023260897944392293   -0.0014958493649458657
-6.1032562445309446e-06   -0.016674959045301314   -0.0013838267232765319
-0.0002911564314143033   -0.02327299566034865   -0.0014666454860429968
-0.003077123759155349   -0.01672741702667186   -0.0014079085060505103
5.609990540377214e-06   -0.016692703081131816   -0.0013631915944222568
-0.0002911564314143033   -0.02327299566034865   -0.0014666454860429968
-6.1032562445309446e-06   -0.016674959045301314   -0.0013838267232765319
-0.003077123759155349   -0.01672741702667186   -0.0014079085060505103
-0.0002911564314143033   -0.02327299566034865   -0.0014666454860429968
-0.0035682212504273884   -0.02330959861489294   -0.0015075895899535452
-0.00358136445783798   -0.02327324344153153   -0.0015421069729211973
-0.003077123759155349   -0.01672741702667186   -0.0014079085060505103
-0.0002911564314143033   -0.02327299566034865   -0.0014666454860429968
-0.00358136445783798   -0.02327324344153153   -0.0015421069729211973
-6.1032562445309446e-06   -0.016674959045301314   -0.0013838267232765319
-0.003077123759155349   -0.01672741702667186   -0.0014079085060505103
-0.0035682212504273884   -0.02330959861489294   -0.0015075895899535452
5.609990540377214e-06   -0.016692703081131816   -0.0013631915944222568
-0.003068464709302944   -0.01675946530350664   -0.0013716106539580642
-0.0035682212504273884   -0.02330959861489294   -0.0015075895899535452
-0.0002911564314143033   -0.02327299566034865   -0.0014666454860429968
5.609990540377214e-06   -0.016692703081131816   -0.0013631915944222568
-0.00027536191707215114   -0.02328194173279591   -0.0014439473700445628
-0.003068464709302944   -0.01675946530350664   -0.0013716106539580642
1.4138309430082449e-05   -0.01669814211122241   -0.0013488131240556667
-0.00027536191707215114   -0.02328194173279591   -0.0014439473700445628
5.609990540377214e-06   -0.016692703081131816   -0.0013631915944222568
-0.003068464709302944   -0.01675946530350664   -0.0013716106539580642
-0.00027536191707215114   -0.02328194173279591   -0.0014439473700445628
-0.00355224500357121   -0.02334301361836629   -0.001479631884562837
-0.0035682212504273884   -0.02330959861489294   -0.0015075895899535452
-0.003068464709302944   -0.01675946530350664   -0.0013716106539580642
-0.00027536191707215114   -0.02328194173279591   -0.0014439473700445628
-0.0035682212504273884   -0.02330959861489294   -0.0015075895899535452
5.609990540377214e-06   -0.016692703081131816   -0.0013631915944222568
-0.003068464709302944   -0.01675946530350664   -0.0013716106539580642
-0.00355224500357121   -0.02334301361836629   -0.001479631884562837
1.4138309430082449e-05   -0.01669814211122241   -0.0013488131240556667
-0.003055864497752713   -0.016779504495844096   -0.0013417548213948871
-0.00355224500357121   -0.02334301361836629   -0.001479631884562837
-0.00027536191707215114   -0.02328194173279591   -0.0014439473700445628
1.4138309430082449e-05   -0.01669814211122241   -0.0013488131240556667
-0.0002631711982191433   -0.0232876882473685   -0.0014279905128562196
-0.003055864497752713   -0.016779504495844096   -0.0013417548213948871
1.980705182546254e-05   -0.016691106832016408   -0.0013409661348558687
-0.0002631711982191433   -0.0232876882473685   -0.0014279905128562196
1.4138309430082449e-05   -0.01669814211122241   -0.0013488131240556667
-0.003055864497752713   -0.016779504495844096   -0.0013417548213948871
-0.0002631711982191433   -0.0232876882473685   -0.0014279905128562196
-0.0035331564282178496   -0.023373599537095825   -0.0014583946656189296
-0.00355224500357121   -0.02334301361836629   -0.001479631884562837
-0.003055864497752713   -0.016779504495844096   -0.0013417548213948871
-0.0002631711982191433   -0.0232876882473685   -0.0014279905128562196
-0.00355224500357121   -0.02334301361836629   -0.001479631884562837
1.4138309430082449e-05   -0.01669814211122241   -0.0013488131240556667
-6.1032562445309446e-06   -0.016674959045301314   -0.0013838267232765319
-0.00030930913498855204   -0.023260897944392293   -0.0014958493649458657
0.0031773108031333524   -0.01670247140758616   -0.0013649591648417106
5.609990540377214e-06   -0.016692703081131816   -0.0013631915944222568
-0.00030930913498855204   -0.023260897944392293   -0.0014958493649458657
0.0030624820423872452   -0.023255466774295783   -0.0014935147019991828
0.0031773108031333524   -0.01670247140758616   -0.0013649591648417106
0.003086392340318028   -0.023244049727611252   -0.0014698877204914194
5.609990540377214e-06   -0.016692703081131816   -0.0013631915944222568
0.003191548476426413   -0.016695212100695037   -0.0013667795596703702
0.003086392340318028   -0.023244049727611252   -0.0014698877204914194
0.0031773108031333524   -0.01670247140758616   -0.0013649591648417106
5.609990540377214e-06   -0.016692703081131816   -0.0013631915944222568
0.003086392340318028   -0.023244049727611252   -0.0014698877204914194
-0.0002911564314143033   -0.02327299566034865   -0.0014666454860429968
-0.00030930913498855204   -0.023260897944392293   -0.0014958493649458657
5.609990540377214e-06   -0.016692703081131816   -0.0013631915944222568
0.003086392340318028   -0.023244049727611252   -0.0014698877204914194
-0.00030930913498855204   -0.023260897944392293   -0.0014958493649458657
0.0031773108031333524   -0.01670247140758616   -0.0013649591648417106
5.609990540377214e-06   -0.016692703081131816   -0.0013631915944222568
-0.0002911564314143033   -0.02327299566034865   -0.0014666454860429968
0.003191548476426413   -0.016695212100695037   -0.0013667795596703702
1.4138309430082449e-05   -0.01669814211122241   -0.0013488131240556667
-0.0002911564314143033   -0.02327299566034865   -0.0014666454860429968
0.003086392340318028   -0.023244049727611252   -0.0014698877204914194
0.003191548476426413   -0.016695212100695037   -0.0013667795596703702
0.00310265260651113   -0.023230853928634398   -0.0014525779466797643
1.4138309430082449e-05   -0.01669814211122241   -0.0013488131240556667
0.0031933645223112274   -0.01667661578017019   -0.0013745179909644847
0.00310265260651113   -0.023230853928634398   -0.0014525779466797643
0.003191548476426413   -0.016695212100695037   -0.0013667795596703702
1.4138309430082449e-05   -0.01669814211122241   -0.0013488131240556667
0.00310265260651113   -0.023230853928634398   -0.0014525779466797643
-0.00027536191707215114   -0.02328194173279591   -0.0014439473700445628
-0.0002911564314143033   -0.02327299566034865   -0.0014666454860429968
1.4138309430082449e-05   -0.01669814211122241   -0.0013488131240556667
0.00310265260651113   -0.023230853928634398   -0.0014525779466797643
-0.0002911564314143033   -0.02327299566034865   -0.0014666454860429968
0.003191548476426413   -0.016695212100695037   -0.0013667795596703702
1.4138309430082449e-05   -0.01669814211122241   -0.0013488131240556667
-0.00027536191707215114   -0.02328194173279591   -0.0014439473700445628
0.0031933645223112274   -0.01667661578017019   -0.0013745179909644847
1.980705182546254e-05   -0.016691106832016408   -0.0013409661348558687
-0.00027536191707215114   -0.02328194173279591   -0.0014439473700445628
0.00310265260651113   -0.023230853928634398   -0.0014525779466797643
0.0031933645223112274   -0.01667661578017019   -0.0013745179909644847
0.0031065048653046994   -0.023211585868169703   -0.001441457383686064
1.980705182546254e-05   -0.016691106832016408   -0.0013409661348558687
0.0031871459595453964   -0.016642053594377676   -0.001388402231329159
0.0031065048653046994   -0.023211585868169703   -0.001441457383686064
0.0031933645223112274   -0.01667661578017019   -0.0013745179909644847
1.980705182546254e-05   -0.016691106832016408   -0.0013409661348558687
0.0031065048653046994   -0.023211585868169703   -0.001441457383686064
-0.0002631711982191433   -0.0232876882473685   -0.0014279905128562196
-0.00027536191707215114   -0.02328194173279591   -0.0014439473700445628
1.980705182546254e-05   -0.016691106832016408   -0.0013409661348558687
0.0031065048653046994   -0.023211585868169703   -0.001441457383686064
-0.00027536191707215114   -0.02328194173279591   -0.0014439473700445628
0.0031933645223112274   -0.01667661578017019   -0.0013745179909644847
0.0031773108031333524   -0.01670247140758616   -0.0013649591648417106
0.0030624820423872452   -0.023255466774295783   -0.0014935147019991828
0.006692512307537498   -0.016752911342182656   -0.001383612885770034
0.003191548476426413   -0.016695212100695037   -0.0013667795596703702
0.0030624820423872452   -0.023255466774295783   -0.0014935147019991828
0.006715956749501478   -0.023247763203271335   -0.0015308034556720692
0.006692512307537498   -0.016752911342182656   -0.001383612885770034
0.006762537213041801   -0.023217738654606742   -0.0015112030756942744
0.003191548476426413   -0.016695212100695037   -0.0013667795596703702
0.006687515947573212   -0.0167286905425624   -0.0014095837910101528
0.006762537213041801   -0.023217738654606742   -0.0015112030756942744
0.006692512307537498   -0.016752911342182656   -0.001383612885770034
0.003191548476426413   -0.016695212100695037   -0.0013667795596703702
0.006762537213041801   -0.023217738654606742   -0.0015112030756942744
0.003086392340318028   -0.023244049727611252   -0.0014698877204914194
0.0030624820423872452   -0.023255466774295783   -0.0014935147019991828
0.003191548476426413   -0.016695212100695037   -0.0013667795596703702
0.006762537213041801   -0.023217738654606742   -0.0015112030756942744
0.0030624820423872452   -0.023255466774295783   -0.0014935147019991828
0.006692512307537498   -0.016752911342182656   -0.001383612885770034
0.003191548476426413   -0.016695212100695037   -0.0013667795596703702
0.003086392340318028   -0.023244049727611252   -0.0014698877204914194
0.006687515947573212   -0.0167286905425624   -0.0014095837910101528
0.0031933645223112274   -0.01667661578017019   -0.0013745179909644847
0.003086392340318028   -0.023244049727611252   -0.0014698877204914194
0.006762537213041801   -0.023217738654606742   -0.0015112030756942744
0.006687515947573212   -0.0167286905425624   -0.0014095837910101528
0.006787566873248881   -0.023194089167685773   -0.0015012086057573989
0.0031933645223112274   -0.01667661578017019   -0.0013745179909644847
0.006671808248751366   -0.016698407886924175   -0.0014451612150053008
0.006787566873248881   -0.023194089167685773   -0.0015012086057573989
0.006687515947573212   -0.0167286905425624   -0.0014095837910101528
0.0031933645223112274   -0.01667661578017019   -0.0013745179909644847
0.006787566873248881   -0.023194089167685773   -0.0015012086057573989
0.00310265260651113   -0.023230853928634398   -0.0014525779466797643
0.003086392340318028   -0.023244049727611252   -0.0014698877204914194
0.0031933645223112274   -0.01667661578017019   -0.0013745179909644847
0.006787566873248881   -0.023194089167685773   -0.0015012086057573989
0.003086392340318028   -0.023244049727611252   -0.0014698877204914194
0.006687515947573212   -0.0167286905425624   -0.0014095837910101528
0.0031933645223112274   -0.01667661578017019   -0.0013745179909644847
0.00310265260651113   -0.023230853928634398   -0.0014525779466797643
0.006671808248751366   -0.016698407886924175   -0.0014451612150053008
0.0031871459595453964   -0.016642053594377676   -0.001388402231329159
0.00310265260651113   -0.023230853928634398   -0.0014525779466797643
0.006787566873248881   -0.023194089167685773   -0.0015012086057573989
0.006671808248751366   -0.016698407886924175   -0.0014451612150053008
0.0067944764719895315   -0.02315633479998421   -0.001500984049495058
0.0031871459595453964   -0.016642053594377676   -0.001388402231329159
0.006627239447022318   -0.01664091633407428   -0.0014902753953672438
0.0067944764719895315   -0.02315633479998421   -0.001500984049495058
0.006671808248751366   -0.016698407886924175   -0.0014451612150053008
0.0031871459595453964   -0.016642053594377676   -0.001388402231329159
0.0067944764719895315   -0.02315633479998421   -0.001500984049495058
0.0031065048653046994   -0.023211585868169703   -0.001441457383686064
0.00310265260651113   -0.023230853928634398   -0.0014525779466797643
0.0031871459595453964   -0.016642053594377676   -0.001388402231329159
0.0067944764719895315   -0.02315633479998421   -0.001500984049495058
0.00310265260651113   -0.023230853928634398   -0.0014525779466797643
0.006671808248751366   -0.016698407886924175   -0.0014451612150053008
-0.010565002543394342   -0.023331669410341024   -0.0017637131661268725
-0.010891074823581762   -0.02995385474009185   -0.0017347234582398307
-0.00694445759040105   -0.02329463481993616   -0.0016318544390921841
-0.01060921403984151   -0.02341255844465641   -0.0017158317320305145
-0.010891074823581762   -0.02995385474009185   -0.0017347234582398307
-0.007277105521579343   -0.02997127952920528   -0.0016374231242300885
-0.00694445759040105   -0.02329463481993616   -0.0016318544390921841
-0.0072572170698442795   -0.030020772060543755   -0.0016224856779922762
-0.01060921403984151   -0.02341255844465641   -0.0017158317320305145
-0.0069411032797475234   -0.02335478425334116   -0.0015923758141448182
-0.0072572170698442795   -0.030020772060543755   -0.0016224856779922762
-0.00694445759040105   -0.02329463481993616   -0.0016318544390921841
-0.01060921403984151   -0.02341255844465641   -0.0017158317320305145
-0.0072572170698442795   -0.030020772060543755   -0.0016224856779922762
-0.010877936591189257   -0.03002009892632378   -0.0017318431440096628
-0.010891074823581762   -0.02995385474009185   -0.0017347234582398307
-0.01060921403984151   -0.02341255844465641   -0.0017158317320305145
-0.0072572170698442795   -0.030020772060543755   -0.0016224856779922762
-0.010891074823581762   -0.02995385474009185   -0.0017347234582398307
-0.00694445759040105   -0.02329463481993616   -0.0016318544390921841
-0.01060921403984151   -0.02341255844465641   -0.0017158317320305145
-0.010877936591189257   -0.03002009892632378   -0.0017318431440096628
-0.0069411032797475234   -0.02335478425334116   -0.0015923758141448182
-0.010622806842326431   -0.023478621112767172   -0.0016773865626913942
-0.010877936591189257   -0.03002009892632378   -0.0017318431440096628
-0.0072572170698442795   -0.030020772060543755   -0.0016224856779922762
-0.0069411032797475234   -0.02335478425334116   -0.0015923758141448182
-0.007226430647202773   -0.030075698006967837   -0.0016142887648400409
-0.010622806842326431   -0.023478621112767172   -0.0016773865626913942
-0.006931200222729068   -0.02341034428874855   -0.0015594547235155988
-0.007226430647202773   -0.030075698006967837   -0.0016142887648400409
-0.0069411032797475234   -0.02335478425334116   -0.0015923758141448182
-0.010622806842326431   -0.023478621112767172   -0.0016773865626913942
-0.007226430647202773   -0.030075698006967837   -0.0016142887648400409
-0.010844178418682652   -0.03008452865638942   -0.001739033588622385
-0.010877936591189257   -0.03002009892632378   -0.0017318431440096628
-0.010622806842326431   -0.023478621112767172   -0.0016773865626913942
-0.007226430647202773   -0.030075698006967837   -0.0016142887648400409
-0.010877936591189257   -0.03002009892632378   -0.0017318431440096628
-0.0069411032797475234   -0.02335478425334116   -0.0015923758141448182
-0.010622806842326431   -0.023478621112767172   -0.0016773865626913942
-0.010844178418682652   -0.03008452865638942   -0.001739033588622385
-0.006931200222729068   -0.02341034428874855   -0.0015594547235155988
-0.010626812300858353   -0.023550482074436347   -0.0016491950608519134
-0.010844178418682652   -0.03008452865638942   -0.001739033588622385
-0.007226430647202773   -0.030075698006967837   -0.0016142887648400409
-0.006931200222729068   -0.02341034428874855   -0.0015594547235155988
-0.007186700934561231   -0.030139845662409858   -0.0016127165247283325
-0.010626812300858353   -0.023550482074436347   -0.0016491950608519134
-0.006907697239410085   -0.023465556826520205   -0.0015326254994431456
-0.007186700934561231   -0.030139845662409858   -0.0016127165247283325
-0.006931200222729068   -0.02341034428874855   -0.0015594547235155988
-0.010626812300858353   -0.023550482074436347   -0.0016491950608519134
-0.007186700934561231   -0.030139845662409858   -0.0016127165247283325
-0.010789720530982044   -0.03016762141468164   -0.0017568122077084884
-0.010844178418682652   -0.03008452865638942   -0.001739033588622385
-0.010626812300858353   -0.023550482074436347   -0.0016491950608519134
-0.007186700934561231   -0.030139845662409858   -0.0016127165247283325
-0.010844178418682652   -0.03008452865638942   -0.001739033588622385
-0.006931200222729068   -0.02341034428874855   -0.0015594547235155988
-0.00694445759040105   -0.02329463481993616   -0.0016318544390921841
-0.007277105521579343   -0.02997127952920528   -0.0016374231242300885
-0.00358136445783798   -0.02327324344153153   -0.0015421069729211973
-0.0069411032797475234   -0.02335478425334116   -0.0015923758141448182
-0.007277105521579343   -0.02997127952920528   -0.0016374231242300885
-0.003966341104076046   -0.02997496405657368   -0.0015727756526464334
-0.00358136445783798   -0.02327324344153153   -0.0015421069729211973
-0.00393988794604693   -0.03000330228518725   -0.0015461214560922947
-0.0069411032797475234   -0.02335478425334116   -0.0015923758141448182
-0.0035682212504273884   -0.02330959861489294   -0.0015075895899535452
-0.00393988794604693   -0.03000330228518725   -0.0015461214560922947
-0.00358136445783798   -0.02327324344153153   -0.0015421069729211973
-0.0069411032797475234   -0.02335478425334116   -0.0015923758141448182
-0.00393988794604693   -0.03000330228518725   -0.0015461214560922947
-0.0072572170698442795   -0.030020772060543755   -0.0016224856779922762
-0.007277105521579343   -0.02997127952920528   -0.0016374231242300885
-0.0069411032797475234   -0.02335478425334116   -0.0015923758141448182
-0.00393988794604693   -0.03000330228518725   -0.0015461214560922947
-0.007277105521579343   -0.02997127952920528   -0.0016374231242300885
-0.00358136445783798   -0.02327324344153153   -0.0015421069729211973
-0.0069411032797475234   -0.02335478425334116   -0.0015923758141448182
-0.0072572170698442795   -0.030020772060543755   -0.0016224856779922762
-0.0035682212504273884   -0.02330959861489294   -0.0015075895899535452
-0.006931200222729068   -0.02341034428874855   -0.0015594547235155988
-0.0072572170698442795   -0.030020772060543755   -0.0016224856779922762
-0.00393988794604693   -0.03000330228518725   -0.0015461214560922947
-0.0035682212504273884   -0.02330959861489294   -0.0015075895899535452
-0.003910064397497869   -0.030037843163189613   -0.001526230786668115
-0.006931200222729068   -0.02341034428874855   -0.0015594547235155988
-0.00355224500357121   -0.02334301361836629   -0.001479631884562837
-0.003910064397497869   -0.030037843163189613   -0.001526230786668115
-0.0035682212504273884   -0.02330959861489294   -0.0015075895899535452
-0.006931200222729068   -0.02341034428874855   -0.0015594547235155988
-0.003910064397497869   -0.030037843163189613   -0.001526230786668115
-0.007226430647202773   -0.030075698006967837   -0.0016142887648400409
-0.0072572170698442795   -0.030020772060543755   -0.0016224856779922762
-0.006931200222729068   -0.02341034428874855   -0.0015594547235155988
-0.003910064397497869   -0.030037843163189613   -0.001526230786668115
-0.0072572170698442795   -0.030020772060543755   -0.0016224856779922762
-0.0035682212504273884   -0.02330959861489294   -0.0015075895899535452
-0.006931200222729068   -0.02341034428874855   -0.0015594547235155988
-0.007226430647202773   -0.030075698006967837   -0.0016142887648400409
-0.00355224500357121   -0.02334301361836629   -0.001479631884562837
-0.006907697239410085   -0.023465556826520205   -0.0015326254994431456
-0.007226430647202773   -0.030075698006967837   -0.0016142887648400409
-0.003910064397497869   -0.030037843163189613   -0.001526230786668115
-0.00355224500357121   -0.02334301361836629   -0.001479631884562837
-0.0038779513974115474   -0.030078694567678827   -0.0015133264385228517
-0.006907697239410085   -0.023465556826520205   -0.0015326254994431456
-0.0035331564282178496   -0.023373599537095825   -0.0014583946656189296
-0.0038779513974115474   -0.030078694567678827   -0.0015133264385228517
-0.00355224500357121   -0.02334301361836629   -0.001479631884562837
-0.006907697239410085   -0.023465556826520205   -0.0015326254994431456
-0.0038779513974115474   -0.030078694567678827   -0.0015133264385228517
-0.007186700934561231   -0.030139845662409858   -0.0016127165247283325
-0.007226430647202773   -0.030075698006967837   -0.0016142887648400409
-0.006907697239410085   -0.023465556826520205   -0.0015326254994431456
-0.0038779513974115474   -0.030078694567678827   -0.0015133264385228517
-0.007226430647202773   -0.030075698006967837   -0.0016142887648400409
-0.00355224500357121   -0.02334301361836629   -0.001479631884562837
-0.00358136445783798   -0.02327324344153153   -0.0015421069729211973
-0.003966341104076046   -0.02997496405657368   -0.0015727756526464334
-0.00030930913498855204   -0.023260897944392293   -0.0014958493649458657
-0.0035682212504273884   -0.02330959861489294   -0.0015075895899535452
-0.003966341104076046   -0.02997496405657368   -0.0015727756526464334
-0.0007491567206438131   -0.02995729600053938   -0.0015465391581259273
-0.00030930913498855204   -0.023260897944392293   -0.0014958493649458657
-0.000717935165325494   -0.02996374602671522   -0.0015087526018535777
-0.0035682212504273884   -0.02330959861489294   -0.0015075895899535452
-0.0002911564314143033   -0.02327299566034865   -0.0014666454860429968
-0.000717935165325494   -0.02996374602671522   -0.0015087526018535777
-0.00030930913498855204   -0.023260897944392293   -0.0014958493649458657
-0.0035682212504273884   -0.02330959861489294   -0.0015075895899535452
-0.000717935165325494   -0.02996374602671522   -0.0015087526018535777
-0.00393988794604693   -0.03000330228518725   -0.0015461214560922947
-0.003966341104076046   -0.02997496405657368   -0.0015727756526464334
-0.0035682212504273884   -0.02330959861489294   -0.0015075895899535452
-0.000717935165325494   -0.02996374602671522   -0.0015087526018535777
-0.003966341104076046   -0.02997496405657368   -0.0015727756526464334
-0.00030930913498855204   -0.023260897944392293   -0.0014958493649458657
-0.0035682212504273884   -0.02330959861489294   -0.0015075895899535452
-0.00393988794604693   -0.03000330228518725   -0.0015461214560922947
-0.0002911564314143033   -0.02327299566034865   -0.0014666454860429968
-0.00355224500357121   -0.02334301361836629   -0.001479631884562837
-0.00393988794604693   -0.03000330228518725   -0.0015461214560922947
-0.000717935165325494   -0.02996374602671522   -0.0015087526018535777
-0.0002911564314143033   -0.02327299566034865   -0.0014666454860429968
-0.0006883775127705314   -0.02997592125342377   -0.0014776846130849421
-0.00355224500357121   -0.02334301361836629   -0.001479631884562837
-0.00027536191707215114   -0.02328194173279591   -0.0014439473700445628
-0.0006883775127705314   -0.02997592125342377   -0.0014776846130849421
-0.0002911564314143033   -0.02327299566034865   -0.0014666454860429968
-0.00355224500357121   -0.02334301361836629   -0.001479631884562837
-0.0006883775127705314   -0.02997592125342377   -0.0014776846130849421
-0.003910064397497869   -0.030037843163189613   -0.001526230786668115
-0.00393988794604693   -0.03000330228518725   -0.0015461214560922947
-0.00355224500357121   -0.02334301361836629   -0.001479631884562837
-0.0006883775127705314   -0.02997592125342377   -0.0014776846130849421
-0.00393988794604693   -0.03000330228518725   -0.0015461214560922947
-0.0002911564314143033   -0.02327299566034865   -0.0014666454860429968
-0.00355224500357121   -0.02334301361836629   -0.001479631884562837
-0.003910064397497869   -0.030037843163189613   -0.001526230786668115
-0.00027536191707215114   -0.02328194173279591   -0.0014439473700445628
-0.0035331564282178496   -0.023373599537095825   -0.0014583946656189296
-0.003910064397497869   -0.030037843163189613   -0.001526230786668115
-0.0006883775127705314   -0.02997592125342377   -0.0014776846130849421
-0.00027536191707215114   -0.02328194173279591   -0.0014439473700445628
-0.0006632108964798607   -0.029994095670754527   -0.001453568278924704
-0.0035331564282178496   -0.023373599537095825   -0.0014583946656189296
-0.0002631711982191433   -0.0232876882473685   -0.0014279905128562196
-0.0006632108964798607   -0.029994095670754527   -0.001453568278924704
-0.00027536191707215114   -0.02328194173279591   -0.0014439473700445628
-0.0035331564282178496   -0.023373599537095825   -0.0014583946656189296
-0.0006632108964798607   -0.029994095670754527   -0.001453568278924704
-0.0038779513974115474   -0.030078694567678827   -0.0015133264385228517
-0.003910064397497869   -0.030037843163189613   -0.001526230786668115
-0.0035331564282178496   -0.023373599537095825   -0.0014583946656189296
-0.0006632108964798607   -0.029994095670754527   -0.001453568278924704
-0.003910064397497869   -0.030037843163189613   -0.001526230786668115
-0.00027536191707215114   -0.02328194173279591   -0.0014439473700445628
-0.00030930913498855204   -0.023260897944392293   -0.0014958493649458657
-0.0007491567206438131   -0.02995729600053938   -0.0015465391581259273
0.0030624820423872452   -0.023255466774295783   -0.0014935147019991828
-0.0002911564314143033   -0.02327299566034865   -0.0014666454860429968
-0.0007491567206438131   -0.02995729600053938   -0.0015465391581259273
0.0025645300638310405   -0.02991807678646614   -0.0015599967693230138
0.0030624820423872452   -0.023255466774295783   -0.0014935147019991828
0.002604288043187114   -0.029902552298505525   -0.0015112638122638574
-0.0002911564314143033   -0.02327299566034865   -0.0014666454860429968
0.003086392340318028   -0.023244049727611252   -0.0014698877204914194
0.002604288043187114   -0.029902552298505525   -0.0015112638122638574
0.0030624820423872452   -0.023255466774295783   -0.0014935147019991828
-0.0002911564314143033   -0.02327299566034865   -0.0014666454860429968
0.002604288043187114   -0.029902552298505525   -0.0015112638122638574
-0.000717935165325494   -0.02996374602671522   -0.0015087526018535777
-0.0007491567206438131   -0.02995729600053938   -0.0015465391581259273
-0.0002911564314143033   -0.02327299566034865   -0.0014666454860429968
0.002604288043187114   -0.029902552298505525   -0.0015112638122638574
-0.0007491567206438131   -0.02995729600053938   -0.0015465391581259273
0.0030624820423872452   -0.023255466774295783   -0.0014935147019991828
-0.0002911564314143033   -0.02327299566034865   -0.0014666454860429968
-0.000717935165325494   -0.02996374602671522   -0.0015087526018535777
0.003086392340318028   -0.023244049727611252   -0.0014698877204914194
-0.00027536191707215114   -0.02328194173279591   -0.0014439473700445628
-0.000717935165325494   -0.02996374602671522   -0.0015087526018535777
0.002604288043187114   -0.029902552298505525   -0.0015112638122638574
0.003086392340318028   -0.023244049727611252   -0.0014698877204914194
0.00264110802482336   -0.029894470711191157   -0.0014692274802170664
-0.00027536191707215114   -0.02328194173279591   -0.0014439473700445628
0.00310265260651113   -0.023230853928634398   -0.0014525779466797643
0.00264110802482336   -0.029894470711191157   -0.0014692274802170664
0.003086392340318028   -0.023244049727611252   -0.0014698877204914194
-0.00027536191707215114   -0.02328194173279591   -0.0014439473700445628
0.00264110802482336   -0.029894470711191157   -0.0014692274802170664
-0.0006883775127705314   -0.02997592125342377   -0.0014776846130849421
-0.000717935165325494   -0.02996374602671522   -0.0015087526018535777
-0.00027536191707215114   -0.02328194173279591   -0.0014439473700445628
0.00264110802482336   -0.029894470711191157   -0.0014692274802170664
-0.000717935165325494   -0.02996374602671522   -0.0015087526018535777
0.003086392340318028   -0.023244049727611252   -0.0014698877204914194
-0.00027536191707215114   -0.02328194173279591   -0.0014439473700445628
-0.0006883775127705314   -0.02997592125342377   -0.0014776846130849421
0.00310265260651113   -0.023230853928634398   -0.0014525779466797643
-0.0002631711982191433   -0.0232876882473685   -0.0014279905128562196
-0.0006883775127705314   -0.02997592125342377   -0.0014776846130849421
0.00264110802482336   -0.029894470711191157   -0.0014692274802170664
0.00310265260651113   -0.023230853928634398   -0.0014525779466797643
0.0026610916724654847   -0.02988996707965123   -0.001433450547707475
-0.0002631711982191433   -0.0232876882473685   -0.0014279905128562196
0.0031065048653046994   -0.023211585868169703   -0.001441457383686064
0.0026610916724654847   -0.02988996707965123   -0.001433450547707475
0.00310265260651113   -0.023230853928634398   -0.0014525779466797643
-0.0002631711982191433   -0.0232876882473685   -0.0014279905128562196
0.0026610916724654847   -0.02988996707965123   -0.001433450547707475
-0.0006632108964798607   -0.029994095670754527   -0.001453568278924704
-0.0006883775127705314   -0.02997592125342377   -0.0014776846130849421
-0.0002631711982191433   -0.0232876882473685   -0.0014279905128562196
0.0026610916724654847   -0.02988996707965123   -0.001433450547707475
-0.0006883775127705314   -0.02997592125342377   -0.0014776846130849421
0.00310265260651113   -0.023230853928634398   -0.0014525779466797643
0.0030624820423872452   -0.023255466774295783   -0.0014935147019991828
0.0025645300638310405   -0.02991807678646614   -0.0015599967693230138
0.006715956749501478   -0.023247763203271335   -0.0015308034556720692
0.003086392340318028   -0.023244049727611252   -0.0014698877204914194
0.0025645300638310405   -0.02991807678646614   -0.0015599967693230138
0.006111399571054049   -0.029852078897522456   -0.0016153011021885026
0.006715956749501478   -0.023247763203271335   -0.0015308034556720692
0.0062147787156989565   -0.029816611629881147   -0.0015512230993007692
0.003086392340318028   -0.023244049727611252   -0.0014698877204914194
0.006762537213041801   -0.023217738654606742   -0.0015112030756942744
0.0062147787156989565   -0.029816611629881147   -0.0015512230993007692
0.006715956749501478   -0.023247763203271335   -0.0015308034556720692
0.003086392340318028   -0.023244049727611252   -0.0014698877204914194
0.0062147787156989565   -0.029816611629881147   -0.0015512230993007692
0.002604288043187114   -0.029902552298505525   -0.0015112638122638574
0.0025645300638310405   -0.02991807678646614   -0.0015599967693230138
0.003086392340318028   -0.023244049727611252   -0.0014698877204914194
0.0062147787156989565   -0.029816611629881147   -0.0015512230993007692
0.0025645300638310405   -0.02991807678646614   -0.0015599967693230138
0.006715956749501478   -0.023247763203271335   -0.0015308034556720692
0.003086392340318028   -0.023244049727611252   -0.0014698877204914194
0.002604288043187114   -0.029902552298505525   -0.0015112638122638574
0.006762537213041801   -0.023217738654606742   -0.0015112030756942744
0.00310265260651113   -0.023230853928634398   -0.0014525779466797643
0.002604288043187114   -0.029902552298505525   -0.0015112638122638574
0.0062147787156989565   -0.029816611629881147   -0.0015512230993007692
0.006762537213041801   -0.023217738654606742   -0.0015112030756942744
0.006286006101176729   -0.02979940071811256   -0.0014966899807889382
0.00310265260651113   -0.023230853928634398   -0.0014525779466797643
0.006787566873248881   -0.023194089167685773   -0.0015012086057573989
0.006286006101176729   -0.02979940071811256   -0.0014966899807889382
0.006762537213041801   -0.023217738654606742   -0.0015112030756942744
0.00310265260651113   -0.023230853928634398   -0.0014525779466797643
0.006286006101176729   -0.02979940071811256   -0.0014966899807889382
0.00264110802482336   -0.029894470711191157   -0.0014692274802170664
0.002604288043187114   -0.029902552298505525   -0.0015112638122638574
0.00310265260651113   -0.023230853928634398   -0.0014525779466797643
0.006286006101176729   -0.02979940071811256   -0.0014966899807889382
0.002604288043187114   -0.029902552298505525   -0.0015112638122638574
0.006762537213041801   -0.023217738654606742   -0.0015112030756942744
0.00310265260651113   -0.023230853928634398   -0.0014525779466797643
0.00264110802482336   -0.029894470711191157   -0.0014692274802170664
0.006787566873248881   -0.023194089167685773   -0.0015012086057573989
0.0031065048653046994   -0.023211585868169703   -0.001441457383686064
0.00264110802482336   -0.029894470711191157   -0.0014692274802170664
0.006286006101176729   -0.02979940071811256   -0.0014966899807889382
0.006787566873248881   -0.023194089167685773   -0.0015012086057573989
0.006349504436334894   -0.029780808708336805   -0.0014520999646876014
0.0031065048653046994   -0.023211585868169703   -0.001441457383686064
0.0067944764719895315   -0.02315633479998421   -0.001500984049495058
0.006349504436334894   -0.029780808708336805   -0.0014520999646876014
0.006787566873248881   -0.023194089167685773   -0.0015012086057573989
0.0031065048653046994   -0.023211585868169703   -0.001441457383686064
0.006349504436334894   -0.029780808708336805   -0.0014520999646876014
0.0026610916724654847   -0.02988996707965123   -0.001433450547707475
0.00264110802482336   -0.029894470711191157   -0.0014692274802170664
0.0031065048653046994   -0.023211585868169703   -0.001441457383686064
0.006349504436334894   -0.029780808708336805   -0.0014520999646876014
0.00264110802482336   -0.029894470711191157   -0.0014692274802170664
0.006787566873248881   -0.023194089167685773   -0.0015012086057573989
-0.010891074823581762   -0.02995385474009185   -0.0017347234582398307
-0.010597053183575199   -0.036272784005135374   -0.0016592277992395592
-0.007277105521579343   -0.02997127952920528   -0.0016374231242300885
-0.010877936591189257   -0.03002009892632378   -0.0017318431440096628
-0.010597053183575199   -0.036272784005135374   -0.0016592277992395592
-0.00724653341641945   -0.036345517247476596   -0.0016007734843251696
-0.007277105521579343   -0.02997127952920528   -0.0016374231242300885
-0.007204007515351538   -0.03638241321130282   -0.0016096796230311847
-0.010877936591189257   -0.03002009892632378   -0.0017318431440096628
-0.0072572170698442795   -0.030020772060543755   -0.0016224856779922762
-0.007204007515351538   -0.03638241321130282   -0.0016096796230311847
-0.007277105521579343   -0.02997127952920528   -0.0016374231242300885
-0.010877936591189257   -0.03002009892632378   -0.0017318431440096628
-0.007204007515351538   -0.03638241321130282   -0.0016096796230311847
-0.010520257554163833   -0.03632260971617553   -0.0017013437870121127
-0.010597053183575199   -0.036272784005135374   -0.0016592277992395592
-0.010877936591189257   -0.03002009892632378   -0.0017318431440096628
-0.007204007515351538   -0.03638241321130282   -0.0016096796230311847
-0.010597053183575199   -0.036272784005135374   -0.0016592277992395592
-0.007277105521579343   -0.02997127952920528   -0.0016374231242300885
-0.010877936591189257   -0.03002009892632378   -0.0017318431440096628
-0.010520257554163833   -0.03632260971617553   -0.0017013437870121127
-0.0072572170698442795   -0.030020772060543755   -0.0016224856779922762
-0.010844178418682652   -0.03008452865638942   -0.001739033588622385
-0.010520257554163833   -0.03632260971617553   -0.0017013437870121127
-0.007204007515351538   -0.03638241321130282   -0.0016096796230311847
-0.0072572170698442795   -0.030020772060543755   -0.0016224856779922762
-0.007146511752918924   -0.036435053121970845   -0.0016254801260834287
-0.010844178418682652   -0.03008452865638942   -0.001739033588622385
-0.007226430647202773   -0.030075698006967837   -0.0016142887648400409
-0.007146511752918924   -0.036435053121970845   -0.0016254801260834287
-0.0072572170698442795   -0.030020772060543755   -0.0016224856779922762
-0.010844178418682652   -0.03008452865638942   -0.001739033588622385
-0.007146511752918924   -0.036435053121970845   -0.0016254801260834287
-0.010432770914527293   -0.03638390154869179   -0.001754299743965593
-0.010520257554163833   -0.03632260971617553   -0.0017013437870121127
-0.010844178418682652   -0.03008452865638942   -0.001739033588622385
-0.007146511752918924   -0.036435053121970845   -0.0016254801260834287
-0.010520257554163833   -0.03632260971617553   -0.0017013437870121127
-0.0072572170698442795   -0.030020772060543755   -0.0016224856779922762
-0.010844178418682652   -0.03008452865638942   -0.001739033588622385
-0.010432770914527293   -0.03638390154869179   -0.001754299743965593
-0.007226430647202773   -0.030075698006967837   -0.0016142887648400409
-0.010789720530982044   -0.03016762141468164   -0.0017568122077084884
-0.010432770914527293   -0.03638390154869179   -0.001754299743965593
-0.007146511752918924   -0.036435053121970845   -0.0016254801260834287
-0.007226430647202773   -0.030075698006967837   -0.0016142887648400409
-0.007084855616585572   -0.03650665350539203   -0.001648372698702
-0.010789720530982044   -0.03016762141468164   -0.0017568122077084884
-0.007186700934561231   -0.030139845662409858   -0.0016127165247283325
-0.007084855616585572   -0.03650665350539203   -0.001648372698702
-0.007226430647202773   -0.030075698006967837   -0.0016142887648400409
-0.010789720530982044   -0.03016762141468164   -0.0017568122077084884
-0.007084855616585572   -0.03650665350539203   -0.001648372698702
-0.010313764839436058   -0.036477271490212154   -0.0018183043859878866
-0.010432770914527293   -0.03638390154869179   -0.001754299743965593
-0.010789720530982044   -0.03016762141468164   -0.0017568122077084884
-0.007084855616585572   -0.03650665350539203   -0.001648372698702
-0.010432770914527293   -0.03638390154869179   -0.001754299743965593
-0.007226430647202773   -0.030075698006967837   -0.0016142887648400409
-0.007277105521579343   -0.02997127952920528   -0.0016374231242300885
-0.00724653341641945   -0.036345517247476596   -0.0016007734843251696
-0.003966341104076046   -0.02997496405657368   -0.0015727756526464334
-0.0072572170698442795   -0.030020772060543755   -0.0016224856779922762
-0.00724653341641945   -0.036345517247476596   -0.0016007734843251696
-0.004242230524475493   -0.036374155737413795   -0.001563394961696719
-0.003966341104076046   -0.02997496405657368   -0.0015727756526464334
-0.0041959660288081535   -0.036393289903493366   -0.001543980371517969
-0.0072572170698442795   -0.030020772060543755   -0.0016224856779922762
-0.00393988794604693   -0.03000330228518725   -0.0015461214560922947
-0.0041959660288081535   -0.036393289903493366   -0.001543980371517969
-0.003966341104076046   -0.02997496405657368   -0.0015727756526464334
-0.0072572170698442795   -0.030020772060543755   -0.0016224856779922762
-0.0041959660288081535   -0.036393289903493366   -0.001543980371517969
-0.007204007515351538   -0.03638241321130282   -0.0016096796230311847
-0.00724653341641945   -0.036345517247476596   -0.0016007734843251696
-0.0072572170698442795   -0.030020772060543755   -0.0016224856779922762
-0.0041959660288081535   -0.036393289903493366   -0.001543980371517969
-0.00724653341641945   -0.036345517247476596   -0.0016007734843251696
-0.003966341104076046   -0.02997496405657368   -0.0015727756526464334
-0.0072572170698442795   -0.030020772060543755   -0.0016224856779922762
-0.007204007515351538   -0.03638241321130282   -0.0016096796230311847
-0.00393988794604693   -0.03000330228518725   -0.0015461214560922947
-0.007226430647202773   -0.030075698006967837   -0.0016142887648400409
-0.007204007515351538   -0.03638241321130282   -0.0016096796230311847
-0.0041959660288081535   -0.036393289903493366   -0.001543980371517969
-0.00393988794604693   -0.03000330228518725   -0.0015461214560922947
-0.004146216228835297   -0.03642755251496318   -0.0015313750838336867
-0.007226430647202773   -0.030075698006967837   -0.0016142887648400409
-0.003910064397497869   -0.030037843163189613   -0.001526230786668115
-0.004146216228835297   -0.03642755251496318   -0.0015313750838336867
-0.00393988794604693   -0.03000330228518725   -0.0015461214560922947
-0.007226430647202773   -0.030075698006967837   -0.0016142887648400409
-0.004146216228835297   -0.03642755251496318   -0.0015313750838336867
-0.007146511752918924   -0.036435053121970845   -0.0016254801260834287
-0.007204007515351538   -0.03638241321130282   -0.0016096796230311847
-0.007226430647202773   -0.030075698006967837   -0.0016142887648400409
-0.004146216228835297   -0.03642755251496318   -0.0015313750838336867
-0.007204007515351538   -0.03638241321130282   -0.0016096796230311847
-0.00393988794604693   -0.03000330228518725   -0.0015461214560922947
-0.007226430647202773   -0.030075698006967837   -0.0016142887648400409
-0.007146511752918924   -0.036435053121970845   -0.0016254801260834287
-0.003910064397497869   -0.030037843163189613   -0.001526230786668115
-0.007186700934561231   -0.030139845662409858   -0.0016127165247283325
-0.007146511752918924   -0.036435053121970845   -0.0016254801260834287
-0.004146216228835297   -0.03642755251496318   -0.0015313750838336867
-0.003910064397497869   -0.030037843163189613   -0.001526230786668115
-0.004095080258913201   -0.0364773722743523   -0.001525915717462828
-0.007186700934561231   -0.030139845662409858   -0.0016127165247283325
-0.0038779513974115474   -0.030078694567678827   -0.0015133264385228517
-0.004095080258913201   -0.0364773722743523   -0.001525915717462828
-0.003910064397497869   -0.030037843163189613   -0.001526230786668115
-0.007186700934561231   -0.030139845662409858   -0.0016127165247283325
-0.004095080258913201   -0.0364773722743523   -0.001525915717462828
-0.007084855616585572   -0.03650665350539203   -0.001648372698702
-0.007146511752918924   -0.036435053121970845   -0.0016254801260834287
-0.007186700934561231   -0.030139845662409858   -0.0016127165247283325
-0.004095080258913201   -0.0364773722743523   -0.001525915717462828
-0.007146511752918924   -0.036435053121970845   -0.0016254801260834287
-0.003910064397497869   -0.030037843163189613   -0.001526230786668115
-0.003966341104076046   -0.02997496405657368   -0.0015727756526464334
-0.004242230524475493   -0.036374155737413795   -0.001563394961696719
-0.0007491567206438131   -0.02995729600053938   -0.0015465391581259273
-0.00393988794604693   -0.03000330228518725   -0.0015461214560922947
-0.004242230524475493   -0.036374155737413795   -0.001563394961696719
-0.0013287623276902734   -0.03635189187174986   -0.0015574521791908132
-0.0007491567206438131   -0.02995729600053938   -0.0015465391581259273
-0.0012775989598131819   -0.0363522112652983   -0.0015106882735623822
-0.00393988794604693   -0.03000330228518725   -0.0015461214560922947
-0.000717935165325494   -0.02996374602671522   -0.0015087526018535777
-0.0012775989598131819   -0.0363522112652983   -0.0015106882735623822
-0.0007491567206438131   -0.02995729600053938   -0.0015465391581259273
-0.00393988794604693   -0.03000330228518725   -0.0015461214560922947
-0.0012775989598131819   -0.0363522112652983   -0.0015106882735623822
-0.0041959660288081535   -0.036393289903493366   -0.001543980371517969
-0.004242230524475493   -0.036374155737413795   -0.001563394961696719
-0.00393988794604693   -0.03000330228518725   -0.0015461214560922947
-0.0012775989598131819   -0.0363522112652983   -0.0015106882735623822
-0.004242230524475493   -0.036374155737413795   -0.001563394961696719
-0.0007491567206438131   -0.02995729600053938   -0.0015465391581259273
-0.00393988794604693   -0.03000330228518725   -0.0015461214560922947
-0.0041959660288081535   -0.036393289903493366   -0.001543980371517969
-0.000717935165325494   -0.02996374602671522   -0.0015087526018535777
-0.003910064397497869   -0.030037843163189613   -0.001526230786668115
-0.0041959660288081535   -0.036393289903493366   -0.001543980371517969
-0.0012775989598131819   -0.0363522112652983   -0.0015106882735623822
-0.000717935165325494   -0.02996374602671522   -0.0015087526018535777
-0.0012277644279578039   -0.03636656444253054   -0.0014707529521263197
-0.003910064397497869   -0.030037843163189613   -0.001526230786668115
-0.0006883775127705314   -0.02997592125342377   -0.0014776846130849421
-0.0012277644279578039   -0.03636656444253054   -0.0014707529521263197
-0.000717935165325494   -0.02996374602671522   -0.0015087526018535777
-0.003910064397497869   -0.030037843163189613   -0.001526230786668115
-0.0012277644279578039   -0.03636656444253054   -0.0014707529521263197
-0.004146216228835297   -0.03642755251496318   -0.0015313750838336867
-0.0041959660288081535   -0.036393289903493366   -0.001543980371517969
-0.003910064397497869   -0.030037843163189613   -0.001526230786668115
-0.0012277644279578039   -0.03636656444253054   -0.0014707529521263197
-0.0041959660288081535   -0.036393289903493366   -0.001543980371517969
-0.000717935165325494   -0.02996374602671522   -0.0015087526018535777
-0.003910064397497869   -0.030037843163189613   -0.001526230786668115
-0.004146216228835297   -0.03642755251496318   -0.0015313750838336867
-0.0006883775127705314   -0.02997592125342377   -0.0014776846130849421
-0.0038779513974115474   -0.030078694567678827   -0.0015133264385228517
-0.004146216228835297   -0.03642755251496318   -0.0015313750838336867
-0.0012277644279578039   -0.03636656444253054   -0.0014707529521263197
-0.0006883775127705314   -0.02997592125342377   -0.0014776846130849421
-0.001183265392603017   -0.036396129496132565   -0.0014378825010678369
-0.0038779513974115474   -0.030078694567678827   -0.0015133264385228517
-0.0006632108964798607   -0.029994095670754527   -0.001453568278924704
-0.001183265392603017   -0.036396129496132565   -0.0014378825010678369
-0.0006883775127705314   -0.02997592125342377   -0.0014776846130849421
-0.0038779513974115474   -0.030078694567678827   -0.0015133264385228517
-0.001183265392603017   -0.036396129496132565   -0.0014378825010678369
-0.004095080258913201   -0.0364773722743523   -0.001525915717462828
-0.004146216228835297   -0.03642755251496318   -0.0015313750838336867
-0.0038779513974115474   -0.030078694567678827   -0.0015133264385228517
-0.001183265392603017   -0.036396129496132565   -0.0014378825010678369
-0.004146216228835297   -0.03642755251496318   -0.0015313750838336867
-0.0006883775127705314   -0.02997592125342377   -0.0014776846130849421
-0.0007491567206438131   -0.02995729600053938   -0.0015465391581259273
-0.0013287623276902734   -0.03635189187174986   -0.0015574521791908132
0.0025645300638310405   -0.02991807678646614   -0.0015599967693230138
-0.000717935165325494   -0.02996374602671522   -0.0015087526018535777
-0.0013287623276902734   -0.03635189187174986   -0.0015574521791908132
0.001684495279987537   -0.03628016575677709   -0.001585408213780643
0.0025645300638310405   -0.02991807678646614   -0.0015599967693230138
0.001747064551097045   -0.03626040041651981   -0.0015115401847124992
-0.000717935165325494   -0.02996374602671522   -0.0015087526018535777
0.002604288043187114   -0.029902552298505525   -0.0015112638122638574
0.001747064551097045   -0.03626040041651981   -0.0015115401847124992
0.0025645300638310405   -0.02991807678646614   -0.0015599967693230138
-0.000717935165325494   -0.02996374602671522   -0.0015087526018535777
0.001747064551097045   -0.03626040041651981   -0.0015115401847124992
-0.0012775989598131819   -0.0363522112652983   -0.0015106882735623822
-0.0013287623276902734   -0.03635189187174986   -0.0015574521791908132
-0.000717935165325494   -0.02996374602671522   -0.0015087526018535777
0.001747064551097045   -0.03626040041651981   -0.0015115401847124992
-0.0013287623276902734   -0.03635189187174986   -0.0015574521791908132
0.0025645300638310405   -0.02991807678646614   -0.0015599967693230138
-0.000717935165325494   -0.02996374602671522   -0.0015087526018535777
-0.0012775989598131819   -0.0363522112652983   -0.0015106882735623822
0.002604288043187114   -0.029902552298505525   -0.0015112638122638574
-0.0006883775127705314   -0.02997592125342377   -0.0014776846130849421
-0.0012775989598131819   -0.0363522112652983   -0.0015106882735623822
0.001747064551097045   -0.03626040041651981   -0.0015115401847124992
0.002604288043187114   -0.029902552298505525   -0.0015112638122638574
0.0018112689205850917   -0.03625667423162076   -0.0014449348096111801
-0.0006883775127705314   -0.02997592125342377   -0.0014776846130849421
0.00264110802482336   -0.029894470711191157   -0.0014692274802170664
0.0018112689205850917   -0.03625667423162076   -0.0014449348096111801
0.002604288043187114   -0.029902552298505525   -0.0015112638122638574
-0.0006883775127705314   -0.02997592125342377   -0.0014776846130849421
0.0018112689205850917   -0.03625667423162076   -0.0014449348096111801
-0.0012277644279578039   -0.03636656444253054   -0.0014707529521263197
-0.0012775989598131819   -0.0363522112652983   -0.0015106882735623822
-0.0006883775127705314   -0.02997592125342377   -0.0014776846130849421
0.0018112689205850917   -0.03625667423162076   -0.0014449348096111801
-0.0012775989598131819   -0.0363522112652983   -0.0015106882735623822
0.002604288043187114   -0.029902552298505525   -0.0015112638122638574
-0.0006883775127705314   -0.02997592125342377   -0.0014776846130849421
-0.0012277644279578039   -0.03636656444253054   -0.0014707529521263197
0.00264110802482336   -0.029894470711191157   -0.0014692274802170664
-0.0006632108964798607   -0.029994095670754527   -0.001453568278924704
-0.0012277644279578039   -0.03636656444253054   -0.0014707529521263197
0.0018112689205850917   -0.03625667423162076   -0.0014449348096111801
0.00264110802482336   -0.029894470711191157   -0.0014692274802170664
0.0018540486266434909   -0.03626603756870307   -0.0013846333195363244
-0.0006632108964798607   -0.029994095670754527   -0.001453568278924704
0.0026610916724654847   -0.02988996707965123   -0.001433450547707475
0.0018540486266434909   -0.03626603756870307   -0.0013846333195363244
0.00264110802482336   -0.029894470711191157   -0.0014692274802170664
-0.0006632108964798607   -0.029994095670754527   -0.001453568278924704
0.0018540486266434909   -0.03626603756870307   -0.0013846333195363244
-0.001183265392603017   -0.036396129496132565   -0.0014378825010678369
-0.0012277644279578039   -0.03636656444253054   -0.0014707529521263197
-0.0006632108964798607   -0.029994095670754527   -0.001453568278924704
0.0018540486266434909   -0.03626603756870307   -0.0013846333195363244
-0.0012277644279578039   -0.03636656444253054   -0.0014707529521263197
0.00264110802482336   -0.029894470711191157   -0.0014692274802170664
0.0025645300638310405   -0.02991807678646614   -0.0015599967693230138
0.001684495279987537   -0.03628016575677709   -0.001585408213780643
0.006111399571054049   -0.029852078897522456   -0.0016153011021885026
0.002604288043187114   -0.029902552298505525   -0.0015112638122638574
0.001684495279987537   -0.03628016575677709   -0.001585408213780643
0.004888609148167938   -0.03615681353654138   -0.0016571298746310137
0.006111399571054049   -0.029852078897522456   -0.0016153011021885026
0.0050551285917013675   -0.03611617449382569   -0.0015495748957706076
0.002604288043187114   -0.029902552298505525   -0.0015112638122638574
0.0062147787156989565   -0.029816611629881147   -0.0015512230993007692
0.0050551285917013675   -0.03611617449382569   -0.0015495748957706076
0.006111399571054049   -0.029852078897522456   -0.0016153011021885026
0.002604288043187114   -0.029902552298505525   -0.0015112638122638574
0.0050551285917013675   -0.03611617449382569   -0.0015495748957706076
0.001747064551097045   -0.03626040041651981   -0.0015115401847124992
0.001684495279987537   -0.03628016575677709   -0.001585408213780643
0.002604288043187114   -0.029902552298505525   -0.0015112638122638574
0.0050551285917013675   -0.03611617449382569   -0.0015495748957706076
0.001684495279987537   -0.03628016575677709   -0.001585408213780643
0.006111399571054049   -0.029852078897522456   -0.0016153011021885026
0.002604288043187114   -0.029902552298505525   -0.0015112638122638574
0.001747064551097045   -0.03626040041651981   -0.0015115401847124992
0.0062147787156989565   -0.029816611629881147   -0.0015512230993007692
0.00264110802482336   -0.029894470711191157   -0.0014692274802170664
0.001747064551097045   -0.03626040041651981   -0.0015115401847124992
0.0050551285917013675   -0.03611617449382569   -0.0015495748957706076
0.0062147787156989565   -0.029816611629881147   -0.0015512230993007692
0.005178538991021841   -0.03610496196221163   -0.0014516853040783546
0.00264110802482336   -0.029894470711191157   -0.0014692274802170664
0.006286006101176729   -0.02979940071811256   -0.0014966899807889382
0.005178538991021841   -0.03610496196221163   -0.0014516853040783546
0.0062147787156989565   -0.029816611629881147   -0.0015512230993007692
0.00264110802482336   -0.029894470711191157   -0.0014692274802170664
0.005178538991021841   -0.03610496196221163   -0.0014516853040783546
0.0018112689205850917   -0.03625667423162076   -0.0014449348096111801
0.001747064551097045   -0.03626040041651981   -0.0015115401847124992
0.00264110802482336   -0.029894470711191157   -0.0014692274802170664
0.005178538991021841   -0.03610496196221163   -0.0014516853040783546
0.001747064551097045   -0.03626040041651981   -0.0015115401847124992
0.0062147787156989565   -0.029816611629881147   -0.0015512230993007692
0.00264110802482336   -0.029894470711191157   -0.0014692274802170664
0.0018112689205850917   -0.03625667423162076   -0.0014449348096111801
0.006286006101176729   -0.02979940071811256   -0.0014966899807889382
0.0026610916724654847   -0.02988996707965123   -0.001433450547707475
0.0018112689205850917   -0.03625667423162076   -0.0014449348096111801
0.005178538991021841   -0.03610496196221163   -0.0014516853040783546
0.006286006101176729   -0.02979940071811256   -0.0014966899807889382
0.005303842767180059   -0.03610489359067431   -0.001363906695773839
0.0026610916724654847   -0.02988996707965123   -0.001433450547707475
0.006349504436334894   -0.029780808708336805   -0.0014520999646876014
0.005303842767180059   -0.03610489359067431   -0.001363906695773839
0.006286006101176729   -0.02979940071811256   -0.0014966899807889382
0.0026610916724654847   -0.02988996707965123   -0.001433450547707475
0.005303842767180059   -0.03610489359067431   -0.001363906695773839
0.0018540486266434909   -0.03626603756870307   -0.0013846333195363244
0.0018112689205850917   -0.03625667423162076   -0.0014449348096111801
0.0026610916724654847   -0.02988996707965123   -0.001433450547707475
0.005303842767180059   -0.03610489359067431   -0.001363906695773839
0.0018112689205850917   -0.03625667423162076   -0.0014449348096111801
0.006286006101176729   -0.02979940071811256   -0.0014966899807889382
-0.010597053183575199   -0.036272784005135374   -0.0016592277992395592
-0.009671828192827542   -0.041860502912184926   -0.001547796276381452
-0.00724653341641945   -0.036345517247476596   -0.0016007734843251696
-0.010520257554163833   -0.03632260971617553   -0.0017013437870121127
-0.009671828192827542   -0.041860502912184926   -0.001547796276381452
-0.006852823150705402   -0.04199142821440155   -0.0015384760427307785
-0.00724653341641945   -0.036345517247476596   -0.0016007734843251696
-0.0067827089067723735   -0.04201034592464644   -0.0015694767058760846
-0.010520257554163833   -0.03632260971617553   -0.0017013437870121127
-0.007204007515351538   -0.03638241321130282   -0.0016096796230311847
-0.0067827089067723735   -0.04201034592464644   -0.0015694767058760846
-0.00724653341641945   -0.036345517247476596   -0.0016007734843251696
-0.010520257554163833   -0.03632260971617553   -0.0017013437870121127
-0.0067827089067723735   -0.04201034592464644   -0.0015694767058760846
-0.009525574916495382   -0.04188855315156837   -0.0016346828919080816
-0.009671828192827542   -0.041860502912184926   -0.001547796276381452
-0.010520257554163833   -0.03632260971617553   -0.0017013437870121127
-0.0067827089067723735   -0.04201034592464644   -0.0015694767058760846
-0.009671828192827542   -0.041860502912184926   -0.001547796276381452
-0.00724653341641945   -0.036345517247476596   -0.0016007734843251696
-0.010520257554163833   -0.03632260971617553   -0.0017013437870121127
-0.009525574916495382   -0.04188855315156837   -0.0016346828919080816
-0.007204007515351538   -0.03638241321130282   -0.0016096796230311847
-0.010432770914527293   -0.03638390154869179   -0.001754299743965593
-0.009525574916495382   -0.04188855315156837   -0.0016346828919080816
-0.0067827089067723735   -0.04201034592464644   -0.0015694767058760846
-0.007204007515351538   -0.03638241321130282   -0.0016096796230311847
-0.006694634524404574   -0.042055765017317844   -0.0016074581483672178
-0.010432770914527293   -0.03638390154869179   -0.001754299743965593
-0.007146511752918924   -0.036435053121970845   -0.0016254801260834287
-0.006694634524404574   -0.042055765017317844   -0.0016074581483672178
-0.007204007515351538   -0.03638241321130282   -0.0016096796230311847
-0.010432770914527293   -0.03638390154869179   -0.001754299743965593
-0.006694634524404574   -0.042055765017317844   -0.0016074581483672178
-0.009379807295145202   -0.04194185987587655   -0.0017329348575404885
-0.009525574916495382   -0.04188855315156837   -0.0016346828919080816
-0.010432770914527293   -0.03638390154869179   -0.001754299743965593
-0.006694634524404574   -0.042055765017317844   -0.0016074581483672178
-0.009525574916495382   -0.04188855315156837   -0.0016346828919080816
-0.007204007515351538   -0.03638241321130282   -0.0016096796230311847
-0.010432770914527293   -0.03638390154869179   -0.001754299743965593
-0.009379807295145202   -0.04194185987587655   -0.0017329348575404885
-0.007146511752918924   -0.036435053121970845   -0.0016254801260834287
-0.010313764839436058   -0.036477271490212154   -0.0018183043859878866
-0.009379807295145202   -0.04194185987587655   -0.0017329348575404885
-0.006694634524404574   -0.042055765017317844   -0.0016074581483672178
-0.007146511752918924   -0.036435053121970845   -0.0016254801260834287
-0.006607754909076027   -0.042130267203724245   -0.0016523544838851533
-0.010313764839436058   -0.036477271490212154   -0.0018183043859878866
-0.007084855616585572   -0.03650665350539203   -0.001648372698702
-0.006607754909076027   -0.042130267203724245   -0.0016523544838851533
-0.007146511752918924   -0.036435053121970845   -0.0016254801260834287
-0.010313764839436058   -0.036477271490212154   -0.0018183043859878866
-0.006607754909076027   -0.042130267203724245   -0.0016523544838851533
-0.009193120909611921   -0.04204126211715314   -0.0018423517553453445
-0.009379807295145202   -0.04194185987587655   -0.0017329348575404885
-0.010313764839436058   -0.036477271490212154   -0.0018183043859878866
-0.006607754909076027   -0.042130267203724245   -0.0016523544838851533
-0.009379807295145202   -0.04194185987587655   -0.0017329348575404885
-0.007146511752918924   -0.036435053121970845   -0.0016254801260834287
-0.00724653341641945   -0.036345517247476596   -0.0016007734843251696
-0.006852823150705402   -0.04199142821440155   -0.0015384760427307785
-0.004242230524475493   -0.036374155737413795   -0.001563394961696719
-0.007204007515351538   -0.03638241321130282   -0.0016096796230311847
-0.006852823150705402   -0.04199142821440155   -0.0015384760427307785
-0.004410509882162402   -0.04205253869171969   -0.0015348442395338125
-0.004242230524475493   -0.036374155737413795   -0.001563394961696719
-0.004338614352180113   -0.04205870868259395   -0.0015209182324854057
-0.007204007515351538   -0.03638241321130282   -0.0016096796230311847
-0.0041959660288081535   -0.036393289903493366   -0.001543980371517969
-0.004338614352180113   -0.04205870868259395   -0.0015209182324854057
-0.004242230524475493   -0.036374155737413795   -0.001563394961696719
-0.007204007515351538   -0.03638241321130282   -0.0016096796230311847
-0.004338614352180113   -0.04205870868259395   -0.0015209182324854057
-0.0067827089067723735   -0.04201034592464644   -0.0015694767058760846
-0.006852823150705402   -0.04199142821440155   -0.0015384760427307785
-0.007204007515351538   -0.03638241321130282   -0.0016096796230311847
-0.004338614352180113   -0.04205870868259395   -0.0015209182324854057
-0.006852823150705402   -0.04199142821440155   -0.0015384760427307785
-0.004242230524475493   -0.036374155737413795   -0.001563394961696719
-0.007204007515351538   -0.03638241321130282   -0.0016096796230311847
-0.0067827089067723735   -0.04201034592464644   -0.0015694767058760846
-0.0041959660288081535   -0.036393289903493366   -0.001543980371517969
-0.007146511752918924   -0.036435053121970845   -0.0016254801260834287
-0.0067827089067723735   -0.04201034592464644   -0.0015694767058760846
-0.004338614352180113   -0.04205870868259395   -0.0015209182324854057
-0.0041959660288081535   -0.036393289903493366   -0.001543980371517969
-0.004264393573689668   -0.0420885513098595   -0.0015137660949928952
-0.007146511752918924   -0.036435053121970845   -0.0016254801260834287
-0.004146216228835297   -0.03642755251496318   -0.0015313750838336867
-0.004264393573689668   -0.0420885513098595   -0.0015137660949928952
-0.0041959660288081535   -0.036393289903493366   -0.001543980371517969
-0.007146511752918924   -0.036435053121970845   -0.0016254801260834287
-0.004264393573689668   -0.0420885513098595   -0.0015137660949928952
-0.006694634524404574   -0.042055765017317844   -0.0016074581483672178
-0.0067827089067723735   -0.04201034592464644   -0.0015694767058760846
-0.007146511752918924   -0.036435053121970845   -0.0016254801260834287
-0.004264393573689668   -0.0420885513098595   -0.0015137660949928952
-0.0067827089067723735   -0.04201034592464644   -0.0015694767058760846
-0.0041959660288081535   -0.036393289903493366   -0.001543980371517969
-0.007146511752918924   -0.036435053121970845   -0.0016254801260834287
-0.006694634524404574   -0.042055765017317844   -0.0016074581483672178
-0.004146216228835297   -0.03642755251496318   -0.0015313750838336867
-0.007084855616585572   -0.03650665350539203   -0.001648372698702
-0.006694634524404574   -0.042055765017317844   -0.0016074581483672178
-0.004264393573689668   -0.0420885513098595   -0.0015137660949928952
-0.004146216228835297   -0.03642755251496318   -0.0015313750838336867
-0.004190285650610494   -0.04214344118020617   -0.001513307541032572
-0.007084855616585572   -0.03650665350539203   -0.001648372698702
-0.004095080258913201   -0.0364773722743523   -0.001525915717462828
-0.004190285650610494   -0.04214344118020617   -0.001513307541032572
-0.004146216228835297   -0.03642755251496318   -0.0015313750838336867
-0.007084855616585572   -0.03650665350539203   -0.001648372698702
-0.004190285650610494   -0.04214344118020617   -0.001513307541032572
-0.006607754909076027   -0.042130267203724245   -0.0016523544838851533
-0.006694634524404574   -0.042055765017317844   -0.0016074581483672178
-0.007084855616585572   -0.03650665350539203   -0.001648372698702
-0.004190285650610494   -0.04214344118020617   -0.001513307541032572
-0.006694634524404574   -0.042055765017317844   -0.0016074581483672178
-0.004146216228835297   -0.03642755251496318   -0.0015313750838336867
-0.004242230524475493   -0.036374155737413795   -0.001563394961696719
-0.004410509882162402   -0.04205253869171969   -0.0015348442395338125
-0.0013287623276902734   -0.03635189187174986   -0.0015574521791908132
-0.0041959660288081535   -0.036393289903493366   -0.001543980371517969
-0.004410509882162402   -0.04205253869171969   -0.0015348442395338125
-0.0020491299298621493   -0.04204101517343077   -0.0015525359351321653
-0.0013287623276902734   -0.03635189187174986   -0.0015574521791908132
-0.00197038353462208   -0.042032852043599106   -0.0014952551679102836
-0.0041959660288081535   -0.036393289903493366   -0.001543980371517969
-0.0012775989598131819   -0.0363522112652983   -0.0015106882735623822
-0.00197038353462208   -0.042032852043599106   -0.0014952551679102836
-0.0013287623276902734   -0.03635189187174986   -0.0015574521791908132
-0.0041959660288081535   -0.036393289903493366   -0.001543980371517969
-0.00197038353462208   -0.042032852043599106   -0.0014952551679102836
-0.004338614352180113   -0.04205870868259395   -0.0015209182324854057
-0.004410509882162402   -0.04205253869171969   -0.0015348442395338125
-0.0041959660288081535   -0.036393289903493366   -0.001543980371517969
-0.00197038353462208   -0.042032852043599106   -0.0014952551679102836
-0.004410509882162402   -0.04205253869171969   -0.0015348442395338125
-0.0013287623276902734   -0.03635189187174986   -0.0015574521791908132
-0.0041959660288081535   -0.036393289903493366   -0.001543980371517969
-0.004338614352180113   -0.04205870868259395   -0.0015209182324854057
-0.0012775989598131819   -0.0363522112652983   -0.0015106882735623822
-0.004146216228835297   -0.03642755251496318   -0.0015313750838336867
-0.004338614352180113   -0.04205870868259395   -0.0015209182324854057
-0.00197038353462208   -0.042032852043599106   -0.0014952551679102836
-0.0012775989598131819   -0.0363522112652983   -0.0015106882735623822
-0.0018939357537326757   -0.04204611928555635   -0.001445195963676832
-0.004146216228835297   -0.03642755251496318   -0.0015313750838336867
-0.0012277644279578039   -0.03636656444253054   -0.0014707529521263197
-0.0018939357537326757   -0.04204611928555635   -0.001445195963676832
-0.0012775989598131819   -0.0363522112652983   -0.0015106882735623822
-0.004146216228835297   -0.03642755251496318   -0.0015313750838336867
-0.0018939357537326757   -0.04204611928555635   -0.001445195963676832
-0.004264393573689668   -0.0420885513098595   -0.0015137660949928952
-0.004338614352180113   -0.04205870868259395   -0.0015209182324854057
-0.004146216228835297   -0.03642755251496318   -0.0015313750838336867
-0.0018939357537326757   -0.04204611928555635   -0.001445195963676832
-0.004338614352180113   -0.04205870868259395   -0.0015209182324854057
-0.0012775989598131819   -0.0363522112652983   -0.0015106882735623822
-0.004146216228835297   -0.03642755251496318   -0.0015313750838336867
-0.004264393573689668   -0.0420885513098595   -0.0015137660949928952
-0.0012277644279578039   -0.03636656444253054   -0.0014707529521263197
-0.004095080258913201   -0.0364773722743523   -0.001525915717462828
-0.004264393573689668   -0.0420885513098595   -0.0015137660949928952
-0.0018939357537326757   -0.04204611928555635   -0.001445195963676832
-0.0012277644279578039   -0.03636656444253054   -0.0014707529521263197
-0.0018248461733945513   -0.04208388333453447   -0.0014017363942240466
-0.004095080258913201   -0.0364773722743523   -0.001525915717462828
-0.001183265392603017   -0.036396129496132565   -0.0014378825010678369
-0.0018248461733945513   -0.04208388333453447   -0.0014017363942240466
-0.0012277644279578039   -0.03636656444253054   -0.0014707529521263197
-0.004095080258913201   -0.0364773722743523   -0.001525915717462828
-0.0018248461733945513   -0.04208388333453447   -0.0014017363942240466
-0.004190285650610494   -0.04214344118020617   -0.001513307541032572
-0.004264393573689668   -0.0420885513098595   -0.0015137660949928952
-0.004095080258913201   -0.0364773722743523   -0.001525915717462828
-0.0018248461733945513   -0.04208388333453447   -0.0014017363942240466
-0.004264393573689668   -0.0420885513098595   -0.0015137660949928952
-0.0012277644279578039   -0.03636656444253054   -0.0014707529521263197
-0.0013287623276902734   -0.03635189187174986   -0.0015574521791908132
-0.0020491299298621493   -0.04204101517343077   -0.0015525359351321653
0.001684495279987537   -0.03628016575677709   -0.001585408213780643
-0.0012775989598131819   -0.0363522112652983   -0.0015106882735623822
-0.0020491299298621493   -0.04204101517343077   -0.0015525359351321653
0.0004218792668250103   -0.041954250669860985   -0.0015953680792146858
0.001684495279987537   -0.03628016575677709   -0.001585408213780643
0.0005177192006825724   -0.04192791445848179   -0.001494868641659622
-0.0012775989598131819   -0.0363522112652983   -0.0015106882735623822
0.001747064551097045   -0.03626040041651981   -0.0015115401847124992
0.0005177192006825724   -0.04192791445848179   -0.001494868641659622
0.001684495279987537   -0.03628016575677709   -0.001585408213780643
-0.0012775989598131819   -0.0363522112652983   -0.0015106882735623822
0.0005177192006825724   -0.04192791445848179   -0.001494868641659622
-0.00197038353462208   -0.042032852043599106   -0.0014952551679102836
-0.0020491299298621493   -0.04204101517343077   -0.0015525359351321653
-0.0012775989598131819   -0.0363522112652983   -0.0015106882735623822
0.0005177192006825724   -0.04192791445848179   -0.001494868641659622
-0.0020491299298621493   -0.04204101517343077   -0.0015525359351321653
0.001684495279987537   -0.03628016575677709   -0.001585408213780643
-0.0012775989598131819   -0.0363522112652983   -0.0015106882735623822
-0.00197038353462208   -0.042032852043599106   -0.0014952551679102836
0.001747064551097045   -0.03626040041651981   -0.0015115401847124992
-0.0012277644279578039   -0.03636656444253054   -0.0014707529521263197
-0.00197038353462208   -0.042032852043599106   -0.0014952551679102836
0.0005177192006825724   -0.04192791445848179   -0.001494868641659622
0.001747064551097045   -0.03626040041651981   -0.0015115401847124992
0.0006187931206802678   -0.041925535371027965   -0.0014035174002649446
-0.0012277644279578039   -0.03636656444253054   -0.0014707529521263197
0.0018112689205850917   -0.03625667423162076   -0.0014449348096111801
0.0006187931206802678   -0.041925535371027965   -0.0014035174002649446
0.001747064551097045   -0.03626040041651981   -0.0015115401847124992
-0.0012277644279578039   -0.03636656444253054   -0.0014707529521263197
0.0006187931206802678   -0.041925535371027965   -0.0014035174002649446
-0.0018939357537326757   -0.04204611928555635   -0.001445195963676832
-0.00197038353462208   -0.042032852043599106   -0.0014952551679102836
-0.0012277644279578039   -0.03636656444253054   -0.0014707529521263197
0.0006187931206802678   -0.041925535371027965   -0.0014035174002649446
-0.00197038353462208   -0.042032852043599106   -0.0014952551679102836
0.001747064551097045   -0.03626040041651981   -0.0015115401847124992
-0.0012277644279578039   -0.03636656444253054   -0.0014707529521263197
-0.0018939357537326757   -0.04204611928555635   -0.001445195963676832
0.0018112689205850917   -0.03625667423162076   -0.0014449348096111801
-0.001183265392603017   -0.036396129496132565   -0.0014378825010678369
-0.0018939357537326757   -0.04204611928555635   -0.001445195963676832
0.0006187931206802678   -0.041925535371027965   -0.0014035174002649446
0.0018112689205850917   -0.03625667423162076   -0.0014449348096111801
0.0006927133311659208   -0.04194601262462696   -0.0013184623546995723
-0.001183265392603017   -0.036396129496132565   -0.0014378825010678369
0.0018540486266434909   -0.03626603756870307   -0.0013846333195363244
0.0006927133311659208   -0.04194601262462696   -0.0013184623546995723
0.0018112689205850917   -0.03625667423162076   -0.0014449348096111801
-0.001183265392603017   -0.036396129496132565   -0.0014378825010678369
0.0006927133311659208   -0.04194601262462696   -0.0013184623546995723
-0.0018248461733945513   -0.04208388333453447   -0.0014017363942240466
-0.0018939357537326757   -0.04204611928555635   -0.001445195963676832
-0.001183265392603017   -0.036396129496132565   -0.0014378825010678369
0.0006927133311659208   -0.04194601262462696   -0.0013184623546995723
-0.0018939357537326757   -0.04204611928555635   -0.001445195963676832
0.0018112689205850917   -0.03625667423162076   -0.0014449348096111801
0.001684495279987537   -0.03628016575677709   -0.001585408213780643
0.0004218792668250103   -0.041954250669860985   -0.0015953680792146858
0.004888609148167938   -0.03615681353654138   -0.0016571298746310137
0.001747064551097045   -0.03626040041651981   -0.0015115401847124992
0.0004218792668250103   -0.041954250669860985   -0.0015953680792146858
0.0030543035432564255   -0.041784049552726334   -0.0016865931196893352
0.004888609148167938   -0.03615681353654138   -0.0016571298746310137
0.003297619444577035   -0.041733562932336696   -0.001532748663378005
0.001747064551097045   -0.03626040041651981   -0.0015115401847124992
0.0050551285917013675   -0.03611617449382569   -0.0015495748957706076
0.003297619444577035   -0.041733562932336696   -0.001532748663378005
0.004888609148167938   -0.03615681353654138   -0.0016571298746310137
0.001747064551097045   -0.03626040041651981   -0.0015115401847124992
0.003297619444577035   -0.041733562932336696   -0.001532748663378005
0.0005177192006825724   -0.04192791445848179   -0.001494868641659622
0.0004218792668250103   -0.041954250669860985   -0.0015953680792146858
0.001747064551097045   -0.03626040041651981   -0.0015115401847124992
0.003297619444577035   -0.041733562932336696   -0.001532748663378005
0.0004218792668250103   -0.041954250669860985   -0.0015953680792146858
0.004888609148167938   -0.03615681353654138   -0.0016571298746310137
0.001747064551097045   -0.03626040041651981   -0.0015115401847124992
0.0005177192006825724   -0.04192791445848179   -0.001494868641659622
0.0050551285917013675   -0.03611617449382569   -0.0015495748957706076
0.0018112689205850917   -0.03625667423162076   -0.0014449348096111801
0.0005177192006825724   -0.04192791445848179   -0.001494868641659622
0.003297619444577035   -0.041733562932336696   -0.001532748663378005
0.0050551285917013675   -0.03611617449382569   -0.0015495748957706076
0.0034842173936799887   -0.04172481861021398   -0.001390251207117205
0.0018112689205850917   -0.03625667423162076   -0.0014449348096111801
0.005178538991021841   -0.03610496196221163   -0.0014516853040783546
0.0034842173936799887   -0.04172481861021398   -0.001390251207117205
0.0050551285917013675   -0.03611617449382569   -0.0015495748957706076
0.0018112689205850917   -0.03625667423162076   -0.0014449348096111801
0.0034842173936799887   -0.04172481861021398   -0.001390251207117205
0.0006187931206802678   -0.041925535371027965   -0.0014035174002649446
0.0005177192006825724   -0.04192791445848179   -0.001494868641659622
0.0018112689205850917   -0.03625667423162076   -0.0014449348096111801
0.0034842173936799887   -0.04172481861021398   -0.001390251207117205
0.0005177192006825724   -0.04192791445848179   -0.001494868641659622
0.0050551285917013675   -0.03611617449382569   -0.0015495748957706076
0.0018112689205850917   -0.03625667423162076   -0.0014449348096111801
0.0006187931206802678   -0.041925535371027965   -0.0014035174002649446
0.005178538991021841   -0.03610496196221163   -0.0014516853040783546
0.0018540486266434909   -0.03626603756870307   -0.0013846333195363244
0.0006187931206802678   -0.041925535371027965   -0.0014035174002649446
0.0034842173936799887   -0.04172481861021398   -0.001390251207117205
0.005178538991021841   -0.03610496196221163   -0.0014516853040783546
0.0036777857466646835   -0.04173988204096599   -0.0012602605864832012
0.0018540486266434909   -0.03626603756870307   -0.0013846333195363244
0.005303842767180059   -0.03610489359067431   -0.001363906695773839
0.0036777857466646835   -0.04173988204096599   -0.0012602605864832012
0.005178538991021841   -0.03610496196221163   -0.0014516853040783546
0.0018540486266434909   -0.03626603756870307   -0.0013846333195363244
0.0036777857466646835   -0.04173988204096599   -0.0012602605864832012
0.0006927133311659208   -0.04194601262462696   -0.0013184623546995723
0.0006187931206802678   -0.041925535371027965   -0.0014035174002649446
0.0018540486266434909   -0.03626603756870307   -0.0013846333195363244
0.0036777857466646835   -0.04173988204096599   -0.0012602605864832012
0.0006187931206802678   -0.041925535371027965   -0.0014035174002649446
0.005178538991021841   -0.03610496196221163   -0.0014516853040783546
-0.009671828192827542   -0.041860502912184926   -0.001547796276381452
-0.008105538612340748   -0.04624493275988905   -0.0014047135389800426
-0.006852823150705402   -0.04199142821440155   -0.0015384760427307785
-0.009525574916495382   -0.04188855315156837   -0.0016346828919080816
-0.008105538612340748   -0.04624493275988905   -0.0014047135389800426
-0.0060987623597642295   -0.04643848770501384   -0.0014627019546253033
-0.006852823150705402   -0.04199142821440155   -0.0015384760427307785
-0.00599809412546924   -0.046428626477466275   -0.0015103936611192794
-0.009525574916495382   -0.04188855315156837   -0.0016346828919080816
-0.0067827089067723735   -0.04201034592464644   -0.0015694767058760846
-0.00599809412546924   -0.046428626477466275   -0.0015103936611192794
-0.006852823150705402   -0.04199142821440155   -0.0015384760427307785
-0.009525574916495382   -0.04188855315156837   -0.0016346828919080816
-0.00599809412546924   -0.046428626477466275   -0.0015103936611192794
-0.007888052973138068   -0.04623955556654847   -0.0015332814583267783
-0.008105538612340748   -0.04624493275988905   -0.0014047135389800426
-0.009525574916495382   -0.04188855315156837   -0.0016346828919080816
-0.00599809412546924   -0.046428626477466275   -0.0015103936611192794
-0.008105538612340748   -0.04624493275988905   -0.0014047135389800426
-0.006852823150705402   -0.04199142821440155   -0.0015384760427307785
-0.009525574916495382   -0.04188855315156837   -0.0016346828919080816
-0.007888052973138068   -0.04623955556654847   -0.0015332814583267783
-0.0067827089067723735   -0.04201034592464644   -0.0015694767058760846
-0.009379807295145202   -0.04194185987587655   -0.0017329348575404885
-0.007888052973138068   -0.04623955556654847   -0.0015332814583267783
-0.00599809412546924   -0.046428626477466275   -0.0015103936611192794
-0.0067827089067723735   -0.04201034592464644   -0.0015694767058760846
-0.005879617008203819   -0.04645667613513409   -0.001565203355417383
-0.009379807295145202   -0.04194185987587655   -0.0017329348575404885
-0.006694634524404574   -0.042055765017317844   -0.0016074581483672178
-0.005879617008203819   -0.04645667613513409   -0.001565203355417383
-0.0067827089067723735   -0.04201034592464644   -0.0015694767058760846
-0.009379807295145202   -0.04194185987587655   -0.0017329348575404885
-0.005879617008203819   -0.04645667613513409   -0.001565203355417383
-0.007687654879281639   -0.046274181403889426   -0.001671879640606959
-0.007888052973138068   -0.04623955556654847   -0.0015332814583267783
-0.009379807295145202   -0.04194185987587655   -0.0017329348575404885
-0.005879617008203819   -0.04645667613513409   -0.001565203355417383
-0.007888052973138068   -0.04623955556654847   -0.0015332814583267783
-0.0067827089067723735   -0.04201034592464644   -0.0015694767058760846
-0.009379807295145202   -0.04194185987587655   -0.0017329348575404885
-0.007687654879281639   -0.046274181403889426   -0.001671879640606959
-0.006694634524404574   -0.042055765017317844   -0.0016074581483672178
-0.009193120909611921   -0.04204126211715314   -0.0018423517553453445
-0.007687654879281639   -0.046274181403889426   -0.001671879640606959
-0.005879617008203819   -0.04645667613513409   -0.001565203355417383
-0.006694634524404574   -0.042055765017317844   -0.0016074581483672178
-0.005772139189867098   -0.0465232872303027   -0.0016266773392976184
-0.009193120909611921   -0.04204126211715314   -0.0018423517553453445
-0.006607754909076027   -0.042130267203724245   -0.0016523544838851533
-0.005772139189867098   -0.0465232872303027   -0.0016266773392976184
-0.006694634524404574   -0.042055765017317844   -0.0016074581483672178
-0.009193120909611921   -0.04204126211715314   -0.0018423517553453445
-0.005772139189867098   -0.0465232872303027   -0.0016266773392976184
-0.007443183399584696   -0.04636639852818686   -0.001819925873970528
-0.007687654879281639   -0.046274181403889426   -0.001671879640606959
-0.009193120909611921   -0.04204126211715314   -0.0018423517553453445
-0.005772139189867098   -0.0465232872303027   -0.0016266773392976184
-0.007687654879281639   -0.046274181403889426   -0.001671879640606959
-0.006694634524404574   -0.042055765017317844   -0.0016074581483672178
-0.006852823150705402   -0.04199142821440155   -0.0015384760427307785
-0.0060987623597642295   -0.04643848770501384   -0.0014627019546253033
-0.004410509882162402   -0.04205253869171969   -0.0015348442395338125
-0.0067827089067723735   -0.04201034592464644   -0.0015694767058760846
-0.0060987623597642295   -0.04643848770501384   -0.0014627019546253033
-0.004457493198850406   -0.046563437043139415   -0.0015081010051012577
-0.004410509882162402   -0.04205253869171969   -0.0015348442395338125
-0.004354263519206721   -0.04654752683889487   -0.0014935250562703774
-0.0067827089067723735   -0.04201034592464644   -0.0015694767058760846
-0.004338614352180113   -0.04205870868259395   -0.0015209182324854057
-0.004354263519206721   -0.04654752683889487   -0.0014935250562703774
-0.004410509882162402   -0.04205253869171969   -0.0015348442395338125
-0.0067827089067723735   -0.04201034592464644   -0.0015694767058760846
-0.004354263519206721   -0.04654752683889487   -0.0014935250562703774
-0.00599809412546924   -0.046428626477466275   -0.0015103936611192794
-0.0060987623597642295   -0.04643848770501384   -0.0014627019546253033
-0.0067827089067723735   -0.04201034592464644   -0.0015694767058760846
-0.004354263519206721   -0.04654752683889487   -0.0014935250562703774
-0.0060987623597642295   -0.04643848770501384   -0.0014627019546253033
-0.004410509882162402   -0.04205253869171969   -0.0015348442395338125
-0.0067827089067723735   -0.04201034592464644   -0.0015694767058760846
-0.00599809412546924   -0.046428626477466275   -0.0015103936611192794
-0.004338614352180113   -0.04205870868259395   -0.0015209182324854057
-0.006694634524404574   -0.042055765017317844   -0.0016074581483672178
-0.00599809412546924   -0.046428626477466275   -0.0015103936611192794
-0.004354263519206721   -0.04654752683889487   -0.0014935250562703774
-0.004338614352180113   -0.04205870868259395   -0.0015209182324854057
-0.0042524425356685   -0.04656436389731631   -0.0014858677561629871
-0.006694634524404574   -0.042055765017317844   -0.0016074581483672178
-0.004264393573689668   -0.0420885513098595   -0.0015137660949928952
-0.0042524425356685   -0.04656436389731631   -0.0014858677561629871
-0.004338614352180113   -0.04205870868259395   -0.0015209182324854057
-0.006694634524404574   -0.042055765017317844   -0.0016074581483672178
-0.0042524425356685   -0.04656436389731631   -0.0014858677561629871
-0.005879617008203819   -0.04645667613513409   -0.001565203355417383
-0.00599809412546924   -0.046428626477466275   -0.0015103936611192794
-0.006694634524404574   -0.042055765017317844   -0.0016074581483672178
-0.0042524425356685   -0.04656436389731631   -0.0014858677561629871
-0.00599809412546924   -0.046428626477466275   -0.0015103936611192794
-0.004338614352180113   -0.04205870868259395   -0.0015209182324854057
-0.006694634524404574   -0.042055765017317844   -0.0016074581483672178
-0.005879617008203819   -0.04645667613513409   -0.001565203355417383
-0.004264393573689668   -0.0420885513098595   -0.0015137660949928952
-0.006607754909076027   -0.042130267203724245   -0.0016523544838851533
-0.005879617008203819   -0.04645667613513409   -0.001565203355417383
-0.0042524425356685   -0.04656436389731631   -0.0014858677561629871
-0.004264393573689668   -0.0420885513098595   -0.0015137660949928952
-0.004158708815245814   -0.04661501817275317   -0.0014865708193771518
-0.006607754909076027   -0.042130267203724245   -0.0016523544838851533
-0.004190285650610494   -0.04214344118020617   -0.001513307541032572
-0.004158708815245814   -0.04661501817275317   -0.0014865708193771518
-0.004264393573689668   -0.0420885513098595   -0.0015137660949928952
-0.006607754909076027   -0.042130267203724245   -0.0016523544838851533
-0.004158708815245814   -0.04661501817275317   -0.0014865708193771518
-0.005772139189867098   -0.0465232872303027   -0.0016266773392976184
-0.005879617008203819   -0.04645667613513409   -0.001565203355417383
-0.006607754909076027   -0.042130267203724245   -0.0016523544838851533
-0.004158708815245814   -0.04661501817275317   -0.0014865708193771518
-0.005879617008203819   -0.04645667613513409   -0.001565203355417383
-0.004264393573689668   -0.0420885513098595   -0.0015137660949928952
-0.004410509882162402   -0.04205253869171969   -0.0015348442395338125
-0.004457493198850406   -0.046563437043139415   -0.0015081010051012577
-0.0020491299298621493   -0.04204101517343077   -0.0015525359351321653
-0.004338614352180113   -0.04205870868259395   -0.0015209182324854057
-0.004457493198850406   -0.046563437043139415   -0.0015081010051012577
-0.00288532798374731   -0.04662830085400514   -0.0015619207371724252
-0.0020491299298621493   -0.04204101517343077   -0.0015525359351321653
-0.0027689756227702047   -0.04660524242298281   -0.0014885920181140705
-0.004338614352180113   -0.04205870868259395   -0.0015209182324854057
-0.00197038353462208   -0.042032852043599106   -0.0014952551679102836
-0.0027689756227702047   -0.04660524242298281   -0.0014885920181140705
-0.0020491299298621493   -0.04204101517343077   -0.0015525359351321653
-0.004338614352180113   -0.04205870868259395   -0.0015209182324854057
-0.0027689756227702047   -0.04660524242298281   -0.0014885920181140705
-0.004354263519206721   -0.04654752683889487   -0.0014935250562703774
-0.004457493198850406   -0.046563437043139415   -0.0015081010051012577
-0.004338614352180113   -0.04205870868259395   -0.0015209182324854057
-0.0027689756227702047   -0.04660524242298281   -0.0014885920181140705
-0.004457493198850406   -0.046563437043139415   -0.0015081010051012577
-0.0020491299298621493   -0.04204101517343077   -0.0015525359351321653
-0.004338614352180113   -0.04205870868259395   -0.0015209182324854057
-0.004354263519206721   -0.04654752683889487   -0.0014935250562703774
-0.00197038353462208   -0.042032852043599106   -0.0014952551679102836
-0.004264393573689668   -0.0420885513098595   -0.0015137660949928952
-0.004354263519206721   -0.04654752683889487   -0.0014935250562703774
-0.0027689756227702047   -0.04660524242298281   -0.0014885920181140705
-0.00197038353462208   -0.042032852043599106   -0.0014952551679102836
-0.0026580276071629257   -0.04661102231940795   -0.0014213972684480808
-0.004264393573689668   -0.0420885513098595   -0.0015137660949928952
-0.0018939357537326757   -0.04204611928555635   -0.001445195963676832
-0.0026580276071629257   -0.04661102231940795   -0.0014213972684480808
-0.00197038353462208   -0.042032852043599106   -0.0014952551679102836
-0.004264393573689668   -0.0420885513098595   -0.0015137660949928952
-0.0026580276071629257   -0.04661102231940795   -0.0014213972684480808
-0.0042524425356685   -0.04656436389731631   -0.0014858677561629871
-0.004354263519206721   -0.04654752683889487   -0.0014935250562703774
-0.004264393573689668   -0.0420885513098595   -0.0015137660949928952
-0.0026580276071629257   -0.04661102231940795   -0.0014213972684480808
-0.004354263519206721   -0.04654752683889487   -0.0014935250562703774
-0.00197038353462208   -0.042032852043599106   -0.0014952551679102836
-0.004264393573689668   -0.0420885513098595   -0.0015137660949928952
-0.0042524425356685   -0.04656436389731631   -0.0014858677561629871
-0.0018939357537326757   -0.04204611928555635   -0.001445195963676832
-0.004190285650610494   -0.04214344118020617   -0.001513307541032572
-0.0042524425356685   -0.04656436389731631   -0.0014858677561629871
-0.0026580276071629257   -0.04661102231940795   -0.0014213972684480808
-0.0018939357537326757   -0.04204611928555635   -0.001445195963676832
-0.002565686083803692   -0.04665118117422039   -0.0013641269073271108
-0.004190285650610494   -0.04214344118020617   -0.001513307541032572
-0.0018248461733945513   -0.04208388333453447   -0.0014017363942240466
-0.002565686083803692   -0.04665118117422039   -0.0013641269073271108
-0.0018939357537326757   -0.04204611928555635   -0.001445195963676832
-0.004190285650610494   -0.04214344118020617   -0.001513307541032572
-0.002565686083803692   -0.04665118117422039   -0.0013641269073271108
-0.004158708815245814   -0.04661501817275317   -0.0014865708193771518
-0.0042524425356685   -0.04656436389731631   -0.0014858677561629871
-0.004190285650610494   -0.04214344118020617   -0.001513307541032572
-0.002565686083803692   -0.04665118117422039   -0.0013641269073271108
-0.0042524425356685   -0.04656436389731631   -0.0014858677561629871
-0.0018939357537326757   -0.04204611928555635   -0.001445195963676832
-0.0020491299298621493   -0.04204101517343077   -0.0015525359351321653
-0.00288532798374731   -0.04662830085400514   -0.0015619207371724252
0.0004218792668250103   -0.041954250669860985   -0.0015953680792146858
-0.00197038353462208   -0.042032852043599106   -0.0014952551679102836
-0.00288532798374731   -0.04662830085400514   -0.0015619207371724252
-0.0012147022551738053   -0.04661023557017292   -0.0016254630424200444
0.0004218792668250103   -0.041954250669860985   -0.0015953680792146858
-0.0010653127709704113   -0.04657405844328353   -0.001495884333355051
-0.00197038353462208   -0.042032852043599106   -0.0014952551679102836
0.0005177192006825724   -0.04192791445848179   -0.001494868641659622
-0.0010653127709704113   -0.04657405844328353   -0.001495884333355051
0.0004218792668250103   -0.041954250669860985   -0.0015953680792146858
-0.00197038353462208   -0.042032852043599106   -0.0014952551679102836
-0.0010653127709704113   -0.04657405844328353   -0.001495884333355051
-0.0027689756227702047   -0.04660524242298281   -0.0014885920181140705
-0.00288532798374731   -0.04662830085400514   -0.0015619207371724252
-0.00197038353462208   -0.042032852043599106   -0.0014952551679102836
-0.0010653127709704113   -0.04657405844328353   -0.001495884333355051
-0.00288532798374731   -0.04662830085400514   -0.0015619207371724252
0.0004218792668250103   -0.041954250669860985   -0.0015953680792146858
-0.00197038353462208   -0.042032852043599106   -0.0014952551679102836
-0.0027689756227702047   -0.04660524242298281   -0.0014885920181140705
0.0005177192006825724   -0.04192791445848179   -0.001494868641659622
-0.0018939357537326757   -0.04204611928555635   -0.001445195963676832
-0.0027689756227702047   -0.04660524242298281   -0.0014885920181140705
-0.0010653127709704113   -0.04657405844328353   -0.001495884333355051
0.0005177192006825724   -0.04192791445848179   -0.001494868641659622
-0.0009124170983598798   -0.04656777208132724   -0.0013728566319909524
-0.0018939357537326757   -0.04204611928555635   -0.001445195963676832
0.0006187931206802678   -0.041925535371027965   -0.0014035174002649446
-0.0009124170983598798   -0.04656777208132724   -0.0013728566319909524
0.0005177192006825724   -0.04192791445848179   -0.001494868641659622
-0.0018939357537326757   -0.04204611928555635   -0.001445195963676832
-0.0009124170983598798   -0.04656777208132724   -0.0013728566319909524
-0.0026580276071629257   -0.04661102231940795   -0.0014213972684480808
-0.0027689756227702047   -0.04660524242298281   -0.0014885920181140705
-0.0018939357537326757   -0.04204611928555635   -0.001445195963676832
-0.0009124170983598798   -0.04656777208132724   -0.0013728566319909524
-0.0027689756227702047   -0.04660524242298281   -0.0014885920181140705
0.0005177192006825724   -0.04192791445848179   -0.001494868641659622
-0.0018939357537326757   -0.04204611928555635   -0.001445195963676832
-0.0026580276071629257   -0.04661102231940795   -0.0014213972684480808
0.0006187931206802678   -0.041925535371027965   -0.0014035174002649446
-0.0018248461733945513   -0.04208388333453447   -0.0014017363942240466
-0.0026580276071629257   -0.04661102231940795   -0.0014213972684480808
-0.0009124170983598798   -0.04656777208132724   -0.0013728566319909524
0.0006187931206802678   -0.041925535371027965   -0.0014035174002649446
-0.0007992674554714365   -0.046597746284595745   -0.0012610384737517712
-0.0018248461733945513   -0.04208388333453447   -0.0014017363942240466
0.0006927133311659208   -0.04194601262462696   -0.0013184623546995723
-0.0007992674554714365   -0.046597746284595745   -0.0012610384737517712
0.0006187931206802678   -0.041925535371027965   -0.0014035174002649446
-0.0018248461733945513   -0.04208388333453447   -0.0014017363942240466
-0.0007992674554714365   -0.046597746284595745   -0.0012610384737517712
-0.002565686083803692   -0.04665118117422039   -0.0013641269073271108
-0.0026580276071629257   -0.04661102231940795   -0.0014213972684480808
-0.0018248461733945513   -0.04208388333453447   -0.0014017363942240466
-0.0007992674554714365   -0.046597746284595745   -0.0012610384737517712
-0.0026580276071629257   -0.04661102231940795   -0.0014213972684480808
0.0006187931206802678   -0.041925535371027965   -0.0014035174002649446
0.0004218792668250103   -0.041954250669860985   -0.0015953680792146858
-0.0012147022551738053   -0.04661023557017292   -0.0016254630424200444
0.0030543035432564255   -0.041784049552726334   -0.0016865931196893352
0.0005177192006825724   -0.04192791445848179   -0.001494868641659622
-0.0012147022551738053   -0.04661023557017292   -0.0016254630424200444
0.0005810109809209131   -0.04644924138695995   -0.0017551750883374243
0.0030543035432564255   -0.041784049552726334   -0.0016865931196893352
0.000930412384233723   -0.046370678099716164   -0.0015432973388553148
0.0005177192006825724   -0.04192791445848179   -0.001494868641659622
0.003297619444577035   -0.041733562932336696   -0.001532748663378005
0.000930412384233723   -0.046370678099716164   -0.0015432973388553148
0.0030543035432564255   -0.041784049552726334   -0.0016865931196893352
0.0005177192006825724   -0.04192791445848179   -0.001494868641659622
0.000930412384233723   -0.046370678099716164   -0.0015432973388553148
-0.0010653127709704113   -0.04657405844328353   -0.001495884333355051
-0.0012147022551738053   -0.04661023557017292   -0.0016254630424200444
0.0005177192006825724   -0.04192791445848179   -0.001494868641659622
0.000930412384233723   -0.046370678099716164   -0.0015432973388553148
-0.0012147022551738053   -0.04661023557017292   -0.0016254630424200444
0.0030543035432564255   -0.041784049552726334   -0.0016865931196893352
0.0005177192006825724   -0.04192791445848179   -0.001494868641659622
-0.0010653127709704113   -0.04657405844328353   -0.001495884333355051
0.003297619444577035   -0.041733562932336696   -0.001532748663378005
0.0006187931206802678   -0.041925535371027965   -0.0014035174002649446
-0.0010653127709704113   -0.04657405844328353   -0.001495884333355051
0.000930412384233723   -0.046370678099716164   -0.0015432973388553148
0.003297619444577035   -0.041733562932336696   -0.001532748663378005
0.0012049295891413102   -0.046354846536943634   -0.0013442541718847322
0.0006187931206802678   -0.041925535371027965   -0.0014035174002649446
0.0034842173936799887   -0.04172481861021398   -0.001390251207117205
0.0012049295891413102   -0.046354846536943634   -0.0013442541718847322
0.003297619444577035   -0.041733562932336696   -0.001532748663378005
0.0006187931206802678   -0.041925535371027965   -0.0014035174002649446
0.0012049295891413102   -0.046354846536943634   -0.0013442541718847322
-0.0009124170983598798   -0.04656777208132724   -0.0013728566319909524
-0.0010653127709704113   -0.04657405844328353   -0.001495884333355051
0.0006187931206802678   -0.041925535371027965   -0.0014035174002649446
0.0012049295891413102   -0.046354846536943634   -0.0013442541718847322
-0.0010653127709704113   -0.04657405844328353   -0.001495884333355051
0.003297619444577035   -0.041733562932336696   -0.001532748663378005
0.0006187931206802678   -0.041925535371027965   -0.0014035174002649446
-0.0009124170983598798   -0.04656777208132724   -0.0013728566319909524
0.0034842173936799887   -0.04172481861021398   -0.001390251207117205
0.0006927133311659208   -0.04194601262462696   -0.0013184623546995723
-0.0009124170983598798   -0.04656777208132724   -0.0013728566319909524
0.0012049295891413102   -0.046354846536943634   -0.0013442541718847322
0.0034842173936799887   -0.04172481861021398   -0.001390251207117205
0.001490520384960286   -0.046368555359509185   -0.0011623483345464287
0.0006927133311659208   -0.04194601262462696   -0.0013184623546995723
0.0036777857466646835   -0.04173988204096599   -0.0012602605864832012
0.001490520384960286   -0.046368555359509185   -0.0011623483345464287
0.0034842173936799887   -0.04172481861021398   -0.001390251207117205
0.0006927133311659208   -0.04194601262462696   -0.0013184623546995723
0.001490520384960286   -0.046368555359509185   -0.0011623483345464287
-0.0007992674554714365   -0.046597746284595745   -0.0012610384737517712
-0.0009124170983598798   -0.04656777208132724   -0.0013728566319909524
0.0006927133311659208   -0.04194601262462696   -0.0013184623546995723
0.001490520384960286   -0.046368555359509185   -0.0011623483345464287
-0.0009124170983598798   -0.04656777208132724   -0.0013728566319909524
0.0034842173936799887   -0.04172481861021398   -0.001390251207117205
-0.008105538612340748   -0.04624493275988905   -0.0014047135389800426
-0.005955261651295996   -0.04885332298678581   -0.0012365184202186414
-0.0060987623597642295   -0.04643848770501384   -0.0014627019546253033
-0.007888052973138068   -0.04623955556654847   -0.0015332814583267783
-0.005955261651295996   -0.04885332298678581   -0.0012365184202186414
-0.0050187124235655635   -0.04909786488439487   -0.001383122094725451
-0.0060987623597642295   -0.04643848770501384   -0.0014627019546253033
-0.004891923924713963   -0.049049797446376775   -0.0014339572262574913
-0.007888052973138068   -0.04623955556654847   -0.0015332814583267783
-0.00599809412546924   -0.046428626477466275   -0.0015103936611192794
-0.004891923924713963   -0.049049797446376775   -0.0014339572262574913
-0.0060987623597642295   -0.04643848770501384   -0.0014627019546253033
-0.007888052973138068   -0.04623955556654847   -0.0015332814583267783
-0.004891923924713963   -0.049049797446376775   -0.0014339572262574913
-0.005684541863589131   -0.04879913642348513   -0.0013907027209757983
-0.005955261651295996   -0.04885332298678581   -0.0012365184202186414
-0.007888052973138068   -0.04623955556654847   -0.0015332814583267783
-0.004891923924713963   -0.049049797446376775   -0.0014339572262574913
-0.005955261651295996   -0.04885332298678581   -0.0012365184202186414
-0.0060987623597642295   -0.04643848770501384   -0.0014627019546253033
-0.007888052973138068   -0.04623955556654847   -0.0015332814583267783
-0.005684541863589131   -0.04879913642348513   -0.0013907027209757983
-0.00599809412546924   -0.046428626477466275   -0.0015103936611192794
-0.007687654879281639   -0.046274181403889426   -0.001671879640606959
-0.005684541863589131   -0.04879913642348513   -0.0013907027209757983
-0.004891923924713963   -0.049049797446376775   -0.0014339572262574913
-0.00599809412546924   -0.046428626477466275   -0.0015103936611192794
-0.0047513750466467945   -0.04905250987100676   -0.0014853134199705569
-0.007687654879281639   -0.046274181403889426   -0.001671879640606959
-0.005879617008203819   -0.04645667613513409   -0.001565203355417383
-0.0047513750466467945   -0.04905250987100676   -0.0014853134199705569
-0.00599809412546924   -0.046428626477466275   -0.0015103936611192794
-0.007687654879281639   -0.046274181403889426   -0.001671879640606959
-0.0047513750466467945   -0.04905250987100676   -0.0014853134199705569
-0.005450995046522499   -0.048804151132488885   -0.0015443229168701062
-0.005684541863589131   -0.04879913642348513   -0.0013907027209757983
-0.007687654879281639   -0.046274181403889426   -0.001671879640606959
-0.0047513750466467945   -0.04905250987100676   -0.0014853134199705569
-0.005684541863589131   -0.04879913642348513   -0.0013907027209757983
-0.00599809412546924   -0.046428626477466275   -0.0015103936611192794
-0.007687654879281639   -0.046274181403889426   -0.001671879640606959
-0.005450995046522499   -0.048804151132488885   -0.0015443229168701062
-0.005879617008203819   -0.04645667613513409   -0.001565203355417383
-0.007443183399584696   -0.04636639852818686   -0.001819925873970528
-0.005450995046522499   -0.048804151132488885   -0.0015443229168701062
-0.0047513750466467945   -0.04905250987100676   -0.0014853134199705569
-0.005879617008203819   -0.04645667613513409   -0.001565203355417383
-0.004620876789516082   -0.04910625375482224   -0.0015374049096434183
-0.007443183399584696   -0.04636639852818686   -0.001819925873970528
-0.005772139189867098   -0.0465232872303027   -0.0016266773392976184
-0.004620876789516082   -0.04910625375482224   -0.0015374049096434183
-0.005879617008203819   -0.04645667613513409   -0.001565203355417383
-0.007443183399584696   -0.04636639852818686   -0.001819925873970528
-0.004620876789516082   -0.04910625375482224   -0.0015374049096434183
-0.005173880263819663   -0.048871802807570246   -0.0017012425952858995
-0.005450995046522499   -0.048804151132488885   -0.0015443229168701062
-0.007443183399584696   -0.04636639852818686   -0.001819925873970528
-0.004620876789516082   -0.04910625375482224   -0.0015374049096434183
-0.005450995046522499   -0.048804151132488885   -0.0015443229168701062
-0.005879617008203819   -0.04645667613513409   -0.001565203355417383
-0.0060987623597642295   -0.04643848770501384   -0.0014627019546253033
-0.0050187124235655635   -0.04909786488439487   -0.001383122094725451
-0.004457493198850406   -0.046563437043139415   -0.0015081010051012577
-0.00599809412546924   -0.046428626477466275   -0.0015103936611192794
-0.0050187124235655635   -0.04909786488439487   -0.001383122094725451
-0.0043315018089973515   -0.04934204928979015   -0.0015126042294921667
-0.004457493198850406   -0.046563437043139415   -0.0015081010051012577
-0.004197854649530525   -0.04929266456715573   -0.001477346143001671
-0.00599809412546924   -0.046428626477466275   -0.0015103936611192794
-0.004354263519206721   -0.04654752683889487   -0.0014935250562703774
-0.004197854649530525   -0.04929266456715573   -0.001477346143001671
-0.004457493198850406   -0.046563437043139415   -0.0015081010051012577
-0.00599809412546924   -0.046428626477466275   -0.0015103936611192794
-0.004197854649530525   -0.04929266456715573   -0.001477346143001671
-0.004891923924713963   -0.049049797446376775   -0.0014339572262574913
-0.0050187124235655635   -0.04909786488439487   -0.001383122094725451
-0.00599809412546924   -0.046428626477466275   -0.0015103936611192794
-0.004197854649530525   -0.04929266456715573   -0.001477346143001671
-0.0050187124235655635   -0.04909786488439487   -0.001383122094725451
-0.004457493198850406   -0.046563437043139415   -0.0015081010051012577
-0.00599809412546924   -0.046428626477466275   -0.0015103936611192794
-0.004891923924713963   -0.049049797446376775   -0.0014339572262574913
-0.004354263519206721   -0.04654752683889487   -0.0014935250562703774
-0.005879617008203819   -0.04645667613513409   -0.001565203355417383
-0.004891923924713963   -0.049049797446376775   -0.0014339572262574913
-0.004197854649530525   -0.04929266456715573   -0.001477346143001671
-0.004354263519206721   -0.04654752683889487   -0.0014935250562703774
-0.004068580093133386   -0.04929202990438832   -0.00144165831969392
-0.005879617008203819   -0.04645667613513409   -0.001565203355417383
-0.0042524425356685   -0.04656436389731631   -0.0014858677561629871
-0.004068580093133386   -0.04929202990438832   -0.00144165831969392
-0.004354263519206721   -0.04654752683889487   -0.0014935250562703774
-0.005879617008203819   -0.04645667613513409   -0.001565203355417383
-0.004068580093133386   -0.04929202990438832   -0.00144165831969392
-0.0047513750466467945   -0.04905250987100676   -0.0014853134199705569
-0.004891923924713963   -0.049049797446376775   -0.0014339572262574913
-0.005879617008203819   -0.04645667613513409   -0.001565203355417383
-0.004068580093133386   -0.04929202990438832   -0.00144165831969392
-0.004891923924713963   -0.049049797446376775   -0.0014339572262574913
-0.004354263519206721   -0.04654752683889487   -0.0014935250562703774
-0.005879617008203819   -0.04645667613513409   -0.001565203355417383
-0.0047513750466467945   -0.04905250987100676   -0.0014853134199705569
-0.0042524425356685   -0.04656436389731631   -0.0014858677561629871
-0.005772139189867098   -0.0465232872303027   -0.0016266773392976184
-0.0047513750466467945   -0.04905250987100676   -0.0014853134199705569
-0.004068580093133386   -0.04929202990438832   -0.00144165831969392
-0.0042524425356685   -0.04656436389731631   -0.0014858677561629871
-0.003933850996199161   -0.04933914326163083   -0.0014074012393357938
-0.005772139189867098   -0.0465232872303027   -0.0016266773392976184
-0.004158708815245814   -0.04661501817275317   -0.0014865708193771518
-0.003933850996199161   -0.04933914326163083   -0.0014074012393357938
-0.0042524425356685   -0.04656436389731631   -0.0014858677561629871
-0.005772139189867098   -0.0465232872303027   -0.0016266773392976184
-0.003933850996199161   -0.04933914326163083   -0.0014074012393357938
-0.004620876789516082   -0.04910625375482224   -0.0015374049096434183
-0.0047513750466467945   -0.04905250987100676   -0.0014853134199705569
-0.005772139189867098   -0.0465232872303027   -0.0016266773392976184
-0.003933850996199161   -0.04933914326163083   -0.0014074012393357938
-0.0047513750466467945   -0.04905250987100676   -0.0014853134199705569
-0.0042524425356685   -0.04656436389731631   -0.0014858677561629871
-0.004457493198850406   -0.046563437043139415   -0.0015081010051012577
-0.0043315018089973515   -0.04934204928979015   -0.0015126042294921667
-0.00288532798374731   -0.04662830085400514   -0.0015619207371724252
-0.004354263519206721   -0.04654752683889487   -0.0014935250562703774
-0.0043315018089973515   -0.04934204928979015   -0.0015126042294921667
-0.00370344036011559   -0.049635408849601784   -0.0016553714111104407
-0.00288532798374731   -0.04662830085400514   -0.0015619207371724252
-0.0035396834553739005   -0.049592414146798464   -0.0015292174154326133
-0.004354263519206721   -0.04654752683889487   -0.0014935250562703774
-0.0027689756227702047   -0.04660524242298281   -0.0014885920181140705
-0.0035396834553739005   -0.049592414146798464   -0.0015292174154326133
-0.00288532798374731   -0.04662830085400514   -0.0015619207371724252
-0.004354263519206721   -0.04654752683889487   -0.0014935250562703774
-0.0035396834553739005   -0.049592414146798464   -0.0015292174154326133
-0.004197854649530525   -0.04929266456715573   -0.001477346143001671
-0.0043315018089973515   -0.04934204928979015   -0.0015126042294921667
-0.004354263519206721   -0.04654752683889487   -0.0014935250562703774
-0.0035396834553739005   -0.049592414146798464   -0.0015292174154326133
-0.0043315018089973515   -0.04934204928979015   -0.0015126042294921667
-0.00288532798374731   -0.04662830085400514   -0.0015619207371724252
-0.004354263519206721   -0.04654752683889487   -0.0014935250562703774
-0.004197854649530525   -0.04929266456715573   -0.001477346143001671
-0.0027689756227702047   -0.04660524242298281   -0.0014885920181140705
-0.0042524425356685   -0.04656436389731631   -0.0014858677561629871
-0.004197854649530525   -0.04929266456715573   -0.001477346143001671
-0.0035396834553739005   -0.049592414146798464   -0.0015292174154326133
-0.0027689756227702047   -0.04660524242298281   -0.0014885920181140705
-0.00338785892723357   -0.04959025931458746   -0.0014034363925800365
-0.0042524425356685   -0.04656436389731631   -0.0014858677561629871
-0.0026580276071629257   -0.04661102231940795   -0.0014213972684480808
-0.00338785892723357   -0.04959025931458746   -0.0014034363925800365
-0.0027689756227702047   -0.04660524242298281   -0.0014885920181140705
-0.0042524425356685   -0.04656436389731631   -0.0014858677561629871
-0.00338785892723357   -0.04959025931458746   -0.0014034363925800365
-0.004068580093133386   -0.04929202990438832   -0.00144165831969392
-0.004197854649530525   -0.04929266456715573   -0.001477346143001671
-0.0042524425356685   -0.04656436389731631   -0.0014858677561629871
-0.00338785892723357   -0.04959025931458746   -0.0014034363925800365
-0.004197854649530525   -0.04929266456715573   -0.001477346143001671
-0.0027689756227702047   -0.04660524242298281   -0.0014885920181140705
-0.0042524425356685   -0.04656436389731631   -0.0014858677561629871
-0.004068580093133386   -0.04929202990438832   -0.00144165831969392
-0.0026580276071629257   -0.04661102231940795   -0.0014213972684480808
-0.004158708815245814   -0.04661501817275317   -0.0014865708193771518
-0.004068580093133386   -0.04929202990438832   -0.00144165831969392
-0.00338785892723357   -0.04959025931458746   -0.0014034363925800365
-0.0026580276071629257   -0.04661102231940795   -0.0014213972684480808
-0.003224973540488533   -0.04962677709003974   -0.0012774656658792606
-0.004158708815245814   -0.04661501817275317   -0.0014865708193771518
-0.002565686083803692   -0.04665118117422039   -0.0013641269073271108
-0.003224973540488533   -0.04962677709003974   -0.0012774656658792606
-0.0026580276071629257   -0.04661102231940795   -0.0014213972684480808
-0.004158708815245814   -0.04661501817275317   -0.0014865708193771518
-0.003224973540488533   -0.04962677709003974   -0.0012774656658792606
-0.003933850996199161   -0.04933914326163083   -0.0014074012393357938
-0.004068580093133386   -0.04929202990438832   -0.00144165831969392
-0.004158708815245814   -0.04661501817275317   -0.0014865708193771518
-0.003224973540488533   -0.04962677709003974   -0.0012774656658792606
-0.004068580093133386   -0.04929202990438832   -0.00144165831969392
-0.0026580276071629257   -0.04661102231940795   -0.0014213972684480808
-0.00288532798374731   -0.04662830085400514   -0.0015619207371724252
-0.00370344036011559   -0.049635408849601784   -0.0016553714111104407
-0.0012147022551738053   -0.04661023557017292   -0.0016254630424200444
-0.0027689756227702047   -0.04660524242298281   -0.0014885920181140705
-0.00370344036011559   -0.049635408849601784   -0.0016553714111104407
-0.0030853144170616496   -0.05   -0.0017657391237715578
-0.0012147022551738053   -0.04661023557017292   -0.0016254630424200444
-0.002879155745702558   -0.05   -0.0015735908780970017
-0.0027689756227702047   -0.04660524242298281   -0.0014885920181140705
-0.0010653127709704113   -0.04657405844328353   -0.001495884333355051
-0.002879155745702558   -0.05   -0.0015735908780970017
-0.0012147022551738053   -0.04661023557017292   -0.0016254630424200444
-0.0027689756227702047   -0.04660524242298281   -0.0014885920181140705
-0.002879155745702558   -0.05   -0.0015735908780970017
-0.0035396834553739005   -0.049592414146798464   -0.0015292174154326133
-0.00370344036011559   -0.049635408849601784   -0.0016553714111104407
-0.0027689756227702047   -0.04660524242298281   -0.0014885920181140705
-0.002879155745702558   -0.05   -0.0015735908780970017
-0.00370344036011559   -0.049635408849601784   -0.0016553714111104407
-0.0012147022551738053   -0.04661023557017292   -0.0016254630424200444
-0.0027689756227702047   -0.04660524242298281   -0.0014885920181140705
-0.0035396834553739005   -0.049592414146798464   -0.0015292174154326133
-0.0010653127709704113   -0.04657405844328353   -0.001495884333355051
-0.0026580276071629257   -0.04661102231940795   -0.0014213972684480808
-0.0035396834553739005   -0.049592414146798464   -0.0015292174154326133
-0.002879155745702558   -0.05   -0.0015735908780970017
-0.0010653127709704113   -0.04657405844328353   -0.001495884333355051
-0.0026718590343375384   -0.05   -0.0013791692860941954
-0.0026580276071629257   -0.04661102231940795   -0.0014213972684480808
-0.0009124170983598798   -0.04656777208132724   -0.0013728566319909524
-0.0026718590343375384   -0.05   -0.0013791692860941954
-0.0010653127709704113   -0.04657405844328353   -0.001495884333355051
-0.0026580276071629257   -0.04661102231940795   -0.0014213972684480808
-0.0026718590343375384   -0.05   -0.0013791692860941954
-0.00338785892723357   -0.04959025931458746   -0.0014034363925800365
-0.0035396834553739005   -0.049592414146798464   -0.0015292174154326133
-0.0026580276071629257   -0.04661102231940795   -0.0014213972684480808
-0.0026718590343375384   -0.05   -0.0013791692860941954
-0.0035396834553739005   -0.049592414146798464   -0.0015292174154326133
-0.0010653127709704113   -0.04657405844328353   -0.001495884333355051
-0.0026580276071629257   -0.04661102231940795   -0.0014213972684480808
-0.00338785892723357   -0.04959025931458746   -0.0014034363925800365
-0.0009124170983598798   -0.04656777208132724   -0.0013728566319909524
-0.002565686083803692   -0.04665118117422039   -0.0013641269073271108
-0.00338785892723357   -0.04959025931458746   -0.0014034363925800365
-0.0026718590343375384   -0.05   -0.0013791692860941954
-0.0009124170983598798   -0.04656777208132724   -0.0013728566319909524
-0.0024694199449323785   -0.05   -0.0011873316343751605
-0.002565686083803692   -0.04665118117422039   -0.0013641269073271108
-0.0007992674554714365   -0.046597746284595745   -0.0012610384737517712
-0.0024694199449323785   -0.05   -0.0011873316343751605
-0.0009124170983598798   -0.04656777208132724   -0.0013728566319909524
-0.002565686083803692   -0.04665118117422039   -0.0013641269073271108
-0.0024694199449323785   -0.05   -0.0011873316343751605
-0.003224973540488533   -0.04962677709003974   -0.0012774656658792606
-0.00338785892723357   -0.04959025931458746   -0.0014034363925800365
-0.002565686083803692   -0.04665118117422039   -0.0013641269073271108
-0.0024694199449323785   -0.05   -0.0011873316343751605
-0.00338785892723357   -0.04959025931458746   -0.0014034363925800365
-0.0009124170983598798   -0.04656777208132724   -0.0013728566319909524
-0.0012147022551738053   -0.04661023557017292   -0.0016254630424200444
-0.0030853144170616496   -0.05   -0.0017657391237715578
0.0005810109809209131   -0.04644924138695995   -0.0017551750883374243
-0.0010653127709704113   -0.04657405844328353   -0.001495884333355051
-0.0030853144170616496   -0.05   -0.0017657391237715578
-0.0026352087360773284   -0.05   -0.0018994003871563383
0.0005810109809209131   -0.04644924138695995   -0.0017551750883374243
-0.002202888881479342   -0.05   -0.0016211349029958792
-0.0010653127709704113   -0.04657405844328353   -0.001495884333355051
0.000930412384233723   -0.046370678099716164   -0.0015432973388553148
-0.002202888881479342   -0.05   -0.0016211349029958792
0.0005810109809209131   -0.04644924138695995   -0.0017551750883374243
-0.0010653127709704113   -0.04657405844328353   -0.001495884333355051
-0.002202888881479342   -0.05   -0.0016211349029958792
-0.002879155745702558   -0.05   -0.0015735908780970017
-0.0030853144170616496   -0.05   -0.0017657391237715578
-0.0010653127709704113   -0.04657405844328353   -0.001495884333355051
-0.002202888881479342   -0.05   -0.0016211349029958792
-0.0030853144170616496   -0.05   -0.0017657391237715578
0.0005810109809209131   -0.04644924138695995   -0.0017551750883374243
-0.0010653127709704113   -0.04657405844328353   -0.001495884333355051
-0.002879155745702558   -0.05   -0.0015735908780970017
0.000930412384233723   -0.046370678099716164   -0.0015432973388553148
-0.0009124170983598798   -0.04656777208132724   -0.0013728566319909524
-0.002879155745702558   -0.05   -0.0015735908780970017
-0.002202888881479342   -0.05   -0.0016211349029958792
0.000930412384233723   -0.046370678099716164   -0.0015432973388553148
-0.0018581330570248665   -0.05   -0.001354955307485977
-0.0009124170983598798   -0.04656777208132724   -0.0013728566319909524
0.0012049295891413102   -0.046354846536943634   -0.0013442541718847322
-0.0018581330570248665   -0.05   -0.001354955307485977
0.000930412384233723   -0.046370678099716164   -0.0015432973388553148
-0.0009124170983598798   -0.04656777208132724   -0.0013728566319909524
-0.0018581330570248665   -0.05   -0.001354955307485977
-0.0026718590343375384   -0.05   -0.0013791692860941954
-0.002879155745702558   -0.05   -0.0015735908780970017
-0.0009124170983598798   -0.04656777208132724   -0.0013728566319909524
-0.0018581330570248665   -0.05   -0.001354955307485977
-0.002879155745702558   -0.05   -0.0015735908780970017
0.000930412384233723   -0.046370678099716164   -0.0015432973388553148
-0.0009124170983598798   -0.04656777208132724   -0.0013728566319909524
-0.0026718590343375384   -0.05   -0.0013791692860941954
0.0012049295891413102   -0.046354846536943634   -0.0013442541718847322
-0.0007992674554714365   -0.046597746284595745   -0.0012610384737517712
-0.0026718590343375384   -0.05   -0.0013791692860941954
-0.0018581330570248665   -0.05   -0.001354955307485977
0.0012049295891413102   -0.046354846536943634   -0.0013442541718847322
-0.0014323062221940055   -0.05   -0.0010786170416707559
-0.0007992674554714365   -0.046597746284595745   -0.0012610384737517712
0.001490520384960286   -0.046368555359509185   -0.0011623483345464287
-0.0014323062221940055   -0.05   -0.0010786170416707559
0.0012049295891413102   -0.046354846536943634   -0.0013442541718847322
-0.0007992674554714365   -0.046597746284595745   -0.0012610384737517712
-0.0014323062221940055   -0.05   -0.0010786170416707559
-0.0024694199449323785   -0.05   -0.0011873316343751605
-0.0026718590343375384   -0.05   -0.0013791692860941954
-0.0007992674554714365   -0.046597746284595745   -0.0012610384737517712
-0.0014323062221940055   -0.05   -0.0010786170416707559
-0.0026718590343375384   -0.05   -0.0013791692860941954
0.0012049295891413102   -0.046354846536943634   -0.0013442541718847322
-0.005955261651295996   -0.04885332298678581   -0.0012365184202186414
-0.0035763942395565284   -0.048995921635788114   -0.0010585903116720522
-0.0050187124235655635   -0.04909786488439487   -0.001383122094725451
-0.005684541863589131   -0.04879913642348513   -0.0013907027209757983
-0.0035763942395565284   -0.048995921635788114   -0.0010585903116720522
-0.003785549229339088   -0.04918485960666804   -0.0012473887452015538
-0.0050187124235655635   -0.04909786488439487   -0.001383122094725451
-0.003689564925683997   -0.04911916099546918   -0.0013165780318484081
-0.005684541863589131   -0.04879913642348513   -0.0013907027209757983
-0.004891923924713963   -0.049049797446376775   -0.0014339572262574913
-0.003689564925683997   -0.04911916099546918   -0.0013165780318484081
-0.0050187124235655635   -0.04909786488439487   -0.001383122094725451
-0.005684541863589131   -0.04879913642348513   -0.0013907027209757983
-0.003689564925683997   -0.04911916099546918   -0.0013165780318484081
-0.00333081352433154   -0.048911523960587275   -0.0012206226113846235
-0.0035763942395565284   -0.048995921635788114   -0.0010585903116720522
-0.005684541863589131   -0.04879913642348513   -0.0013907027209757983
-0.003689564925683997   -0.04911916099546918   -0.0013165780318484081
-0.0035763942395565284   -0.048995921635788114   -0.0010585903116720522
-0.0050187124235655635   -0.04909786488439487   -0.001383122094725451
-0.005684541863589131   -0.04879913642348513   -0.0013907027209757983
-0.00333081352433154   -0.048911523960587275   -0.0012206226113846235
-0.004891923924713963   -0.049049797446376775   -0.0014339572262574913
-0.005450995046522499   -0.048804151132488885   -0.0015443229168701062
-0.00333081352433154   -0.048911523960587275   -0.0012206226113846235
-0.003689564925683997   -0.04911916099546918   -0.0013165780318484081
-0.004891923924713963   -0.049049797446376775   -0.0014339572262574913
-0.0035769028672850423   -0.04909524861303631   -0.0013804658833192476
-0.005450995046522499   -0.048804151132488885   -0.0015443229168701062
-0.0047513750466467945   -0.04905250987100676   -0.0014853134199705569
-0.0035769028672850423   -0.04909524861303631   -0.0013804658833192476
-0.004891923924713963   -0.049049797446376775   -0.0014339572262574913
-0.005450995046522499   -0.048804151132488885   -0.0015443229168701062
-0.0035769028672850423   -0.04909524861303631   -0.0013804658833192476
-0.0031264199512129514   -0.0488859291100568   -0.0013760791768607475
-0.00333081352433154   -0.048911523960587275   -0.0012206226113846235
-0.005450995046522499   -0.048804151132488885   -0.0015443229168701062
-0.0035769028672850423   -0.04909524861303631   -0.0013804658833192476
-0.00333081352433154   -0.048911523960587275   -0.0012206226113846235
-0.004891923924713963   -0.049049797446376775   -0.0014339572262574913
-0.005450995046522499   -0.048804151132488885   -0.0015443229168701062
-0.0031264199512129514   -0.0488859291100568   -0.0013760791768607475
-0.0047513750466467945   -0.04905250987100676   -0.0014853134199705569
-0.005173880263819663   -0.048871802807570246   -0.0017012425952858995
-0.0031264199512129514   -0.0488859291100568   -0.0013760791768607475
-0.0035769028672850423   -0.04909524861303631   -0.0013804658833192476
-0.0047513750466467945   -0.04905250987100676   -0.0014853134199705569
-0.0034804384089486607   -0.04911348356752688   -0.0014387237804861796
-0.005173880263819663   -0.048871802807570246   -0.0017012425952858995
-0.004620876789516082   -0.04910625375482224   -0.0015374049096434183
-0.0034804384089486607   -0.04911348356752688   -0.0014387237804861796
-0.0047513750466467945   -0.04905250987100676   -0.0014853134199705569
-0.005173880263819663   -0.048871802807570246   -0.0017012425952858995
-0.0034804384089486607   -0.04911348356752688   -0.0014387237804861796
-0.0028949904287392837   -0.048908661467289394   -0.0015242808622801325
-0.0031264199512129514   -0.0488859291100568   -0.0013760791768607475
-0.005173880263819663   -0.048871802807570246   -0.0017012425952858995
-0.0034804384089486607   -0.04911348356752688   -0.0014387237804861796
-0.0031264199512129514   -0.0488859291100568   -0.0013760791768607475
-0.0047513750466467945   -0.04905250987100676   -0.0014853134199705569
-0.0050187124235655635   -0.04909786488439487   -0.001383122094725451
-0.003785549229339088   -0.04918485960666804   -0.0012473887452015538
-0.0043315018089973515   -0.04934204928979015   -0.0015126042294921667
-0.004891923924713963   -0.049049797446376775   -0.0014339572262574913
-0.003785549229339088   -0.04918485960666804   -0.0012473887452015538
-0.004071873632121581   -0.04930111162508008   -0.0013982587806178148
-0.0043315018089973515   -0.04934204928979015   -0.0015126042294921667
-0.003986973412909564   -0.049242422630756545   -0.0013999919475225526
-0.004891923924713963   -0.049049797446376775   -0.0014339572262574913
-0.004197854649530525   -0.04929266456715573   -0.001477346143001671
-0.003986973412909564   -0.049242422630756545   -0.0013999919475225526
-0.0043315018089973515   -0.04934204928979015   -0.0015126042294921667
-0.004891923924713963   -0.049049797446376775   -0.0014339572262574913
-0.003986973412909564   -0.049242422630756545   -0.0013999919475225526
-0.003689564925683997   -0.04911916099546918   -0.0013165780318484081
-0.003785549229339088   -0.04918485960666804   -0.0012473887452015538
-0.004891923924713963   -0.049049797446376775   -0.0014339572262574913
-0.003986973412909564   -0.049242422630756545   -0.0013999919475225526
-0.003785549229339088   -0.04918485960666804   -0.0012473887452015538
-0.0043315018089973515   -0.04934204928979015   -0.0015126042294921667
-0.004891923924713963   -0.049049797446376775   -0.0014339572262574913
-0.003689564925683997   -0.04911916099546918   -0.0013165780318484081
-0.004197854649530525   -0.04929266456715573   -0.001477346143001671
-0.0047513750466467945   -0.04905250987100676   -0.0014853134199705569
-0.003689564925683997   -0.04911916099546918   -0.0013165780318484081
-0.003986973412909564   -0.049242422630756545   -0.0013999919475225526
-0.004197854649530525   -0.04929266456715573   -0.001477346143001671
-0.003892494408383442   -0.049221575994380304   -0.0013948526575401467
-0.0047513750466467945   -0.04905250987100676   -0.0014853134199705569
-0.004068580093133386   -0.04929202990438832   -0.00144165831969392
-0.003892494408383442   -0.049221575994380304   -0.0013948526575401467
-0.004197854649530525   -0.04929266456715573   -0.001477346143001671
-0.0047513750466467945   -0.04905250987100676   -0.0014853134199705569
-0.003892494408383442   -0.049221575994380304   -0.0013948526575401467
-0.0035769028672850423   -0.04909524861303631   -0.0013804658833192476
-0.003689564925683997   -0.04911916099546918   -0.0013165780318484081
-0.0047513750466467945   -0.04905250987100676   -0.0014853134199705569
-0.003892494408383442   -0.049221575994380304   -0.0013948526575401467
-0.003689564925683997   -0.04911916099546918   -0.0013165780318484081
-0.004197854649530525   -0.04929266456715573   -0.001477346143001671
-0.0047513750466467945   -0.04905250987100676   -0.0014853134199705569
-0.0035769028672850423   -0.04909524861303631   -0.0013804658833192476
-0.004068580093133386   -0.04929202990438832   -0.00144165831969392
-0.004620876789516082   -0.04910625375482224   -0.0015374049096434183
-0.0035769028672850423   -0.04909524861303631   -0.0013804658833192476
-0.003892494408383442   -0.049221575994380304   -0.0013948526575401467
-0.004068580093133386   -0.04929202990438832   -0.00144165831969392
-0.0037964581761937813   -0.049236871291962234   -0.0013843193500688376
-0.004620876789516082   -0.04910625375482224   -0.0015374049096434183
-0.003933850996199161   -0.04933914326163083   -0.0014074012393357938
-0.0037964581761937813   -0.049236871291962234   -0.0013843193500688376
-0.004068580093133386   -0.04929202990438832   -0.00144165831969392
-0.004620876789516082   -0.04910625375482224   -0.0015374049096434183
-0.0037964581761937813   -0.049236871291962234   -0.0013843193500688376
-0.0034804384089486607   -0.04911348356752688   -0.0014387237804861796
-0.0035769028672850423   -0.04909524861303631   -0.0013804658833192476
-0.004620876789516082   -0.04910625375482224   -0.0015374049096434183
-0.0037964581761937813   -0.049236871291962234   -0.0013843193500688376
-0.0035769028672850423   -0.04909524861303631   -0.0013804658833192476
-0.004068580093133386   -0.04929202990438832   -0.00144165831969392
-0.0043315018089973515   -0.04934204928979015   -0.0015126042294921667
-0.004071873632121581   -0.04930111162508008   -0.0013982587806178148
-0.00370344036011559   -0.049635408849601784   -0.0016553714111104407
-0.004197854649530525   -0.04929266456715573   -0.001477346143001671
-0.004071873632121581   -0.04930111162508008   -0.0013982587806178148
-0.0043792332279169585   -0.049349111951438644   -0.0015468392308841642
-0.00370344036011559   -0.049635408849601784   -0.0016553714111104407
-0.004291282654611132   -0.049293080273640814   -0.0014837014610725894
-0.004197854649530525   -0.04929266456715573   -0.001477346143001671
-0.0035396834553739005   -0.049592414146798464   -0.0015292174154326133
-0.004291282654611132   -0.049293080273640814   -0.0014837014610725894
-0.00370344036011559   -0.049635408849601784   -0.0016553714111104407
-0.004197854649530525   -0.04929266456715573   -0.001477346143001671
-0.004291282654611132   -0.049293080273640814   -0.0014837014610725894
-0.003986973412909564   -0.049242422630756545   -0.0013999919475225526
-0.004071873632121581   -0.04930111162508008   -0.0013982587806178148
-0.004197854649530525   -0.04929266456715573   -0.001477346143001671
-0.004291282654611132   -0.049293080273640814   -0.0014837014610725894
-0.004071873632121581   -0.04930111162508008   -0.0013982587806178148
-0.00370344036011559   -0.049635408849601784   -0.0016553714111104407
-0.004197854649530525   -0.04929266456715573   -0.001477346143001671
-0.003986973412909564   -0.049242422630756545   -0.0013999919475225526
-0.0035396834553739005   -0.049592414146798464   -0.0015292174154326133
-0.004068580093133386   -0.04929202990438832   -0.00144165831969392
-0.003986973412909564   -0.049242422630756545   -0.0013999919475225526
-0.004291282654611132   -0.049293080273640814   -0.0014837014610725894
-0.0035396834553739005   -0.049592414146798464   -0.0015292174154326133
-0.004185847278677905   -0.04927550217749907   -0.0014121917147213235
-0.004068580093133386   -0.04929202990438832   -0.00144165831969392
-0.00338785892723357   -0.04959025931458746   -0.0014034363925800365
-0.004185847278677905   -0.04927550217749907   -0.0014121917147213235
-0.0035396834553739005   -0.049592414146798464   -0.0015292174154326133
-0.004068580093133386   -0.04929202990438832   -0.00144165831969392
-0.004185847278677905   -0.04927550217749907   -0.0014121917147213235
-0.003892494408383442   -0.049221575994380304   -0.0013948526575401467
-0.003986973412909564   -0.049242422630756545   -0.0013999919475225526
-0.004068580093133386   -0.04929202990438832   -0.00144165831969392
-0.004185847278677905   -0.04927550217749907   -0.0014121917147213235
-0.003986973412909564   -0.049242422630756545   -0.0013999919475225526
-0.0035396834553739005   -0.049592414146798464   -0.0015292174154326133
-0.004068580093133386   -0.04929202990438832   -0.00144165831969392
-0.003892494408383442   -0.049221575994380304   -0.0013948526575401467
-0.00338785892723357   -0.04959025931458746   -0.0014034363925800365
-0.003933850996199161   -0.04933914326163083   -0.0014074012393357938
-0.003892494408383442   -0.049221575994380304   -0.0013948526575401467
-0.004185847278677905   -0.04927550217749907   -0.0014121917147213235
-0.00338785892723357   -0.04959025931458746   -0.0014034363925800365
-0.004077455651843035   -0.049290406094786875   -0.0013360604446118326
-0.003933850996199161   -0.04933914326163083   -0.0014074012393357938
-0.003224973540488533   -0.04962677709003974   -0.0012774656658792606
-0.004077455651843035   -0.049290406094786875   -0.0013360604446118326
-0.00338785892723357   -0.04959025931458746   -0.0014034363925800365
-0.003933850996199161   -0.04933914326163083   -0.0014074012393357938
-0.004077455651843035   -0.049290406094786875   -0.0013360604446118326
-0.0037964581761937813   -0.049236871291962234   -0.0013843193500688376
-0.003892494408383442   -0.049221575994380304   -0.0013948526575401467
-0.003933850996199161   -0.04933914326163083   -0.0014074012393357938
-0.004077455651843035   -0.049290406094786875   -0.0013360604446118326
-0.003892494408383442   -0.049221575994380304   -0.0013948526575401467
-0.00338785892723357   -0.04959025931458746   -0.0014034363925800365
-0.00370344036011559   -0.049635408849601784   -0.0016553714111104407
-0.0043792332279169585   -0.049349111951438644   -0.0015468392308841642
-0.0030853144170616496   -0.05   -0.0017657391237715578
-0.0035396834553739005   -0.049592414146798464   -0.0015292174154326133
-0.0043792332279169585   -0.049349111951438644   -0.0015468392308841642
-0.004824645498713472   -0.0492949679377934   -0.0016882387006708183
-0.0030853144170616496   -0.05   -0.0017657391237715578
-0.004709790429314189   -0.04924193946880306   -0.001563284733651217
-0.0035396834553739005   -0.049592414146798464   -0.0015292174154326133
-0.002879155745702558   -0.05   -0.0015735908780970017
-0.004709790429314189   -0.04924193946880306   -0.001563284733651217
-0.0030853144170616496   -0.05   -0.0017657391237715578
-0.0035396834553739005   -0.049592414146798464   -0.0015292174154326133
-0.004709790429314189   -0.04924193946880306   -0.001563284733651217
-0.004291282654611132   -0.049293080273640814   -0.0014837014610725894
-0.0043792332279169585   -0.049349111951438644   -0.0015468392308841642
-0.0035396834553739005   -0.049592414146798464   -0.0015292174154326133
-0.004709790429314189   -0.04924193946880306   -0.001563284733651217
-0.0043792332279169585   -0.049349111951438644   -0.0015468392308841642
-0.0030853144170616496   -0.05   -0.0017657391237715578
-0.0035396834553739005   -0.049592414146798464   -0.0015292174154326133
-0.004291282654611132   -0.049293080273640814   -0.0014837014610725894
-0.002879155745702558   -0.05   -0.0015735908780970017
-0.00338785892723357   -0.04959025931458746   -0.0014034363925800365
-0.004291282654611132   -0.049293080273640814   -0.0014837014610725894
-0.004709790429314189   -0.04924193946880306   -0.001563284733651217
-0.002879155745702558   -0.05   -0.0015735908780970017
-0.0045581028137179755   -0.04923005655041339   -0.0014289865297749795
-0.00338785892723357   -0.04959025931458746   -0.0014034363925800365
-0.0026718590343375384   -0.05   -0.0013791692860941954
-0.0045581028137179755   -0.04923005655041339   -0.0014289865297749795
-0.002879155745702558   -0.05   -0.0015735908780970017
-0.00338785892723357   -0.04959025931458746   -0.0014034363925800365
-0.0045581028137179755   -0.04923005655041339   -0.0014289865297749795
-0.004185847278677905   -0.04927550217749907   -0.0014121917147213235
-0.004291282654611132   -0.049293080273640814   -0.0014837014610725894
-0.00338785892723357   -0.04959025931458746   -0.0014034363925800365
-0.0045581028137179755   -0.04923005655041339   -0.0014289865297749795
-0.004291282654611132   -0.049293080273640814   -0.0014837014610725894
-0.002879155745702558   -0.05   -0.0015735908780970017
-0.00338785892723357   -0.04959025931458746   -0.0014034363925800365
-0.004185847278677905   -0.04927550217749907   -0.0014121917147213235
-0.0026718590343375384   -0.05   -0.0013791692860941954
-0.003224973540488533   -0.04962677709003974   -0.0012774656658792606
-0.004185847278677905   -0.04927550217749907   -0.0014121917147213235
-0.0045581028137179755   -0.04923005655041339   -0.0014289865297749795
-0.0026718590343375384   -0.05   -0.0013791692860941954
-0.004415627852192813   -0.04925142934880171   -0.0012895506791803586
-0.003224973540488533   -0.04962677709003974   -0.0012774656658792606
-0.0024694199449323785   -0.05   -0.0011873316343751605
-0.004415627852192813   -0.04925142934880171   -0.0012895506791803586
-0.0026718590343375384   -0.05   -0.0013791692860941954
-0.003224973540488533   -0.04962677709003974   -0.0012774656658792606
-0.004415627852192813   -0.04925142934880171   -0.0012895506791803586
-0.004077455651843035   -0.049290406094786875   -0.0013360604446118326
-0.004185847278677905   -0.04927550217749907   -0.0014121917147213235
-0.003224973540488533   -0.04962677709003974   -0.0012774656658792606
-0.004415627852192813   -0.04925142934880171   -0.0012895506791803586
-0.004185847278677905   -0.04927550217749907   -0.0014121917147213235
-0.0026718590343375384   -0.05   -0.0013791692860941954
-0.0030853144170616496   -0.05   -0.0017657391237715578
-0.004824645498713472   -0.0492949679377934   -0.0016882387006708183
-0.0026352087360773284   -0.05   -0.0018994003871563383
-0.002879155745702558   -0.05   -0.0015735908780970017
-0.004824645498713472   -0.0492949679377934   -0.0016882387006708183
-0.005693624888111415   -0.04905401644373979   -0.0018386158188020898
-0.0026352087360773284   -0.05   -0.0018994003871563383
-0.005386829520587065   -0.049009100338846395   -0.0016336425111153385
-0.002879155745702558   -0.05   -0.0015735908780970017
-0.002202888881479342   -0.05   -0.0016211349029958792
-0.005386829520587065   -0.049009100338846395   -0.0016336425111153385
-0.0026352087360773284   -0.05   -0.0018994003871563383
-0.002879155745702558   -0.05   -0.0015735908780970017
-0.005386829520587065   -0.049009100338846395   -0.0016336425111153385
-0.004709790429314189   -0.04924193946880306   -0.001563284733651217
-0.004824645498713472   -0.0492949679377934   -0.0016882387006708183
-0.002879155745702558   -0.05   -0.0015735908780970017
-0.005386829520587065   -0.049009100338846395   -0.0016336425111153385
-0.004824645498713472   -0.0492949679377934   -0.0016882387006708183
-0.0026352087360773284   -0.05   -0.0018994003871563383
-0.002879155745702558   -0.05   -0.0015735908780970017
-0.004709790429314189   -0.04924193946880306   -0.001563284733651217
-0.002202888881479342   -0.05   -0.0016211349029958792
-0.0026718590343375384   -0.05   -0.0013791692860941954
-0.004709790429314189   -0.04924193946880306   -0.001563284733651217
-0.005386829520587065   -0.049009100338846395   -0.0016336425111153385
-0.002202888881479342   -0.05   -0.0016211349029958792
-0.005105243567791152   -0.049003083697651065   -0.0014149931032355616
-0.0026718590343375384   -0.05   -0.0013791692860941954
-0.0018581330570248665   -0.05   -0.001354955307485977
-0.005105243567791152   -0.049003083697651065   -0.0014149931032355616
-0.002202888881479342   -0.05   -0.0016211349029958792
-0.0026718590343375384   -0.05   -0.0013791692860941954
-0.005105243567791152   -0.049003083697651065   -0.0014149931032355616
-0.0045581028137179755   -0.04923005655041339   -0.0014289865297749795
-0.004709790429314189   -0.04924193946880306   -0.001563284733651217
-0.0026718590343375384   -0.05   -0.0013791692860941954
-0.005105243567791152   -0.049003083697651065   -0.0014149931032355616
-0.004709790429314189   -0.04924193946880306   -0.001563284733651217
-0.002202888881479342   -0.05   -0.0016211349029958792
-0.0026718590343375384   -0.05   -0.0013791692860941954
-0.0045581028137179755   -0.04923005655041339   -0.0014289865297749795
-0.0018581330570248665   -0.05   -0.001354955307485977
-0.0024694199449323785   -0.05   -0.0011873316343751605
-0.0045581028137179755   -0.04923005655041339   -0.0014289865297749795
-0.005105243567791152   -0.049003083697651065   -0.0014149931032355616
-0.0018581330570248665   -0.05   -0.001354955307485977
-0.0047495754336830155   -0.04906197136966387   -0.0011864362739185041
-0.0024694199449323785   -0.05   -0.0011873316343751605
-0.0014323062221940055   -0.05   -0.0010786170416707559
-0.0047495754336830155   -0.04906197136966387   -0.0011864362739185041
-0.0018581330570248665   -0.05   -0.001354955307485977
-0.0024694199449323785   -0.05   -0.0011873316343751605
-0.0047495754336830155   -0.04906197136966387   -0.0011864362739185041
-0.004415627852192813   -0.04925142934880171   -0.0012895506791803586
-0.0045581028137179755   -0.04923005655041339   -0.0014289865297749795
-0.0024694199449323785   -0.05   -0.0011873316343751605
-0.0047495754336830155   -0.04906197136966387   -0.0011864362739185041
-0.0045581028137179755   -0.04923005655041339   -0.0014289865297749795
-0.0018581330570248665   -0.05   -0.001354955307485977
-0.0035763942395565284   -0.048995921635788114   -0.0010585903116720522
-0.001480426902164691   -0.047162462164552145   -0.0009140728521903398
-0.003785549229339088   -0.04918485960666804   -0.0012473887452015538
-0.00333081352433154   -0.048911523960587275   -0.0012206226113846235
-0.001480426902164691   -0.047162462164552145   -0.0009140728521903398
-0.00272625127189108   -0.047305369471247895   -0.0011147092440802972
-0.003785549229339088   -0.04918485960666804   -0.0012473887452015538
-0.0026580099920972887   -0.04722584613603996   -0.0011764863680754775
-0.00333081352433154   -0.048911523960587275   -0.0012206226113846235
-0.003689564925683997   -0.04911916099546918   -0.0013165780318484081
-0.0026580099920972887   -0.04722584613603996   -0.0011764863680754775
-0.003785549229339088   -0.04918485960666804   -0.0012473887452015538
-0.00333081352433154   -0.048911523960587275   -0.0012206226113846235
-0.0026580099920972887   -0.04722584613603996   -0.0011764863680754775
-0.0012842848364111941   -0.047063986907989255   -0.0010543566880782372
-0.001480426902164691   -0.047162462164552145   -0.0009140728521903398
-0.00333081352433154   -0.048911523960587275   -0.0012206226113846235
-0.0026580099920972887   -0.04722584613603996   -0.0011764863680754775
-0.001480426902164691   -0.047162462164552145   -0.0009140728521903398
-0.003785549229339088   -0.04918485960666804   -0.0012473887452015538
-0.00333081352433154   -0.048911523960587275   -0.0012206226113846235
-0.0012842848364111941   -0.047063986907989255   -0.0010543566880782372
-0.003689564925683997   -0.04911916099546918   -0.0013165780318484081
-0.0031264199512129514   -0.0488859291100568   -0.0013760791768607475
-0.0012842848364111941   -0.047063986907989255   -0.0010543566880782372
-0.0026580099920972887   -0.04722584613603996   -0.0011764863680754775
-0.003689564925683997   -0.04911916099546918   -0.0013165780318484081
-0.002581092372178717   -0.04718212644081361   -0.0012327431079510599
-0.0031264199512129514   -0.0488859291100568   -0.0013760791768607475
-0.0035769028672850423   -0.04909524861303631   -0.0013804658833192476
-0.002581092372178717   -0.04718212644081361   -0.0012327431079510599
-0.003689564925683997   -0.04911916099546918   -0.0013165780318484081
-0.0031264199512129514   -0.0488859291100568   -0.0013760791768607475
-0.002581092372178717   -0.04718212644081361   -0.0012327431079510599
-0.0011299351991668023   -0.047017476457117034   -0.0011864607978041685
-0.0012842848364111941   -0.047063986907989255   -0.0010543566880782372
-0.0031264199512129514   -0.0488859291100568   -0.0013760791768607475
-0.002581092372178717   -0.04718212644081361   -0.0012327431079510599
-0.0012842848364111941   -0.047063986907989255   -0.0010543566880782372
-0.003689564925683997   -0.04911916099546918   -0.0013165780318484081
-0.0031264199512129514   -0.0488859291100568   -0.0013760791768607475
-0.0011299351991668023   -0.047017476457117034   -0.0011864607978041685
-0.0035769028672850423   -0.04909524861303631   -0.0013804658833192476
-0.0028949904287392837   -0.048908661467289394   -0.0015242808622801325
-0.0011299351991668023   -0.047017476457117034   -0.0011864607978041685
-0.002581092372178717   -0.04718212644081361   -0.0012327431079510599
-0.0035769028672850423   -0.04909524861303631   -0.0013804658833192476
-0.002522146210589819   -0.047172984695209794   -0.001283658909743375
-0.0028949904287392837   -0.048908661467289394   -0.0015242808622801325
-0.0034804384089486607   -0.04911348356752688   -0.0014387237804861796
-0.002522146210589819   -0.047172984695209794   -0.001283658909743375
-0.0035769028672850423   -0.04909524861303631   -0.0013804658833192476
-0.0028949904287392837   -0.048908661467289394   -0.0015242808622801325
-0.002522146210589819   -0.047172984695209794   -0.001283658909743375
-0.0009611632999936289   -0.047009492841390846   -0.0013100433135212859
-0.0011299351991668023   -0.047017476457117034   -0.0011864607978041685
-0.0028949904287392837   -0.048908661467289394   -0.0015242808622801325
-0.002522146210589819   -0.047172984695209794   -0.001283658909743375
-0.0011299351991668023   -0.047017476457117034   -0.0011864607978041685
-0.0035769028672850423   -0.04909524861303631   -0.0013804658833192476
-0.003785549229339088   -0.04918485960666804   -0.0012473887452015538
-0.00272625127189108   -0.047305369471247895   -0.0011147092440802972
-0.004071873632121581   -0.04930111162508008   -0.0013982587806178148
-0.003689564925683997   -0.04911916099546918   -0.0013165780318484081
-0.00272625127189108   -0.047305369471247895   -0.0011147092440802972
-0.003957567456809788   -0.04735565027441653   -0.001278213529297558
-0.004071873632121581   -0.04930111162508008   -0.0013982587806178148
-0.0039002482449392683   -0.04728628538490346   -0.0012815333866502685
-0.003689564925683997   -0.04911916099546918   -0.0013165780318484081
-0.003986973412909564   -0.049242422630756545   -0.0013999919475225526
-0.0039002482449392683   -0.04728628538490346   -0.0012815333866502685
-0.004071873632121581   -0.04930111162508008   -0.0013982587806178148
-0.003689564925683997   -0.04911916099546918   -0.0013165780318484081
-0.0039002482449392683   -0.04728628538490346   -0.0012815333866502685
-0.0026580099920972887   -0.04722584613603996   -0.0011764863680754775
-0.00272625127189108   -0.047305369471247895   -0.0011147092440802972
-0.003689564925683997   -0.04911916099546918   -0.0013165780318484081
-0.0039002482449392683   -0.04728628538490346   -0.0012815333866502685
-0.00272625127189108   -0.047305369471247895   -0.0011147092440802972
-0.004071873632121581   -0.04930111162508008   -0.0013982587806178148
-0.003689564925683997   -0.04911916099546918   -0.0013165780318484081
-0.0026580099920972887   -0.04722584613603996   -0.0011764863680754775
-0.003986973412909564   -0.049242422630756545   -0.0013999919475225526
-0.0035769028672850423   -0.04909524861303631   -0.0013804658833192476
-0.0026580099920972887   -0.04722584613603996   -0.0011764863680754775
-0.0039002482449392683   -0.04728628538490346   -0.0012815333866502685
-0.003986973412909564   -0.049242422630756545   -0.0013999919475225526
-0.003840954139606046   -0.04724919144859542   -0.0012797393938531118
-0.0035769028672850423   -0.04909524861303631   -0.0013804658833192476
-0.003892494408383442   -0.049221575994380304   -0.0013948526575401467
-0.003840954139606046   -0.04724919144859542   -0.0012797393938531118
-0.003986973412909564   -0.049242422630756545   -0.0013999919475225526
-0.0035769028672850423   -0.04909524861303631   -0.0013804658833192476
-0.003840954139606046   -0.04724919144859542   -0.0012797393938531118
-0.002581092372178717   -0.04718212644081361   -0.0012327431079510599
-0.0026580099920972887   -0.04722584613603996   -0.0011764863680754775
-0.0035769028672850423   -0.04909524861303631   -0.0013804658833192476
-0.003840954139606046   -0.04724919144859542   -0.0012797393938531118
-0.0026580099920972887   -0.04722584613603996   -0.0011764863680754775
-0.003986973412909564   -0.049242422630756545   -0.0013999919475225526
-0.0035769028672850423   -0.04909524861303631   -0.0013804658833192476
-0.002581092372178717   -0.04718212644081361   -0.0012327431079510599
-0.003892494408383442   -0.049221575994380304   -0.0013948526575401467
-0.0034804384089486607   -0.04911348356752688   -0.0014387237804861796
-0.002581092372178717   -0.04718212644081361   -0.0012327431079510599
-0.003840954139606046   -0.04724919144859542   -0.0012797393938531118
-0.003892494408383442   -0.049221575994380304   -0.0013948526575401467
-0.0037837835778481584   -0.04724283646715995   -0.0012727896987621288
-0.0034804384089486607   -0.04911348356752688   -0.0014387237804861796
-0.0037964581761937813   -0.049236871291962234   -0.0013843193500688376
-0.0037837835778481584   -0.04724283646715995   -0.0012727896987621288
-0.003892494408383442   -0.049221575994380304   -0.0013948526575401467
-0.0034804384089486607   -0.04911348356752688   -0.0014387237804861796
-0.0037837835778481584   -0.04724283646715995   -0.0012727896987621288
-0.002522146210589819   -0.047172984695209794   -0.001283658909743375
-0.002581092372178717   -0.04718212644081361   -0.0012327431079510599
-0.0034804384089486607   -0.04911348356752688   -0.0014387237804861796
-0.0037837835778481584   -0.04724283646715995   -0.0012727896987621288
-0.002581092372178717   -0.04718212644081361   -0.0012327431079510599
-0.003892494408383442   -0.049221575994380304   -0.0013948526575401467
-0.004071873632121581   -0.04930111162508008   -0.0013982587806178148
-0.003957567456809788   -0.04735565027441653   -0.001278213529297558
-0.0043792332279169585   -0.049349111951438644   -0.0015468392308841642
-0.003986973412909564   -0.049242422630756545   -0.0013999919475225526
-0.003957567456809788   -0.04735565027441653   -0.001278213529297558
-0.005180594149883836   -0.04731065211528661   -0.001431274315345642
-0.0043792332279169585   -0.049349111951438644   -0.0015468392308841642
-0.005123728359388738   -0.047249014528867574   -0.0013785282852518176
-0.003986973412909564   -0.049242422630756545   -0.0013999919475225526
-0.004291282654611132   -0.049293080273640814   -0.0014837014610725894
-0.005123728359388738   -0.047249014528867574   -0.0013785282852518176
-0.0043792332279169585   -0.049349111951438644   -0.0015468392308841642
-0.003986973412909564   -0.049242422630756545   -0.0013999919475225526
-0.005123728359388738   -0.047249014528867574   -0.0013785282852518176
-0.0039002482449392683   -0.04728628538490346   -0.0012815333866502685
-0.003957567456809788   -0.04735565027441653   -0.001278213529297558
-0.003986973412909564   -0.049242422630756545   -0.0013999919475225526
-0.005123728359388738   -0.047249014528867574   -0.0013785282852518176
-0.003957567456809788   -0.04735565027441653   -0.001278213529297558
-0.0043792332279169585   -0.049349111951438644   -0.0015468392308841642
-0.003986973412909564   -0.049242422630756545   -0.0013999919475225526
-0.0039002482449392683   -0.04728628538490346   -0.0012815333866502685
-0.004291282654611132   -0.049293080273640814   -0.0014837014610725894
-0.003892494408383442   -0.049221575994380304   -0.0013948526575401467
-0.0039002482449392683   -0.04728628538490346   -0.0012815333866502685
-0.005123728359388738   -0.047249014528867574   -0.0013785282852518176
-0.004291282654611132   -0.049293080273640814   -0.0014837014610725894
-0.005059914141701942   -0.04721911343773136   -0.0013207468926197806
-0.003892494408383442   -0.049221575994380304   -0.0013948526575401467
-0.004185847278677905   -0.04927550217749907   -0.0014121917147213235
-0.005059914141701942   -0.04721911343773136   -0.0013207468926197806
-0.004291282654611132   -0.049293080273640814   -0.0014837014610725894
-0.003892494408383442   -0.049221575994380304   -0.0013948526575401467
-0.005059914141701942   -0.04721911343773136   -0.0013207468926197806
-0.003840954139606046   -0.04724919144859542   -0.0012797393938531118
-0.0039002482449392683   -0.04728628538490346   -0.0012815333866502685
-0.003892494408383442   -0.049221575994380304   -0.0013948526575401467
-0.005059914141701942   -0.04721911343773136   -0.0013207468926197806
-0.0039002482449392683   -0.04728628538490346   -0.0012815333866502685
-0.004291282654611132   -0.049293080273640814   -0.0014837014610725894
-0.003892494408383442   -0.049221575994380304   -0.0013948526575401467
-0.003840954139606046   -0.04724919144859542   -0.0012797393938531118
-0.004185847278677905   -0.04927550217749907   -0.0014121917147213235
-0.0037964581761937813   -0.049236871291962234   -0.0013843193500688376
-0.003840954139606046   -0.04724919144859542   -0.0012797393938531118
-0.005059914141701942   -0.04721911343773136   -0.0013207468926197806
-0.004185847278677905   -0.04927550217749907   -0.0014121917147213235
-0.004995865520740194   -0.047217927547926135   -0.0012573171530759243
-0.0037964581761937813   -0.049236871291962234   -0.0013843193500688376
-0.004077455651843035   -0.049290406094786875   -0.0013360604446118326
-0.004995865520740194   -0.047217927547926135   -0.0012573171530759243
-0.004185847278677905   -0.04927550217749907   -0.0014121917147213235
-0.0037964581761937813   -0.049236871291962234   -0.0013843193500688376
-0.004995865520740194   -0.047217927547926135   -0.0012573171530759243
-0.0037837835778481584   -0.04724283646715995   -0.0012727896987621288
-0.003840954139606046   -0.04724919144859542   -0.0012797393938531118
-0.0037964581761937813   -0.049236871291962234   -0.0013843193500688376
-0.004995865520740194   -0.047217927547926135   -0.0012573171530759243
-0.003840954139606046   -0.04724919144859542   -0.0012797393938531118
-0.004185847278677905   -0.04927550217749907   -0.0014121917147213235
-0.0043792332279169585   -0.049349111951438644   -0.0015468392308841642
-0.005180594149883836   -0.04731065211528661   -0.001431274315345642
-0.004824645498713472   -0.0492949679377934   -0.0016882387006708183
-0.004291282654611132   -0.049293080273640814   -0.0014837014610725894
-0.005180594149883836   -0.04731065211528661   -0.001431274315345642
-0.006523667855548056   -0.04716446902274974   -0.0015719826985574818
-0.004824645498713472   -0.0492949679377934   -0.0016882387006708183
-0.006453973292880021   -0.04711055159174906   -0.0014643877791509178
-0.004291282654611132   -0.049293080273640814   -0.0014837014610725894
-0.004709790429314189   -0.04924193946880306   -0.001563284733651217
-0.006453973292880021   -0.04711055159174906   -0.0014643877791509178
-0.004824645498713472   -0.0492949679377934   -0.0016882387006708183
-0.004291282654611132   -0.049293080273640814   -0.0014837014610725894
-0.006453973292880021   -0.04711055159174906   -0.0014643877791509178
-0.005123728359388738   -0.047249014528867574   -0.0013785282852518176
-0.005180594149883836   -0.04731065211528661   -0.001431274315345642
-0.004291282654611132   -0.049293080273640814   -0.0014837014610725894
-0.006453973292880021   -0.04711055159174906   -0.0014643877791509178
-0.005180594149883836   -0.04731065211528661   -0.001431274315345642
-0.004824645498713472   -0.0492949679377934   -0.0016882387006708183
-0.004291282654611132   -0.049293080273640814   -0.0014837014610725894
-0.005123728359388738   -0.047249014528867574   -0.0013785282852518176
-0.004709790429314189   -0.04924193946880306   -0.001563284733651217
-0.004185847278677905   -0.04927550217749907   -0.0014121917147213235
-0.005123728359388738   -0.047249014528867574   -0.0013785282852518176
-0.006453973292880021   -0.04711055159174906   -0.0014643877791509178
-0.004709790429314189   -0.04924193946880306   -0.001563284733651217
-0.006357668674318263   -0.0470878148914738   -0.0013521354655642037
-0.004185847278677905   -0.04927550217749907   -0.0014121917147213235
-0.0045581028137179755   -0.04923005655041339   -0.0014289865297749795
-0.006357668674318263   -0.0470878148914738   -0.0013521354655642037
-0.004709790429314189   -0.04924193946880306   -0.001563284733651217
-0.004185847278677905   -0.04927550217749907   -0.0014121917147213235
-0.006357668674318263   -0.0470878148914738   -0.0013521354655642037
-0.005059914141701942   -0.04721911343773136   -0.0013207468926197806
-0.005123728359388738   -0.047249014528867574   -0.0013785282852518176
-0.004185847278677905   -0.04927550217749907   -0.0014121917147213235
-0.006357668674318263   -0.0470878148914738   -0.0013521354655642037
-0.005123728359388738   -0.047249014528867574   -0.0013785282852518176
-0.004709790429314189   -0.04924193946880306   -0.001563284733651217
-0.004185847278677905   -0.04927550217749907   -0.0014121917147213235
-0.005059914141701942   -0.04721911343773136   -0.0013207468926197806
-0.0045581028137179755   -0.04923005655041339   -0.0014289865297749795
-0.004077455651843035   -0.049290406094786875   -0.0013360604446118326
-0.005059914141701942   -0.04721911343773136   -0.0013207468926197806
-0.006357668674318263   -0.0470878148914738   -0.0013521354655642037
-0.0045581028137179755   -0.04923005655041339   -0.0014289865297749795
-0.006273750159246229   -0.047096288010671325   -0.0012321201832474077
-0.004077455651843035   -0.049290406094786875   -0.0013360604446118326
-0.004415627852192813   -0.04925142934880171   -0.0012895506791803586
-0.006273750159246229   -0.047096288010671325   -0.0012321201832474077
-0.0045581028137179755   -0.04923005655041339   -0.0014289865297749795
-0.004077455651843035   -0.049290406094786875   -0.0013360604446118326
-0.006273750159246229   -0.047096288010671325   -0.0012321201832474077
-0.004995865520740194   -0.047217927547926135   -0.0012573171530759243
-0.005059914141701942   -0.04721911343773136   -0.0013207468926197806
-0.004077455651843035   -0.049290406094786875   -0.0013360604446118326
-0.006273750159246229   -0.047096288010671325   -0.0012321201832474077
-0.005059914141701942   -0.04721911343773136   -0.0013207468926197806
-0.0045581028137179755   -0.04923005655041339   -0.0014289865297749795
-0.004824645498713472   -0.0492949679377934   -0.0016882387006708183
-0.006523667855548056   -0.04716446902274974   -0.0015719826985574818
-0.005693624888111415   -0.04905401644373979   -0.0018386158188020898
-0.004709790429314189   -0.04924193946880306   -0.001563284733651217
-0.006523667855548056   -0.04716446902274974   -0.0015719826985574818
-0.008253097548016333   -0.04692672678363849   -0.0017073832656226845
-0.005693624888111415   -0.04905401644373979   -0.0018386158188020898
-0.008027435032387653   -0.04686812532282228   -0.0015374722231370256
-0.004709790429314189   -0.04924193946880306   -0.001563284733651217
-0.005386829520587065   -0.049009100338846395   -0.0016336425111153385
-0.008027435032387653   -0.04686812532282228   -0.0015374722231370256
-0.005693624888111415   -0.04905401644373979   -0.0018386158188020898
-0.004709790429314189   -0.04924193946880306   -0.001563284733651217
-0.008027435032387653   -0.04686812532282228   -0.0015374722231370256
-0.006453973292880021   -0.04711055159174906   -0.0014643877791509178
-0.006523667855548056   -0.04716446902274974   -0.0015719826985574818
-0.004709790429314189   -0.04924193946880306   -0.001563284733651217
-0.008027435032387653   -0.04686812532282228   -0.0015374722231370256
-0.006523667855548056   -0.04716446902274974   -0.0015719826985574818
-0.005693624888111415   -0.04905401644373979   -0.0018386158188020898
-0.004709790429314189   -0.04924193946880306   -0.001563284733651217
-0.006453973292880021   -0.04711055159174906   -0.0014643877791509178
-0.005386829520587065   -0.049009100338846395   -0.0016336425111153385
-0.0045581028137179755   -0.04923005655041339   -0.0014289865297749795
-0.006453973292880021   -0.04711055159174906   -0.0014643877791509178
-0.008027435032387653   -0.04686812532282228   -0.0015374722231370256
-0.005386829520587065   -0.049009100338846395   -0.0016336425111153385
-0.007825407433604974   -0.04684709463642739   -0.0013577757589144641
-0.0045581028137179755   -0.04923005655041339   -0.0014289865297749795
-0.005105243567791152   -0.049003083697651065   -0.0014149931032355616
-0.007825407433604974   -0.04684709463642739   -0.0013577757589144641
-0.005386829520587065   -0.049009100338846395   -0.0016336425111153385
-0.0045581028137179755   -0.04923005655041339   -0.0014289865297749795
-0.007825407433604974   -0.04684709463642739   -0.0013577757589144641
-0.006357668674318263   -0.0470878148914738   -0.0013521354655642037
-0.006453973292880021   -0.04711055159174906   -0.0014643877791509178
-0.0045581028137179755   -0.04923005655041339   -0.0014289865297749795
-0.007825407433604974   -0.04684709463642739   -0.0013577757589144641
-0.006453973292880021   -0.04711055159174906   -0.0014643877791509178
-0.005386829520587065   -0.049009100338846395   -0.0016336425111153385
-0.0045581028137179755   -0.04923005655041339   -0.0014289865297749795
-0.006357668674318263   -0.0470878148914738   -0.0013521354655642037
-0.005105243567791152   -0.049003083697651065   -0.0014149931032355616
-0.004415627852192813   -0.04925142934880171   -0.0012895506791803586
-0.006357668674318263   -0.0470878148914738   -0.0013521354655642037
-0.007825407433604974   -0.04684709463642739   -0.0013577757589144641
-0.005105243567791152   -0.049003083697651065   -0.0014149931032355616
-0.007563601230776258   -0.04687456535464392   -0.0011699916570068786
-0.004415627852192813   -0.04925142934880171   -0.0012895506791803586
-0.0047495754336830155   -0.04906197136966387   -0.0011864362739185041
-0.007563601230776258   -0.04687456535464392   -0.0011699916570068786
-0.005105243567791152   -0.049003083697651065   -0.0014149931032355616
-0.004415627852192813   -0.04925142934880171   -0.0012895506791803586
-0.007563601230776258   -0.04687456535464392   -0.0011699916570068786
-0.006273750159246229   -0.047096288010671325   -0.0012321201832474077
-0.006357668674318263   -0.0470878148914738   -0.0013521354655642037
-0.004415627852192813   -0.04925142934880171   -0.0012895506791803586
-0.007563601230776258   -0.04687456535464392   -0.0011699916570068786
-0.006357668674318263   -0.0470878148914738   -0.0013521354655642037
-0.005105243567791152   -0.049003083697651065   -0.0014149931032355616
-0.001480426902164691   -0.047162462164552145   -0.0009140728521903398
0.00022343407153838598   -0.043774568930571675   -0.000755596238331823
-0.00272625127189108   -0.047305369471247895   -0.0011147092440802972
-0.0012842848364111941   -0.047063986907989255   -0.0010543566880782372
0.00022343407153838598   -0.043774568930571675   -0.000755596238331823
-0.001883295546153008   -0.043879661363630536   -0.0009526622375535867
-0.00272625127189108   -0.047305369471247895   -0.0011147092440802972
-0.0018470233765745616   -0.04379630028611908   -0.001001779311621668
-0.0012842848364111941   -0.047063986907989255   -0.0010543566880782372
-0.0026580099920972887   -0.04722584613603996   -0.0011764863680754775
-0.0018470233765745616   -0.04379630028611908   -0.001001779311621668
-0.00272625127189108   -0.047305369471247895   -0.0011147092440802972
-0.0012842848364111941   -0.047063986907989255   -0.0010543566880782372
-0.0018470233765745616   -0.04379630028611908   -0.001001779311621668
0.0003608106858602035   -0.04367446195010653   -0.0008675669534172576
0.00022343407153838598   -0.043774568930571675   -0.000755596238331823
-0.0012842848364111941   -0.047063986907989255   -0.0010543566880782372
-0.0018470233765745616   -0.04379630028611908   -0.001001779311621668
0.00022343407153838598   -0.043774568930571675   -0.000755596238331823
-0.00272625127189108   -0.047305369471247895   -0.0011147092440802972
-0.0012842848364111941   -0.047063986907989255   -0.0010543566880782372
0.0003608106858602035   -0.04367446195010653   -0.0008675669534172576
-0.0026580099920972887   -0.04722584613603996   -0.0011764863680754775
-0.0011299351991668023   -0.047017476457117034   -0.0011864607978041685
0.0003608106858602035   -0.04367446195010653   -0.0008675669534172576
-0.0018470233765745616   -0.04379630028611908   -0.001001779311621668
-0.0026580099920972887   -0.04722584613603996   -0.0011764863680754775
-0.001805647238318831   -0.043742202013386515   -0.0010452266525493937
-0.0011299351991668023   -0.047017476457117034   -0.0011864607978041685
-0.002581092372178717   -0.04718212644081361   -0.0012327431079510599
-0.001805647238318831   -0.043742202013386515   -0.0010452266525493937
-0.0026580099920972887   -0.04722584613603996   -0.0011764863680754775
-0.0011299351991668023   -0.047017476457117034   -0.0011864607978041685
-0.001805647238318831   -0.043742202013386515   -0.0010452266525493937
0.0004619094118095258   -0.04361701718979857   -0.0009716015220087975
0.0003608106858602035   -0.04367446195010653   -0.0008675669534172576
-0.0011299351991668023   -0.047017476457117034   -0.0011864607978041685
-0.001805647238318831   -0.043742202013386515   -0.0010452266525493937
0.0003608106858602035   -0.04367446195010653   -0.0008675669534172576
-0.0026580099920972887   -0.04722584613603996   -0.0011764863680754775
-0.0011299351991668023   -0.047017476457117034   -0.0011864607978041685
0.0004619094118095258   -0.04361701718979857   -0.0009716015220087975
-0.002581092372178717   -0.04718212644081361   -0.0012327431079510599
-0.0009611632999936289   -0.047009492841390846   -0.0013100433135212859
0.0004619094118095258   -0.04361701718979857   -0.0009716015220087975
-0.001805647238318831   -0.043742202013386515   -0.0010452266525493937
-0.002581092372178717   -0.04718212644081361   -0.0012327431079510599
-0.0017809014062680959   -0.04371575362058217   -0.0010835645463005536
-0.0009611632999936289   -0.047009492841390846   -0.0013100433135212859
-0.002522146210589819   -0.047172984695209794   -0.001283658909743375
-0.0017809014062680959   -0.04371575362058217   -0.0010835645463005536
-0.002581092372178717   -0.04718212644081361   -0.0012327431079510599
-0.0009611632999936289   -0.047009492841390846   -0.0013100433135212859
-0.0017809014062680959   -0.04371575362058217   -0.0010835645463005536
0.0005703353927278471   -0.0435893062435574   -0.0010676643775338758
0.0004619094118095258   -0.04361701718979857   -0.0009716015220087975
-0.0009611632999936289   -0.047009492841390846   -0.0013100433135212859
-0.0017809014062680959   -0.04371575362058217   -0.0010835645463005536
0.0004619094118095258   -0.04361701718979857   -0.0009716015220087975
-0.002581092372178717   -0.04718212644081361   -0.0012327431079510599
-0.00272625127189108   -0.047305369471247895   -0.0011147092440802972
-0.001883295546153008   -0.043879661363630536   -0.0009526622375535867
-0.003957567456809788   -0.04735565027441653   -0.001278213529297558
-0.0026580099920972887   -0.04722584613603996   -0.0011764863680754775
-0.001883295546153008   -0.043879661363630536   -0.0009526622375535867
-0.0039227319419449305   -0.04389979787509811   -0.0011148271208552718
-0.003957567456809788   -0.04735565027441653   -0.001278213529297558
-0.00389612084590143   -0.04382828849961325   -0.0011160303548671054
-0.0026580099920972887   -0.04722584613603996   -0.0011764863680754775
-0.0039002482449392683   -0.04728628538490346   -0.0012815333866502685
-0.00389612084590143   -0.04382828849961325   -0.0011160303548671054
-0.003957567456809788   -0.04735565027441653   -0.001278213529297558
-0.0026580099920972887   -0.04722584613603996   -0.0011764863680754775
-0.00389612084590143   -0.04382828849961325   -0.0011160303548671054
-0.0018470233765745616   -0.04379630028611908   -0.001001779311621668
-0.001883295546153008   -0.043879661363630536   -0.0009526622375535867
-0.0026580099920972887   -0.04722584613603996   -0.0011764863680754775
-0.00389612084590143   -0.04382828849961325   -0.0011160303548671054
-0.001883295546153008   -0.043879661363630536   -0.0009526622375535867
-0.003957567456809788   -0.04735565027441653   -0.001278213529297558
-0.0026580099920972887   -0.04722584613603996   -0.0011764863680754775
-0.0018470233765745616   -0.04379630028611908   -0.001001779311621668
-0.0039002482449392683   -0.04728628538490346   -0.0012815333866502685
-0.002581092372178717   -0.04718212644081361   -0.0012327431079510599
-0.0018470233765745616   -0.04379630028611908   -0.001001779311621668
-0.00389612084590143   -0.04382828849961325   -0.0011160303548671054
-0.0039002482449392683   -0.04728628538490346   -0.0012815333866502685
-0.0038687472586602808   -0.04378296562029511   -0.0011117986003410562
-0.002581092372178717   -0.04718212644081361   -0.0012327431079510599
-0.003840954139606046   -0.04724919144859542   -0.0012797393938531118
-0.0038687472586602808   -0.04378296562029511   -0.0011117986003410562
-0.0039002482449392683   -0.04728628538490346   -0.0012815333866502685
-0.002581092372178717   -0.04718212644081361   -0.0012327431079510599
-0.0038687472586602808   -0.04378296562029511   -0.0011117986003410562
-0.001805647238318831   -0.043742202013386515   -0.0010452266525493937
-0.0018470233765745616   -0.04379630028611908   -0.001001779311621668
-0.002581092372178717   -0.04718212644081361   -0.0012327431079510599
-0.0038687472586602808   -0.04378296562029511   -0.0011117986003410562
-0.0018470233765745616   -0.04379630028611908   -0.001001779311621668
-0.0039002482449392683   -0.04728628538490346   -0.0012815333866502685
-0.002581092372178717   -0.04718212644081361   -0.0012327431079510599
-0.001805647238318831   -0.043742202013386515   -0.0010452266525493937
-0.003840954139606046   -0.04724919144859542   -0.0012797393938531118
-0.002522146210589819   -0.047172984695209794   -0.001283658909743375
-0.001805647238318831   -0.043742202013386515   -0.0010452266525493937
-0.0038687472586602808   -0.04378296562029511   -0.0011117986003410562
-0.003840954139606046   -0.04724919144859542   -0.0012797393938531118
-0.003844808718552376   -0.04376340529666402   -0.0011024981429079324
-0.002522146210589819   -0.047172984695209794   -0.001283658909743375
-0.0037837835778481584   -0.04724283646715995   -0.0012727896987621288
-0.003844808718552376   -0.04376340529666402   -0.0011024981429079324
-0.003840954139606046   -0.04724919144859542   -0.0012797393938531118
-0.002522146210589819   -0.047172984695209794   -0.001283658909743375
-0.003844808718552376   -0.04376340529666402   -0.0011024981429079324
-0.0017809014062680959   -0.04371575362058217   -0.0010835645463005536
-0.001805647238318831   -0.043742202013386515   -0.0010452266525493937
-0.002522146210589819   -0.047172984695209794   -0.001283658909743375
-0.003844808718552376   -0.04376340529666402   -0.0011024981429079324
-0.001805647238318831   -0.043742202013386515   -0.0010452266525493937
-0.003840954139606046   -0.04724919144859542   -0.0012797393938531118
-0.003957567456809788   -0.04735565027441653   -0.001278213529297558
-0.0039227319419449305   -0.04389979787509811   -0.0011148271208552718
-0.005180594149883836   -0.04731065211528661   -0.001431274315345642
-0.0039002482449392683   -0.04728628538490346   -0.0012815333866502685
-0.0039227319419449305   -0.04389979787509811   -0.0011148271208552718
-0.00593040484035038   -0.04383471266904721   -0.0012611869330612369
-0.005180594149883836   -0.04731065211528661   -0.001431274315345642
-0.005905635245322661   -0.04377303233210097   -0.0012156280701207448
-0.0039002482449392683   -0.04728628538490346   -0.0012815333866502685
-0.005123728359388738   -0.047249014528867574   -0.0013785282852518176
-0.005905635245322661   -0.04377303233210097   -0.0012156280701207448
-0.005180594149883836   -0.04731065211528661   -0.001431274315345642
-0.0039002482449392683   -0.04728628538490346   -0.0012815333866502685
-0.005905635245322661   -0.04377303233210097   -0.0012156280701207448
-0.00389612084590143   -0.04382828849961325   -0.0011160303548671054
-0.0039227319419449305   -0.04389979787509811   -0.0011148271208552718
-0.0039002482449392683   -0.04728628538490346   -0.0012815333866502685
-0.005905635245322661   -0.04377303233210097   -0.0012156280701207448
-0.0039227319419449305   -0.04389979787509811   -0.0011148271208552718
-0.005180594149883836   -0.04731065211528661   -0.001431274315345642
-0.0039002482449392683   -0.04728628538490346   -0.0012815333866502685
-0.00389612084590143   -0.04382828849961325   -0.0011160303548671054
-0.005123728359388738   -0.047249014528867574   -0.0013785282852518176
-0.003840954139606046   -0.04724919144859542   -0.0012797393938531118
-0.00389612084590143   -0.04382828849961325   -0.0011160303548671054
-0.005905635245322661   -0.04377303233210097   -0.0012156280701207448
-0.005123728359388738   -0.047249014528867574   -0.0013785282852518176
-0.005875699113002849   -0.04373725194587103   -0.0011647545866221992
-0.003840954139606046   -0.04724919144859542   -0.0012797393938531118
-0.005059914141701942   -0.04721911343773136   -0.0013207468926197806
-0.005875699113002849   -0.04373725194587103   -0.0011647545866221992
-0.005123728359388738   -0.047249014528867574   -0.0013785282852518176
-0.003840954139606046   -0.04724919144859542   -0.0012797393938531118
-0.005875699113002849   -0.04373725194587103   -0.0011647545866221992
-0.0038687472586602808   -0.04378296562029511   -0.0011117986003410562
-0.00389612084590143   -0.04382828849961325   -0.0011160303548671054
-0.003840954139606046   -0.04724919144859542   -0.0012797393938531118
-0.005875699113002849   -0.04373725194587103   -0.0011647545866221992
-0.00389612084590143   -0.04382828849961325   -0.0011160303548671054
-0.005123728359388738   -0.047249014528867574   -0.0013785282852518176
-0.003840954139606046   -0.04724919144859542   -0.0012797393938531118
-0.0038687472586602808   -0.04378296562029511   -0.0011117986003410562
-0.005059914141701942   -0.04721911343773136   -0.0013207468926197806
-0.0037837835778481584   -0.04724283646715995   -0.0012727896987621288
-0.0038687472586602808   -0.04378296562029511   -0.0011117986003410562
-0.005875699113002849   -0.04373725194587103   -0.0011647545866221992
-0.005059914141701942   -0.04721911343773136   -0.0013207468926197806
-0.005846601469343109   -0.043726183502656   -0.001108729548726833
-0.0037837835778481584   -0.04724283646715995   -0.0012727896987621288
-0.004995865520740194   -0.047217927547926135   -0.0012573171530759243
-0.005846601469343109   -0.043726183502656   -0.001108729548726833
-0.005059914141701942   -0.04721911343773136   -0.0013207468926197806
-0.0037837835778481584   -0.04724283646715995   -0.0012727896987621288
-0.005846601469343109   -0.043726183502656   -0.001108729548726833
-0.003844808718552376   -0.04376340529666402   -0.0011024981429079324
-0.0038687472586602808   -0.04378296562029511   -0.0011117986003410562
-0.0037837835778481584   -0.04724283646715995   -0.0012727896987621288
-0.005846601469343109   -0.043726183502656   -0.001108729548726833
-0.0038687472586602808   -0.04378296562029511   -0.0011117986003410562
-0.005059914141701942   -0.04721911343773136   -0.0013207468926197806
-0.005180594149883836   -0.04731065211528661   -0.001431274315345642
-0.00593040484035038   -0.04383471266904721   -0.0012611869330612369
-0.006523667855548056   -0.04716446902274974   -0.0015719826985574818
-0.005123728359388738   -0.047249014528867574   -0.0013785282852518176
-0.00593040484035038   -0.04383471266904721   -0.0012611869330612369
-0.008033974262257363   -0.04368667146999663   -0.0013912327616525128
-0.006523667855548056   -0.04716446902274974   -0.0015719826985574818
-0.00800153403344392   -0.04363434782384135   -0.0012988393680662485
-0.005123728359388738   -0.047249014528867574   -0.0013785282852518176
-0.006453973292880021   -0.04711055159174906   -0.0014643877791509178
-0.00800153403344392   -0.04363434782384135   -0.0012988393680662485
-0.006523667855548056   -0.04716446902274974   -0.0015719826985574818
-0.005123728359388738   -0.047249014528867574   -0.0013785282852518176
-0.00800153403344392   -0.04363434782384135   -0.0012988393680662485
-0.005905635245322661   -0.04377303233210097   -0.0012156280701207448
-0.00593040484035038   -0.04383471266904721   -0.0012611869330612369
-0.005123728359388738   -0.047249014528867574   -0.0013785282852518176
-0.00800153403344392   -0.04363434782384135   -0.0012988393680662485
-0.00593040484035038   -0.04383471266904721   -0.0012611869330612369
-0.006523667855548056   -0.04716446902274974   -0.0015719826985574818
-0.005123728359388738   -0.047249014528867574   -0.0013785282852518176
-0.005905635245322661   -0.04377303233210097   -0.0012156280701207448
-0.006453973292880021   -0.04711055159174906   -0.0014643877791509178
-0.005059914141701942   -0.04721911343773136   -0.0013207468926197806
-0.005905635245322661   -0.04377303233210097   -0.0012156280701207448
-0.00800153403344392   -0.04363434782384135   -0.0012988393680662485
-0.006453973292880021   -0.04711055159174906   -0.0014643877791509178
-0.007946491742681373   -0.043607218455914094   -0.0012019519738427908
-0.005059914141701942   -0.04721911343773136   -0.0013207468926197806
-0.006357668674318263   -0.0470878148914738   -0.0013521354655642037
-0.007946491742681373   -0.043607218455914094   -0.0012019519738427908
-0.006453973292880021   -0.04711055159174906   -0.0014643877791509178
-0.005059914141701942   -0.04721911343773136   -0.0013207468926197806
-0.007946491742681373   -0.043607218455914094   -0.0012019519738427908
-0.005875699113002849   -0.04373725194587103   -0.0011647545866221992
-0.005905635245322661   -0.04377303233210097   -0.0012156280701207448
-0.005059914141701942   -0.04721911343773136   -0.0013207468926197806
-0.007946491742681373   -0.043607218455914094   -0.0012019519738427908
-0.005905635245322661   -0.04377303233210097   -0.0012156280701207448
-0.006453973292880021   -0.04711055159174906   -0.0014643877791509178
-0.005059914141701942   -0.04721911343773136   -0.0013207468926197806
-0.005875699113002849   -0.04373725194587103   -0.0011647545866221992
-0.006357668674318263   -0.0470878148914738   -0.0013521354655642037
-0.004995865520740194   -0.047217927547926135   -0.0012573171530759243
-0.005875699113002849   -0.04373725194587103   -0.0011647545866221992
-0.007946491742681373   -0.043607218455914094   -0.0012019519738427908
-0.006357668674318263   -0.0470878148914738   -0.0013521354655642037
-0.007901881743217945   -0.04360673778670414   -0.0010991610581566637
-0.004995865520740194   -0.047217927547926135   -0.0012573171530759243
-0.006273750159246229   -0.047096288010671325   -0.0012321201832474077
-0.007901881743217945   -0.04360673778670414   -0.0010991610581566637
-0.006357668674318263   -0.0470878148914738   -0.0013521354655642037
-0.004995865520740194   -0.047217927547926135   -0.0012573171530759243
-0.007901881743217945   -0.04360673778670414   -0.0010991610581566637
-0.005846601469343109   -0.043726183502656   -0.001108729548726833
-0.005875699113002849   -0.04373725194587103   -0.0011647545866221992
-0.004995865520740194   -0.047217927547926135   -0.0012573171530759243
-0.007901881743217945   -0.04360673778670414   -0.0010991610581566637
-0.005875699113002849   -0.04373725194587103   -0.0011647545866221992
-0.006357668674318263   -0.0470878148914738   -0.0013521354655642037
-0.006523667855548056   -0.04716446902274974   -0.0015719826985574818
-0.008033974262257363   -0.04368667146999663   -0.0013912327616525128
-0.008253097548016333   -0.04692672678363849   -0.0017073832656226845
-0.006453973292880021   -0.04711055159174906   -0.0014643877791509178
-0.008033974262257363   -0.04368667146999663   -0.0013912327616525128
-0.010487021554756908   -0.04347324245781115   -0.0015127250947516054
-0.008253097548016333   -0.04692672678363849   -0.0017073832656226845
-0.010320037882948992   -0.04341856352551674   -0.0013680502108258813
-0.006453973292880021   -0.04711055159174906   -0.0014643877791509178
-0.008027435032387653   -0.04686812532282228   -0.0015374722231370256
-0.010320037882948992   -0.04341856352551674   -0.0013680502108258813
-0.008253097548016333   -0.04692672678363849   -0.0017073832656226845
-0.006453973292880021   -0.04711055159174906   -0.0014643877791509178
-0.010320037882948992   -0.04341856352551674   -0.0013680502108258813
-0.00800153403344392   -0.04363434782384135   -0.0012988393680662485
-0.008033974262257363   -0.04368667146999663   -0.0013912327616525128
-0.006453973292880021   -0.04711055159174906   -0.0014643877791509178
-0.010320037882948992   -0.04341856352551674   -0.0013680502108258813
-0.008033974262257363   -0.04368667146999663   -0.0013912327616525128
-0.008253097548016333   -0.04692672678363849   -0.0017073832656226845
-0.006453973292880021   -0.04711055159174906   -0.0014643877791509178
-0.00800153403344392   -0.04363434782384135   -0.0012988393680662485
-0.008027435032387653   -0.04686812532282228   -0.0015374722231370256
-0.006357668674318263   -0.0470878148914738   -0.0013521354655642037
-0.00800153403344392   -0.04363434782384135   -0.0012988393680662485
-0.010320037882948992   -0.04341856352551674   -0.0013680502108258813
-0.008027435032387653   -0.04686812532282228   -0.0015374722231370256
-0.01017526658811716   -0.04339378346410073   -0.0012159540768959416
-0.006357668674318263   -0.0470878148914738   -0.0013521354655642037
-0.007825407433604974   -0.04684709463642739   -0.0013577757589144641
-0.01017526658811716   -0.04339378346410073   -0.0012159540768959416
-0.008027435032387653   -0.04686812532282228   -0.0015374722231370256
-0.006357668674318263   -0.0470878148914738   -0.0013521354655642037
-0.01017526658811716   -0.04339378346410073   -0.0012159540768959416
-0.007946491742681373   -0.043607218455914094   -0.0012019519738427908
-0.00800153403344392   -0.04363434782384135   -0.0012988393680662485
-0.006357668674318263   -0.0470878148914738   -0.0013521354655642037
-0.01017526658811716   -0.04339378346410073   -0.0012159540768959416
-0.00800153403344392   -0.04363434782384135   -0.0012988393680662485
-0.008027435032387653   -0.04686812532282228   -0.0015374722231370256
-0.006357668674318263   -0.0470878148914738   -0.0013521354655642037
-0.007946491742681373   -0.043607218455914094   -0.0012019519738427908
-0.007825407433604974   -0.04684709463642739   -0.0013577757589144641
-0.006273750159246229   -0.047096288010671325   -0.0012321201832474077
-0.007946491742681373   -0.043607218455914094   -0.0012019519738427908
-0.01017526658811716   -0.04339378346410073   -0.0012159540768959416
-0.007825407433604974   -0.04684709463642739   -0.0013577757589144641
-0.00998028802954316   -0.0434096951294323   -0.001057403696272817
-0.006273750159246229   -0.047096288010671325   -0.0012321201832474077
-0.007563601230776258   -0.04687456535464392   -0.0011699916570068786
-0.00998028802954316   -0.0434096951294323   -0.001057403696272817
-0.007825407433604974   -0.04684709463642739   -0.0013577757589144641
-0.006273750159246229   -0.047096288010671325   -0.0012321201832474077
-0.00998028802954316   -0.0434096951294323   -0.001057403696272817
-0.007901881743217945   -0.04360673778670414   -0.0010991610581566637
-0.007946491742681373   -0.043607218455914094   -0.0012019519738427908
-0.006273750159246229   -0.047096288010671325   -0.0012321201832474077
-0.00998028802954316   -0.0434096951294323   -0.001057403696272817
-0.007946491742681373   -0.043607218455914094   -0.0012019519738427908
-0.007825407433604974   -0.04684709463642739   -0.0013577757589144641
0.00022343407153838598   -0.043774568930571675   -0.000755596238331823
0.0015206170960261535   -0.03916567104871686   -0.000575612141142307
-0.001883295546153008   -0.043879661363630536   -0.0009526622375535867
0.0003608106858602035   -0.04367446195010653   -0.0008675669534172576
0.0015206170960261535   -0.03916567104871686   -0.000575612141142307
-0.0012729454113829847   -0.03923539853904282   -0.0007637533308998156
-0.001883295546153008   -0.043879661363630536   -0.0009526622375535867
-0.001265257141353549   -0.03915247952256806   -0.0007979215685925312
0.0003608106858602035   -0.04367446195010653   -0.0008675669534172576
-0.0018470233765745616   -0.04379630028611908   -0.001001779311621668
-0.001265257141353549   -0.03915247952256806   -0.0007979215685925312
-0.001883295546153008   -0.043879661363630536   -0.0009526622375535867
0.0003608106858602035   -0.04367446195010653   -0.0008675669534172576
-0.001265257141353549   -0.03915247952256806   -0.0007979215685925312
0.0016026645359973886   -0.0390679488739278   -0.0006586867588361051
0.0015206170960261535   -0.03916567104871686   -0.000575612141142307
0.0003608106858602035   -0.04367446195010653   -0.0008675669534172576
-0.001265257141353549   -0.03915247952256806   -0.0007979215685925312
0.0015206170960261535   -0.03916567104871686   -0.000575612141142307
-0.001883295546153008   -0.043879661363630536   -0.0009526622375535867
0.0003608106858602035   -0.04367446195010653   -0.0008675669534172576
0.0016026645359973886   -0.0390679488739278   -0.0006586867588361051
-0.0018470233765745616   -0.04379630028611908   -0.001001779311621668
0.0004619094118095258   -0.04361701718979857   -0.0009716015220087975
0.0016026645359973886   -0.0390679488739278   -0.0006586867588361051
-0.001265257141353549   -0.03915247952256806   -0.0007979215685925312
-0.0018470233765745616   -0.04379630028611908   -0.001001779311621668
-0.001255454932184417   -0.03909270221354428   -0.0008268959334688376
0.0004619094118095258   -0.04361701718979857   -0.0009716015220087975
-0.001805647238318831   -0.043742202013386515   -0.0010452266525493937
-0.001255454932184417   -0.03909270221354428   -0.0008268959334688376
-0.0018470233765745616   -0.04379630028611908   -0.001001779311621668
0.0004619094118095258   -0.04361701718979857   -0.0009716015220087975
-0.001255454932184417   -0.03909270221354428   -0.0008268959334688376
0.0016552422784154024   -0.03900423173099789   -0.0007344187307221875
0.0016026645359973886   -0.0390679488739278   -0.0006586867588361051
0.0004619094118095258   -0.04361701718979857   -0.0009716015220087975
-0.001255454932184417   -0.03909270221354428   -0.0008268959334688376
0.0016026645359973886   -0.0390679488739278   -0.0006586867588361051
-0.0018470233765745616   -0.04379630028611908   -0.001001779311621668
0.0004619094118095258   -0.04361701718979857   -0.0009716015220087975
0.0016552422784154024   -0.03900423173099789   -0.0007344187307221875
-0.001805647238318831   -0.043742202013386515   -0.0010452266525493937
0.0005703353927278471   -0.0435893062435574   -0.0010676643775338758
0.0016552422784154024   -0.03900423173099789   -0.0007344187307221875
-0.001255454932184417   -0.03909270221354428   -0.0008268959334688376
-0.001805647238318831   -0.043742202013386515   -0.0010452266525493937
-0.001259877061057909   -0.03905413503311157   -0.0008510548003099101
0.0005703353927278471   -0.0435893062435574   -0.0010676643775338758
-0.0017809014062680959   -0.04371575362058217   -0.0010835645463005536
-0.001259877061057909   -0.03905413503311157   -0.0008510548003099101
-0.001805647238318831   -0.043742202013386515   -0.0010452266525493937
0.0005703353927278471   -0.0435893062435574   -0.0010676643775338758
-0.001259877061057909   -0.03905413503311157   -0.0008510548003099101
0.0017094109711531377   -0.0389620512750594   -0.0008029646970571461
0.0016552422784154024   -0.03900423173099789   -0.0007344187307221875
0.0005703353927278471   -0.0435893062435574   -0.0010676643775338758
-0.001259877061057909   -0.03905413503311157   -0.0008510548003099101
0.0016552422784154024   -0.03900423173099789   -0.0007344187307221875
-0.001805647238318831   -0.043742202013386515   -0.0010452266525493937
-0.001883295546153008   -0.043879661363630536   -0.0009526622375535867
-0.0012729454113829847   -0.03923539853904282   -0.0007637533308998156
-0.0039227319419449305   -0.04389979787509811   -0.0011148271208552718
-0.0018470233765745616   -0.04379630028611908   -0.001001779311621668
-0.0012729454113829847   -0.03923539853904282   -0.0007637533308998156
-0.003962293839999123   -0.03923589990453637   -0.0009186538892554108
-0.0039227319419449305   -0.04389979787509811   -0.0011148271208552718
-0.003962569165257838   -0.03916583116585722   -0.0009154214226099033
-0.0018470233765745616   -0.04379630028611908   -0.001001779311621668
-0.00389612084590143   -0.04382828849961325   -0.0011160303548671054
-0.003962569165257838   -0.03916583116585722   -0.0009154214226099033
-0.0039227319419449305   -0.04389979787509811   -0.0011148271208552718
-0.0018470233765745616   -0.04379630028611908   -0.001001779311621668
-0.003962569165257838   -0.03916583116585722   -0.0009154214226099033
-0.001265257141353549   -0.03915247952256806   -0.0007979215685925312
-0.0012729454113829847   -0.03923539853904282   -0.0007637533308998156
-0.0018470233765745616   -0.04379630028611908   -0.001001779311621668
-0.003962569165257838   -0.03916583116585722   -0.0009154214226099033
-0.0012729454113829847   -0.03923539853904282   -0.0007637533308998156
-0.0039227319419449305   -0.04389979787509811   -0.0011148271208552718
-0.0018470233765745616   -0.04379630028611908   -0.001001779311621668
-0.001265257141353549   -0.03915247952256806   -0.0007979215685925312
-0.00389612084590143   -0.04382828849961325   -0.0011160303548671054
-0.001805647238318831   -0.043742202013386515   -0.0010452266525493937
-0.001265257141353549   -0.03915247952256806   -0.0007979215685925312
-0.003962569165257838   -0.03916583116585722   -0.0009154214226099033
-0.00389612084590143   -0.04382828849961325   -0.0011160303548671054
-0.00396265958502451   -0.03911615857542073   -0.0009070122225041562
-0.001805647238318831   -0.043742202013386515   -0.0010452266525493937
-0.0038687472586602808   -0.04378296562029511   -0.0011117986003410562
-0.00396265958502451   -0.03911615857542073   -0.0009070122225041562
-0.00389612084590143   -0.04382828849961325   -0.0011160303548671054
-0.001805647238318831   -0.043742202013386515   -0.0010452266525493937
-0.00396265958502451   -0.03911615857542073   -0.0009070122225041562
-0.001255454932184417   -0.03909270221354428   -0.0008268959334688376
-0.001265257141353549   -0.03915247952256806   -0.0007979215685925312
-0.001805647238318831   -0.043742202013386515   -0.0010452266525493937
-0.00396265958502451   -0.03911615857542073   -0.0009070122225041562
-0.001265257141353549   -0.03915247952256806   -0.0007979215685925312
-0.00389612084590143   -0.04382828849961325   -0.0011160303548671054
-0.001805647238318831   -0.043742202013386515   -0.0010452266525493937
-0.001255454932184417   -0.03909270221354428   -0.0008268959334688376
-0.0038687472586602808   -0.04378296562029511   -0.0011117986003410562
-0.0017809014062680959   -0.04371575362058217   -0.0010835645463005536
-0.001255454932184417   -0.03909270221354428   -0.0008268959334688376
-0.00396265958502451   -0.03911615857542073   -0.0009070122225041562
-0.0038687472586602808   -0.04378296562029511   -0.0011117986003410562
-0.003966337444488349   -0.039086919478816574   -0.0008936988667259965
-0.0017809014062680959   -0.04371575362058217   -0.0010835645463005536
-0.003844808718552376   -0.04376340529666402   -0.0011024981429079324
-0.003966337444488349   -0.039086919478816574   -0.0008936988667259965
-0.0038687472586602808   -0.04378296562029511   -0.0011117986003410562
-0.0017809014062680959   -0.04371575362058217   -0.0010835645463005536
-0.003966337444488349   -0.039086919478816574   -0.0008936988667259965
-0.001259877061057909   -0.03905413503311157   -0.0008510548003099101
-0.001255454932184417   -0.03909270221354428   -0.0008268959334688376
-0.0017809014062680959   -0.04371575362058217   -0.0010835645463005536
-0.003966337444488349   -0.039086919478816574   -0.0008936988667259965
-0.001255454932184417   -0.03909270221354428   -0.0008268959334688376
-0.0038687472586602808   -0.04378296562029511   -0.0011117986003410562
-0.0039227319419449305   -0.04389979787509811   -0.0011148271208552718
-0.003962293839999123   -0.03923589990453637   -0.0009186538892554108
-0.00593040484035038   -0.04383471266904721   -0.0012611869330612369
-0.00389612084590143   -0.04382828849961325   -0.0011160303548671054
-0.003962293839999123   -0.03923589990453637   -0.0009186538892554108
-0.006606237874917458   -0.039168852799725   -0.0010542591486424923
-0.00593040484035038   -0.04383471266904721   -0.0012611869330612369
-0.0066085131471071475   -0.03911004798376443   -0.001014080762449933
-0.00389612084590143   -0.04382828849961325   -0.0011160303548671054
-0.005905635245322661   -0.04377303233210097   -0.0012156280701207448
-0.0066085131471071475   -0.03911004798376443   -0.001014080762449933
-0.00593040484035038   -0.04383471266904721   -0.0012611869330612369
-0.00389612084590143   -0.04382828849961325   -0.0011160303548671054
-0.0066085131471071475   -0.03911004798376443   -0.001014080762449933
-0.003962569165257838   -0.03916583116585722   -0.0009154214226099033
-0.003962293839999123   -0.03923589990453637   -0.0009186538892554108
-0.00389612084590143   -0.04382828849961325   -0.0011160303548671054
-0.0066085131471071475   -0.03911004798376443   -0.001014080762449933
-0.003962293839999123   -0.03923589990453637   -0.0009186538892554108
-0.00593040484035038   -0.04383471266904721   -0.0012611869330612369
-0.00389612084590143   -0.04382828849961325   -0.0011160303548671054
-0.003962569165257838   -0.03916583116585722   -0.0009154214226099033
-0.005905635245322661   -0.04377303233210097   -0.0012156280701207448
-0.0038687472586602808   -0.04378296562029511   -0.0011117986003410562
-0.003962569165257838   -0.03916583116585722   -0.0009154214226099033
-0.0066085131471071475   -0.03911004798376443   -0.001014080762449933
-0.005905635245322661   -0.04377303233210097   -0.0012156280701207448
-0.006606289787666294   -0.03907145926418498   -0.0009688282386725628
-0.0038687472586602808   -0.04378296562029511   -0.0011117986003410562
-0.005875699113002849   -0.04373725194587103   -0.0011647545866221992
-0.006606289787666294   -0.03907145926418498   -0.0009688282386725628
-0.005905635245322661   -0.04377303233210097   -0.0012156280701207448
-0.0038687472586602808   -0.04378296562029511   -0.0011117986003410562
-0.006606289787666294   -0.03907145926418498   -0.0009688282386725628
-0.00396265958502451   -0.03911615857542073   -0.0009070122225041562
-0.003962569165257838   -0.03916583116585722   -0.0009154214226099033
-0.0038687472586602808   -0.04378296562029511   -0.0011117986003410562
-0.006606289787666294   -0.03907145926418498   -0.0009688282386725628
-0.003962569165257838   -0.03916583116585722   -0.0009154214226099033
-0.005905635245322661   -0.04377303233210097   -0.0012156280701207448
-0.0038687472586602808   -0.04378296562029511   -0.0011117986003410562
-0.00396265958502451   -0.03911615857542073   -0.0009070122225041562
-0.005875699113002849   -0.04373725194587103   -0.0011647545866221992
-0.003844808718552376   -0.04376340529666402   -0.0011024981429079324
-0.00396265958502451   -0.03911615857542073   -0.0009070122225041562
-0.006606289787666294   -0.03907145926418498   -0.0009688282386725628
-0.005875699113002849   -0.04373725194587103   -0.0011647545866221992
-0.006604887070670573   -0.039052735719510796   -0.0009186484978995986
-0.003844808718552376   -0.04376340529666402   -0.0011024981429079324
-0.005846601469343109   -0.043726183502656   -0.001108729548726833
-0.006604887070670573   -0.039052735719510796   -0.0009186484978995986
-0.005875699113002849   -0.04373725194587103   -0.0011647545866221992
-0.003844808718552376   -0.04376340529666402   -0.0011024981429079324
-0.006604887070670573   -0.039052735719510796   -0.0009186484978995986
-0.003966337444488349   -0.039086919478816574   -0.0008936988667259965
-0.00396265958502451   -0.03911615857542073   -0.0009070122225041562
-0.003844808718552376   -0.04376340529666402   -0.0011024981429079324
-0.006604887070670573   -0.039052735719510796   -0.0009186484978995986
-0.00396265958502451   -0.03911615857542073   -0.0009070122225041562
-0.005875699113002849   -0.04373725194587103   -0.0011647545866221992
-0.00593040484035038   -0.04383471266904721   -0.0012611869330612369
-0.006606237874917458   -0.039168852799725   -0.0010542591486424923
-0.008033974262257363   -0.04368667146999663   -0.0013912327616525128
-0.005905635245322661   -0.04377303233210097   -0.0012156280701207448
-0.006606237874917458   -0.039168852799725   -0.0010542591486424923
-0.009332412852381481   -0.03903676276052812   -0.0011708631864721507
-0.008033974262257363   -0.04368667146999663   -0.0013912327616525128
-0.009329085062996624   -0.03898872180020525   -0.001093295347724199
-0.005905635245322661   -0.04377303233210097   -0.0012156280701207448
-0.00800153403344392   -0.04363434782384135   -0.0012988393680662485
-0.009329085062996624   -0.03898872180020525   -0.001093295347724199
-0.008033974262257363   -0.04368667146999663   -0.0013912327616525128
-0.005905635245322661   -0.04377303233210097   -0.0012156280701207448
-0.009329085062996624   -0.03898872180020525   -0.001093295347724199
-0.0066085131471071475   -0.03911004798376443   -0.001014080762449933
-0.006606237874917458   -0.039168852799725   -0.0010542591486424923
-0.005905635245322661   -0.04377303233210097   -0.0012156280701207448
-0.009329085062996624   -0.03898872180020525   -0.001093295347724199
-0.006606237874917458   -0.039168852799725   -0.0010542591486424923
-0.008033974262257363   -0.04368667146999663   -0.0013912327616525128
-0.005905635245322661   -0.04377303233210097   -0.0012156280701207448
-0.0066085131471071475   -0.03911004798376443   -0.001014080762449933
-0.00800153403344392   -0.04363434782384135   -0.0012988393680662485
-0.005875699113002849   -0.04373725194587103   -0.0011647545866221992
-0.0066085131471071475   -0.03911004798376443   -0.001014080762449933
-0.009329085062996624   -0.03898872180020525   -0.001093295347724199
-0.00800153403344392   -0.04363434782384135   -0.0012988393680662485
-0.009306072610274671   -0.03896018427928222   -0.001011419661533587
-0.005875699113002849   -0.04373725194587103   -0.0011647545866221992
-0.007946491742681373   -0.043607218455914094   -0.0012019519738427908
-0.009306072610274671   -0.03896018427928222   -0.001011419661533587
-0.00800153403344392   -0.04363434782384135   -0.0012988393680662485
-0.005875699113002849   -0.04373725194587103   -0.0011647545866221992
-0.009306072610274671   -0.03896018427928222   -0.001011419661533587
-0.006606289787666294   -0.03907145926418498   -0.0009688282386725628
-0.0066085131471071475   -0.03911004798376443   -0.001014080762449933
-0.005875699113002849   -0.04373725194587103   -0.0011647545866221992
-0.009306072610274671   -0.03896018427928222   -0.001011419661533587
-0.0066085131471071475   -0.03911004798376443   -0.001014080762449933
-0.00800153403344392   -0.04363434782384135   -0.0012988393680662485
-0.005875699113002849   -0.04373725194587103   -0.0011647545866221992
-0.006606289787666294   -0.03907145926418498   -0.0009688282386725628
-0.007946491742681373   -0.043607218455914094   -0.0012019519738427908
-0.005846601469343109   -0.043726183502656   -0.001108729548726833
-0.006606289787666294   -0.03907145926418498   -0.0009688282386725628
-0.009306072610274671   -0.03896018427928222   -0.001011419661533587
-0.007946491742681373   -0.043607218455914094   -0.0012019519738427908
-0.009290727457413515   -0.03895318560279923   -0.0009242185619793166
-0.005846601469343109   -0.043726183502656   -0.001108729548726833
-0.007901881743217945   -0.04360673778670414   -0.0010991610581566637
-0.009290727457413515   -0.03895318560279923   -0.0009242185619793166
-0.007946491742681373   -0.043607218455914094   -0.0012019519738427908
-0.005846601469343109   -0.043726183502656   -0.001108729548726833
-0.009290727457413515   -0.03895318560279923   -0.0009242185619793166
-0.006604887070670573   -0.039052735719510796   -0.0009186484978995986
-0.006606289787666294   -0.03907145926418498   -0.0009688282386725628
-0.005846601469343109   -0.043726183502656   -0.001108729548726833
-0.009290727457413515   -0.03895318560279923   -0.0009242185619793166
-0.006606289787666294   -0.03907145926418498   -0.0009688282386725628
-0.007946491742681373   -0.043607218455914094   -0.0012019519738427908
-0.008033974262257363   -0.04368667146999663   -0.0013912327616525128
-0.009332412852381481   -0.03903676276052812   -0.0011708631864721507
-0.010487021554756908   -0.04347324245781115   -0.0015127250947516054
-0.00800153403344392   -0.04363434782384135   -0.0012988393680662485
-0.009332412852381481   -0.03903676276052812   -0.0011708631864721507
-0.012377576288438054   -0.03885443467383847   -0.0012761412774035582
-0.010487021554756908   -0.04347324245781115   -0.0015127250947516054
-0.012262956357010742   -0.038807221246874676   -0.0011573992659498003
-0.00800153403344392   -0.04363434782384135   -0.0012988393680662485
-0.010320037882948992   -0.04341856352551674   -0.0013680502108258813
-0.012262956357010742   -0.038807221246874676   -0.0011573992659498003
-0.010487021554756908   -0.04347324245781115   -0.0015127250947516054
-0.00800153403344392   -0.04363434782384135   -0.0012988393680662485
-0.012262956357010742   -0.038807221246874676   -0.0011573992659498003
-0.009329085062996624   -0.03898872180020525   -0.001093295347724199
-0.009332412852381481   -0.03903676276052812   -0.0011708631864721507
-0.00800153403344392   -0.04363434782384135   -0.0012988393680662485
-0.012262956357010742   -0.038807221246874676   -0.0011573992659498003
-0.009332412852381481   -0.03903676276052812   -0.0011708631864721507
-0.010487021554756908   -0.04347324245781115   -0.0015127250947516054
-0.00800153403344392   -0.04363434782384135   -0.0012988393680662485
-0.009329085062996624   -0.03898872180020525   -0.001093295347724199
-0.010320037882948992   -0.04341856352551674   -0.0013680502108258813
-0.007946491742681373   -0.043607218455914094   -0.0012019519738427908
-0.009329085062996624   -0.03898872180020525   -0.001093295347724199
-0.012262956357010742   -0.038807221246874676   -0.0011573992659498003
-0.010320037882948992   -0.04341856352551674   -0.0013680502108258813
-0.01216502873473383   -0.03878235439050824   -0.001031407436476359
-0.007946491742681373   -0.043607218455914094   -0.0012019519738427908
-0.01017526658811716   -0.04339378346410073   -0.0012159540768959416
-0.01216502873473383   -0.03878235439050824   -0.001031407436476359
-0.010320037882948992   -0.04341856352551674   -0.0013680502108258813
-0.007946491742681373   -0.043607218455914094   -0.0012019519738427908
-0.01216502873473383   -0.03878235439050824   -0.001031407436476359
-0.009306072610274671   -0.03896018427928222   -0.001011419661533587
-0.009329085062996624   -0.03898872180020525   -0.001093295347724199
-0.007946491742681373   -0.043607218455914094   -0.0012019519738427908
-0.01216502873473383   -0.03878235439050824   -0.001031407436476359
-0.009329085062996624   -0.03898872180020525   -0.001093295347724199
-0.010320037882948992   -0.04341856352551674   -0.0013680502108258813
-0.007946491742681373   -0.043607218455914094   -0.0012019519738427908
-0.009306072610274671   -0.03896018427928222   -0.001011419661533587
-0.01017526658811716   -0.04339378346410073   -0.0012159540768959416
-0.007901881743217945   -0.04360673778670414   -0.0010991610581566637
-0.009306072610274671   -0.03896018427928222   -0.001011419661533587
-0.01216502873473383   -0.03878235439050824   -0.001031407436476359
-0.01017526658811716   -0.04339378346410073   -0.0012159540768959416
-0.01202383726397198   -0.03879161486628481   -0.0008991638616405275
-0.007901881743217945   -0.04360673778670414   -0.0010991610581566637
-0.00998028802954316   -0.0434096951294323   -0.001057403696272817
-0.01202383726397198   -0.03879161486628481   -0.0008991638616405275
-0.01017526658811716   -0.04339378346410073   -0.0012159540768959416
-0.007901881743217945   -0.04360673778670414   -0.0010991610581566637
-0.01202383726397198   -0.03879161486628481   -0.0008991638616405275
-0.009290727457413515   -0.03895318560279923   -0.0009242185619793166
-0.009306072610274671   -0.03896018427928222   -0.001011419661533587
-0.007901881743217945   -0.04360673778670414   -0.0010991610581566637
-0.01202383726397198   -0.03879161486628481   -0.0008991638616405275
-0.009306072610274671   -0.03896018427928222   -0.001011419661533587
-0.01017526658811716   -0.04339378346410073   -0.0012159540768959416
0.0015206170960261535   -0.03916567104871686   -0.000575612141142307
0.002417847258087865   -0.03361374328893891   -0.0003836028016478786
-0.0012729454113829847   -0.03923539853904282   -0.0007637533308998156
0.0016026645359973886   -0.0390679488739278   -0.0006586867588361051
0.002417847258087865   -0.03361374328893891   -0.0003836028016478786
-0.0009004293559207639   -0.033648321176360824   -0.0005605859046989725
-0.0012729454113829847   -0.03923539853904282   -0.0007637533308998156
-0.0009157749078380528   -0.033567441427448566   -0.0005791336715279567
0.0016026645359973886   -0.0390679488739278   -0.0006586867588361051
-0.001265257141353549   -0.03915247952256806   -0.0007979215685925312
-0.0009157749078380528   -0.033567441427448566   -0.0005791336715279567
-0.0012729454113829847   -0.03923539853904282   -0.0007637533308998156
0.0016026645359973886   -0.0390679488739278   -0.0006586867588361051
-0.0009157749078380528   -0.033567441427448566   -0.0005791336715279567
0.0024508079715989187   -0.033519590387993355   -0.0004382855136008315
0.002417847258087865   -0.03361374328893891   -0.0003836028016478786
0.0016026645359973886   -0.0390679488739278   -0.0006586867588361051
-0.0009157749078380528   -0.033567441427448566   -0.0005791336715279567
0.002417847258087865   -0.03361374328893891   -0.0003836028016478786
-0.0012729454113829847   -0.03923539853904282   -0.0007637533308998156
0.0016026645359973886   -0.0390679488739278   -0.0006586867588361051
0.0024508079715989187   -0.033519590387993355   -0.0004382855136008315
-0.001265257141353549   -0.03915247952256806   -0.0007979215685925312
0.0016552422784154024   -0.03900423173099789   -0.0007344187307221875
0.0024508079715989187   -0.033519590387993355   -0.0004382855136008315
-0.0009157749078380528   -0.033567441427448566   -0.0005791336715279567
-0.001265257141353549   -0.03915247952256806   -0.0007979215685925312
-0.0009318705375620268   -0.03350376251124206   -0.0005930318777348649
0.0016552422784154024   -0.03900423173099789   -0.0007344187307221875
-0.001255454932184417   -0.03909270221354428   -0.0008268959334688376
-0.0009318705375620268   -0.03350376251124206   -0.0005930318777348649
-0.001265257141353549   -0.03915247952256806   -0.0007979215685925312
0.0016552422784154024   -0.03900423173099789   -0.0007344187307221875
-0.0009318705375620268   -0.03350376251124206   -0.0005930318777348649
0.0024612199101764765   -0.03345135926727816   -0.00048610555941871764
0.0024508079715989187   -0.033519590387993355   -0.0004382855136008315
0.0016552422784154024   -0.03900423173099789   -0.0007344187307221875
-0.0009318705375620268   -0.03350376251124206   -0.0005930318777348649
0.0024508079715989187   -0.033519590387993355   -0.0004382855136008315
-0.001265257141353549   -0.03915247952256806   -0.0007979215685925312
0.0016552422784154024   -0.03900423173099789   -0.0007344187307221875
0.0024612199101764765   -0.03345135926727816   -0.00048610555941871764
-0.001255454932184417   -0.03909270221354428   -0.0008268959334688376
0.0017094109711531377   -0.0389620512750594   -0.0008029646970571461
0.0024612199101764765   -0.03345135926727816   -0.00048610555941871764
-0.0009318705375620268   -0.03350376251124206   -0.0005930318777348649
-0.001255454932184417   -0.03909270221354428   -0.0008268959334688376
-0.0009595190287076519   -0.033455262117485465   -0.0006024370189397498
0.0017094109711531377   -0.0389620512750594   -0.0008029646970571461
-0.001259877061057909   -0.03905413503311157   -0.0008510548003099101
-0.0009595190287076519   -0.033455262117485465   -0.0006024370189397498
-0.001255454932184417   -0.03909270221354428   -0.0008268959334688376
0.0017094109711531377   -0.0389620512750594   -0.0008029646970571461
-0.0009595190287076519   -0.033455262117485465   -0.0006024370189397498
0.0024675157349274206   -0.03339689605369076   -0.0005273893294003419
0.0024612199101764765   -0.03345135926727816   -0.00048610555941871764
0.0017094109711531377   -0.0389620512750594   -0.0008029646970571461
-0.0009595190287076519   -0.033455262117485465   -0.0006024370189397498
0.0024612199101764765   -0.03345135926727816   -0.00048610555941871764
-0.001255454932184417   -0.03909270221354428   -0.0008268959334688376
-0.0012729454113829847   -0.03923539853904282   -0.0007637533308998156
-0.0009004293559207639   -0.033648321176360824   -0.0005605859046989725
-0.003962293839999123   -0.03923589990453637   -0.0009186538892554108
-0.001265257141353549   -0.03915247952256806   -0.0007979215685925312
-0.0009004293559207639   -0.033648321176360824   -0.0005605859046989725
-0.004081907979599689   -0.03363093095967773   -0.0007060103352150677
-0.003962293839999123   -0.03923589990453637   -0.0009186538892554108
-0.004103360190515671   -0.0335634582080895   -0.0006974433855422055
-0.001265257141353549   -0.03915247952256806   -0.0007979215685925312
-0.003962569165257838   -0.03916583116585722   -0.0009154214226099033
-0.004103360190515671   -0.0335634582080895   -0.0006974433855422055
-0.003962293839999123   -0.03923589990453637   -0.0009186538892554108
-0.001265257141353549   -0.03915247952256806   -0.0007979215685925312
-0.004103360190515671   -0.0335634582080895   -0.0006974433855422055
-0.0009157749078380528   -0.033567441427448566   -0.0005791336715279567
-0.0009004293559207639   -0.033648321176360824   -0.0005605859046989725
-0.001265257141353549   -0.03915247952256806   -0.0007979215685925312
-0.004103360190515671   -0.0335634582080895   -0.0006974433855422055
-0.0009004293559207639   -0.033648321176360824   -0.0005605859046989725
-0.003962293839999123   -0.03923589990453637   -0.0009186538892554108
-0.001265257141353549   -0.03915247952256806   -0.0007979215685925312
-0.0009157749078380528   -0.033567441427448566   -0.0005791336715279567
-0.003962569165257838   -0.03916583116585722   -0.0009154214226099033
-0.001255454932184417   -0.03909270221354428   -0.0008268959334688376
-0.0009157749078380528   -0.033567441427448566   -0.0005791336715279567
-0.004103360190515671   -0.0335634582080895   -0.0006974433855422055
-0.003962569165257838   -0.03916583116585722   -0.0009154214226099033
-0.004125108591406357   -0.03351072695748728   -0.0006840868683914116
-0.001255454932184417   -0.03909270221354428   -0.0008268959334688376
-0.00396265958502451   -0.03911615857542073   -0.0009070122225041562
-0.004125108591406357   -0.03351072695748728   -0.0006840868683914116
-0.003962569165257838   -0.03916583116585722   -0.0009154214226099033
-0.001255454932184417   -0.03909270221354428   -0.0008268959334688376
-0.004125108591406357   -0.03351072695748728   -0.0006840868683914116
-0.0009318705375620268   -0.03350376251124206   -0.0005930318777348649
-0.0009157749078380528   -0.033567441427448566   -0.0005791336715279567
-0.001255454932184417   -0.03909270221354428   -0.0008268959334688376
-0.004125108591406357   -0.03351072695748728   -0.0006840868683914116
-0.0009157749078380528   -0.033567441427448566   -0.0005791336715279567
-0.003962569165257838   -0.03916583116585722   -0.0009154214226099033
-0.001255454932184417   -0.03909270221354428   -0.0008268959334688376
-0.0009318705375620268   -0.03350376251124206   -0.0005930318777348649
-0.00396265958502451   -0.03911615857542073   -0.0009070122225041562
-0.001259877061057909   -0.03905413503311157   -0.0008510548003099101
-0.0009318705375620268   -0.03350376251124206   -0.0005930318777348649
-0.004125108591406357   -0.03351072695748728   -0.0006840868683914116
-0.00396265958502451   -0.03911615857542073   -0.0009070122225041562
-0.004150267150399919   -0.03347298601085479   -0.0006661754316649311
-0.001259877061057909   -0.03905413503311157   -0.0008510548003099101
-0.003966337444488349   -0.039086919478816574   -0.0008936988667259965
-0.004150267150399919   -0.03347298601085479   -0.0006661754316649311
-0.00396265958502451   -0.03911615857542073   -0.0009070122225041562
-0.001259877061057909   -0.03905413503311157   -0.0008510548003099101
-0.004150267150399919   -0.03347298601085479   -0.0006661754316649311
-0.0009595190287076519   -0.033455262117485465   -0.0006024370189397498
-0.0009318705375620268   -0.03350376251124206   -0.0005930318777348649
-0.001259877061057909   -0.03905413503311157   -0.0008510548003099101
-0.004150267150399919   -0.03347298601085479   -0.0006661754316649311
-0.0009318705375620268   -0.03350376251124206   -0.0005930318777348649
-0.00396265958502451   -0.03911615857542073   -0.0009070122225041562
-0.003962293839999123   -0.03923589990453637   -0.0009186538892554108
-0.004081907979599689   -0.03363093095967773   -0.0007060103352150677
-0.006606237874917458   -0.039168852799725   -0.0010542591486424923
-0.003962569165257838   -0.03916583116585722   -0.0009154214226099033
-0.004081907979599689   -0.03363093095967773   -0.0007060103352150677
-0.007209779215717944   -0.03356487298858094   -0.0008302973333382868
-0.006606237874917458   -0.039168852799725   -0.0010542591486424923
-0.007232960617430365   -0.033509557671575735   -0.0007947542628700009
-0.003962569165257838   -0.03916583116585722   -0.0009154214226099033
-0.0066085131471071475   -0.03911004798376443   -0.001014080762449933
-0.007232960617430365   -0.033509557671575735   -0.0007947542628700009
-0.006606237874917458   -0.039168852799725   -0.0010542591486424923
-0.003962569165257838   -0.03916583116585722   -0.0009154214226099033
-0.007232960617430365   -0.033509557671575735   -0.0007947542628700009
-0.004103360190515671   -0.0335634582080895   -0.0006974433855422055
-0.004081907979599689   -0.03363093095967773   -0.0007060103352150677
-0.003962569165257838   -0.03916583116585722   -0.0009154214226099033
-0.007232960617430365   -0.033509557671575735   -0.0007947542628700009
-0.004081907979599689   -0.03363093095967773   -0.0007060103352150677
-0.006606237874917458   -0.039168852799725   -0.0010542591486424923
-0.003962569165257838   -0.03916583116585722   -0.0009154214226099033
-0.004103360190515671   -0.0335634582080895   -0.0006974433855422055
-0.0066085131471071475   -0.03911004798376443   -0.001014080762449933
-0.00396265958502451   -0.03911615857542073   -0.0009070122225041562
-0.004103360190515671   -0.0335634582080895   -0.0006974433855422055
-0.007232960617430365   -0.033509557671575735   -0.0007947542628700009
-0.0066085131471071475   -0.03911004798376443   -0.001014080762449933
-0.0072521408289185855   -0.0334688435937084   -0.0007545081097977034
-0.00396265958502451   -0.03911615857542073   -0.0009070122225041562
-0.006606289787666294   -0.03907145926418498   -0.0009688282386725628
-0.0072521408289185855   -0.0334688435937084   -0.0007545081097977034
-0.0066085131471071475   -0.03911004798376443   -0.001014080762449933
-0.00396265958502451   -0.03911615857542073   -0.0009070122225041562
-0.0072521408289185855   -0.0334688435937084   -0.0007545081097977034
-0.004125108591406357   -0.03351072695748728   -0.0006840868683914116
-0.004103360190515671   -0.0335634582080895   -0.0006974433855422055
-0.00396265958502451   -0.03911615857542073   -0.0009070122225041562
-0.0072521408289185855   -0.0334688435937084   -0.0007545081097977034
-0.004103360190515671   -0.0335634582080895   -0.0006974433855422055
-0.0066085131471071475   -0.03911004798376443   -0.001014080762449933
-0.00396265958502451   -0.03911615857542073   -0.0009070122225041562
-0.004125108591406357   -0.03351072695748728   -0.0006840868683914116
-0.006606289787666294   -0.03907145926418498   -0.0009688282386725628
-0.003966337444488349   -0.039086919478816574   -0.0008936988667259965
-0.004125108591406357   -0.03351072695748728   -0.0006840868683914116
-0.0072521408289185855   -0.0334688435937084   -0.0007545081097977034
-0.006606289787666294   -0.03907145926418498   -0.0009688282386725628
-0.007271887157736178   -0.033442668297620166   -0.0007096961573971458
-0.003966337444488349   -0.039086919478816574   -0.0008936988667259965
-0.006604887070670573   -0.039052735719510796   -0.0009186484978995986
-0.007271887157736178   -0.033442668297620166   -0.0007096961573971458
-0.006606289787666294   -0.03907145926418498   -0.0009688282386725628
-0.003966337444488349   -0.039086919478816574   -0.0008936988667259965
-0.007271887157736178   -0.033442668297620166   -0.0007096961573971458
-0.004150267150399919   -0.03347298601085479   -0.0006661754316649311
-0.004125108591406357   -0.03351072695748728   -0.0006840868683914116
-0.003966337444488349   -0.039086919478816574   -0.0008936988667259965
-0.007271887157736178   -0.033442668297620166   -0.0007096961573971458
-0.004125108591406357   -0.03351072695748728   -0.0006840868683914116
-0.006606289787666294   -0.03907145926418498   -0.0009688282386725628
-0.006606237874917458   -0.039168852799725   -0.0010542591486424923
-0.007209779215717944   -0.03356487298858094   -0.0008302973333382868
-0.009332412852381481   -0.03903676276052812   -0.0011708631864721507
-0.0066085131471071475   -0.03911004798376443   -0.001014080762449933
-0.007209779215717944   -0.03356487298858094   -0.0008302973333382868
-0.010412026595453615   -0.03345144972723914   -0.0009339519338451474
-0.009332412852381481   -0.03903676276052812   -0.0011708631864721507
-0.010431140083697076   -0.033407993350255044   -0.0008710619269510754
-0.0066085131471071475   -0.03911004798376443   -0.001014080762449933
-0.009329085062996624   -0.03898872180020525   -0.001093295347724199
-0.010431140083697076   -0.033407993350255044   -0.0008710619269510754
-0.009332412852381481   -0.03903676276052812   -0.0011708631864721507
-0.0066085131471071475   -0.03911004798376443   -0.001014080762449933
-0.010431140083697076   -0.033407993350255044   -0.0008710619269510754
-0.007232960617430365   -0.033509557671575735   -0.0007947542628700009
-0.007209779215717944   -0.03356487298858094   -0.0008302973333382868
-0.0066085131471071475   -0.03911004798376443   -0.001014080762449933
-0.010431140083697076   -0.033407993350255044   -0.0008710619269510754
-0.007209779215717944   -0.03356487298858094   -0.0008302973333382868
-0.009332412852381481   -0.03903676276052812   -0.0011708631864721507
-0.0066085131471071475   -0.03911004798376443   -0.001014080762449933
-0.007232960617430365   -0.033509557671575735   -0.0007947542628700009
-0.009329085062996624   -0.03898872180020525   -0.001093295347724199
-0.006606289787666294   -0.03907145926418498   -0.0009688282386725628
-0.007232960617430365   -0.033509557671575735   -0.0007947542628700009
-0.010431140083697076   -0.033407993350255044   -0.0008710619269510754
-0.009329085062996624   -0.03898872180020525   -0.001093295347724199
-0.010433369223554706   -0.03337827084050669   -0.0008041190189472766
-0.006606289787666294   -0.03907145926418498   -0.0009688282386725628
-0.009306072610274671   -0.03896018427928222   -0.001011419661533587
-0.010433369223554706   -0.03337827084050669   -0.0008041190189472766
-0.009329085062996624   -0.03898872180020525   -0.001093295347724199
-0.006606289787666294   -0.03907145926418498   -0.0009688282386725628
-0.010433369223554706   -0.03337827084050669   -0.0008041190189472766
-0.0072521408289185855   -0.0334688435937084   -0.0007545081097977034
-0.007232960617430365   -0.033509557671575735   -0.0007947542628700009
-0.006606289787666294   -0.03907145926418498   -0.0009688282386725628
-0.010433369223554706   -0.03337827084050669   -0.0008041190189472766
-0.007232960617430365   -0.033509557671575735   -0.0007947542628700009
-0.009329085062996624   -0.03898872180020525   -0.001093295347724199
-0.006606289787666294   -0.03907145926418498   -0.0009688282386725628
-0.0072521408289185855   -0.0334688435937084   -0.0007545081097977034
-0.009306072610274671   -0.03896018427928222   -0.001011419661533587
-0.006604887070670573   -0.039052735719510796   -0.0009186484978995986
-0.0072521408289185855   -0.0334688435937084   -0.0007545081097977034
-0.010433369223554706   -0.03337827084050669   -0.0008041190189472766
-0.009306072610274671   -0.03896018427928222   -0.001011419661533587
-0.010440443101072934   -0.033364400964371786   -0.0007322629557487205
-0.006604887070670573   -0.039052735719510796   -0.0009186484978995986
-0.009290727457413515   -0.03895318560279923   -0.0009242185619793166
-0.010440443101072934   -0.033364400964371786   -0.0007322629557487205
-0.009306072610274671   -0.03896018427928222   -0.001011419661533587
-0.006604887070670573   -0.039052735719510796   -0.0009186484978995986
-0.010440443101072934   -0.033364400964371786   -0.0007322629557487205
-0.007271887157736178   -0.033442668297620166   -0.0007096961573971458
-0.0072521408289185855   -0.0334688435937084   -0.0007545081097977034
-0.006604887070670573   -0.039052735719510796   -0.0009186484978995986
-0.010440443101072934   -0.033364400964371786   -0.0007322629557487205
-0.0072521408289185855   -0.0334688435937084   -0.0007545081097977034
-0.009306072610274671   -0.03896018427928222   -0.001011419661533587
-0.009332412852381481   -0.03903676276052812   -0.0011708631864721507
-0.010412026595453615   -0.03345144972723914   -0.0009339519338451474
-0.012377576288438054   -0.03885443467383847   -0.0012761412774035582
-0.009329085062996624   -0.03898872180020525   -0.001093295347724199
-0.010412026595453615   -0.03345144972723914   -0.0009339519338451474
-0.013904395696908265   -0.03330240254674246   -0.0010225124768583405
-0.012377576288438054   -0.03885443467383847   -0.0012761412774035582
-0.013836756129528874   -0.03326270374370088   -0.0009306230732827294
-0.009329085062996624   -0.03898872180020525   -0.001093295347724199
-0.012262956357010742   -0.038807221246874676   -0.0011573992659498003
-0.013836756129528874   -0.03326270374370088   -0.0009306230732827294
-0.012377576288438054   -0.03885443467383847   -0.0012761412774035582
-0.009329085062996624   -0.03898872180020525   -0.001093295347724199
-0.013836756129528874   -0.03326270374370088   -0.0009306230732827294
-0.010431140083697076   -0.033407993350255044   -0.0008710619269510754
-0.010412026595453615   -0.03345144972723914   -0.0009339519338451474
-0.009329085062996624   -0.03898872180020525   -0.001093295347724199
-0.013836756129528874   -0.03326270374370088   -0.0009306230732827294
-0.010412026595453615   -0.03345144972723914   -0.0009339519338451474
-0.012377576288438054   -0.03885443467383847   -0.0012761412774035582
-0.009329085062996624   -0.03898872180020525   -0.001093295347724199
-0.010431140083697076   -0.033407993350255044   -0.0008710619269510754
-0.012262956357010742   -0.038807221246874676   -0.0011573992659498003
-0.009306072610274671   -0.03896018427928222   -0.001011419661533587
-0.010431140083697076   -0.033407993350255044   -0.0008710619269510754
-0.013836756129528874   -0.03326270374370088   -0.0009306230732827294
-0.012262956357010742   -0.038807221246874676   -0.0011573992659498003
-0.013779778952190923   -0.03323764503600581   -0.0008316521192069987
-0.009306072610274671   -0.03896018427928222   -0.001011419661533587
-0.01216502873473383   -0.03878235439050824   -0.001031407436476359
-0.013779778952190923   -0.03323764503600581   -0.0008316521192069987
-0.012262956357010742   -0.038807221246874676   -0.0011573992659498003
-0.009306072610274671   -0.03896018427928222   -0.001011419661533587
-0.013779778952190923   -0.03323764503600581   -0.0008316521192069987
-0.010433369223554706   -0.03337827084050669   -0.0008041190189472766
-0.010431140083697076   -0.033407993350255044   -0.0008710619269510754
-0.009306072610274671   -0.03896018427928222   -0.001011419661533587
-0.013779778952190923   -0.03323764503600581   -0.0008316521192069987
-0.010431140083697076   -0.033407993350255044   -0.0008710619269510754
-0.012262956357010742   -0.038807221246874676   -0.0011573992659498003
-0.009306072610274671   -0.03896018427928222   -0.001011419661533587
-0.010433369223554706   -0.03337827084050669   -0.0008041190189472766
-0.01216502873473383   -0.03878235439050824   -0.001031407436476359
-0.009290727457413515   -0.03895318560279923   -0.0009242185619793166
-0.010433369223554706   -0.03337827084050669   -0.0008041190189472766
-0.013779778952190923   -0.03323764503600581   -0.0008316521192069987
-0.01216502873473383   -0.03878235439050824   -0.001031407436476359
-0.013686055808377506   -0.033239480936247415   -0.0007264840534466634
-0.009290727457413515   -0.03895318560279923   -0.0009242185619793166
-0.01202383726397198   -0.03879161486628481   -0.0008991638616405275
-0.013686055808377506   -0.033239480936247415   -0.0007264840534466634
-0.01216502873473383   -0.03878235439050824   -0.001031407436476359
-0.009290727457413515   -0.03895318560279923   -0.0009242185619793166
-0.013686055808377506   -0.033239480936247415   -0.0007264840534466634
-0.010440443101072934   -0.033364400964371786   -0.0007322629557487205
-0.010433369223554706   -0.03337827084050669   -0.0008041190189472766
-0.009290727457413515   -0.03895318560279923   -0.0009242185619793166
-0.013686055808377506   -0.033239480936247415   -0.0007264840534466634
-0.010433369223554706   -0.03337827084050669   -0.0008041190189472766
-0.01216502873473383   -0.03878235439050824   -0.001031407436476359
0.002417847258087865   -0.03361374328893891   -0.0003836028016478786
0.0029198199632943945   -0.02737620061526701   -0.00019587362365636377
-0.0009004293559207639   -0.033648321176360824   -0.0005605859046989725
0.0024508079715989187   -0.033519590387993355   -0.0004382855136008315
0.0029198199632943945   -0.02737620061526701   -0.00019587362365636377
-0.0007677362730044614   -0.02737589363209503   -0.0003598866922283212
-0.0009004293559207639   -0.033648321176360824   -0.0005605859046989725
-0.0008003698772636714   -0.02729770712002816   -0.00036256895575328496
0.0024508079715989187   -0.033519590387993355   -0.0004382855136008315
-0.0009157749078380528   -0.033567441427448566   -0.0005791336715279567
-0.0008003698772636714   -0.02729770712002816   -0.00036256895575328496
-0.0009004293559207639   -0.033648321176360824   -0.0005605859046989725
0.0024508079715989187   -0.033519590387993355   -0.0004382855136008315
-0.0008003698772636714   -0.02729770712002816   -0.00036256895575328496
0.002910005628979582   -0.027286099005663263   -0.00022240046783011713
0.0029198199632943945   -0.02737620061526701   -0.00019587362365636377
0.0024508079715989187   -0.033519590387993355   -0.0004382855136008315
-0.0008003698772636714   -0.02729770712002816   -0.00036256895575328496
0.0029198199632943945   -0.02737620061526701   -0.00019587362365636377
-0.0009004293559207639   -0.033648321176360824   -0.0005605859046989725
0.0024508079715989187   -0.033519590387993355   -0.0004382855136008315
0.002910005628979582   -0.027286099005663263   -0.00022240046783011713
-0.0009157749078380528   -0.033567441427448566   -0.0005791336715279567
0.0024612199101764765   -0.03345135926727816   -0.00048610555941871764
0.002910005628979582   -0.027286099005663263   -0.00022240046783011713
-0.0008003698772636714   -0.02729770712002816   -0.00036256895575328496
-0.0009157749078380528   -0.033567441427448566   -0.0005791336715279567
-0.0008366381931578503   -0.027230660848498192   -0.0003611156587264734
0.0024612199101764765   -0.03345135926727816   -0.00048610555941871764
-0.0009318705375620268   -0.03350376251124206   -0.0005930318777348649
-0.0008366381931578503   -0.027230660848498192   -0.0003611156587264734
-0.0009157749078380528   -0.033567441427448566   -0.0005791336715279567
0.0024612199101764765   -0.03345135926727816   -0.00048610555941871764
-0.0008366381931578503   -0.027230660848498192   -0.0003611156587264734
0.0028841718461477795   -0.027213939471622796   -0.00024229864791682848
0.002910005628979582   -0.027286099005663263   -0.00022240046783011713
0.0024612199101764765   -0.03345135926727816   -0.00048610555941871764
-0.0008366381931578503   -0.027230660848498192   -0.0003611156587264734
0.002910005628979582   -0.027286099005663263   -0.00022240046783011713
-0.0009157749078380528   -0.033567441427448566   -0.0005791336715279567
0.0024612199101764765   -0.03345135926727816   -0.00048610555941871764
0.0028841718461477795   -0.027213939471622796   -0.00024229864791682848
-0.0009318705375620268   -0.03350376251124206   -0.0005930318777348649
0.0024675157349274206   -0.03339689605369076   -0.0005273893294003419
0.0028841718461477795   -0.027213939471622796   -0.00024229864791682848
-0.0008366381931578503   -0.027230660848498192   -0.0003611156587264734
-0.0009318705375620268   -0.03350376251124206   -0.0005930318777348649
-0.0008817775368594684   -0.02717299774732633   -0.0003553637621396135
0.0024675157349274206   -0.03339689605369076   -0.0005273893294003419
-0.0009595190287076519   -0.033455262117485465   -0.0006024370189397498
-0.0008817775368594684   -0.02717299774732633   -0.0003553637621396135
-0.0009318705375620268   -0.03350376251124206   -0.0005930318777348649
0.0024675157349274206   -0.03339689605369076   -0.0005273893294003419
-0.0008817775368594684   -0.02717299774732633   -0.0003553637621396135
0.0028479829700856344   -0.027147804599245734   -0.00025603120761864595
0.0028841718461477795   -0.027213939471622796   -0.00024229864791682848
0.0024675157349274206   -0.03339689605369076   -0.0005273893294003419
-0.0008817775368594684   -0.02717299774732633   -0.0003553637621396135
0.0028841718461477795   -0.027213939471622796   -0.00024229864791682848
-0.0009318705375620268   -0.03350376251124206   -0.0005930318777348649
-0.0009004293559207639   -0.033648321176360824   -0.0005605859046989725
-0.0007677362730044614   -0.02737589363209503   -0.0003598866922283212
-0.004081907979599689   -0.03363093095967773   -0.0007060103352150677
-0.0009157749078380528   -0.033567441427448566   -0.0005791336715279567
-0.0007677362730044614   -0.02737589363209503   -0.0003598866922283212
-0.0042854029006084765   -0.027342658295051777   -0.0004948908886316356
-0.004081907979599689   -0.03363093095967773   -0.0007060103352150677
-0.0043220557243041436   -0.02727790390638827   -0.0004805265119924915
-0.0009157749078380528   -0.033567441427448566   -0.0005791336715279567
-0.004103360190515671   -0.0335634582080895   -0.0006974433855422055
-0.0043220557243041436   -0.02727790390638827   -0.0004805265119924915
-0.004081907979599689   -0.03363093095967773   -0.0007060103352150677
-0.0009157749078380528   -0.033567441427448566   -0.0005791336715279567
-0.0043220557243041436   -0.02727790390638827   -0.0004805265119924915
-0.0008003698772636714   -0.02729770712002816   -0.00036256895575328496
-0.0007677362730044614   -0.02737589363209503   -0.0003598866922283212
-0.0009157749078380528   -0.033567441427448566   -0.0005791336715279567
-0.0043220557243041436   -0.02727790390638827   -0.0004805265119924915
-0.0007677362730044614   -0.02737589363209503   -0.0003598866922283212
-0.004081907979599689   -0.03363093095967773   -0.0007060103352150677
-0.0009157749078380528   -0.033567441427448566   -0.0005791336715279567
-0.0008003698772636714   -0.02729770712002816   -0.00036256895575328496
-0.004103360190515671   -0.0335634582080895   -0.0006974433855422055
-0.0009318705375620268   -0.03350376251124206   -0.0005930318777348649
-0.0008003698772636714   -0.02729770712002816   -0.00036256895575328496
-0.0043220557243041436   -0.02727790390638827   -0.0004805265119924915
-0.004103360190515671   -0.0335634582080895   -0.0006974433855422055
-0.004359454273571227   -0.027222217562734678   -0.0004618511437600431
-0.0009318705375620268   -0.03350376251124206   -0.0005930318777348649
-0.004125108591406357   -0.03351072695748728   -0.0006840868683914116
-0.004359454273571227   -0.027222217562734678   -0.0004618511437600431
-0.004103360190515671   -0.0335634582080895   -0.0006974433855422055
-0.0009318705375620268   -0.03350376251124206   -0.0005930318777348649
-0.004359454273571227   -0.027222217562734678   -0.0004618511437600431
-0.0008366381931578503   -0.027230660848498192   -0.0003611156587264734
-0.0008003698772636714   -0.02729770712002816   -0.00036256895575328496
-0.0009318705375620268   -0.03350376251124206   -0.0005930318777348649
-0.004359454273571227   -0.027222217562734678   -0.0004618511437600431
-0.0008003698772636714   -0.02729770712002816   -0.00036256895575328496
-0.004103360190515671   -0.0335634582080895   -0.0006974433855422055
-0.0009318705375620268   -0.03350376251124206   -0.0005930318777348649
-0.0008366381931578503   -0.027230660848498192   -0.0003611156587264734
-0.004125108591406357   -0.03351072695748728   -0.0006840868683914116
-0.0009595190287076519   -0.033455262117485465   -0.0006024370189397498
-0.0008366381931578503   -0.027230660848498192   -0.0003611156587264734
-0.004359454273571227   -0.027222217562734678   -0.0004618511437600431
-0.004125108591406357   -0.03351072695748728   -0.0006840868683914116
-0.0044000359571504995   -0.027176134336632636   -0.0004390705359804964
-0.0009595190287076519   -0.033455262117485465   -0.0006024370189397498
-0.004150267150399919   -0.03347298601085479   -0.0006661754316649311
-0.0044000359571504995   -0.027176134336632636   -0.0004390705359804964
-0.004125108591406357   -0.03351072695748728   -0.0006840868683914116
-0.0009595190287076519   -0.033455262117485465   -0.0006024370189397498
-0.0044000359571504995   -0.027176134336632636   -0.0004390705359804964
-0.0008817775368594684   -0.02717299774732633   -0.0003553637621396135
-0.0008366381931578503   -0.027230660848498192   -0.0003611156587264734
-0.0009595190287076519   -0.033455262117485465   -0.0006024370189397498
-0.0044000359571504995   -0.027176134336632636   -0.0004390705359804964
-0.0008366381931578503   -0.027230660848498192   -0.0003611156587264734
-0.004125108591406357   -0.03351072695748728   -0.0006840868683914116
-0.004081907979599689   -0.03363093095967773   -0.0007060103352150677
-0.0042854029006084765   -0.027342658295051777   -0.0004948908886316356
-0.007209779215717944   -0.03356487298858094   -0.0008302973333382868
-0.004103360190515671   -0.0335634582080895   -0.0006974433855422055
-0.0042854029006084765   -0.027342658295051777   -0.0004948908886316356
-0.007743610591618099   -0.027280311600728666   -0.0006085861343626373
-0.007209779215717944   -0.03356487298858094   -0.0008302973333382868
-0.0077813888083985185   -0.027227916405639794   -0.0005772167007071807
-0.004103360190515671   -0.0335634582080895   -0.0006974433855422055
-0.007232960617430365   -0.033509557671575735   -0.0007947542628700009
-0.0077813888083985185   -0.027227916405639794   -0.0005772167007071807
-0.007209779215717944   -0.03356487298858094   -0.0008302973333382868
-0.004103360190515671   -0.0335634582080895   -0.0006974433855422055
-0.0077813888083985185   -0.027227916405639794   -0.0005772167007071807
-0.0043220557243041436   -0.02727790390638827   -0.0004805265119924915
-0.0042854029006084765   -0.027342658295051777   -0.0004948908886316356
-0.004103360190515671   -0.0335634582080895   -0.0006974433855422055
-0.0077813888083985185   -0.027227916405639794   -0.0005772167007071807
-0.0042854029006084765   -0.027342658295051777   -0.0004948908886316356
-0.007209779215717944   -0.03356487298858094   -0.0008302973333382868
-0.004103360190515671   -0.0335634582080895   -0.0006974433855422055
-0.0043220557243041436   -0.02727790390638827   -0.0004805265119924915
-0.007232960617430365   -0.033509557671575735   -0.0007947542628700009
-0.004125108591406357   -0.03351072695748728   -0.0006840868683914116
-0.0043220557243041436   -0.02727790390638827   -0.0004805265119924915
-0.0077813888083985185   -0.027227916405639794   -0.0005772167007071807
-0.007232960617430365   -0.033509557671575735   -0.0007947542628700009
-0.007815639796050631   -0.02718452525727797   -0.0005416379030321253
-0.004125108591406357   -0.03351072695748728   -0.0006840868683914116
-0.0072521408289185855   -0.0334688435937084   -0.0007545081097977034
-0.007815639796050631   -0.02718452525727797   -0.0005416379030321253
-0.007232960617430365   -0.033509557671575735   -0.0007947542628700009
-0.004125108591406357   -0.03351072695748728   -0.0006840868683914116
-0.007815639796050631   -0.02718452525727797   -0.0005416379030321253
-0.004359454273571227   -0.027222217562734678   -0.0004618511437600431
-0.0043220557243041436   -0.02727790390638827   -0.0004805265119924915
-0.004125108591406357   -0.03351072695748728   -0.0006840868683914116
-0.007815639796050631   -0.02718452525727797   -0.0005416379030321253
-0.0043220557243041436   -0.02727790390638827   -0.0004805265119924915
-0.007232960617430365   -0.033509557671575735   -0.0007947542628700009
-0.004125108591406357   -0.03351072695748728   -0.0006840868683914116
-0.004359454273571227   -0.027222217562734678   -0.0004618511437600431
-0.0072521408289185855   -0.0334688435937084   -0.0007545081097977034
-0.004150267150399919   -0.03347298601085479   -0.0006661754316649311
-0.004359454273571227   -0.027222217562734678   -0.0004618511437600431
-0.007815639796050631   -0.02718452525727797   -0.0005416379030321253
-0.0072521408289185855   -0.0334688435937084   -0.0007545081097977034
-0.007850218366995131   -0.02715020872429743   -0.0005020088684927527
-0.004150267150399919   -0.03347298601085479   -0.0006661754316649311
-0.007271887157736178   -0.033442668297620166   -0.0007096961573971458
-0.007850218366995131   -0.02715020872429743   -0.0005020088684927527
-0.0072521408289185855   -0.0334688435937084   -0.0007545081097977034
-0.004150267150399919   -0.03347298601085479   -0.0006661754316649311
-0.007850218366995131   -0.02715020872429743   -0.0005020088684927527
-0.0044000359571504995   -0.027176134336632636   -0.0004390705359804964
-0.004359454273571227   -0.027222217562734678   -0.0004618511437600431
-0.004150267150399919   -0.03347298601085479   -0.0006661754316649311
-0.007850218366995131   -0.02715020872429743   -0.0005020088684927527
-0.004359454273571227   -0.027222217562734678   -0.0004618511437600431
-0.0072521408289185855   -0.0334688435937084   -0.0007545081097977034
-0.007209779215717944   -0.03356487298858094   -0.0008302973333382868
-0.007743610591618099   -0.027280311600728666   -0.0006085861343626373
-0.010412026595453615   -0.03345144972723914   -0.0009339519338451474
-0.007232960617430365   -0.033509557671575735   -0.0007947542628700009
-0.007743610591618099   -0.027280311600728666   -0.0006085861343626373
-0.011270402109196203   -0.027187534059011097   -0.0007012511098366214
-0.010412026595453615   -0.03345144972723914   -0.0009339519338451474
-0.011305438916104077   -0.027147591983155982   -0.0006527446535603398
-0.007232960617430365   -0.033509557671575735   -0.0007947542628700009
-0.010431140083697076   -0.033407993350255044   -0.0008710619269510754
-0.011305438916104077   -0.027147591983155982   -0.0006527446535603398
-0.010412026595453615   -0.03345144972723914   -0.0009339519338451474
-0.007232960617430365   -0.033509557671575735   -0.0007947542628700009
-0.011305438916104077   -0.027147591983155982   -0.0006527446535603398
-0.0077813888083985185   -0.027227916405639794   -0.0005772167007071807
-0.007743610591618099   -0.027280311600728666   -0.0006085861343626373
-0.007232960617430365   -0.033509557671575735   -0.0007947542628700009
-0.011305438916104077   -0.027147591983155982   -0.0006527446535603398
-0.007743610591618099   -0.027280311600728666   -0.0006085861343626373
-0.010412026595453615   -0.03345144972723914   -0.0009339519338451474
-0.007232960617430365   -0.033509557671575735   -0.0007947542628700009
-0.0077813888083985185   -0.027227916405639794   -0.0005772167007071807
-0.010431140083697076   -0.033407993350255044   -0.0008710619269510754
-0.0072521408289185855   -0.0334688435937084   -0.0007545081097977034
-0.0077813888083985185   -0.027227916405639794   -0.0005772167007071807
-0.011305438916104077   -0.027147591983155982   -0.0006527446535603398
-0.010431140083697076   -0.033407993350255044   -0.0008710619269510754
-0.011326510088587937   -0.027115538065074402   -0.0006005937669265634
-0.0072521408289185855   -0.0334688435937084   -0.0007545081097977034
-0.010433369223554706   -0.03337827084050669   -0.0008041190189472766
-0.011326510088587937   -0.027115538065074402   -0.0006005937669265634
-0.010431140083697076   -0.033407993350255044   -0.0008710619269510754
-0.0072521408289185855   -0.0334688435937084   -0.0007545081097977034
-0.011326510088587937   -0.027115538065074402   -0.0006005937669265634
-0.007815639796050631   -0.02718452525727797   -0.0005416379030321253
-0.0077813888083985185   -0.027227916405639794   -0.0005772167007071807
-0.0072521408289185855   -0.0334688435937084   -0.0007545081097977034
-0.011326510088587937   -0.027115538065074402   -0.0006005937669265634
-0.0077813888083985185   -0.027227916405639794   -0.0005772167007071807
-0.010431140083697076   -0.033407993350255044   -0.0008710619269510754
-0.0072521408289185855   -0.0334688435937084   -0.0007545081097977034
-0.007815639796050631   -0.02718452525727797   -0.0005416379030321253
-0.010433369223554706   -0.03337827084050669   -0.0008041190189472766
-0.007271887157736178   -0.033442668297620166   -0.0007096961573971458
-0.007815639796050631   -0.02718452525727797   -0.0005416379030321253
-0.011326510088587937   -0.027115538065074402   -0.0006005937669265634
-0.010433369223554706   -0.03337827084050669   -0.0008041190189472766
-0.01134973300429776   -0.027093353318509098   -0.0005440463945301114
-0.007271887157736178   -0.033442668297620166   -0.0007096961573971458
-0.010440443101072934   -0.033364400964371786   -0.0007322629557487205
-0.01134973300429776   -0.027093353318509098   -0.0005440463945301114
-0.010433369223554706   -0.03337827084050669   -0.0008041190189472766
-0.007271887157736178   -0.033442668297620166   -0.0007096961573971458
-0.01134973300429776   -0.027093353318509098   -0.0005440463945301114
-0.007850218366995131   -0.02715020872429743   -0.0005020088684927527
-0.007815639796050631   -0.02718452525727797   -0.0005416379030321253
-0.007271887157736178   -0.033442668297620166   -0.0007096961573971458
-0.01134973300429776   -0.027093353318509098   -0.0005440463945301114
-0.007815639796050631   -0.02718452525727797   -0.0005416379030321253
-0.010433369223554706   -0.03337827084050669   -0.0008041190189472766
-0.010412026595453615   -0.03345144972723914   -0.0009339519338451474
-0.011270402109196203   -0.027187534059011097   -0.0007012511098366214
-0.013904395696908265   -0.03330240254674246   -0.0010225124768583405
-0.010431140083697076   -0.033407993350255044   -0.0008710619269510754
-0.011270402109196203   -0.027187534059011097   -0.0007012511098366214
-0.015056271473255204   -0.027073139128076504   -0.0007747880215168597
-0.013904395696908265   -0.03330240254674246   -0.0010225124768583405
-0.015029487846052153   -0.0270395558143658   -0.0007100085139620788
-0.010431140083697076   -0.033407993350255044   -0.0008710619269510754
-0.013836756129528874   -0.03326270374370088   -0.0009306230732827294
-0.015029487846052153   -0.0270395558143658   -0.0007100085139620788
-0.013904395696908265   -0.03330240254674246   -0.0010225124768583405
-0.010431140083697076   -0.033407993350255044   -0.0008710619269510754
-0.015029487846052153   -0.0270395558143658   -0.0007100085139620788
-0.011305438916104077   -0.027147591983155982   -0.0006527446535603398
-0.011270402109196203   -0.027187534059011097   -0.0007012511098366214
-0.010431140083697076   -0.033407993350255044   -0.0008710619269510754
-0.015029487846052153   -0.0270395558143658   -0.0007100085139620788
-0.011270402109196203   -0.027187534059011097   -0.0007012511098366214
-0.013904395696908265   -0.03330240254674246   -0.0010225124768583405
-0.010431140083697076   -0.033407993350255044   -0.0008710619269510754
-0.011305438916104077   -0.027147591983155982   -0.0006527446535603398
-0.013836756129528874   -0.03326270374370088   -0.0009306230732827294
-0.010433369223554706   -0.03337827084050669   -0.0008041190189472766
-0.011305438916104077   -0.027147591983155982   -0.0006527446535603398
-0.015029487846052153   -0.0270395558143658   -0.0007100085139620788
-0.013836756129528874   -0.03326270374370088   -0.0009306230732827294
-0.015007650962787574   -0.02701284578984111   -0.0006385411458289882
-0.010433369223554706   -0.03337827084050669   -0.0008041190189472766
-0.013779778952190923   -0.03323764503600581   -0.0008316521192069987
-0.015007650962787574   -0.02701284578984111   -0.0006385411458289882
-0.013836756129528874   -0.03326270374370088   -0.0009306230732827294
-0.010433369223554706   -0.03337827084050669   -0.0008041190189472766
-0.015007650962787574   -0.02701284578984111   -0.0006385411458289882
-0.011326510088587937   -0.027115538065074402   -0.0006005937669265634
-0.011305438916104077   -0.027147591983155982   -0.0006527446535603398
-0.010433369223554706   -0.03337827084050669   -0.0008041190189472766
-0.015007650962787574   -0.02701284578984111   -0.0006385411458289882
-0.011305438916104077   -0.027147591983155982   -0.0006527446535603398
-0.013836756129528874   -0.03326270374370088   -0.0009306230732827294
-0.010433369223554706   -0.03337827084050669   -0.0008041190189472766
-0.011326510088587937   -0.027115538065074402   -0.0006005937669265634
-0.013779778952190923   -0.03323764503600581   -0.0008316521192069987
-0.010440443101072934   -0.033364400964371786   -0.0007322629557487205
-0.011326510088587937   -0.027115538065074402   -0.0006005937669265634
-0.015007650962787574   -0.02701284578984111   -0.0006385411458289882
-0.013779778952190923   -0.03323764503600581   -0.0008316521192069987
-0.014955945039407245   -0.027005246369496437   -0.0005611477669055749
-0.010440443101072934   -0.033364400964371786   -0.0007322629557487205
-0.013686055808377506   -0.033239480936247415   -0.0007264840534466634
-0.014955945039407245   -0.027005246369496437   -0.0005611477669055749
-0.013779778952190923   -0.03323764503600581   -0.0008316521192069987
-0.010440443101072934   -0.033364400964371786   -0.0007322629557487205
-0.014955945039407245   -0.027005246369496437   -0.0005611477669055749
-0.01134973300429776   -0.027093353318509098   -0.0005440463945301114
-0.011326510088587937   -0.027115538065074402   -0.0006005937669265634
-0.010440443101072934   -0.033364400964371786   -0.0007322629557487205
-0.014955945039407245   -0.027005246369496437   -0.0005611477669055749
-0.011326510088587937   -0.027115538065074402   -0.0006005937669265634
-0.013779778952190923   -0.03323764503600581   -0.0008316521192069987
0.0029198199632943945   -0.02737620061526701   -0.00019587362365636377
0.003025595653553061   -0.020700751973238743   -3.1559400612953097e-05
-0.0007677362730044614   -0.02737589363209503   -0.0003598866922283212
0.002910005628979582   -0.027286099005663263   -0.00022240046783011713
0.003025595653553061   -0.020700751973238743   -3.1559400612953097e-05
-0.0008748219188509516   -0.02066687455125159   -0.00017880332304523832
-0.0007677362730044614   -0.02737589363209503   -0.0003598866922283212
-0.0009197786378317824   -0.0205921197286059   -0.00016557539503464757
0.002910005628979582   -0.027286099005663263   -0.00022240046783011713
-0.0008003698772636714   -0.02729770712002816   -0.00036256895575328496
-0.0009197786378317824   -0.0205921197286059   -0.00016557539503464757
-0.0007677362730044614   -0.02737589363209503   -0.0003598866922283212
0.002910005628979582   -0.027286099005663263   -0.00022240046783011713
-0.0009197786378317824   -0.0205921197286059   -0.00016557539503464757
0.002978342199499626   -0.020614878632206773   -2.9368208178479464e-05
0.003025595653553061   -0.020700751973238743   -3.1559400612953097e-05
0.002910005628979582   -0.027286099005663263   -0.00022240046783011713
-0.0009197786378317824   -0.0205921197286059   -0.00016557539503464757
0.003025595653553061   -0.020700751973238743   -3.1559400612953097e-05
-0.0007677362730044614   -0.02737589363209503   -0.0003598866922283212
0.002910005628979582   -0.027286099005663263   -0.00022240046783011713
0.002978342199499626   -0.020614878632206773   -2.9368208178479464e-05
-0.0008003698772636714   -0.02729770712002816   -0.00036256895575328496
0.0028841718461477795   -0.027213939471622796   -0.00024229864791682848
0.002978342199499626   -0.020614878632206773   -2.9368208178479464e-05
-0.0009197786378317824   -0.0205921197286059   -0.00016557539503464757
-0.0008003698772636714   -0.02729770712002816   -0.00036256895575328496
-0.0009712832232966184   -0.02052174346360528   -0.0001485864228914186
0.0028841718461477795   -0.027213939471622796   -0.00024229864791682848
-0.0008366381931578503   -0.027230660848498192   -0.0003611156587264734
-0.0009712832232966184   -0.02052174346360528   -0.0001485864228914186
-0.0008003698772636714   -0.02729770712002816   -0.00036256895575328496
0.0028841718461477795   -0.027213939471622796   -0.00024229864791682848
-0.0009712832232966184   -0.02052174346360528   -0.0001485864228914186
0.0029199860984661513   -0.020538415995058745   -1.949968560831921e-05
0.002978342199499626   -0.020614878632206773   -2.9368208178479464e-05
0.0028841718461477795   -0.027213939471622796   -0.00024229864791682848
-0.0009712832232966184   -0.02052174346360528   -0.0001485864228914186
0.002978342199499626   -0.020614878632206773   -2.9368208178479464e-05
-0.0008003698772636714   -0.02729770712002816   -0.00036256895575328496
0.0028841718461477795   -0.027213939471622796   -0.00024229864791682848
0.0029199860984661513   -0.020538415995058745   -1.949968560831921e-05
-0.0008366381931578503   -0.027230660848498192   -0.0003611156587264734
0.0028479829700856344   -0.027147804599245734   -0.00025603120761864595
0.0029199860984661513   -0.020538415995058745   -1.949968560831921e-05
-0.0009712832232966184   -0.02052174346360528   -0.0001485864228914186
-0.0008366381931578503   -0.027230660848498192   -0.0003611156587264734
-0.001029178906100135   -0.02045477341309788   -0.00012689507854609503
0.0028479829700856344   -0.027147804599245734   -0.00025603120761864595
-0.0008817775368594684   -0.02717299774732633   -0.0003553637621396135
-0.001029178906100135   -0.02045477341309788   -0.00012689507854609503
-0.0008366381931578503   -0.027230660848498192   -0.0003611156587264734
0.0028479829700856344   -0.027147804599245734   -0.00025603120761864595
-0.001029178906100135   -0.02045477341309788   -0.00012689507854609503
0.002842968456782353   -0.020458569888053633   -2.298910164543575e-06
0.0029199860984661513   -0.020538415995058745   -1.949968560831921e-05
0.0028479829700856344   -0.027147804599245734   -0.00025603120761864595
-0.001029178906100135   -0.02045477341309788   -0.00012689507854609503
0.0029199860984661513   -0.020538415995058745   -1.949968560831921e-05
-0.0008366381931578503   -0.027230660848498192   -0.0003611156587264734
-0.0007677362730044614   -0.02737589363209503   -0.0003598866922283212
-0.0008748219188509516   -0.02066687455125159   -0.00017880332304523832
-0.0042854029006084765   -0.027342658295051777   -0.0004948908886316356
-0.0008003698772636714   -0.02729770712002816   -0.00036256895575328496
-0.0008748219188509516   -0.02066687455125159   -0.00017880332304523832
-0.0045705441577820975   -0.020626951069252542   -0.0003030411861144149
-0.0042854029006084765   -0.027342658295051777   -0.0004948908886316356
-0.004616518386091733   -0.02056459445317799   -0.00028248880514613234
-0.0008003698772636714   -0.02729770712002816   -0.00036256895575328496
-0.0043220557243041436   -0.02727790390638827   -0.0004805265119924915
-0.004616518386091733   -0.02056459445317799   -0.00028248880514613234
-0.0042854029006084765   -0.027342658295051777   -0.0004948908886316356
-0.0008003698772636714   -0.02729770712002816   -0.00036256895575328496
-0.004616518386091733   -0.02056459445317799   -0.00028248880514613234
-0.0009197786378317824   -0.0205921197286059   -0.00016557539503464757
-0.0008748219188509516   -0.02066687455125159   -0.00017880332304523832
-0.0008003698772636714   -0.02729770712002816   -0.00036256895575328496
-0.004616518386091733   -0.02056459445317799   -0.00028248880514613234
-0.0008748219188509516   -0.02066687455125159   -0.00017880332304523832
-0.0042854029006084765   -0.027342658295051777   -0.0004948908886316356
-0.0008003698772636714   -0.02729770712002816   -0.00036256895575328496
-0.0009197786378317824   -0.0205921197286059   -0.00016557539503464757
-0.0043220557243041436   -0.02727790390638827   -0.0004805265119924915
-0.0008366381931578503   -0.027230660848498192   -0.0003611156587264734
-0.0009197786378317824   -0.0205921197286059   -0.00016557539503464757
-0.004616518386091733   -0.02056459445317799   -0.00028248880514613234
-0.0043220557243041436   -0.02727790390638827   -0.0004805265119924915
-0.00466353543294904   -0.020505632558435988   -0.00025834636136184844
-0.0008366381931578503   -0.027230660848498192   -0.0003611156587264734
-0.004359454273571227   -0.027222217562734678   -0.0004618511437600431
-0.00466353543294904   -0.020505632558435988   -0.00025834636136184844
-0.0043220557243041436   -0.02727790390638827   -0.0004805265119924915
-0.0008366381931578503   -0.027230660848498192   -0.0003611156587264734
-0.00466353543294904   -0.020505632558435988   -0.00025834636136184844
-0.0009712832232966184   -0.02052174346360528   -0.0001485864228914186
-0.0009197786378317824   -0.0205921197286059   -0.00016557539503464757
-0.0008366381931578503   -0.027230660848498192   -0.0003611156587264734
-0.00466353543294904   -0.020505632558435988   -0.00025834636136184844
-0.0009197786378317824   -0.0205921197286059   -0.00016557539503464757
-0.0043220557243041436   -0.02727790390638827   -0.0004805265119924915
-0.0008366381931578503   -0.027230660848498192   -0.0003611156587264734
-0.0009712832232966184   -0.02052174346360528   -0.0001485864228914186
-0.004359454273571227   -0.027222217562734678   -0.0004618511437600431
-0.0008817775368594684   -0.02717299774732633   -0.0003553637621396135
-0.0009712832232966184   -0.02052174346360528   -0.0001485864228914186
-0.00466353543294904   -0.020505632558435988   -0.00025834636136184844
-0.004359454273571227   -0.027222217562734678   -0.0004618511437600431
-0.004713562878230851   -0.020450996438009714   -0.0002305796011195755
-0.0008817775368594684   -0.02717299774732633   -0.0003553637621396135
-0.0044000359571504995   -0.027176134336632636   -0.0004390705359804964
-0.004713562878230851   -0.020450996438009714   -0.0002305796011195755
-0.004359454273571227   -0.027222217562734678   -0.0004618511437600431
-0.0008817775368594684   -0.02717299774732633   -0.0003553637621396135
-0.004713562878230851   -0.020450996438009714   -0.0002305796011195755
-0.001029178906100135   -0.02045477341309788   -0.00012689507854609503
-0.0009712832232966184   -0.02052174346360528   -0.0001485864228914186
-0.0008817775368594684   -0.02717299774732633   -0.0003553637621396135
-0.004713562878230851   -0.020450996438009714   -0.0002305796011195755
-0.0009712832232966184   -0.02052174346360528   -0.0001485864228914186
-0.004359454273571227   -0.027222217562734678   -0.0004618511437600431
-0.0042854029006084765   -0.027342658295051777   -0.0004948908886316356
-0.0045705441577820975   -0.020626951069252542   -0.0003030411861144149
-0.007743610591618099   -0.027280311600728666   -0.0006085861343626373
-0.0043220557243041436   -0.02727790390638827   -0.0004805265119924915
-0.0045705441577820975   -0.020626951069252542   -0.0003030411861144149
-0.008205914921815903   -0.020578874446530195   -0.00040832742793912727
-0.007743610591618099   -0.027280311600728666   -0.0006085861343626373
-0.00825160067430844   -0.020527983181863878   -0.00038047315335350745
-0.0043220557243041436   -0.02727790390638827   -0.0004805265119924915
-0.0077813888083985185   -0.027227916405639794   -0.0005772167007071807
-0.00825160067430844   -0.020527983181863878   -0.00038047315335350745
-0.007743610591618099   -0.027280311600728666   -0.0006085861343626373
-0.0043220557243041436   -0.02727790390638827   -0.0004805265119924915
-0.00825160067430844   -0.020527983181863878   -0.00038047315335350745
-0.004616518386091733   -0.02056459445317799   -0.00028248880514613234
-0.0045705441577820975   -0.020626951069252542   -0.0003030411861144149
-0.0043220557243041436   -0.02727790390638827   -0.0004805265119924915
-0.00825160067430844   -0.020527983181863878   -0.00038047315335350745
-0.0045705441577820975   -0.020626951069252542   -0.0003030411861144149
-0.007743610591618099   -0.027280311600728666   -0.0006085861343626373
-0.0043220557243041436   -0.02727790390638827   -0.0004805265119924915
-0.004616518386091733   -0.02056459445317799   -0.00028248880514613234
-0.0077813888083985185   -0.027227916405639794   -0.0005772167007071807
-0.004359454273571227   -0.027222217562734678   -0.0004618511437600431
-0.004616518386091733   -0.02056459445317799   -0.00028248880514613234
-0.00825160067430844   -0.020527983181863878   -0.00038047315335350745
-0.0077813888083985185   -0.027227916405639794   -0.0005772167007071807
-0.008294317986527671   -0.02048067156013119   -0.0003491512875949912
-0.004359454273571227   -0.027222217562734678   -0.0004618511437600431
-0.007815639796050631   -0.02718452525727797   -0.0005416379030321253
-0.008294317986527671   -0.02048067156013119   -0.0003491512875949912
-0.0077813888083985185   -0.027227916405639794   -0.0005772167007071807
-0.004359454273571227   -0.027222217562734678   -0.0004618511437600431
-0.008294317986527671   -0.02048067156013119   -0.0003491512875949912
-0.00466353543294904   -0.020505632558435988   -0.00025834636136184844
-0.004616518386091733   -0.02056459445317799   -0.00028248880514613234
-0.004359454273571227   -0.027222217562734678   -0.0004618511437600431
-0.008294317986527671   -0.02048067156013119   -0.0003491512875949912
-0.004616518386091733   -0.02056459445317799   -0.00028248880514613234
-0.0077813888083985185   -0.027227916405639794   -0.0005772167007071807
-0.004359454273571227   -0.027222217562734678   -0.0004618511437600431
-0.00466353543294904   -0.020505632558435988   -0.00025834636136184844
-0.007815639796050631   -0.02718452525727797   -0.0005416379030321253
-0.0044000359571504995   -0.027176134336632636   -0.0004390705359804964
-0.00466353543294904   -0.020505632558435988   -0.00025834636136184844
-0.008294317986527671   -0.02048067156013119   -0.0003491512875949912
-0.007815639796050631   -0.02718452525727797   -0.0005416379030321253
-0.008337188511708123   -0.020437067903466288   -0.0003145322311210815
-0.0044000359571504995   -0.027176134336632636   -0.0004390705359804964
-0.007850218366995131   -0.02715020872429743   -0.0005020088684927527
-0.008337188511708123   -0.020437067903466288   -0.0003145322311210815
-0.007815639796050631   -0.02718452525727797   -0.0005416379030321253
-0.0044000359571504995   -0.027176134336632636   -0.0004390705359804964
-0.008337188511708123   -0.020437067903466288   -0.0003145322311210815
-0.004713562878230851   -0.020450996438009714   -0.0002305796011195755
-0.00466353543294904   -0.020505632558435988   -0.00025834636136184844
-0.0044000359571504995   -0.027176134336632636   -0.0004390705359804964
-0.008337188511708123   -0.020437067903466288   -0.0003145322311210815
-0.00466353543294904   -0.020505632558435988   -0.00025834636136184844
-0.007815639796050631   -0.02718452525727797   -0.0005416379030321253
-0.007743610591618099   -0.027280311600728666   -0.0006085861343626373
-0.008205914921815903   -0.020578874446530195   -0.00040832742793912727
-0.011270402109196203   -0.027187534059011097   -0.0007012511098366214
-0.0077813888083985185   -0.027227916405639794   -0.0005772167007071807
-0.008205914921815903   -0.020578874446530195   -0.00040832742793912727
-0.011907086444521518   -0.020513749533245147   -0.0004937588386026165
-0.011270402109196203   -0.027187534059011097   -0.0007012511098366214
-0.011950818157170156   -0.02047491786053546   -0.00045869043532379555
-0.0077813888083985185   -0.027227916405639794   -0.0005772167007071807
-0.011305438916104077   -0.027147591983155982   -0.0006527446535603398
-0.011950818157170156   -0.02047491786053546   -0.00045869043532379555
-0.011270402109196203   -0.027187534059011097   -0.0007012511098366214
-0.0077813888083985185   -0.027227916405639794   -0.0005772167007071807
-0.011950818157170156   -0.02047491786053546   -0.00045869043532379555
-0.00825160067430844   -0.020527983181863878   -0.00038047315335350745
-0.008205914921815903   -0.020578874446530195   -0.00040832742793912727
-0.0077813888083985185   -0.027227916405639794   -0.0005772167007071807
-0.011950818157170156   -0.02047491786053546   -0.00045869043532379555
-0.008205914921815903   -0.020578874446530195   -0.00040832742793912727
-0.011270402109196203   -0.027187534059011097   -0.0007012511098366214
-0.0077813888083985185   -0.027227916405639794   -0.0005772167007071807
-0.00825160067430844   -0.020527983181863878   -0.00038047315335350745
-0.011305438916104077   -0.027147591983155982   -0.0006527446535603398
-0.007815639796050631   -0.02718452525727797   -0.0005416379030321253
-0.00825160067430844   -0.020527983181863878   -0.00038047315335350745
-0.011950818157170156   -0.02047491786053546   -0.00045869043532379555
-0.011305438916104077   -0.027147591983155982   -0.0006527446535603398
-0.01198386729122433   -0.0204383466730744   -0.00042072033472079554
-0.007815639796050631   -0.02718452525727797   -0.0005416379030321253
-0.011326510088587937   -0.027115538065074402   -0.0006005937669265634
-0.01198386729122433   -0.0204383466730744   -0.00042072033472079554
-0.011305438916104077   -0.027147591983155982   -0.0006527446535603398
-0.007815639796050631   -0.02718452525727797   -0.0005416379030321253
-0.01198386729122433   -0.0204383466730744   -0.00042072033472079554
-0.008294317986527671   -0.02048067156013119   -0.0003491512875949912
-0.00825160067430844   -0.020527983181863878   -0.00038047315335350745
-0.007815639796050631   -0.02718452525727797   -0.0005416379030321253
-0.01198386729122433   -0.0204383466730744   -0.00042072033472079554
-0.00825160067430844   -0.020527983181863878   -0.00038047315335350745
-0.011305438916104077   -0.027147591983155982   -0.0006527446535603398
-0.007815639796050631   -0.02718452525727797   -0.0005416379030321253
-0.008294317986527671   -0.02048067156013119   -0.0003491512875949912
-0.011326510088587937   -0.027115538065074402   -0.0006005937669265634
-0.007850218366995131   -0.02715020872429743   -0.0005020088684927527
-0.008294317986527671   -0.02048067156013119   -0.0003491512875949912
-0.01198386729122433   -0.0204383466730744   -0.00042072033472079554
-0.011326510088587937   -0.027115538065074402   -0.0006005937669265634
-0.012016683766820076   -0.020405696971943707   -0.00037909707196106
-0.007850218366995131   -0.02715020872429743   -0.0005020088684927527
-0.01134973300429776   -0.027093353318509098   -0.0005440463945301114
-0.012016683766820076   -0.020405696971943707   -0.00037909707196106
-0.011326510088587937   -0.027115538065074402   -0.0006005937669265634
-0.007850218366995131   -0.02715020872429743   -0.0005020088684927527
-0.012016683766820076   -0.020405696971943707   -0.00037909707196106
-0.008337188511708123   -0.020437067903466288   -0.0003145322311210815
-0.008294317986527671   -0.02048067156013119   -0.0003491512875949912
-0.007850218366995131   -0.02715020872429743   -0.0005020088684927527
-0.012016683766820076   -0.020405696971943707   -0.00037909707196106
-0.008294317986527671   -0.02048067156013119   -0.0003491512875949912
-0.011326510088587937   -0.027115538065074402   -0.0006005937669265634
-0.011270402109196203   -0.027187534059011097   -0.0007012511098366214
-0.011907086444521518   -0.020513749533245147   -0.0004937588386026165
-0.015056271473255204   -0.027073139128076504   -0.0007747880215168597
-0.011305438916104077   -0.027147591983155982   -0.0006527446535603398
-0.011907086444521518   -0.020513749533245147   -0.0004937588386026165
-0.0158308324751888   -0.020436580740633738   -0.0005568360473396175
-0.015056271473255204   -0.027073139128076504   -0.0007747880215168597
-0.015836916346183637   -0.020405770464882154   -0.0005179025202971734
-0.011305438916104077   -0.027147591983155982   -0.0006527446535603398
-0.015029487846052153   -0.0270395558143658   -0.0007100085139620788
-0.015836916346183637   -0.020405770464882154   -0.0005179025202971734
-0.015056271473255204   -0.027073139128076504   -0.0007747880215168597
-0.011305438916104077   -0.027147591983155982   -0.0006527446535603398
-0.015836916346183637   -0.020405770464882154   -0.0005179025202971734
-0.011950818157170156   -0.02047491786053546   -0.00045869043532379555
-0.011907086444521518   -0.020513749533245147   -0.0004937588386026165
-0.011305438916104077   -0.027147591983155982   -0.0006527446535603398
-0.015836916346183637   -0.020405770464882154   -0.0005179025202971734
-0.011907086444521518   -0.020513749533245147   -0.0004937588386026165
-0.015056271473255204   -0.027073139128076504   -0.0007747880215168597
-0.011305438916104077   -0.027147591983155982   -0.0006527446535603398
-0.011950818157170156   -0.02047491786053546   -0.00045869043532379555
-0.015029487846052153   -0.0270395558143658   -0.0007100085139620788
-0.011326510088587937   -0.027115538065074402   -0.0006005937669265634
-0.011950818157170156   -0.02047491786053546   -0.00045869043532379555
-0.015836916346183637   -0.020405770464882154   -0.0005179025202971734
-0.015029487846052153   -0.0270395558143658   -0.0007100085139620788
-0.01584326891629418   -0.020374718439206962   -0.0004731337742968885
-0.011326510088587937   -0.027115538065074402   -0.0006005937669265634
-0.015007650962787574   -0.02701284578984111   -0.0006385411458289882
-0.01584326891629418   -0.020374718439206962   -0.0004731337742968885
-0.015029487846052153   -0.0270395558143658   -0.0007100085139620788
-0.011326510088587937   -0.027115538065074402   -0.0006005937669265634
-0.01584326891629418   -0.020374718439206962   -0.0004731337742968885
-0.01198386729122433   -0.0204383466730744   -0.00042072033472079554
-0.011950818157170156   -0.02047491786053546   -0.00045869043532379555
-0.011326510088587937   -0.027115538065074402   -0.0006005937669265634
-0.01584326891629418   -0.020374718439206962   -0.0004731337742968885
-0.011950818157170156   -0.02047491786053546   -0.00045869043532379555
-0.015029487846052153   -0.0270395558143658   -0.0007100085139620788
-0.011326510088587937   -0.027115538065074402   -0.0006005937669265634
-0.01198386729122433   -0.0204383466730744   -0.00042072033472079554
-0.015007650962787574   -0.02701284578984111   -0.0006385411458289882
-0.01134973300429776   -0.027093353318509098   -0.0005440463945301114
-0.01198386729122433   -0.0204383466730744   -0.00042072033472079554
-0.01584326891629418   -0.020374718439206962   -0.0004731337742968885
-0.015007650962787574   -0.02701284578984111   -0.0006385411458289882
-0.015827394229292985   -0.020354793056837055   -0.0004232180016744431
-0.01134973300429776   -0.027093353318509098   -0.0005440463945301114
-0.014955945039407245   -0.027005246369496437   -0.0005611477669055749
-0.015827394229292985   -0.020354793056837055   -0.0004232180016744431
-0.015007650962787574   -0.02701284578984111   -0.0006385411458289882
-0.01134973300429776   -0.027093353318509098   -0.0005440463945301114
-0.015827394229292985   -0.020354793056837055   -0.0004232180016744431
-0.012016683766820076   -0.020405696971943707   -0.00037909707196106
-0.01198386729122433   -0.0204383466730744   -0.00042072033472079554
-0.01134973300429776   -0.027093353318509098   -0.0005440463945301114
-0.015827394229292985   -0.020354793056837055   -0.0004232180016744431
-0.01198386729122433   -0.0204383466730744   -0.00042072033472079554
-0.015007650962787574   -0.02701284578984111   -0.0006385411458289882
0.003025595653553061   -0.020700751973238743   -3.1559400612953097e-05
0.0027170737955230667   -0.013820520962430841   8.191912642457568e-05
-0.0008748219188509516   -0.02066687455125159   -0.00017880332304523832
0.002978342199499626   -0.020614878632206773   -2.9368208178479464e-05
0.0027170737955230667   -0.013820520962430841   8.191912642457568e-05
-0.00121595726309914   -0.013756125661143733   -3.462320904415871e-05
-0.0008748219188509516   -0.02066687455125159   -0.00017880332304523832
-0.0012698753926925252   -0.01368857108774828   -6.6948663267624915e-06
0.002978342199499626   -0.020614878632206773   -2.9368208178479464e-05
-0.0009197786378317824   -0.0205921197286059   -0.00016557539503464757
-0.0012698753926925252   -0.01368857108774828   -6.6948663267624915e-06
-0.0008748219188509516   -0.02066687455125159   -0.00017880332304523832
0.002978342199499626   -0.020614878632206773   -2.9368208178479464e-05
-0.0012698753926925252   -0.01368857108774828   -6.6948663267624915e-06
0.0026324769979041915   -0.013738799603631795   0.00011640070423285404
0.0027170737955230667   -0.013820520962430841   8.191912642457568e-05
0.002978342199499626   -0.020614878632206773   -2.9368208178479464e-05
-0.0012698753926925252   -0.01368857108774828   -6.6948663267624915e-06
0.0027170737955230667   -0.013820520962430841   8.191912642457568e-05
-0.0008748219188509516   -0.02066687455125159   -0.00017880332304523832
0.002978342199499626   -0.020614878632206773   -2.9368208178479464e-05
0.0026324769979041915   -0.013738799603631795   0.00011640070423285404
-0.0009197786378317824   -0.0205921197286059   -0.00016557539503464757
0.0029199860984661513   -0.020538415995058745   -1.949968560831921e-05
0.0026324769979041915   -0.013738799603631795   0.00011640070423285404
-0.0012698753926925252   -0.01368857108774828   -6.6948663267624915e-06
-0.0009197786378317824   -0.0205921197286059   -0.00016557539503464757
-0.001333003773158882   -0.013617343605522915   2.624485903250466e-05
0.0029199860984661513   -0.020538415995058745   -1.949968560831921e-05
-0.0009712832232966184   -0.02052174346360528   -0.0001485864228914186
-0.001333003773158882   -0.013617343605522915   2.624485903250466e-05
-0.0009197786378317824   -0.0205921197286059   -0.00016557539503464757
0.0029199860984661513   -0.020538415995058745   -1.949968560831921e-05
-0.001333003773158882   -0.013617343605522915   2.624485903250466e-05
0.0025377576108115306   -0.013657810837663866   0.0001661806739016988
0.0026324769979041915   -0.013738799603631795   0.00011640070423285404
0.0029199860984661513   -0.020538415995058745   -1.949968560831921e-05
-0.001333003773158882   -0.013617343605522915   2.624485903250466e-05
0.0026324769979041915   -0.013738799603631795   0.00011640070423285404
-0.0009197786378317824   -0.0205921197286059   -0.00016557539503464757
0.0029199860984661513   -0.020538415995058745   -1.949968560831921e-05
0.0025377576108115306   -0.013657810837663866   0.0001661806739016988
-0.0009712832232966184   -0.02052174346360528   -0.0001485864228914186
0.002842968456782353   -0.020458569888053633   -2.298910164543575e-06
0.0025377576108115306   -0.013657810837663866   0.0001661806739016988
-0.001333003773158882   -0.013617343605522915   2.624485903250466e-05
-0.0009712832232966184   -0.02052174346360528   -0.0001485864228914186
-0.0013983658128943583   -0.013541778918193683   6.41376355025664e-05
0.002842968456782353   -0.020458569888053633   -2.298910164543575e-06
-0.001029178906100135   -0.02045477341309788   -0.00012689507854609503
-0.0013983658128943583   -0.013541778918193683   6.41376355025664e-05
-0.0009712832232966184   -0.02052174346360528   -0.0001485864228914186
0.002842968456782353   -0.020458569888053633   -2.298910164543575e-06
-0.0013983658128943583   -0.013541778918193683   6.41376355025664e-05
0.0024219956259727616   -0.013558255187404136   0.00022100090150905364
0.0025377576108115306   -0.013657810837663866   0.0001661806739016988
0.002842968456782353   -0.020458569888053633   -2.298910164543575e-06
-0.0013983658128943583   -0.013541778918193683   6.41376355025664e-05
0.0025377576108115306   -0.013657810837663866   0.0001661806739016988
-0.0009712832232966184   -0.02052174346360528   -0.0001485864228914186
-0.0008748219188509516   -0.02066687455125159   -0.00017880332304523832
-0.00121595726309914   -0.013756125661143733   -3.462320904415871e-05
-0.0045705441577820975   -0.020626951069252542   -0.0003030411861144149
-0.0009197786378317824   -0.0205921197286059   -0.00016557539503464757
-0.00121595726309914   -0.013756125661143733   -3.462320904415871e-05
-0.004918619262716364   -0.01373943678608601   -0.00014674815462475916
-0.0045705441577820975   -0.020626951069252542   -0.0003030411861144149
-0.004967464638911105   -0.013680634760892069   -0.0001206272270880295
-0.0009197786378317824   -0.0205921197286059   -0.00016557539503464757
-0.004616518386091733   -0.02056459445317799   -0.00028248880514613234
-0.004967464638911105   -0.013680634760892069   -0.0001206272270880295
-0.0045705441577820975   -0.020626951069252542   -0.0003030411861144149
-0.0009197786378317824   -0.0205921197286059   -0.00016557539503464757
-0.004967464638911105   -0.013680634760892069   -0.0001206272270880295
-0.0012698753926925252   -0.01368857108774828   -6.6948663267624915e-06
-0.00121595726309914   -0.013756125661143733   -3.462320904415871e-05
-0.0009197786378317824   -0.0205921197286059   -0.00016557539503464757
-0.004967464638911105   -0.013680634760892069   -0.0001206272270880295
-0.00121595726309914   -0.013756125661143733   -3.462320904415871e-05
-0.0045705441577820975   -0.020626951069252542   -0.0003030411861144149
-0.0009197786378317824   -0.0205921197286059   -0.00016557539503464757
-0.0012698753926925252   -0.01368857108774828   -6.6948663267624915e-06
-0.004616518386091733   -0.02056459445317799   -0.00028248880514613234
-0.0009712832232966184   -0.02052174346360528   -0.0001485864228914186
-0.0012698753926925252   -0.01368857108774828   -6.6948663267624915e-06
-0.004967464638911105   -0.013680634760892069   -0.0001206272270880295
-0.004616518386091733   -0.02056459445317799   -0.00028248880514613234
-0.005018019461763609   -0.013619497004523532   -9.188898938045954e-05
-0.0009712832232966184   -0.02052174346360528   -0.0001485864228914186
-0.00466353543294904   -0.020505632558435988   -0.00025834636136184844
-0.005018019461763609   -0.013619497004523532   -9.188898938045954e-05
-0.004616518386091733   -0.02056459445317799   -0.00028248880514613234
-0.0009712832232966184   -0.02052174346360528   -0.0001485864228914186
-0.005018019461763609   -0.013619497004523532   -9.188898938045954e-05
-0.001333003773158882   -0.013617343605522915   2.624485903250466e-05
-0.0012698753926925252   -0.01368857108774828   -6.6948663267624915e-06
-0.0009712832232966184   -0.02052174346360528   -0.0001485864228914186
-0.005018019461763609   -0.013619497004523532   -9.188898938045954e-05
-0.0012698753926925252   -0.01368857108774828   -6.6948663267624915e-06
-0.004616518386091733   -0.02056459445317799   -0.00028248880514613234
-0.0009712832232966184   -0.02052174346360528   -0.0001485864228914186
-0.001333003773158882   -0.013617343605522915   2.624485903250466e-05
-0.00466353543294904   -0.020505632558435988   -0.00025834636136184844
-0.001029178906100135   -0.02045477341309788   -0.00012689507854609503
-0.001333003773158882   -0.013617343605522915   2.624485903250466e-05
-0.005018019461763609   -0.013619497004523532   -9.188898938045954e-05
-0.00466353543294904   -0.020505632558435988   -0.00025834636136184844
-0.005070677890522038   -0.013557154469847428   -6.00162813265766e-05
-0.001029178906100135   -0.02045477341309788   -0.00012689507854609503
-0.004713562878230851   -0.020450996438009714   -0.0002305796011195755
-0.005070677890522038   -0.013557154469847428   -6.00162813265766e-05
-0.00466353543294904   -0.020505632558435988   -0.00025834636136184844
-0.001029178906100135   -0.02045477341309788   -0.00012689507854609503
-0.005070677890522038   -0.013557154469847428   -6.00162813265766e-05
-0.0013983658128943583   -0.013541778918193683   6.41376355025664e-05
-0.001333003773158882   -0.013617343605522915   2.624485903250466e-05
-0.001029178906100135   -0.02045477341309788   -0.00012689507854609503
-0.005070677890522038   -0.013557154469847428   -6.00162813265766e-05
-0.001333003773158882   -0.013617343605522915   2.624485903250466e-05
-0.00466353543294904   -0.020505632558435988   -0.00025834636136184844
-0.0045705441577820975   -0.020626951069252542   -0.0003030411861144149
-0.004918619262716364   -0.01373943678608601   -0.00014674815462475916
-0.008205914921815903   -0.020578874446530195   -0.00040832742793912727
-0.004616518386091733   -0.02056459445317799   -0.00028248880514613234
-0.004918619262716364   -0.01373943678608601   -0.00014674815462475916
-0.008582608646328363   -0.013734763903812463   -0.0002479673962644836
-0.008205914921815903   -0.020578874446530195   -0.00040832742793912727
-0.008629357456021263   -0.013683318382026785   -0.0002229324968065864
-0.004616518386091733   -0.02056459445317799   -0.00028248880514613234
-0.00825160067430844   -0.020527983181863878   -0.00038047315335350745
-0.008629357456021263   -0.013683318382026785   -0.0002229324968065864
-0.008205914921815903   -0.020578874446530195   -0.00040832742793912727
-0.004616518386091733   -0.02056459445317799   -0.00028248880514613234
-0.008629357456021263   -0.013683318382026785   -0.0002229324968065864
-0.004967464638911105   -0.013680634760892069   -0.0001206272270880295
-0.004918619262716364   -0.01373943678608601   -0.00014674815462475916
-0.004616518386091733   -0.02056459445317799   -0.00028248880514613234
-0.008629357456021263   -0.013683318382026785   -0.0002229324968065864
-0.004918619262716364   -0.01373943678608601   -0.00014674815462475916
-0.008205914921815903   -0.020578874446530195   -0.00040832742793912727
-0.004616518386091733   -0.02056459445317799   -0.00028248880514613234
-0.004967464638911105   -0.013680634760892069   -0.0001206272270880295
-0.00825160067430844   -0.020527983181863878   -0.00038047315335350745
-0.00466353543294904   -0.020505632558435988   -0.00025834636136184844
-0.004967464638911105   -0.013680634760892069   -0.0001206272270880295
-0.008629357456021263   -0.013683318382026785   -0.0002229324968065864
-0.00825160067430844   -0.020527983181863878   -0.00038047315335350745
-0.008673893756054213   -0.01363098702754006   -0.00019560461989795913
-0.00466353543294904   -0.020505632558435988   -0.00025834636136184844
-0.008294317986527671   -0.02048067156013119   -0.0003491512875949912
-0.008673893756054213   -0.01363098702754006   -0.00019560461989795913
-0.00825160067430844   -0.020527983181863878   -0.00038047315335350745
-0.00466353543294904   -0.020505632558435988   -0.00025834636136184844
-0.008673893756054213   -0.01363098702754006   -0.00019560461989795913
-0.005018019461763609   -0.013619497004523532   -9.188898938045954e-05
-0.004967464638911105   -0.013680634760892069   -0.0001206272270880295
-0.00466353543294904   -0.020505632558435988   -0.00025834636136184844
-0.008673893756054213   -0.01363098702754006   -0.00019560461989795913
-0.004967464638911105   -0.013680634760892069   -0.0001206272270880295
-0.00825160067430844   -0.020527983181863878   -0.00038047315335350745
-0.00466353543294904   -0.020505632558435988   -0.00025834636136184844
-0.005018019461763609   -0.013619497004523532   -9.188898938045954e-05
-0.008294317986527671   -0.02048067156013119   -0.0003491512875949912
-0.004713562878230851   -0.020450996438009714   -0.0002305796011195755
-0.005018019461763609   -0.013619497004523532   -9.188898938045954e-05
-0.008673893756054213   -0.01363098702754006   -0.00019560461989795913
-0.008294317986527671   -0.02048067156013119   -0.0003491512875949912
-0.008717984944040079   -0.013577464387905495   -0.00016610970296970678
-0.004713562878230851   -0.020450996438009714   -0.0002305796011195755
-0.008337188511708123   -0.020437067903466288   -0.0003145322311210815
-0.008717984944040079   -0.013577464387905495   -0.00016610970296970678
-0.008294317986527671   -0.02048067156013119   -0.0003491512875949912
-0.004713562878230851   -0.020450996438009714   -0.0002305796011195755
-0.008717984944040079   -0.013577464387905495   -0.00016610970296970678
-0.005070677890522038   -0.013557154469847428   -6.00162813265766e-05
-0.005018019461763609   -0.013619497004523532   -9.188898938045954e-05
-0.004713562878230851   -0.020450996438009714   -0.0002305796011195755
-0.008717984944040079   -0.013577464387905495   -0.00016610970296970678
-0.005018019461763609   -0.013619497004523532   -9.188898938045954e-05
-0.008294317986527671   -0.02048067156013119   -0.0003491512875949912
-0.008205914921815903   -0.020578874446530195   -0.00040832742793912727
-0.008582608646328363   -0.013734763903812463   -0.0002479673962644836
-0.011907086444521518   -0.020513749533245147   -0.0004937588386026165
-0.00825160067430844   -0.020527983181863878   -0.00038047315335350745
-0.008582608646328363   -0.013734763903812463   -0.0002479673962644836
-0.01232432047814749   -0.01371331509373181   -0.0003327295146895185
-0.011907086444521518   -0.020513749533245147   -0.0004937588386026165
-0.012368885242821025   -0.013671574157479206   -0.00030892168277529933
-0.00825160067430844   -0.020527983181863878   -0.00038047315335350745
-0.011950818157170156   -0.02047491786053546   -0.00045869043532379555
-0.012368885242821025   -0.013671574157479206   -0.00030892168277529933
-0.011907086444521518   -0.020513749533245147   -0.0004937588386026165
-0.00825160067430844   -0.020527983181863878   -0.00038047315335350745
-0.012368885242821025   -0.013671574157479206   -0.00030892168277529933
-0.008629357456021263   -0.013683318382026785   -0.0002229324968065864
-0.008582608646328363   -0.013734763903812463   -0.0002479673962644836
-0.00825160067430844   -0.020527983181863878   -0.00038047315335350745
-0.012368885242821025   -0.013671574157479206   -0.00030892168277529933
-0.008582608646328363   -0.013734763903812463   -0.0002479673962644836
-0.011907086444521518   -0.020513749533245147   -0.0004937588386026165
-0.00825160067430844   -0.020527983181863878   -0.00038047315335350745
-0.008629357456021263   -0.013683318382026785   -0.0002229324968065864
-0.011950818157170156   -0.02047491786053546   -0.00045869043532379555
-0.008294317986527671   -0.02048067156013119   -0.0003491512875949912
-0.008629357456021263   -0.013683318382026785   -0.0002229324968065864
-0.012368885242821025   -0.013671574157479206   -0.00030892168277529933
-0.011950818157170156   -0.02047491786053546   -0.00045869043532379555
-0.01240658756348306   -0.013627559584029853   -0.00028347294652731383
-0.008294317986527671   -0.02048067156013119   -0.0003491512875949912
-0.01198386729122433   -0.0204383466730744   -0.00042072033472079554
-0.01240658756348306   -0.013627559584029853   -0.00028347294652731383
-0.011950818157170156   -0.02047491786053546   -0.00045869043532379555
-0.008294317986527671   -0.02048067156013119   -0.0003491512875949912
-0.01240658756348306   -0.013627559584029853   -0.00028347294652731383
-0.008673893756054213   -0.01363098702754006   -0.00019560461989795913
-0.008629357456021263   -0.013683318382026785   -0.0002229324968065864
-0.008294317986527671   -0.02048067156013119   -0.0003491512875949912
-0.01240658756348306   -0.013627559584029853   -0.00028347294652731383
-0.008629357456021263   -0.013683318382026785   -0.0002229324968065864
-0.011950818157170156   -0.02047491786053546   -0.00045869043532379555
-0.008294317986527671   -0.02048067156013119   -0.0003491512875949912
-0.008673893756054213   -0.01363098702754006   -0.00019560461989795913
-0.01198386729122433   -0.0204383466730744   -0.00042072033472079554
-0.008337188511708123   -0.020437067903466288   -0.0003145322311210815
-0.008673893756054213   -0.01363098702754006   -0.00019560461989795913
-0.01240658756348306   -0.013627559584029853   -0.00028347294652731383
-0.01198386729122433   -0.0204383466730744   -0.00042072033472079554
-0.012442218504537484   -0.013582425333210402   -0.000255680616364475
-0.008337188511708123   -0.020437067903466288   -0.0003145322311210815
-0.012016683766820076   -0.020405696971943707   -0.00037909707196106
-0.012442218504537484   -0.013582425333210402   -0.000255680616364475
-0.01198386729122433   -0.0204383466730744   -0.00042072033472079554
-0.008337188511708123   -0.020437067903466288   -0.0003145322311210815
-0.012442218504537484   -0.013582425333210402   -0.000255680616364475
-0.008717984944040079   -0.013577464387905495   -0.00016610970296970678
-0.008673893756054213   -0.01363098702754006   -0.00019560461989795913
-0.008337188511708123   -0.020437067903466288   -0.0003145322311210815
-0.012442218504537484   -0.013582425333210402   -0.000255680616364475
-0.008673893756054213   -0.01363098702754006   -0.00019560461989795913
-0.01198386729122433   -0.0204383466730744   -0.00042072033472079554
-0.011907086444521518   -0.020513749533245147   -0.0004937588386026165
-0.01232432047814749   -0.01371331509373181   -0.0003327295146895185
-0.0158308324751888   -0.020436580740633738   -0.0005568360473396175
-0.011950818157170156   -0.02047491786053546   -0.00045869043532379555
-0.01232432047814749   -0.01371331509373181   -0.0003327295146895185
-0.016245000665287238   -0.013677813927947697   -0.0003950207689508285
-0.0158308324751888   -0.020436580740633738   -0.0005568360473396175
-0.016272392316776546   -0.013642959858149692   -0.0003769797924020626
-0.011950818157170156   -0.02047491786053546   -0.00045869043532379555
-0.015836916346183637   -0.020405770464882154   -0.0005179025202971734
-0.016272392316776546   -0.013642959858149692   -0.0003769797924020626
-0.0158308324751888   -0.020436580740633738   -0.0005568360473396175
-0.011950818157170156   -0.02047491786053546   -0.00045869043532379555
-0.016272392316776546   -0.013642959858149692   -0.0003769797924020626
-0.012368885242821025   -0.013671574157479206   -0.00030892168277529933
-0.01232432047814749   -0.01371331509373181   -0.0003327295146895185
-0.011950818157170156   -0.02047491786053546   -0.00045869043532379555
-0.016272392316776546   -0.013642959858149692   -0.0003769797924020626
-0.01232432047814749   -0.01371331509373181   -0.0003327295146895185
-0.0158308324751888   -0.020436580740633738   -0.0005568360473396175
-0.011950818157170156   -0.02047491786053546   -0.00045869043532379555
-0.012368885242821025   -0.013671574157479206   -0.00030892168277529933
-0.015836916346183637   -0.020405770464882154   -0.0005179025202971734
-0.01198386729122433   -0.0204383466730744   -0.00042072033472079554
-0.012368885242821025   -0.013671574157479206   -0.00030892168277529933
-0.016272392316776546   -0.013642959858149692   -0.0003769797924020626
-0.015836916346183637   -0.020405770464882154   -0.0005179025202971734
-0.016297439030458095   -0.013603443671823895   -0.0003549390847639519
-0.01198386729122433   -0.0204383466730744   -0.00042072033472079554
-0.01584326891629418   -0.020374718439206962   -0.0004731337742968885
-0.016297439030458095   -0.013603443671823895   -0.0003549390847639519
-0.015836916346183637   -0.020405770464882154   -0.0005179025202971734
-0.01198386729122433   -0.0204383466730744   -0.00042072033472079554
-0.016297439030458095   -0.013603443671823895   -0.0003549390847639519
-0.01240658756348306   -0.013627559584029853   -0.00028347294652731383
-0.012368885242821025   -0.013671574157479206   -0.00030892168277529933
-0.01198386729122433   -0.0204383466730744   -0.00042072033472079554
-0.016297439030458095   -0.013603443671823895   -0.0003549390847639519
-0.012368885242821025   -0.013671574157479206   -0.00030892168277529933
-0.015836916346183637   -0.020405770464882154   -0.0005179025202971734
-0.01198386729122433   -0.0204383466730744   -0.00042072033472079554
-0.01240658756348306   -0.013627559584029853   -0.00028347294652731383
-0.01584326891629418   -0.020374718439206962   -0.0004731337742968885
-0.012016683766820076   -0.020405696971943707   -0.00037909707196106
-0.01240658756348306   -0.013627559584029853   -0.00028347294652731383
-0.016297439030458095   -0.013603443671823895   -0.0003549390847639519
-0.01584326891629418   -0.020374718439206962   -0.0004731337742968885
-0.016309234817587535   -0.013567412228476619   -0.00032988419406035726
-0.012016683766820076   -0.020405696971943707   -0.00037909707196106
-0.015827394229292985   -0.020354793056837055   -0.0004232180016744431
-0.016309234817587535   -0.013567412228476619   -0.00032988419406035726
-0.01584326891629418   -0.020374718439206962   -0.0004731337742968885
-0.012016683766820076   -0.020405696971943707   -0.00037909707196106
-0.016309234817587535   -0.013567412228476619   -0.00032988419406035726
-0.012442218504537484   -0.013582425333210402   -0.000255680616364475
-0.01240658756348306   -0.013627559584029853   -0.00028347294652731383
-0.012016683766820076   -0.020405696971943707   -0.00037909707196106
-0.016309234817587535   -0.013567412228476619   -0.00032988419406035726
-0.01240658756348306   -0.013627559584029853   -0.00028347294652731383
-0.01584326891629418   -0.020374718439206962   -0.0004731337742968885
0.0027170737955230667   -0.013820520962430841   8.191912642457568e-05
0.0019068940701643601   -0.006946649301130815   8.839155782788112e-05
-0.00121595726309914   -0.013756125661143733   -3.462320904415871e-05
0.0026324769979041915   -0.013738799603631795   0.00011640070423285404
0.0019068940701643601   -0.006946649301130815   8.839155782788112e-05
-0.0017645621101031012   -0.006857602912638941   4.664031643153293e-05
-0.00121595726309914   -0.013756125661143733   -3.462320904415871e-05
-0.0018183310660927628   -0.0068240107052286   8.565072808578518e-05
0.0026324769979041915   -0.013738799603631795   0.00011640070423285404
-0.0012698753926925252   -0.01368857108774828   -6.6948663267624915e-06
-0.0018183310660927628   -0.0068240107052286   8.565072808578518e-05
-0.00121595726309914   -0.013756125661143733   -3.462320904415871e-05
0.0026324769979041915   -0.013738799603631795   0.00011640070423285404
-0.0018183310660927628   -0.0068240107052286   8.565072808578518e-05
0.001739150947728708   -0.006859604885226042   0.0001847598555418656
0.0019068940701643601   -0.006946649301130815   8.839155782788112e-05
0.0026324769979041915   -0.013738799603631795   0.00011640070423285404
-0.0018183310660927628   -0.0068240107052286   8.565072808578518e-05
0.0019068940701643601   -0.006946649301130815   8.839155782788112e-05
-0.00121595726309914   -0.013756125661143733   -3.462320904415871e-05
0.0026324769979041915   -0.013738799603631795   0.00011640070423285404
0.001739150947728708   -0.006859604885226042   0.0001847598555418656
-0.0012698753926925252   -0.01368857108774828   -6.6948663267624915e-06
0.0025377576108115306   -0.013657810837663866   0.0001661806739016988
0.001739150947728708   -0.006859604885226042   0.0001847598555418656
-0.0018183310660927628   -0.0068240107052286   8.565072808578518e-05
-0.0012698753926925252   -0.01368857108774828   -6.6948663267624915e-06
-0.0018892279915441674   -0.006763403863656945   0.00013308701683894598
0.0025377576108115306   -0.013657810837663866   0.0001661806739016988
-0.001333003773158882   -0.013617343605522915   2.624485903250466e-05
-0.0018892279915441674   -0.006763403863656945   0.00013308701683894598
-0.0012698753926925252   -0.01368857108774828   -6.6948663267624915e-06
0.0025377576108115306   -0.013657810837663866   0.0001661806739016988
-0.0018892279915441674   -0.006763403863656945   0.00013308701683894598
0.001641027379953194   -0.006788775444605528   0.00025654740855728575
0.001739150947728708   -0.006859604885226042   0.0001847598555418656
0.0025377576108115306   -0.013657810837663866   0.0001661806739016988
-0.0018892279915441674   -0.006763403863656945   0.00013308701683894598
0.001739150947728708   -0.006859604885226042   0.0001847598555418656
-0.0012698753926925252   -0.01368857108774828   -6.6948663267624915e-06
0.0025377576108115306   -0.013657810837663866   0.0001661806739016988
0.001641027379953194   -0.006788775444605528   0.00025654740855728575
-0.001333003773158882   -0.013617343605522915   2.624485903250466e-05
0.0024219956259727616   -0.013558255187404136   0.00022100090150905364
0.001641027379953194   -0.006788775444605528   0.00025654740855728575
-0.0018892279915441674   -0.006763403863656945   0.00013308701683894598
-0.001333003773158882   -0.013617343605522915   2.624485903250466e-05
-0.0019489351293896396   -0.006698378465919602   0.00017483067563123366
0.0024219956259727616   -0.013558255187404136   0.00022100090150905364
-0.0013983658128943583   -0.013541778918193683   6.41376355025664e-05
-0.0019489351293896396   -0.006698378465919602   0.00017483067563123366
-0.001333003773158882   -0.013617343605522915   2.624485903250466e-05
0.0024219956259727616   -0.013558255187404136   0.00022100090150905364
-0.0019489351293896396   -0.006698378465919602   0.00017483067563123366
0.0015151116658942826   -0.006680176666527859   0.0003388072987644227
0.001641027379953194   -0.006788775444605528   0.00025654740855728575
0.0024219956259727616   -0.013558255187404136   0.00022100090150905364
-0.0019489351293896396   -0.006698378465919602   0.00017483067563123366
0.001641027379953194   -0.006788775444605528   0.00025654740855728575
-0.001333003773158882   -0.013617343605522915   2.624485903250466e-05
-0.00121595726309914   -0.013756125661143733   -3.462320904415871e-05
-0.0017645621101031012   -0.006857602912638941   4.664031643153293e-05
-0.004918619262716364   -0.01373943678608601   -0.00014674815462475916
-0.0012698753926925252   -0.01368857108774828   -6.6948663267624915e-06
-0.0017645621101031012   -0.006857602912638941   4.664031643153293e-05
-0.005256026226148699   -0.006959696410088623   -4.204087694010528e-05
-0.004918619262716364   -0.01373943678608601   -0.00014674815462475916
-0.005305740593655082   -0.0069077767091993945   -1.4324618806765925e-05
-0.0012698753926925252   -0.01368857108774828   -6.6948663267624915e-06
-0.004967464638911105   -0.013680634760892069   -0.0001206272270880295
-0.005305740593655082   -0.0069077767091993945   -1.4324618806765925e-05
-0.004918619262716364   -0.01373943678608601   -0.00014674815462475916
-0.0012698753926925252   -0.01368857108774828   -6.6948663267624915e-06
-0.005305740593655082   -0.0069077767091993945   -1.4324618806765925e-05
-0.0018183310660927628   -0.0068240107052286   8.565072808578518e-05
-0.0017645621101031012   -0.006857602912638941   4.664031643153293e-05
-0.0012698753926925252   -0.01368857108774828   -6.6948663267624915e-06
-0.005305740593655082   -0.0069077767091993945   -1.4324618806765925e-05
-0.0017645621101031012   -0.006857602912638941   4.664031643153293e-05
-0.004918619262716364   -0.01373943678608601   -0.00014674815462475916
-0.0012698753926925252   -0.01368857108774828   -6.6948663267624915e-06
-0.0018183310660927628   -0.0068240107052286   8.565072808578518e-05
-0.004967464638911105   -0.013680634760892069   -0.0001206272270880295
-0.001333003773158882   -0.013617343605522915   2.624485903250466e-05
-0.0018183310660927628   -0.0068240107052286   8.565072808578518e-05
-0.005305740593655082   -0.0069077767091993945   -1.4324618806765925e-05
-0.004967464638911105   -0.013680634760892069   -0.0001206272270880295
-0.005357889003137084   -0.006849012707661894   1.5063777771181723e-05
-0.001333003773158882   -0.013617343605522915   2.624485903250466e-05
-0.005018019461763609   -0.013619497004523532   -9.188898938045954e-05
-0.005357889003137084   -0.006849012707661894   1.5063777771181723e-05
-0.004967464638911105   -0.013680634760892069   -0.0001206272270880295
-0.001333003773158882   -0.013617343605522915   2.624485903250466e-05
-0.005357889003137084   -0.006849012707661894   1.5063777771181723e-05
-0.0018892279915441674   -0.006763403863656945   0.00013308701683894598
-0.0018183310660927628   -0.0068240107052286   8.565072808578518e-05
-0.001333003773158882   -0.013617343605522915   2.624485903250466e-05
-0.005357889003137084   -0.006849012707661894   1.5063777771181723e-05
-0.0018183310660927628   -0.0068240107052286   8.565072808578518e-05
-0.004967464638911105   -0.013680634760892069   -0.0001206272270880295
-0.001333003773158882   -0.013617343605522915   2.624485903250466e-05
-0.0018892279915441674   -0.006763403863656945   0.00013308701683894598
-0.005018019461763609   -0.013619497004523532   -9.188898938045954e-05
-0.0013983658128943583   -0.013541778918193683   6.41376355025664e-05
-0.0018892279915441674   -0.006763403863656945   0.00013308701683894598
-0.005357889003137084   -0.006849012707661894   1.5063777771181723e-05
-0.005018019461763609   -0.013619497004523532   -9.188898938045954e-05
-0.005407547623886124   -0.0067846057173006225   4.7507805862690676e-05
-0.0013983658128943583   -0.013541778918193683   6.41376355025664e-05
-0.005070677890522038   -0.013557154469847428   -6.00162813265766e-05
-0.005407547623886124   -0.0067846057173006225   4.7507805862690676e-05
-0.005018019461763609   -0.013619497004523532   -9.188898938045954e-05
-0.0013983658128943583   -0.013541778918193683   6.41376355025664e-05
-0.005407547623886124   -0.0067846057173006225   4.7507805862690676e-05
-0.0019489351293896396   -0.006698378465919602   0.00017483067563123366
-0.0018892279915441674   -0.006763403863656945   0.00013308701683894598
-0.0013983658128943583   -0.013541778918193683   6.41376355025664e-05
-0.005407547623886124   -0.0067846057173006225   4.7507805862690676e-05
-0.0018892279915441674   -0.006763403863656945   0.00013308701683894598
-0.005018019461763609   -0.013619497004523532   -9.188898938045954e-05
-0.004918619262716364   -0.01373943678608601   -0.00014674815462475916
-0.005256026226148699   -0.006959696410088623   -4.204087694010528e-05
-0.008582608646328363   -0.013734763903812463   -0.0002479673962644836
-0.004967464638911105   -0.013680634760892069   -0.0001206272270880295
-0.005256026226148699   -0.006959696410088623   -4.204087694010528e-05
-0.008831859487775361   -0.00703946996808298   -0.00014068413977572796
-0.008582608646328363   -0.013734763903812463   -0.0002479673962644836
-0.00887659997708334   -0.006986124439037449   -0.00011913881882379399
-0.004967464638911105   -0.013680634760892069   -0.0001206272270880295
-0.008629357456021263   -0.013683318382026785   -0.0002229324968065864
-0.00887659997708334   -0.006986124439037449   -0.00011913881882379399
-0.008582608646328363   -0.013734763903812463   -0.0002479673962644836
-0.004967464638911105   -0.013680634760892069   -0.0001206272270880295
-0.00887659997708334   -0.006986124439037449   -0.00011913881882379399
-0.005305740593655082   -0.0069077767091993945   -1.4324618806765925e-05
-0.005256026226148699   -0.006959696410088623   -4.204087694010528e-05
-0.004967464638911105   -0.013680634760892069   -0.0001206272270880295
-0.00887659997708334   -0.006986124439037449   -0.00011913881882379399
-0.005256026226148699   -0.006959696410088623   -4.204087694010528e-05
-0.008582608646328363   -0.013734763903812463   -0.0002479673962644836
-0.004967464638911105   -0.013680634760892069   -0.0001206272270880295
-0.005305740593655082   -0.0069077767091993945   -1.4324618806765925e-05
-0.008629357456021263   -0.013683318382026785   -0.0002229324968065864
-0.005018019461763609   -0.013619497004523532   -9.188898938045954e-05
-0.005305740593655082   -0.0069077767091993945   -1.4324618806765925e-05
-0.00887659997708334   -0.006986124439037449   -0.00011913881882379399
-0.008629357456021263   -0.013683318382026785   -0.0002229324968065864
-0.008919487278055924   -0.006929719889774754   -9.762387392998393e-05
-0.005018019461763609   -0.013619497004523532   -9.188898938045954e-05
-0.008673893756054213   -0.01363098702754006   -0.00019560461989795913
-0.008919487278055924   -0.006929719889774754   -9.762387392998393e-05
-0.008629357456021263   -0.013683318382026785   -0.0002229324968065864
-0.005018019461763609   -0.013619497004523532   -9.188898938045954e-05
-0.008919487278055924   -0.006929719889774754   -9.762387392998393e-05
-0.005357889003137084   -0.006849012707661894   1.5063777771181723e-05
-0.005305740593655082   -0.0069077767091993945   -1.4324618806765925e-05
-0.005018019461763609   -0.013619497004523532   -9.188898938045954e-05
-0.008919487278055924   -0.006929719889774754   -9.762387392998393e-05
-0.005305740593655082   -0.0069077767091993945   -1.4324618806765925e-05
-0.008629357456021263   -0.013683318382026785   -0.0002229324968065864
-0.005018019461763609   -0.013619497004523532   -9.188898938045954e-05
-0.005357889003137084   -0.006849012707661894   1.5063777771181723e-05
-0.008673893756054213   -0.01363098702754006   -0.00019560461989795913
-0.005070677890522038   -0.013557154469847428   -6.00162813265766e-05
-0.005357889003137084   -0.006849012707661894   1.5063777771181723e-05
-0.008919487278055924   -0.006929719889774754   -9.762387392998393e-05
-0.008673893756054213   -0.01363098702754006   -0.00019560461989795913
-0.008959069982572463   -0.00686860172114302   -7.415856297180964e-05
-0.005070677890522038   -0.013557154469847428   -6.00162813265766e-05
-0.008717984944040079   -0.013577464387905495   -0.00016610970296970678
-0.008959069982572463   -0.00686860172114302   -7.415856297180964e-05
-0.008673893756054213   -0.01363098702754006   -0.00019560461989795913
-0.005070677890522038   -0.013557154469847428   -6.00162813265766e-05
-0.008959069982572463   -0.00686860172114302   -7.415856297180964e-05
-0.005407547623886124   -0.0067846057173006225   4.7507805862690676e-05
-0.005357889003137084   -0.006849012707661894   1.5063777771181723e-05
-0.005070677890522038   -0.013557154469847428   -6.00162813265766e-05
-0.008959069982572463   -0.00686860172114302   -7.415856297180964e-05
-0.005357889003137084   -0.006849012707661894   1.5063777771181723e-05
-0.008673893756054213   -0.01363098702754006   -0.00019560461989795913
-0.008582608646328363   -0.013734763903812463   -0.0002479673962644836
-0.008831859487775361   -0.00703946996808298   -0.00014068413977572796
-0.01232432047814749   -0.01371331509373181   -0.0003327295146895185
-0.008629357456021263   -0.013683318382026785   -0.0002229324968065864
-0.008831859487775361   -0.00703946996808298   -0.00014068413977572796
-0.012533334005348732   -0.007072265641830483   -0.00023166660507635702
-0.01232432047814749   -0.01371331509373181   -0.0003327295146895185
-0.012573661127586656   -0.007024456974296539   -0.0002159052556387618
-0.008629357456021263   -0.013683318382026785   -0.0002229324968065864
-0.012368885242821025   -0.013671574157479206   -0.00030892168277529933
-0.012573661127586656   -0.007024456974296539   -0.0002159052556387618
-0.01232432047814749   -0.01371331509373181   -0.0003327295146895185
-0.008629357456021263   -0.013683318382026785   -0.0002229324968065864
-0.012573661127586656   -0.007024456974296539   -0.0002159052556387618
-0.00887659997708334   -0.006986124439037449   -0.00011913881882379399
-0.008831859487775361   -0.00703946996808298   -0.00014068413977572796
-0.008629357456021263   -0.013683318382026785   -0.0002229324968065864
-0.012573661127586656   -0.007024456974296539   -0.0002159052556387618
-0.008831859487775361   -0.00703946996808298   -0.00014068413977572796
-0.01232432047814749   -0.01371331509373181   -0.0003327295146895185
-0.008629357456021263   -0.013683318382026785   -0.0002229324968065864
-0.00887659997708334   -0.006986124439037449   -0.00011913881882379399
-0.012368885242821025   -0.013671574157479206   -0.00030892168277529933
-0.008673893756054213   -0.01363098702754006   -0.00019560461989795913
-0.00887659997708334   -0.006986124439037449   -0.00011913881882379399
-0.012573661127586656   -0.007024456974296539   -0.0002159052556387618
-0.012368885242821025   -0.013671574157479206   -0.00030892168277529933
-0.012609600895204638   -0.006972301515726812   -0.00020055705644382558
-0.008673893756054213   -0.01363098702754006   -0.00019560461989795913
-0.01240658756348306   -0.013627559584029853   -0.00028347294652731383
-0.012609600895204638   -0.006972301515726812   -0.00020055705644382558
-0.012368885242821025   -0.013671574157479206   -0.00030892168277529933
-0.008673893756054213   -0.01363098702754006   -0.00019560461989795913
-0.012609600895204638   -0.006972301515726812   -0.00020055705644382558
-0.008919487278055924   -0.006929719889774754   -9.762387392998393e-05
-0.00887659997708334   -0.006986124439037449   -0.00011913881882379399
-0.008673893756054213   -0.01363098702754006   -0.00019560461989795913
-0.012609600895204638   -0.006972301515726812   -0.00020055705644382558
-0.00887659997708334   -0.006986124439037449   -0.00011913881882379399
-0.012368885242821025   -0.013671574157479206   -0.00030892168277529933
-0.008673893756054213   -0.01363098702754006   -0.00019560461989795913
-0.008919487278055924   -0.006929719889774754   -9.762387392998393e-05
-0.01240658756348306   -0.013627559584029853   -0.00028347294652731383
-0.008717984944040079   -0.013577464387905495   -0.00016610970296970678
-0.008919487278055924   -0.006929719889774754   -9.762387392998393e-05
-0.012609600895204638   -0.006972301515726812   -0.00020055705644382558
-0.01240658756348306   -0.013627559584029853   -0.00028347294652731383
-0.012642160618970616   -0.006916741554832465   -0.00018471084800973092
-0.008717984944040079   -0.013577464387905495   -0.00016610970296970678
-0.012442218504537484   -0.013582425333210402   -0.000255680616364475
-0.012642160618970616   -0.006916741554832465   -0.00018471084800973092
-0.01240658756348306   -0.013627559584029853   -0.00028347294652731383
-0.008717984944040079   -0.013577464387905495   -0.00016610970296970678
-0.012642160618970616   -0.006916741554832465   -0.00018471084800973092
-0.008959069982572463   -0.00686860172114302   -7.415856297180964e-05
-0.008919487278055924   -0.006929719889774754   -9.762387392998393e-05
-0.008717984944040079   -0.013577464387905495   -0.00016610970296970678
-0.012642160618970616   -0.006916741554832465   -0.00018471084800973092
-0.008919487278055924   -0.006929719889774754   -9.762387392998393e-05
-0.01240658756348306   -0.013627559584029853   -0.00028347294652731383
-0.01232432047814749   -0.01371331509373181   -0.0003327295146895185
-0.012533334005348732   -0.007072265641830483   -0.00023166660507635702
-0.016245000665287238   -0.013677813927947697   -0.0003950207689508285
-0.012368885242821025   -0.013671574157479206   -0.00030892168277529933
-0.012533334005348732   -0.007072265641830483   -0.00023166660507635702
-0.016367741254816763   -0.007075835806067264   -0.00030692015107939316
-0.016245000665287238   -0.013677813927947697   -0.0003950207689508285
-0.016402302125604843   -0.007029476425583726   -0.0003000471645553562
-0.012368885242821025   -0.013671574157479206   -0.00030892168277529933
-0.016272392316776546   -0.013642959858149692   -0.0003769797924020626
-0.016402302125604843   -0.007029476425583726   -0.0003000471645553562
-0.016245000665287238   -0.013677813927947697   -0.0003950207689508285
-0.012368885242821025   -0.013671574157479206   -0.00030892168277529933
-0.016402302125604843   -0.007029476425583726   -0.0003000471645553562
-0.012573661127586656   -0.007024456974296539   -0.0002159052556387618
-0.012533334005348732   -0.007072265641830483   -0.00023166660507635702
-0.012368885242821025   -0.013671574157479206   -0.00030892168277529933
-0.016402302125604843   -0.007029476425583726   -0.0003000471645553562
-0.012533334005348732   -0.007072265641830483   -0.00023166660507635702
-0.016245000665287238   -0.013677813927947697   -0.0003950207689508285
-0.012368885242821025   -0.013671574157479206   -0.00030892168277529933
-0.012573661127586656   -0.007024456974296539   -0.0002159052556387618
-0.016272392316776546   -0.013642959858149692   -0.0003769797924020626
-0.01240658756348306   -0.013627559584029853   -0.00028347294652731383
-0.012573661127586656   -0.007024456974296539   -0.0002159052556387618
-0.016402302125604843   -0.007029476425583726   -0.0003000471645553562
-0.016272392316776546   -0.013642959858149692   -0.0003769797924020626
-0.016433265749711164   -0.006979269050412513   -0.00029198912719600437
-0.01240658756348306   -0.013627559584029853   -0.00028347294652731383
-0.016297439030458095   -0.013603443671823895   -0.0003549390847639519
-0.016433265749711164   -0.006979269050412513   -0.00029198912719600437
-0.016272392316776546   -0.013642959858149692   -0.0003769797924020626
-0.01240658756348306   -0.013627559584029853   -0.00028347294652731383
-0.016433265749711164   -0.006979269050412513   -0.00029198912719600437
-0.012609600895204638   -0.006972301515726812   -0.00020055705644382558
-0.012573661127586656   -0.007024456974296539   -0.0002159052556387618
-0.01240658756348306   -0.013627559584029853   -0.00028347294652731383
-0.016433265749711164   -0.006979269050412513   -0.00029198912719600437
-0.012573661127586656   -0.007024456974296539   -0.0002159052556387618
-0.016272392316776546   -0.013642959858149692   -0.0003769797924020626
-0.01240658756348306   -0.013627559584029853   -0.00028347294652731383
-0.012609600895204638   -0.006972301515726812   -0.00020055705644382558
-0.016297439030458095   -0.013603443671823895   -0.0003549390847639519
-0.012442218504537484   -0.013582425333210402   -0.000255680616364475
-0.012609600895204638   -0.006972301515726812   -0.00020055705644382558
-0.016433265749711164   -0.006979269050412513   -0.00029198912719600437
-0.016297439030458095   -0.013603443671823895   -0.0003549390847639519
-0.01645919008647246   -0.006926120121151916   -0.00028442715133955045
-0.012442218504537484   -0.013582425333210402   -0.000255680616364475
-0.016309234817587535   -0.013567412228476619   -0.00032988419406035726
-0.01645919008647246   -0.006926120121151916   -0.00028442715133955045
-0.016297439030458095   -0.013603443671823895   -0.0003549390847639519
-0.012442218504537484   -0.013582425333210402   -0.000255680616364475
-0.01645919008647246   -0.006926120121151916   -0.00028442715133955045
-0.012642160618970616   -0.006916741554832465   -0.00018471084800973092
-0.012609600895204638   -0.006972301515726812   -0.00020055705644382558
-0.012442218504537484   -0.013582425333210402   -0.000255680616364475
-0.01645919008647246   -0.006926120121151916   -0.00028442715133955045
-0.012609600895204638   -0.006972301515726812   -0.00020055705644382558
-0.016297439030458095   -0.013603443671823895   -0.0003549390847639519
0.0019068940701643601   -0.006946649301130815   8.839155782788112e-05
0.0   0.0   0.0
-0.0017645621101031012   -0.006857602912638941   4.664031643153293e-05
0.001739150947728708   -0.006859604885226042   0.0001847598555418656
0.0   0.0   0.0
-0.002211654650555589   -0.0005667329328633649   -1.722051142021574e-05
-0.0017645621101031012   -0.006857602912638941   4.664031643153293e-05
-0.0023439230817244327   -0.0004416478263860281   5.957225893568664e-05
0.001739150947728708   -0.006859604885226042   0.0001847598555418656
-0.0018183310660927628   -0.0068240107052286   8.565072808578518e-05
-0.0023439230817244327   -0.0004416478263860281   5.957225893568664e-05
-0.0017645621101031012   -0.006857602912638941   4.664031643153293e-05
0.001739150947728708   -0.006859604885226042   0.0001847598555418656
-0.0023439230817244327   -0.0004416478263860281   5.957225893568664e-05
0.0   0.0   0.0
0.0   0.0   0.0
0.001739150947728708   -0.006859604885226042   0.0001847598555418656
-0.0023439230817244327   -0.0004416478263860281   5.957225893568664e-05
0.0   0.0   0.0
-0.0017645621101031012   -0.006857602912638941   4.664031643153293e-05
0.001739150947728708   -0.006859604885226042   0.0001847598555418656
0.0   0.0   0.0
-0.0018183310660927628   -0.0068240107052286   8.565072808578518e-05
0.001641027379953194   -0.006788775444605528   0.00025654740855728575
0.0   0.0   0.0
-0.0023439230817244327   -0.0004416478263860281   5.957225893568664e-05
-0.0018183310660927628   -0.0068240107052286   8.565072808578518e-05
-0.0024271143261512733   -0.0003815289793230044   0.00010410154135090437
0.001641027379953194   -0.006788775444605528   0.00025654740855728575
-0.0018892279915441674   -0.006763403863656945   0.00013308701683894598
-0.0024271143261512733   -0.0003815289793230044   0.00010410154135090437
-0.0018183310660927628   -0.0068240107052286   8.565072808578518e-05
0.001641027379953194   -0.006788775444605528   0.00025654740855728575
-0.0024271143261512733   -0.0003815289793230044   0.00010410154135090437
0.0   0.0   0.0
0.0   0.0   0.0
0.001641027379953194   -0.006788775444605528   0.00025654740855728575
-0.0024271143261512733   -0.0003815289793230044   0.00010410154135090437
0.0   0.0   0.0
-0.0018183310660927628   -0.0068240107052286   8.565072808578518e-05
0.001641027379953194   -0.006788775444605528   0.00025654740855728575
0.0   0.0   0.0
-0.0018892279915441674   -0.006763403863656945   0.00013308701683894598
0.0015151116658942826   -0.006680176666527859   0.0003388072987644227
0.0   0.0   0.0
-0.0024271143261512733   -0.0003815289793230044   0.00010410154135090437
-0.0018892279915441674   -0.006763403863656945   0.00013308701683894598
-0.00253896569914801   -0.00030159273233651266   0.0001552521393494071
0.0015151116658942826   -0.006680176666527859   0.0003388072987644227
-0.0019489351293896396   -0.006698378465919602   0.00017483067563123366
-0.00253896569914801   -0.00030159273233651266   0.0001552521393494071
-0.0018892279915441674   -0.006763403863656945   0.00013308701683894598
0.0015151116658942826   -0.006680176666527859   0.0003388072987644227
-0.00253896569914801   -0.00030159273233651266   0.0001552521393494071
0.0   0.0   0.0
0.0   0.0   0.0
0.0015151116658942826   -0.006680176666527859   0.0003388072987644227
-0.00253896569914801   -0.00030159273233651266   0.0001552521393494071
0.0   0.0   0.0
-0.0018892279915441674   -0.006763403863656945   0.00013308701683894598
-0.0017645621101031012   -0.006857602912638941   4.664031643153293e-05
-0.002211654650555589   -0.0005667329328633649   -1.722051142021574e-05
-0.005256026226148699   -0.006959696410088623   -4.204087694010528e-05
-0.0018183310660927628   -0.0068240107052286   8.565072808578518e-05
-0.002211654650555589   -0.0005667329328633649   -1.722051142021574e-05
-0.005411416599321313   -0.0007445315185087304   -1.4194482834335187e-05
-0.005256026226148699   -0.006959696410088623   -4.204087694010528e-05
-0.005479809400269542   -0.0006764953784560994   5.755553022486307e-06
-0.0018183310660927628   -0.0068240107052286   8.565072808578518e-05
-0.005305740593655082   -0.0069077767091993945   -1.4324618806765925e-05
-0.005479809400269542   -0.0006764953784560994   5.755553022486307e-06
-0.005256026226148699   -0.006959696410088623   -4.204087694010528e-05
-0.0018183310660927628   -0.0068240107052286   8.565072808578518e-05
-0.005479809400269542   -0.0006764953784560994   5.755553022486307e-06
-0.0023439230817244327   -0.0004416478263860281   5.957225893568664e-05
-0.002211654650555589   -0.0005667329328633649   -1.722051142021574e-05
-0.0018183310660927628   -0.0068240107052286   8.565072808578518e-05
-0.005479809400269542   -0.0006764953784560994   5.755553022486307e-06
-0.002211654650555589   -0.0005667329328633649   -1.722051142021574e-05
-0.005256026226148699   -0.006959696410088623   -4.204087694010528e-05
-0.0018183310660927628   -0.0068240107052286   8.565072808578518e-05
-0.0023439230817244327   -0.0004416478263860281   5.957225893568664e-05
-0.005305740593655082   -0.0069077767091993945   -1.4324618806765925e-05
-0.0018892279915441674   -0.006763403863656945   0.00013308701683894598
-0.0023439230817244327   -0.0004416478263860281   5.957225893568664e-05
-0.005479809400269542   -0.0006764953784560994   5.755553022486307e-06
-0.005305740593655082   -0.0069077767091993945   -1.4324618806765925e-05
-0.005547997574888954   -0.0005968034918861595   4.129050643764116e-05
-0.0018892279915441674   -0.006763403863656945   0.00013308701683894598
-0.005357889003137084   -0.006849012707661894   1.5063777771181723e-05
-0.005547997574888954   -0.0005968034918861595   4.129050643764116e-05
-0.005305740593655082   -0.0069077767091993945   -1.4324618806765925e-05
-0.0018892279915441674   -0.006763403863656945   0.00013308701683894598
-0.005547997574888954   -0.0005968034918861595   4.129050643764116e-05
-0.0024271143261512733   -0.0003815289793230044   0.00010410154135090437
-0.0023439230817244327   -0.0004416478263860281   5.957225893568664e-05
-0.0018892279915441674   -0.006763403863656945   0.00013308701683894598
-0.005547997574888954   -0.0005968034918861595   4.129050643764116e-05
-0.0023439230817244327   -0.0004416478263860281   5.957225893568664e-05
-0.005305740593655082   -0.0069077767091993945   -1.4324618806765925e-05
-0.0018892279915441674   -0.006763403863656945   0.00013308701683894598
-0.0024271143261512733   -0.0003815289793230044   0.00010410154135090437
-0.005357889003137084   -0.006849012707661894   1.5063777771181723e-05
-0.0019489351293896396   -0.006698378465919602   0.00017483067563123366
-0.0024271143261512733   -0.0003815289793230044   0.00010410154135090437
-0.005547997574888954   -0.0005968034918861595   4.129050643764116e-05
-0.005357889003137084   -0.006849012707661894   1.5063777771181723e-05
-0.005623828218514623   -0.0005044699479693308   7.544044515984487e-05
-0.0019489351293896396   -0.006698378465919602   0.00017483067563123366
-0.005407547623886124   -0.0067846057173006225   4.7507805862690676e-05
-0.005623828218514623   -0.0005044699479693308   7.544044515984487e-05
-0.005357889003137084   -0.006849012707661894   1.5063777771181723e-05
-0.0019489351293896396   -0.006698378465919602   0.00017483067563123366
-0.005623828218514623   -0.0005044699479693308   7.544044515984487e-05
-0.00253896569914801   -0.00030159273233651266   0.0001552521393494071
-0.0024271143261512733   -0.0003815289793230044   0.00010410154135090437
-0.0019489351293896396   -0.006698378465919602   0.00017483067563123366
-0.005623828218514623   -0.0005044699479693308   7.544044515984487e-05
-0.0024271143261512733   -0.0003815289793230044   0.00010410154135090437
-0.005357889003137084   -0.006849012707661894   1.5063777771181723e-05
-0.005256026226148699   -0.006959696410088623   -4.204087694010528e-05
-0.005411416599321313   -0.0007445315185087304   -1.4194482834335187e-05
-0.008831859487775361   -0.00703946996808298   -0.00014068413977572796
-0.005305740593655082   -0.0069077767091993945   -1.4324618806765925e-05
-0.005411416599321313   -0.0007445315185087304   -1.4194482834335187e-05
-0.00891877248979556   -0.0007953998451473937   -7.588928990402024e-05
-0.008831859487775361   -0.00703946996808298   -0.00014068413977572796
-0.008960392143440878   -0.0007426875915649805   -7.025972139140086e-05
-0.005305740593655082   -0.0069077767091993945   -1.4324618806765925e-05
-0.00887659997708334   -0.006986124439037449   -0.00011913881882379399
-0.008960392143440878   -0.0007426875915649805   -7.025972139140086e-05
-0.008831859487775361   -0.00703946996808298   -0.00014068413977572796
-0.005305740593655082   -0.0069077767091993945   -1.4324618806765925e-05
-0.008960392143440878   -0.0007426875915649805   -7.025972139140086e-05
-0.005479809400269542   -0.0006764953784560994   5.755553022486307e-06
-0.005411416599321313   -0.0007445315185087304   -1.4194482834335187e-05
-0.005305740593655082   -0.0069077767091993945   -1.4324618806765925e-05
-0.008960392143440878   -0.0007426875915649805   -7.025972139140086e-05
-0.005411416599321313   -0.0007445315185087304   -1.4194482834335187e-05
-0.008831859487775361   -0.00703946996808298   -0.00014068413977572796
-0.005305740593655082   -0.0069077767091993945   -1.4324618806765925e-05
-0.005479809400269542   -0.0006764953784560994   5.755553022486307e-06
-0.00887659997708334   -0.006986124439037449   -0.00011913881882379399
-0.005357889003137084   -0.006849012707661894   1.5063777771181723e-05
-0.005479809400269542   -0.0006764953784560994   5.755553022486307e-06
-0.008960392143440878   -0.0007426875915649805   -7.025972139140086e-05
-0.00887659997708334   -0.006986124439037449   -0.00011913881882379399
-0.009003690677299364   -0.000681337148699986   -6.043936678147404e-05
-0.005357889003137084   -0.006849012707661894   1.5063777771181723e-05
-0.008919487278055924   -0.006929719889774754   -9.762387392998393e-05
-0.009003690677299364   -0.000681337148699986   -6.043936678147404e-05
-0.00887659997708334   -0.006986124439037449   -0.00011913881882379399
-0.005357889003137084   -0.006849012707661894   1.5063777771181723e-05
-0.009003690677299364   -0.000681337148699986   -6.043936678147404e-05
-0.005547997574888954   -0.0005968034918861595   4.129050643764116e-05
-0.005479809400269542   -0.0006764953784560994   5.755553022486307e-06
-0.005357889003137084   -0.006849012707661894   1.5063777771181723e-05
-0.009003690677299364   -0.000681337148699986   -6.043936678147404e-05
-0.005479809400269542   -0.0006764953784560994   5.755553022486307e-06
-0.00887659997708334   -0.006986124439037449   -0.00011913881882379399
-0.005357889003137084   -0.006849012707661894   1.5063777771181723e-05
-0.005547997574888954   -0.0005968034918861595   4.129050643764116e-05
-0.008919487278055924   -0.006929719889774754   -9.762387392998393e-05
-0.005407547623886124   -0.0067846057173006225   4.7507805862690676e-05
-0.005547997574888954   -0.0005968034918861595   4.129050643764116e-05
-0.009003690677299364   -0.000681337148699986   -6.043936678147404e-05
-0.008919487278055924   -0.006929719889774754   -9.762387392998393e-05
-0.009045040910318021   -0.0006064103199927438   -4.744500563862686e-05
-0.005407547623886124   -0.0067846057173006225   4.7507805862690676e-05
-0.008959069982572463   -0.00686860172114302   -7.415856297180964e-05
-0.009045040910318021   -0.0006064103199927438   -4.744500563862686e-05
-0.008919487278055924   -0.006929719889774754   -9.762387392998393e-05
-0.005407547623886124   -0.0067846057173006225   4.7507805862690676e-05
-0.009045040910318021   -0.0006064103199927438   -4.744500563862686e-05
-0.005623828218514623   -0.0005044699479693308   7.544044515984487e-05
-0.005547997574888954   -0.0005968034918861595   4.129050643764116e-05
-0.005407547623886124   -0.0067846057173006225   4.7507805862690676e-05
-0.009045040910318021   -0.0006064103199927438   -4.744500563862686e-05
-0.005547997574888954   -0.0005968034918861595   4.129050643764116e-05
-0.008919487278055924   -0.006929719889774754   -9.762387392998393e-05
-0.008831859487775361   -0.00703946996808298   -0.00014068413977572796
-0.00891877248979556   -0.0007953998451473937   -7.588928990402024e-05
-0.012533334005348732   -0.007072265641830483   -0.00023166660507635702
-0.00887659997708334   -0.006986124439037449   -0.00011913881882379399
-0.00891877248979556   -0.0007953998451473937   -7.588928990402024e-05
-0.012598386157125102   -0.0007880107703561749   -0.0001655012026396079
-0.012533334005348732   -0.007072265641830483   -0.00023166660507635702
-0.012626528681122446   -0.0007408980127170997   -0.00016307536547837515
-0.00887659997708334   -0.006986124439037449   -0.00011913881882379399
-0.012573661127586656   -0.007024456974296539   -0.0002159052556387618
-0.012626528681122446   -0.0007408980127170997   -0.00016307536547837515
-0.012533334005348732   -0.007072265641830483   -0.00023166660507635702
-0.00887659997708334   -0.006986124439037449   -0.00011913881882379399
-0.012626528681122446   -0.0007408980127170997   -0.00016307536547837515
-0.008960392143440878   -0.0007426875915649805   -7.025972139140086e-05
-0.00891877248979556   -0.0007953998451473937   -7.588928990402024e-05
-0.00887659997708334   -0.006986124439037449   -0.00011913881882379399
-0.012626528681122446   -0.0007408980127170997   -0.00016307536547837515
-0.00891877248979556   -0.0007953998451473937   -7.588928990402024e-05
-0.012533334005348732   -0.007072265641830483   -0.00023166660507635702
-0.00887659997708334   -0.006986124439037449   -0.00011913881882379399
-0.008960392143440878   -0.0007426875915649805   -7.025972139140086e-05
-0.012573661127586656   -0.007024456974296539   -0.0002159052556387618
-0.008919487278055924   -0.006929719889774754   -9.762387392998393e-05
-0.008960392143440878   -0.0007426875915649805   -7.025972139140086e-05
-0.012626528681122446   -0.0007408980127170997   -0.00016307536547837515
-0.012573661127586656   -0.007024456974296539   -0.0002159052556387618
-0.012655882045599932   -0.0006882951960622869   -0.00016130056547505683
-0.008919487278055924   -0.006929719889774754   -9.762387392998393e-05
-0.012609600895204638   -0.006972301515726812   -0.00020055705644382558
-0.012655882045599932   -0.0006882951960622869   -0.00016130056547505683
-0.012573661127586656   -0.007024456974296539   -0.0002159052556387618
-0.008919487278055924   -0.006929719889774754   -9.762387392998393e-05
-0.012655882045599932   -0.0006882951960622869   -0.00016130056547505683
-0.009003690677299364   -0.000681337148699986   -6.043936678147404e-05
-0.008960392143440878   -0.0007426875915649805   -7.025972139140086e-05
-0.008919487278055924   -0.006929719889774754   -9.762387392998393e-05
-0.012655882045599932   -0.0006882951960622869   -0.00016130056547505683
-0.008960392143440878   -0.0007426875915649805   -7.025972139140086e-05
-0.012573661127586656   -0.007024456974296539   -0.0002159052556387618
-0.008919487278055924   -0.006929719889774754   -9.762387392998393e-05
-0.009003690677299364   -0.000681337148699986   -6.043936678147404e-05
-0.012609600895204638   -0.006972301515726812   -0.00020055705644382558
-0.008959069982572463   -0.00686860172114302   -7.415856297180964e-05
-0.009003690677299364   -0.000681337148699986   -6.043936678147404e-05
-0.012655882045599932   -0.0006882951960622869   -0.00016130056547505683
-0.012609600895204638   -0.006972301515726812   -0.00020055705644382558
-0.012678353382790363   -0.0006311733449005262   -0.0001602934905442594
-0.008959069982572463   -0.00686860172114302   -7.415856297180964e-05
-0.012642160618970616   -0.006916741554832465   -0.00018471084800973092
-0.012678353382790363   -0.0006311733449005262   -0.0001602934905442594
-0.012609600895204638   -0.006972301515726812   -0.00020055705644382558
-0.008959069982572463   -0.00686860172114302   -7.415856297180964e-05
-0.012678353382790363   -0.0006311733449005262   -0.0001602934905442594
-0.009045040910318021   -0.0006064103199927438   -4.744500563862686e-05
-0.009003690677299364   -0.000681337148699986   -6.043936678147404e-05
-0.008959069982572463   -0.00686860172114302   -7.415856297180964e-05
-0.012678353382790363   -0.0006311733449005262   -0.0001602934905442594
-0.009003690677299364   -0.000681337148699986   -6.043936678147404e-05
-0.012609600895204638   -0.006972301515726812   -0.00020055705644382558
-0.012533334005348732   -0.007072265641830483   -0.00023166660507635702
-0.012598386157125102   -0.0007880107703561749   -0.0001655012026396079
-0.016367741254816763   -0.007075835806067264   -0.00030692015107939316
-0.012573661127586656   -0.007024456974296539   -0.0002159052556387618
-0.012598386157125102   -0.0007880107703561749   -0.0001655012026396079
-0.016380381405667072   -0.0007825521977999138   -0.00025380147563510596
-0.016367741254816763   -0.007075835806067264   -0.00030692015107939316
-0.016402997176061883   -0.0007315059568948882   -0.0002537052634462391
-0.012573661127586656   -0.007024456974296539   -0.0002159052556387618
-0.016402302125604843   -0.007029476425583726   -0.0003000471645553562
-0.016402997176061883   -0.0007315059568948882   -0.0002537052634462391
-0.016367741254816763   -0.007075835806067264   -0.00030692015107939316
-0.012573661127586656   -0.007024456974296539   -0.0002159052556387618
-0.016402997176061883   -0.0007315059568948882   -0.0002537052634462391
-0.012626528681122446   -0.0007408980127170997   -0.00016307536547837515
-0.012598386157125102   -0.0007880107703561749   -0.0001655012026396079
-0.012573661127586656   -0.007024456974296539   -0.0002159052556387618
-0.016402997176061883   -0.0007315059568948882   -0.0002537052634462391
-0.012598386157125102   -0.0007880107703561749   -0.0001655012026396079
-0.016367741254816763   -0.007075835806067264   -0.00030692015107939316
-0.012573661127586656   -0.007024456974296539   -0.0002159052556387618
-0.012626528681122446   -0.0007408980127170997   -0.00016307536547837515
-0.016402302125604843   -0.007029476425583726   -0.0003000471645553562
-0.012609600895204638   -0.006972301515726812   -0.00020055705644382558
-0.012626528681122446   -0.0007408980127170997   -0.00016307536547837515
-0.016402997176061883   -0.0007315059568948882   -0.0002537052634462391
-0.016402302125604843   -0.007029476425583726   -0.0003000471645553562
-0.016427808144595348   -0.0006803990763816999   -0.00025759802514674097
-0.012609600895204638   -0.006972301515726812   -0.00020055705644382558
-0.016433265749711164   -0.006979269050412513   -0.00029198912719600437
-0.016427808144595348   -0.0006803990763816999   -0.00025759802514674097
-0.016402302125604843   -0.007029476425583726   -0.0003000471645553562
-0.012609600895204638   -0.006972301515726812   -0.00020055705644382558
-0.016427808144595348   -0.0006803990763816999   -0.00025759802514674097
-0.012655882045599932   -0.0006882951960622869   -0.00016130056547505683
-0.012626528681122446   -0.0007408980127170997   -0.00016307536547837515
-0.012609600895204638   -0.006972301515726812   -0.00020055705644382558
-0.016427808144595348   -0.0006803990763816999   -0.00025759802514674097
-0.012626528681122446   -0.0007408980127170997   -0.00016307536547837515
-0.016402302125604843   -0.007029476425583726   -0.0003000471645553562
-0.012609600895204638   -0.006972301515726812   -0.00020055705644382558
-0.012655882045599932   -0.0006882951960622869   -0.00016130056547505683
-0.016433265749711164   -0.006979269050412513   -0.00029198912719600437
-0.012642160618970616   -0.006916741554832465   -0.00018471084800973092
-0.012655882045599932   -0.0006882951960622869   -0.00016130056547505683
-0.016427808144595348   -0.0006803990763816999   -0.00025759802514674097
-0.016433265749711164   -0.006979269050412513   -0.00029198912719600437
-0.016446145124590132   -0.0006246804644788364   -0.00026171083208451106
-0.012642160618970616   -0.006916741554832465   -0.00018471084800973092
-0.01645919008647246   -0.006926120121151916   -0.00028442715133955045
-0.016446145124590132   -0.0006246804644788364   -0.00026171083208451106
-0.016433265749711164   -0.006979269050412513   -0.00029198912719600437
-0.012642160618970616   -0.006916741554832465   -0.00018471084800973092
-0.016446145124590132   -0.0006246804644788364   -0.00026171083208451106
-0.012678353382790363   -0.0006311733449005262   -0.0001602934905442594
-0.012655882045599932   -0.0006882951960622869   -0.00016130056547505683
-0.012642160618970616   -0.006916741554832465   -0.00018471084800973092
-0.016446145124590132   -0.0006246804644788364   -0.00026171083208451106
-0.012655882045599932   -0.0006882951960622869   -0.00016130056547505683
-0.016433265749711164   -0.006979269050412513   -0.00029198912719600437
              </DataArray>   
          </PointData>  
       </Piece>  
   </UnstructuredGrid> 
</VTKFile> 
