<?xml version="1.0"?> 
<VTKFile type="UnstructuredGrid"> 
   <UnstructuredGrid> 
      <Piece NumberOfPoints="6000"  NumberOfCells="1500">  
          <Points>  
             <DataArray type="Float64" NumberOfComponents="3" format="ascii">   
-500.0   0.0   0.0
-450.0   0.0   0.0
-500.0   30.0   0.0
-500.0   0.0   16.666666666666668
-450.0   0.0   0.0
-450.0   30.0   0.0
-500.0   30.0   0.0
-450.0   30.0   16.666666666666668
-500.0   0.0   16.666666666666668
-500.0   30.0   16.666666666666668
-450.0   30.0   16.666666666666668
-500.0   30.0   0.0
-500.0   0.0   16.666666666666668
-450.0   30.0   16.666666666666668
-450.0   0.0   16.666666666666668
-450.0   0.0   0.0
-500.0   0.0   16.666666666666668
-450.0   30.0   16.666666666666668
-450.0   0.0   0.0
-500.0   30.0   0.0
-500.0   0.0   16.666666666666668
-450.0   0.0   16.666666666666668
-500.0   30.0   16.666666666666668
-500.0   0.0   33.333333333333336
-450.0   0.0   16.666666666666668
-450.0   30.0   16.666666666666668
-500.0   30.0   16.666666666666668
-450.0   30.0   33.333333333333336
-500.0   0.0   33.333333333333336
-500.0   30.0   33.333333333333336
-450.0   30.0   33.333333333333336
-500.0   30.0   16.666666666666668
-500.0   0.0   33.333333333333336
-450.0   30.0   33.333333333333336
-450.0   0.0   33.333333333333336
-450.0   0.0   16.666666666666668
-500.0   0.0   33.333333333333336
-450.0   30.0   33.333333333333336
-450.0   0.0   16.666666666666668
-500.0   30.0   16.666666666666668
-500.0   0.0   33.333333333333336
-450.0   0.0   33.333333333333336
-500.0   30.0   33.333333333333336
-500.0   0.0   50.0
-450.0   0.0   33.333333333333336
-450.0   30.0   33.333333333333336
-500.0   30.0   33.333333333333336
-450.0   30.0   50.0
-500.0   0.0   50.0
-500.0   30.0   50.0
-450.0   30.0   50.0
-500.0   30.0   33.333333333333336
-500.0   0.0   50.0
-450.0   30.0   50.0
-450.0   0.0   50.0
-450.0   0.0   33.333333333333336
-500.0   0.0   50.0
-450.0   30.0   50.0
-450.0   0.0   33.333333333333336
-500.0   30.0   33.333333333333336
-500.0   30.0   0.0
-450.0   30.0   0.0
-500.0   60.0   0.0
-500.0   30.0   16.666666666666668
-450.0   30.0   0.0
-450.0   60.0   0.0
-500.0   60.0   0.0
-450.0   60.0   16.666666666666668
-500.0   30.0   16.666666666666668
-500.0   60.0   16.666666666666668
-450.0   60.0   16.666666666666668
-500.0   60.0   0.0
-500.0   30.0   16.666666666666668
-450.0   60.0   16.666666666666668
-450.0   30.0   16.666666666666668
-450.0   30.0   0.0
-500.0   30.0   16.666666666666668
-450.0   60.0   16.666666666666668
-450.0   30.0   0.0
-500.0   60.0   0.0
-500.0   30.0   16.666666666666668
-450.0   30.0   16.666666666666668
-500.0   60.0   16.666666666666668
-500.0   30.0   33.333333333333336
-450.0   30.0   16.666666666666668
-450.0   60.0   16.666666666666668
-500.0   60.0   16.666666666666668
-450.0   60.0   33.333333333333336
-500.0   30.0   33.333333333333336
-500.0   60.0   33.333333333333336
-450.0   60.0   33.333333333333336
-500.0   60.0   16.666666666666668
-500.0   30.0   33.333333333333336
-450.0   60.0   33.333333333333336
-450.0   30.0   33.333333333333336
-450.0   30.0   16.666666666666668
-500.0   30.0   33.333333333333336
-450.0   60.0   33.333333333333336
-450.0   30.0   16.666666666666668
-500.0   60.0   16.666666666666668
-500.0   30.0   33.333333333333336
-450.0   30.0   33.333333333333336
-500.0   60.0   33.333333333333336
-500.0   30.0   50.0
-450.0   30.0   33.333333333333336
-450.0   60.0   33.333333333333336
-500.0   60.0   33.333333333333336
-450.0   60.0   50.0
-500.0   30.0   50.0
-500.0   60.0   50.0
-450.0   60.0   50.0
-500.0   60.0   33.333333333333336
-500.0   30.0   50.0
-450.0   60.0   50.0
-450.0   30.0   50.0
-450.0   30.0   33.333333333333336
-500.0   30.0   50.0
-450.0   60.0   50.0
-450.0   30.0   33.333333333333336
-500.0   60.0   33.333333333333336
-500.0   60.0   0.0
-450.0   60.0   0.0
-500.0   90.0   0.0
-500.0   60.0   16.666666666666668
-450.0   60.0   0.0
-450.0   90.0   0.0
-500.0   90.0   0.0
-450.0   90.0   16.666666666666668
-500.0   60.0   16.666666666666668
-500.0   90.0   16.666666666666668
-450.0   90.0   16.666666666666668
-500.0   90.0   0.0
-500.0   60.0   16.666666666666668
-450.0   90.0   16.666666666666668
-450.0   60.0   16.666666666666668
-450.0   60.0   0.0
-500.0   60.0   16.666666666666668
-450.0   90.0   16.666666666666668
-450.0   60.0   0.0
-500.0   90.0   0.0
-500.0   60.0   16.666666666666668
-450.0   60.0   16.666666666666668
-500.0   90.0   16.666666666666668
-500.0   60.0   33.333333333333336
-450.0   60.0   16.666666666666668
-450.0   90.0   16.666666666666668
-500.0   90.0   16.666666666666668
-450.0   90.0   33.333333333333336
-500.0   60.0   33.333333333333336
-500.0   90.0   33.333333333333336
-450.0   90.0   33.333333333333336
-500.0   90.0   16.666666666666668
-500.0   60.0   33.333333333333336
-450.0   90.0   33.333333333333336
-450.0   60.0   33.333333333333336
-450.0   60.0   16.666666666666668
-500.0   60.0   33.333333333333336
-450.0   90.0   33.333333333333336
-450.0   60.0   16.666666666666668
-500.0   90.0   16.666666666666668
-500.0   60.0   33.333333333333336
-450.0   60.0   33.333333333333336
-500.0   90.0   33.333333333333336
-500.0   60.0   50.0
-450.0   60.0   33.333333333333336
-450.0   90.0   33.333333333333336
-500.0   90.0   33.333333333333336
-450.0   90.0   50.0
-500.0   60.0   50.0
-500.0   90.0   50.0
-450.0   90.0   50.0
-500.0   90.0   33.333333333333336
-500.0   60.0   50.0
-450.0   90.0   50.0
-450.0   60.0   50.0
-450.0   60.0   33.333333333333336
-500.0   60.0   50.0
-450.0   90.0   50.0
-450.0   60.0   33.333333333333336
-500.0   90.0   33.333333333333336
-500.0   90.0   0.0
-450.0   90.0   0.0
-500.0   120.0   0.0
-500.0   90.0   16.666666666666668
-450.0   90.0   0.0
-450.0   120.0   0.0
-500.0   120.0   0.0
-450.0   120.0   16.666666666666668
-500.0   90.0   16.666666666666668
-500.0   120.0   16.666666666666668
-450.0   120.0   16.666666666666668
-500.0   120.0   0.0
-500.0   90.0   16.666666666666668
-450.0   120.0   16.666666666666668
-450.0   90.0   16.666666666666668
-450.0   90.0   0.0
-500.0   90.0   16.666666666666668
-450.0   120.0   16.666666666666668
-450.0   90.0   0.0
-500.0   120.0   0.0
-500.0   90.0   16.666666666666668
-450.0   90.0   16.666666666666668
-500.0   120.0   16.666666666666668
-500.0   90.0   33.333333333333336
-450.0   90.0   16.666666666666668
-450.0   120.0   16.666666666666668
-500.0   120.0   16.666666666666668
-450.0   120.0   33.333333333333336
-500.0   90.0   33.333333333333336
-500.0   120.0   33.333333333333336
-450.0   120.0   33.333333333333336
-500.0   120.0   16.666666666666668
-500.0   90.0   33.333333333333336
-450.0   120.0   33.333333333333336
-450.0   90.0   33.333333333333336
-450.0   90.0   16.666666666666668
-500.0   90.0   33.333333333333336
-450.0   120.0   33.333333333333336
-450.0   90.0   16.666666666666668
-500.0   120.0   16.666666666666668
-500.0   90.0   33.333333333333336
-450.0   90.0   33.333333333333336
-500.0   120.0   33.333333333333336
-500.0   90.0   50.0
-450.0   90.0   33.333333333333336
-450.0   120.0   33.333333333333336
-500.0   120.0   33.333333333333336
-450.0   120.0   50.0
-500.0   90.0   50.0
-500.0   120.0   50.0
-450.0   120.0   50.0
-500.0   120.0   33.333333333333336
-500.0   90.0   50.0
-450.0   120.0   50.0
-450.0   90.0   50.0
-450.0   90.0   33.333333333333336
-500.0   90.0   50.0
-450.0   120.0   50.0
-450.0   90.0   33.333333333333336
-500.0   120.0   33.333333333333336
-500.0   120.0   0.0
-450.0   120.0   0.0
-500.0   150.0   0.0
-500.0   120.0   16.666666666666668
-450.0   120.0   0.0
-450.0   150.0   0.0
-500.0   150.0   0.0
-450.0   150.0   16.666666666666668
-500.0   120.0   16.666666666666668
-500.0   150.0   16.666666666666668
-450.0   150.0   16.666666666666668
-500.0   150.0   0.0
-500.0   120.0   16.666666666666668
-450.0   150.0   16.666666666666668
-450.0   120.0   16.666666666666668
-450.0   120.0   0.0
-500.0   120.0   16.666666666666668
-450.0   150.0   16.666666666666668
-450.0   120.0   0.0
-500.0   150.0   0.0
-500.0   120.0   16.666666666666668
-450.0   120.0   16.666666666666668
-500.0   150.0   16.666666666666668
-500.0   120.0   33.333333333333336
-450.0   120.0   16.666666666666668
-450.0   150.0   16.666666666666668
-500.0   150.0   16.666666666666668
-450.0   150.0   33.333333333333336
-500.0   120.0   33.333333333333336
-500.0   150.0   33.333333333333336
-450.0   150.0   33.333333333333336
-500.0   150.0   16.666666666666668
-500.0   120.0   33.333333333333336
-450.0   150.0   33.333333333333336
-450.0   120.0   33.333333333333336
-450.0   120.0   16.666666666666668
-500.0   120.0   33.333333333333336
-450.0   150.0   33.333333333333336
-450.0   120.0   16.666666666666668
-500.0   150.0   16.666666666666668
-500.0   120.0   33.333333333333336
-450.0   120.0   33.333333333333336
-500.0   150.0   33.333333333333336
-500.0   120.0   50.0
-450.0   120.0   33.333333333333336
-450.0   150.0   33.333333333333336
-500.0   150.0   33.333333333333336
-450.0   150.0   50.0
-500.0   120.0   50.0
-500.0   150.0   50.0
-450.0   150.0   50.0
-500.0   150.0   33.333333333333336
-500.0   120.0   50.0
-450.0   150.0   50.0
-450.0   120.0   50.0
-450.0   120.0   33.333333333333336
-500.0   120.0   50.0
-450.0   150.0   50.0
-450.0   120.0   33.333333333333336
-500.0   150.0   33.333333333333336
-450.0   0.0   0.0
-400.0   0.0   0.0
-450.0   30.0   0.0
-450.0   0.0   16.666666666666668
-400.0   0.0   0.0
-400.0   30.0   0.0
-450.0   30.0   0.0
-400.0   30.0   16.666666666666668
-450.0   0.0   16.666666666666668
-450.0   30.0   16.666666666666668
-400.0   30.0   16.666666666666668
-450.0   30.0   0.0
-450.0   0.0   16.666666666666668
-400.0   30.0   16.666666666666668
-400.0   0.0   16.666666666666668
-400.0   0.0   0.0
-450.0   0.0   16.666666666666668
-400.0   30.0   16.666666666666668
-400.0   0.0   0.0
-450.0   30.0   0.0
-450.0   0.0   16.666666666666668
-400.0   0.0   16.666666666666668
-450.0   30.0   16.666666666666668
-450.0   0.0   33.333333333333336
-400.0   0.0   16.666666666666668
-400.0   30.0   16.666666666666668
-450.0   30.0   16.666666666666668
-400.0   30.0   33.333333333333336
-450.0   0.0   33.333333333333336
-450.0   30.0   33.333333333333336
-400.0   30.0   33.333333333333336
-450.0   30.0   16.666666666666668
-450.0   0.0   33.333333333333336
-400.0   30.0   33.333333333333336
-400.0   0.0   33.333333333333336
-400.0   0.0   16.666666666666668
-450.0   0.0   33.333333333333336
-400.0   30.0   33.333333333333336
-400.0   0.0   16.666666666666668
-450.0   30.0   16.666666666666668
-450.0   0.0   33.333333333333336
-400.0   0.0   33.333333333333336
-450.0   30.0   33.333333333333336
-450.0   0.0   50.0
-400.0   0.0   33.333333333333336
-400.0   30.0   33.333333333333336
-450.0   30.0   33.333333333333336
-400.0   30.0   50.0
-450.0   0.0   50.0
-450.0   30.0   50.0
-400.0   30.0   50.0
-450.0   30.0   33.333333333333336
-450.0   0.0   50.0
-400.0   30.0   50.0
-400.0   0.0   50.0
-400.0   0.0   33.333333333333336
-450.0   0.0   50.0
-400.0   30.0   50.0
-400.0   0.0   33.333333333333336
-450.0   30.0   33.333333333333336
-450.0   30.0   0.0
-400.0   30.0   0.0
-450.0   60.0   0.0
-450.0   30.0   16.666666666666668
-400.0   30.0   0.0
-400.0   60.0   0.0
-450.0   60.0   0.0
-400.0   60.0   16.666666666666668
-450.0   30.0   16.666666666666668
-450.0   60.0   16.666666666666668
-400.0   60.0   16.666666666666668
-450.0   60.0   0.0
-450.0   30.0   16.666666666666668
-400.0   60.0   16.666666666666668
-400.0   30.0   16.666666666666668
-400.0   30.0   0.0
-450.0   30.0   16.666666666666668
-400.0   60.0   16.666666666666668
-400.0   30.0   0.0
-450.0   60.0   0.0
-450.0   30.0   16.666666666666668
-400.0   30.0   16.666666666666668
-450.0   60.0   16.666666666666668
-450.0   30.0   33.333333333333336
-400.0   30.0   16.666666666666668
-400.0   60.0   16.666666666666668
-450.0   60.0   16.666666666666668
-400.0   60.0   33.333333333333336
-450.0   30.0   33.333333333333336
-450.0   60.0   33.333333333333336
-400.0   60.0   33.333333333333336
-450.0   60.0   16.666666666666668
-450.0   30.0   33.333333333333336
-400.0   60.0   33.333333333333336
-400.0   30.0   33.333333333333336
-400.0   30.0   16.666666666666668
-450.0   30.0   33.333333333333336
-400.0   60.0   33.333333333333336
-400.0   30.0   16.666666666666668
-450.0   60.0   16.666666666666668
-450.0   30.0   33.333333333333336
-400.0   30.0   33.333333333333336
-450.0   60.0   33.333333333333336
-450.0   30.0   50.0
-400.0   30.0   33.333333333333336
-400.0   60.0   33.333333333333336
-450.0   60.0   33.333333333333336
-400.0   60.0   50.0
-450.0   30.0   50.0
-450.0   60.0   50.0
-400.0   60.0   50.0
-450.0   60.0   33.333333333333336
-450.0   30.0   50.0
-400.0   60.0   50.0
-400.0   30.0   50.0
-400.0   30.0   33.333333333333336
-450.0   30.0   50.0
-400.0   60.0   50.0
-400.0   30.0   33.333333333333336
-450.0   60.0   33.333333333333336
-450.0   60.0   0.0
-400.0   60.0   0.0
-450.0   90.0   0.0
-450.0   60.0   16.666666666666668
-400.0   60.0   0.0
-400.0   90.0   0.0
-450.0   90.0   0.0
-400.0   90.0   16.666666666666668
-450.0   60.0   16.666666666666668
-450.0   90.0   16.666666666666668
-400.0   90.0   16.666666666666668
-450.0   90.0   0.0
-450.0   60.0   16.666666666666668
-400.0   90.0   16.666666666666668
-400.0   60.0   16.666666666666668
-400.0   60.0   0.0
-450.0   60.0   16.666666666666668
-400.0   90.0   16.666666666666668
-400.0   60.0   0.0
-450.0   90.0   0.0
-450.0   60.0   16.666666666666668
-400.0   60.0   16.666666666666668
-450.0   90.0   16.666666666666668
-450.0   60.0   33.333333333333336
-400.0   60.0   16.666666666666668
-400.0   90.0   16.666666666666668
-450.0   90.0   16.666666666666668
-400.0   90.0   33.333333333333336
-450.0   60.0   33.333333333333336
-450.0   90.0   33.333333333333336
-400.0   90.0   33.333333333333336
-450.0   90.0   16.666666666666668
-450.0   60.0   33.333333333333336
-400.0   90.0   33.333333333333336
-400.0   60.0   33.333333333333336
-400.0   60.0   16.666666666666668
-450.0   60.0   33.333333333333336
-400.0   90.0   33.333333333333336
-400.0   60.0   16.666666666666668
-450.0   90.0   16.666666666666668
-450.0   60.0   33.333333333333336
-400.0   60.0   33.333333333333336
-450.0   90.0   33.333333333333336
-450.0   60.0   50.0
-400.0   60.0   33.333333333333336
-400.0   90.0   33.333333333333336
-450.0   90.0   33.333333333333336
-400.0   90.0   50.0
-450.0   60.0   50.0
-450.0   90.0   50.0
-400.0   90.0   50.0
-450.0   90.0   33.333333333333336
-450.0   60.0   50.0
-400.0   90.0   50.0
-400.0   60.0   50.0
-400.0   60.0   33.333333333333336
-450.0   60.0   50.0
-400.0   90.0   50.0
-400.0   60.0   33.333333333333336
-450.0   90.0   33.333333333333336
-450.0   90.0   0.0
-400.0   90.0   0.0
-450.0   120.0   0.0
-450.0   90.0   16.666666666666668
-400.0   90.0   0.0
-400.0   120.0   0.0
-450.0   120.0   0.0
-400.0   120.0   16.666666666666668
-450.0   90.0   16.666666666666668
-450.0   120.0   16.666666666666668
-400.0   120.0   16.666666666666668
-450.0   120.0   0.0
-450.0   90.0   16.666666666666668
-400.0   120.0   16.666666666666668
-400.0   90.0   16.666666666666668
-400.0   90.0   0.0
-450.0   90.0   16.666666666666668
-400.0   120.0   16.666666666666668
-400.0   90.0   0.0
-450.0   120.0   0.0
-450.0   90.0   16.666666666666668
-400.0   90.0   16.666666666666668
-450.0   120.0   16.666666666666668
-450.0   90.0   33.333333333333336
-400.0   90.0   16.666666666666668
-400.0   120.0   16.666666666666668
-450.0   120.0   16.666666666666668
-400.0   120.0   33.333333333333336
-450.0   90.0   33.333333333333336
-450.0   120.0   33.333333333333336
-400.0   120.0   33.333333333333336
-450.0   120.0   16.666666666666668
-450.0   90.0   33.333333333333336
-400.0   120.0   33.333333333333336
-400.0   90.0   33.333333333333336
-400.0   90.0   16.666666666666668
-450.0   90.0   33.333333333333336
-400.0   120.0   33.333333333333336
-400.0   90.0   16.666666666666668
-450.0   120.0   16.666666666666668
-450.0   90.0   33.333333333333336
-400.0   90.0   33.333333333333336
-450.0   120.0   33.333333333333336
-450.0   90.0   50.0
-400.0   90.0   33.333333333333336
-400.0   120.0   33.333333333333336
-450.0   120.0   33.333333333333336
-400.0   120.0   50.0
-450.0   90.0   50.0
-450.0   120.0   50.0
-400.0   120.0   50.0
-450.0   120.0   33.333333333333336
-450.0   90.0   50.0
-400.0   120.0   50.0
-400.0   90.0   50.0
-400.0   90.0   33.333333333333336
-450.0   90.0   50.0
-400.0   120.0   50.0
-400.0   90.0   33.333333333333336
-450.0   120.0   33.333333333333336
-450.0   120.0   0.0
-400.0   120.0   0.0
-450.0   150.0   0.0
-450.0   120.0   16.666666666666668
-400.0   120.0   0.0
-400.0   150.0   0.0
-450.0   150.0   0.0
-400.0   150.0   16.666666666666668
-450.0   120.0   16.666666666666668
-450.0   150.0   16.666666666666668
-400.0   150.0   16.666666666666668
-450.0   150.0   0.0
-450.0   120.0   16.666666666666668
-400.0   150.0   16.666666666666668
-400.0   120.0   16.666666666666668
-400.0   120.0   0.0
-450.0   120.0   16.666666666666668
-400.0   150.0   16.666666666666668
-400.0   120.0   0.0
-450.0   150.0   0.0
-450.0   120.0   16.666666666666668
-400.0   120.0   16.666666666666668
-450.0   150.0   16.666666666666668
-450.0   120.0   33.333333333333336
-400.0   120.0   16.666666666666668
-400.0   150.0   16.666666666666668
-450.0   150.0   16.666666666666668
-400.0   150.0   33.333333333333336
-450.0   120.0   33.333333333333336
-450.0   150.0   33.333333333333336
-400.0   150.0   33.333333333333336
-450.0   150.0   16.666666666666668
-450.0   120.0   33.333333333333336
-400.0   150.0   33.333333333333336
-400.0   120.0   33.333333333333336
-400.0   120.0   16.666666666666668
-450.0   120.0   33.333333333333336
-400.0   150.0   33.333333333333336
-400.0   120.0   16.666666666666668
-450.0   150.0   16.666666666666668
-450.0   120.0   33.333333333333336
-400.0   120.0   33.333333333333336
-450.0   150.0   33.333333333333336
-450.0   120.0   50.0
-400.0   120.0   33.333333333333336
-400.0   150.0   33.333333333333336
-450.0   150.0   33.333333333333336
-400.0   150.0   50.0
-450.0   120.0   50.0
-450.0   150.0   50.0
-400.0   150.0   50.0
-450.0   150.0   33.333333333333336
-450.0   120.0   50.0
-400.0   150.0   50.0
-400.0   120.0   50.0
-400.0   120.0   33.333333333333336
-450.0   120.0   50.0
-400.0   150.0   50.0
-400.0   120.0   33.333333333333336
-450.0   150.0   33.333333333333336
-400.0   0.0   0.0
-350.0   0.0   0.0
-400.0   30.0   0.0
-400.0   0.0   16.666666666666668
-350.0   0.0   0.0
-350.0   30.0   0.0
-400.0   30.0   0.0
-350.0   30.0   16.666666666666668
-400.0   0.0   16.666666666666668
-400.0   30.0   16.666666666666668
-350.0   30.0   16.666666666666668
-400.0   30.0   0.0
-400.0   0.0   16.666666666666668
-350.0   30.0   16.666666666666668
-350.0   0.0   16.666666666666668
-350.0   0.0   0.0
-400.0   0.0   16.666666666666668
-350.0   30.0   16.666666666666668
-350.0   0.0   0.0
-400.0   30.0   0.0
-400.0   0.0   16.666666666666668
-350.0   0.0   16.666666666666668
-400.0   30.0   16.666666666666668
-400.0   0.0   33.333333333333336
-350.0   0.0   16.666666666666668
-350.0   30.0   16.666666666666668
-400.0   30.0   16.666666666666668
-350.0   30.0   33.333333333333336
-400.0   0.0   33.333333333333336
-400.0   30.0   33.333333333333336
-350.0   30.0   33.333333333333336
-400.0   30.0   16.666666666666668
-400.0   0.0   33.333333333333336
-350.0   30.0   33.333333333333336
-350.0   0.0   33.333333333333336
-350.0   0.0   16.666666666666668
-400.0   0.0   33.333333333333336
-350.0   30.0   33.333333333333336
-350.0   0.0   16.666666666666668
-400.0   30.0   16.666666666666668
-400.0   0.0   33.333333333333336
-350.0   0.0   33.333333333333336
-400.0   30.0   33.333333333333336
-400.0   0.0   50.0
-350.0   0.0   33.333333333333336
-350.0   30.0   33.333333333333336
-400.0   30.0   33.333333333333336
-350.0   30.0   50.0
-400.0   0.0   50.0
-400.0   30.0   50.0
-350.0   30.0   50.0
-400.0   30.0   33.333333333333336
-400.0   0.0   50.0
-350.0   30.0   50.0
-350.0   0.0   50.0
-350.0   0.0   33.333333333333336
-400.0   0.0   50.0
-350.0   30.0   50.0
-350.0   0.0   33.333333333333336
-400.0   30.0   33.333333333333336
-400.0   30.0   0.0
-350.0   30.0   0.0
-400.0   60.0   0.0
-400.0   30.0   16.666666666666668
-350.0   30.0   0.0
-350.0   60.0   0.0
-400.0   60.0   0.0
-350.0   60.0   16.666666666666668
-400.0   30.0   16.666666666666668
-400.0   60.0   16.666666666666668
-350.0   60.0   16.666666666666668
-400.0   60.0   0.0
-400.0   30.0   16.666666666666668
-350.0   60.0   16.666666666666668
-350.0   30.0   16.666666666666668
-350.0   30.0   0.0
-400.0   30.0   16.666666666666668
-350.0   60.0   16.666666666666668
-350.0   30.0   0.0
-400.0   60.0   0.0
-400.0   30.0   16.666666666666668
-350.0   30.0   16.666666666666668
-400.0   60.0   16.666666666666668
-400.0   30.0   33.333333333333336
-350.0   30.0   16.666666666666668
-350.0   60.0   16.666666666666668
-400.0   60.0   16.666666666666668
-350.0   60.0   33.333333333333336
-400.0   30.0   33.333333333333336
-400.0   60.0   33.333333333333336
-350.0   60.0   33.333333333333336
-400.0   60.0   16.666666666666668
-400.0   30.0   33.333333333333336
-350.0   60.0   33.333333333333336
-350.0   30.0   33.333333333333336
-350.0   30.0   16.666666666666668
-400.0   30.0   33.333333333333336
-350.0   60.0   33.333333333333336
-350.0   30.0   16.666666666666668
-400.0   60.0   16.666666666666668
-400.0   30.0   33.333333333333336
-350.0   30.0   33.333333333333336
-400.0   60.0   33.333333333333336
-400.0   30.0   50.0
-350.0   30.0   33.333333333333336
-350.0   60.0   33.333333333333336
-400.0   60.0   33.333333333333336
-350.0   60.0   50.0
-400.0   30.0   50.0
-400.0   60.0   50.0
-350.0   60.0   50.0
-400.0   60.0   33.333333333333336
-400.0   30.0   50.0
-350.0   60.0   50.0
-350.0   30.0   50.0
-350.0   30.0   33.333333333333336
-400.0   30.0   50.0
-350.0   60.0   50.0
-350.0   30.0   33.333333333333336
-400.0   60.0   33.333333333333336
-400.0   60.0   0.0
-350.0   60.0   0.0
-400.0   90.0   0.0
-400.0   60.0   16.666666666666668
-350.0   60.0   0.0
-350.0   90.0   0.0
-400.0   90.0   0.0
-350.0   90.0   16.666666666666668
-400.0   60.0   16.666666666666668
-400.0   90.0   16.666666666666668
-350.0   90.0   16.666666666666668
-400.0   90.0   0.0
-400.0   60.0   16.666666666666668
-350.0   90.0   16.666666666666668
-350.0   60.0   16.666666666666668
-350.0   60.0   0.0
-400.0   60.0   16.666666666666668
-350.0   90.0   16.666666666666668
-350.0   60.0   0.0
-400.0   90.0   0.0
-400.0   60.0   16.666666666666668
-350.0   60.0   16.666666666666668
-400.0   90.0   16.666666666666668
-400.0   60.0   33.333333333333336
-350.0   60.0   16.666666666666668
-350.0   90.0   16.666666666666668
-400.0   90.0   16.666666666666668
-350.0   90.0   33.333333333333336
-400.0   60.0   33.333333333333336
-400.0   90.0   33.333333333333336
-350.0   90.0   33.333333333333336
-400.0   90.0   16.666666666666668
-400.0   60.0   33.333333333333336
-350.0   90.0   33.333333333333336
-350.0   60.0   33.333333333333336
-350.0   60.0   16.666666666666668
-400.0   60.0   33.333333333333336
-350.0   90.0   33.333333333333336
-350.0   60.0   16.666666666666668
-400.0   90.0   16.666666666666668
-400.0   60.0   33.333333333333336
-350.0   60.0   33.333333333333336
-400.0   90.0   33.333333333333336
-400.0   60.0   50.0
-350.0   60.0   33.333333333333336
-350.0   90.0   33.333333333333336
-400.0   90.0   33.333333333333336
-350.0   90.0   50.0
-400.0   60.0   50.0
-400.0   90.0   50.0
-350.0   90.0   50.0
-400.0   90.0   33.333333333333336
-400.0   60.0   50.0
-350.0   90.0   50.0
-350.0   60.0   50.0
-350.0   60.0   33.333333333333336
-400.0   60.0   50.0
-350.0   90.0   50.0
-350.0   60.0   33.333333333333336
-400.0   90.0   33.333333333333336
-400.0   90.0   0.0
-350.0   90.0   0.0
-400.0   120.0   0.0
-400.0   90.0   16.666666666666668
-350.0   90.0   0.0
-350.0   120.0   0.0
-400.0   120.0   0.0
-350.0   120.0   16.666666666666668
-400.0   90.0   16.666666666666668
-400.0   120.0   16.666666666666668
-350.0   120.0   16.666666666666668
-400.0   120.0   0.0
-400.0   90.0   16.666666666666668
-350.0   120.0   16.666666666666668
-350.0   90.0   16.666666666666668
-350.0   90.0   0.0
-400.0   90.0   16.666666666666668
-350.0   120.0   16.666666666666668
-350.0   90.0   0.0
-400.0   120.0   0.0
-400.0   90.0   16.666666666666668
-350.0   90.0   16.666666666666668
-400.0   120.0   16.666666666666668
-400.0   90.0   33.333333333333336
-350.0   90.0   16.666666666666668
-350.0   120.0   16.666666666666668
-400.0   120.0   16.666666666666668
-350.0   120.0   33.333333333333336
-400.0   90.0   33.333333333333336
-400.0   120.0   33.333333333333336
-350.0   120.0   33.333333333333336
-400.0   120.0   16.666666666666668
-400.0   90.0   33.333333333333336
-350.0   120.0   33.333333333333336
-350.0   90.0   33.333333333333336
-350.0   90.0   16.666666666666668
-400.0   90.0   33.333333333333336
-350.0   120.0   33.333333333333336
-350.0   90.0   16.666666666666668
-400.0   120.0   16.666666666666668
-400.0   90.0   33.333333333333336
-350.0   90.0   33.333333333333336
-400.0   120.0   33.333333333333336
-400.0   90.0   50.0
-350.0   90.0   33.333333333333336
-350.0   120.0   33.333333333333336
-400.0   120.0   33.333333333333336
-350.0   120.0   50.0
-400.0   90.0   50.0
-400.0   120.0   50.0
-350.0   120.0   50.0
-400.0   120.0   33.333333333333336
-400.0   90.0   50.0
-350.0   120.0   50.0
-350.0   90.0   50.0
-350.0   90.0   33.333333333333336
-400.0   90.0   50.0
-350.0   120.0   50.0
-350.0   90.0   33.333333333333336
-400.0   120.0   33.333333333333336
-400.0   120.0   0.0
-350.0   120.0   0.0
-400.0   150.0   0.0
-400.0   120.0   16.666666666666668
-350.0   120.0   0.0
-350.0   150.0   0.0
-400.0   150.0   0.0
-350.0   150.0   16.666666666666668
-400.0   120.0   16.666666666666668
-400.0   150.0   16.666666666666668
-350.0   150.0   16.666666666666668
-400.0   150.0   0.0
-400.0   120.0   16.666666666666668
-350.0   150.0   16.666666666666668
-350.0   120.0   16.666666666666668
-350.0   120.0   0.0
-400.0   120.0   16.666666666666668
-350.0   150.0   16.666666666666668
-350.0   120.0   0.0
-400.0   150.0   0.0
-400.0   120.0   16.666666666666668
-350.0   120.0   16.666666666666668
-400.0   150.0   16.666666666666668
-400.0   120.0   33.333333333333336
-350.0   120.0   16.666666666666668
-350.0   150.0   16.666666666666668
-400.0   150.0   16.666666666666668
-350.0   150.0   33.333333333333336
-400.0   120.0   33.333333333333336
-400.0   150.0   33.333333333333336
-350.0   150.0   33.333333333333336
-400.0   150.0   16.666666666666668
-400.0   120.0   33.333333333333336
-350.0   150.0   33.333333333333336
-350.0   120.0   33.333333333333336
-350.0   120.0   16.666666666666668
-400.0   120.0   33.333333333333336
-350.0   150.0   33.333333333333336
-350.0   120.0   16.666666666666668
-400.0   150.0   16.666666666666668
-400.0   120.0   33.333333333333336
-350.0   120.0   33.333333333333336
-400.0   150.0   33.333333333333336
-400.0   120.0   50.0
-350.0   120.0   33.333333333333336
-350.0   150.0   33.333333333333336
-400.0   150.0   33.333333333333336
-350.0   150.0   50.0
-400.0   120.0   50.0
-400.0   150.0   50.0
-350.0   150.0   50.0
-400.0   150.0   33.333333333333336
-400.0   120.0   50.0
-350.0   150.0   50.0
-350.0   120.0   50.0
-350.0   120.0   33.333333333333336
-400.0   120.0   50.0
-350.0   150.0   50.0
-350.0   120.0   33.333333333333336
-400.0   150.0   33.333333333333336
-350.0   0.0   0.0
-300.0   0.0   0.0
-350.0   30.0   0.0
-350.0   0.0   16.666666666666668
-300.0   0.0   0.0
-300.0   30.0   0.0
-350.0   30.0   0.0
-300.0   30.0   16.666666666666668
-350.0   0.0   16.666666666666668
-350.0   30.0   16.666666666666668
-300.0   30.0   16.666666666666668
-350.0   30.0   0.0
-350.0   0.0   16.666666666666668
-300.0   30.0   16.666666666666668
-300.0   0.0   16.666666666666668
-300.0   0.0   0.0
-350.0   0.0   16.666666666666668
-300.0   30.0   16.666666666666668
-300.0   0.0   0.0
-350.0   30.0   0.0
-350.0   0.0   16.666666666666668
-300.0   0.0   16.666666666666668
-350.0   30.0   16.666666666666668
-350.0   0.0   33.333333333333336
-300.0   0.0   16.666666666666668
-300.0   30.0   16.666666666666668
-350.0   30.0   16.666666666666668
-300.0   30.0   33.333333333333336
-350.0   0.0   33.333333333333336
-350.0   30.0   33.333333333333336
-300.0   30.0   33.333333333333336
-350.0   30.0   16.666666666666668
-350.0   0.0   33.333333333333336
-300.0   30.0   33.333333333333336
-300.0   0.0   33.333333333333336
-300.0   0.0   16.666666666666668
-350.0   0.0   33.333333333333336
-300.0   30.0   33.333333333333336
-300.0   0.0   16.666666666666668
-350.0   30.0   16.666666666666668
-350.0   0.0   33.333333333333336
-300.0   0.0   33.333333333333336
-350.0   30.0   33.333333333333336
-350.0   0.0   50.0
-300.0   0.0   33.333333333333336
-300.0   30.0   33.333333333333336
-350.0   30.0   33.333333333333336
-300.0   30.0   50.0
-350.0   0.0   50.0
-350.0   30.0   50.0
-300.0   30.0   50.0
-350.0   30.0   33.333333333333336
-350.0   0.0   50.0
-300.0   30.0   50.0
-300.0   0.0   50.0
-300.0   0.0   33.333333333333336
-350.0   0.0   50.0
-300.0   30.0   50.0
-300.0   0.0   33.333333333333336
-350.0   30.0   33.333333333333336
-350.0   30.0   0.0
-300.0   30.0   0.0
-350.0   60.0   0.0
-350.0   30.0   16.666666666666668
-300.0   30.0   0.0
-300.0   60.0   0.0
-350.0   60.0   0.0
-300.0   60.0   16.666666666666668
-350.0   30.0   16.666666666666668
-350.0   60.0   16.666666666666668
-300.0   60.0   16.666666666666668
-350.0   60.0   0.0
-350.0   30.0   16.666666666666668
-300.0   60.0   16.666666666666668
-300.0   30.0   16.666666666666668
-300.0   30.0   0.0
-350.0   30.0   16.666666666666668
-300.0   60.0   16.666666666666668
-300.0   30.0   0.0
-350.0   60.0   0.0
-350.0   30.0   16.666666666666668
-300.0   30.0   16.666666666666668
-350.0   60.0   16.666666666666668
-350.0   30.0   33.333333333333336
-300.0   30.0   16.666666666666668
-300.0   60.0   16.666666666666668
-350.0   60.0   16.666666666666668
-300.0   60.0   33.333333333333336
-350.0   30.0   33.333333333333336
-350.0   60.0   33.333333333333336
-300.0   60.0   33.333333333333336
-350.0   60.0   16.666666666666668
-350.0   30.0   33.333333333333336
-300.0   60.0   33.333333333333336
-300.0   30.0   33.333333333333336
-300.0   30.0   16.666666666666668
-350.0   30.0   33.333333333333336
-300.0   60.0   33.333333333333336
-300.0   30.0   16.666666666666668
-350.0   60.0   16.666666666666668
-350.0   30.0   33.333333333333336
-300.0   30.0   33.333333333333336
-350.0   60.0   33.333333333333336
-350.0   30.0   50.0
-300.0   30.0   33.333333333333336
-300.0   60.0   33.333333333333336
-350.0   60.0   33.333333333333336
-300.0   60.0   50.0
-350.0   30.0   50.0
-350.0   60.0   50.0
-300.0   60.0   50.0
-350.0   60.0   33.333333333333336
-350.0   30.0   50.0
-300.0   60.0   50.0
-300.0   30.0   50.0
-300.0   30.0   33.333333333333336
-350.0   30.0   50.0
-300.0   60.0   50.0
-300.0   30.0   33.333333333333336
-350.0   60.0   33.333333333333336
-350.0   60.0   0.0
-300.0   60.0   0.0
-350.0   90.0   0.0
-350.0   60.0   16.666666666666668
-300.0   60.0   0.0
-300.0   90.0   0.0
-350.0   90.0   0.0
-300.0   90.0   16.666666666666668
-350.0   60.0   16.666666666666668
-350.0   90.0   16.666666666666668
-300.0   90.0   16.666666666666668
-350.0   90.0   0.0
-350.0   60.0   16.666666666666668
-300.0   90.0   16.666666666666668
-300.0   60.0   16.666666666666668
-300.0   60.0   0.0
-350.0   60.0   16.666666666666668
-300.0   90.0   16.666666666666668
-300.0   60.0   0.0
-350.0   90.0   0.0
-350.0   60.0   16.666666666666668
-300.0   60.0   16.666666666666668
-350.0   90.0   16.666666666666668
-350.0   60.0   33.333333333333336
-300.0   60.0   16.666666666666668
-300.0   90.0   16.666666666666668
-350.0   90.0   16.666666666666668
-300.0   90.0   33.333333333333336
-350.0   60.0   33.333333333333336
-350.0   90.0   33.333333333333336
-300.0   90.0   33.333333333333336
-350.0   90.0   16.666666666666668
-350.0   60.0   33.333333333333336
-300.0   90.0   33.333333333333336
-300.0   60.0   33.333333333333336
-300.0   60.0   16.666666666666668
-350.0   60.0   33.333333333333336
-300.0   90.0   33.333333333333336
-300.0   60.0   16.666666666666668
-350.0   90.0   16.666666666666668
-350.0   60.0   33.333333333333336
-300.0   60.0   33.333333333333336
-350.0   90.0   33.333333333333336
-350.0   60.0   50.0
-300.0   60.0   33.333333333333336
-300.0   90.0   33.333333333333336
-350.0   90.0   33.333333333333336
-300.0   90.0   50.0
-350.0   60.0   50.0
-350.0   90.0   50.0
-300.0   90.0   50.0
-350.0   90.0   33.333333333333336
-350.0   60.0   50.0
-300.0   90.0   50.0
-300.0   60.0   50.0
-300.0   60.0   33.333333333333336
-350.0   60.0   50.0
-300.0   90.0   50.0
-300.0   60.0   33.333333333333336
-350.0   90.0   33.333333333333336
-350.0   90.0   0.0
-300.0   90.0   0.0
-350.0   120.0   0.0
-350.0   90.0   16.666666666666668
-300.0   90.0   0.0
-300.0   120.0   0.0
-350.0   120.0   0.0
-300.0   120.0   16.666666666666668
-350.0   90.0   16.666666666666668
-350.0   120.0   16.666666666666668
-300.0   120.0   16.666666666666668
-350.0   120.0   0.0
-350.0   90.0   16.666666666666668
-300.0   120.0   16.666666666666668
-300.0   90.0   16.666666666666668
-300.0   90.0   0.0
-350.0   90.0   16.666666666666668
-300.0   120.0   16.666666666666668
-300.0   90.0   0.0
-350.0   120.0   0.0
-350.0   90.0   16.666666666666668
-300.0   90.0   16.666666666666668
-350.0   120.0   16.666666666666668
-350.0   90.0   33.333333333333336
-300.0   90.0   16.666666666666668
-300.0   120.0   16.666666666666668
-350.0   120.0   16.666666666666668
-300.0   120.0   33.333333333333336
-350.0   90.0   33.333333333333336
-350.0   120.0   33.333333333333336
-300.0   120.0   33.333333333333336
-350.0   120.0   16.666666666666668
-350.0   90.0   33.333333333333336
-300.0   120.0   33.333333333333336
-300.0   90.0   33.333333333333336
-300.0   90.0   16.666666666666668
-350.0   90.0   33.333333333333336
-300.0   120.0   33.333333333333336
-300.0   90.0   16.666666666666668
-350.0   120.0   16.666666666666668
-350.0   90.0   33.333333333333336
-300.0   90.0   33.333333333333336
-350.0   120.0   33.333333333333336
-350.0   90.0   50.0
-300.0   90.0   33.333333333333336
-300.0   120.0   33.333333333333336
-350.0   120.0   33.333333333333336
-300.0   120.0   50.0
-350.0   90.0   50.0
-350.0   120.0   50.0
-300.0   120.0   50.0
-350.0   120.0   33.333333333333336
-350.0   90.0   50.0
-300.0   120.0   50.0
-300.0   90.0   50.0
-300.0   90.0   33.333333333333336
-350.0   90.0   50.0
-300.0   120.0   50.0
-300.0   90.0   33.333333333333336
-350.0   120.0   33.333333333333336
-350.0   120.0   0.0
-300.0   120.0   0.0
-350.0   150.0   0.0
-350.0   120.0   16.666666666666668
-300.0   120.0   0.0
-300.0   150.0   0.0
-350.0   150.0   0.0
-300.0   150.0   16.666666666666668
-350.0   120.0   16.666666666666668
-350.0   150.0   16.666666666666668
-300.0   150.0   16.666666666666668
-350.0   150.0   0.0
-350.0   120.0   16.666666666666668
-300.0   150.0   16.666666666666668
-300.0   120.0   16.666666666666668
-300.0   120.0   0.0
-350.0   120.0   16.666666666666668
-300.0   150.0   16.666666666666668
-300.0   120.0   0.0
-350.0   150.0   0.0
-350.0   120.0   16.666666666666668
-300.0   120.0   16.666666666666668
-350.0   150.0   16.666666666666668
-350.0   120.0   33.333333333333336
-300.0   120.0   16.666666666666668
-300.0   150.0   16.666666666666668
-350.0   150.0   16.666666666666668
-300.0   150.0   33.333333333333336
-350.0   120.0   33.333333333333336
-350.0   150.0   33.333333333333336
-300.0   150.0   33.333333333333336
-350.0   150.0   16.666666666666668
-350.0   120.0   33.333333333333336
-300.0   150.0   33.333333333333336
-300.0   120.0   33.333333333333336
-300.0   120.0   16.666666666666668
-350.0   120.0   33.333333333333336
-300.0   150.0   33.333333333333336
-300.0   120.0   16.666666666666668
-350.0   150.0   16.666666666666668
-350.0   120.0   33.333333333333336
-300.0   120.0   33.333333333333336
-350.0   150.0   33.333333333333336
-350.0   120.0   50.0
-300.0   120.0   33.333333333333336
-300.0   150.0   33.333333333333336
-350.0   150.0   33.333333333333336
-300.0   150.0   50.0
-350.0   120.0   50.0
-350.0   150.0   50.0
-300.0   150.0   50.0
-350.0   150.0   33.333333333333336
-350.0   120.0   50.0
-300.0   150.0   50.0
-300.0   120.0   50.0
-300.0   120.0   33.333333333333336
-350.0   120.0   50.0
-300.0   150.0   50.0
-300.0   120.0   33.333333333333336
-350.0   150.0   33.333333333333336
-300.0   0.0   0.0
-250.0   0.0   0.0
-300.0   30.0   0.0
-300.0   0.0   16.666666666666668
-250.0   0.0   0.0
-250.0   30.0   0.0
-300.0   30.0   0.0
-250.0   30.0   16.666666666666668
-300.0   0.0   16.666666666666668
-300.0   30.0   16.666666666666668
-250.0   30.0   16.666666666666668
-300.0   30.0   0.0
-300.0   0.0   16.666666666666668
-250.0   30.0   16.666666666666668
-250.0   0.0   16.666666666666668
-250.0   0.0   0.0
-300.0   0.0   16.666666666666668
-250.0   30.0   16.666666666666668
-250.0   0.0   0.0
-300.0   30.0   0.0
-300.0   0.0   16.666666666666668
-250.0   0.0   16.666666666666668
-300.0   30.0   16.666666666666668
-300.0   0.0   33.333333333333336
-250.0   0.0   16.666666666666668
-250.0   30.0   16.666666666666668
-300.0   30.0   16.666666666666668
-250.0   30.0   33.333333333333336
-300.0   0.0   33.333333333333336
-300.0   30.0   33.333333333333336
-250.0   30.0   33.333333333333336
-300.0   30.0   16.666666666666668
-300.0   0.0   33.333333333333336
-250.0   30.0   33.333333333333336
-250.0   0.0   33.333333333333336
-250.0   0.0   16.666666666666668
-300.0   0.0   33.333333333333336
-250.0   30.0   33.333333333333336
-250.0   0.0   16.666666666666668
-300.0   30.0   16.666666666666668
-300.0   0.0   33.333333333333336
-250.0   0.0   33.333333333333336
-300.0   30.0   33.333333333333336
-300.0   0.0   50.0
-250.0   0.0   33.333333333333336
-250.0   30.0   33.333333333333336
-300.0   30.0   33.333333333333336
-250.0   30.0   50.0
-300.0   0.0   50.0
-300.0   30.0   50.0
-250.0   30.0   50.0
-300.0   30.0   33.333333333333336
-300.0   0.0   50.0
-250.0   30.0   50.0
-250.0   0.0   50.0
-250.0   0.0   33.333333333333336
-300.0   0.0   50.0
-250.0   30.0   50.0
-250.0   0.0   33.333333333333336
-300.0   30.0   33.333333333333336
-300.0   30.0   0.0
-250.0   30.0   0.0
-300.0   60.0   0.0
-300.0   30.0   16.666666666666668
-250.0   30.0   0.0
-250.0   60.0   0.0
-300.0   60.0   0.0
-250.0   60.0   16.666666666666668
-300.0   30.0   16.666666666666668
-300.0   60.0   16.666666666666668
-250.0   60.0   16.666666666666668
-300.0   60.0   0.0
-300.0   30.0   16.666666666666668
-250.0   60.0   16.666666666666668
-250.0   30.0   16.666666666666668
-250.0   30.0   0.0
-300.0   30.0   16.666666666666668
-250.0   60.0   16.666666666666668
-250.0   30.0   0.0
-300.0   60.0   0.0
-300.0   30.0   16.666666666666668
-250.0   30.0   16.666666666666668
-300.0   60.0   16.666666666666668
-300.0   30.0   33.333333333333336
-250.0   30.0   16.666666666666668
-250.0   60.0   16.666666666666668
-300.0   60.0   16.666666666666668
-250.0   60.0   33.333333333333336
-300.0   30.0   33.333333333333336
-300.0   60.0   33.333333333333336
-250.0   60.0   33.333333333333336
-300.0   60.0   16.666666666666668
-300.0   30.0   33.333333333333336
-250.0   60.0   33.333333333333336
-250.0   30.0   33.333333333333336
-250.0   30.0   16.666666666666668
-300.0   30.0   33.333333333333336
-250.0   60.0   33.333333333333336
-250.0   30.0   16.666666666666668
-300.0   60.0   16.666666666666668
-300.0   30.0   33.333333333333336
-250.0   30.0   33.333333333333336
-300.0   60.0   33.333333333333336
-300.0   30.0   50.0
-250.0   30.0   33.333333333333336
-250.0   60.0   33.333333333333336
-300.0   60.0   33.333333333333336
-250.0   60.0   50.0
-300.0   30.0   50.0
-300.0   60.0   50.0
-250.0   60.0   50.0
-300.0   60.0   33.333333333333336
-300.0   30.0   50.0
-250.0   60.0   50.0
-250.0   30.0   50.0
-250.0   30.0   33.333333333333336
-300.0   30.0   50.0
-250.0   60.0   50.0
-250.0   30.0   33.333333333333336
-300.0   60.0   33.333333333333336
-300.0   60.0   0.0
-250.0   60.0   0.0
-300.0   90.0   0.0
-300.0   60.0   16.666666666666668
-250.0   60.0   0.0
-250.0   90.0   0.0
-300.0   90.0   0.0
-250.0   90.0   16.666666666666668
-300.0   60.0   16.666666666666668
-300.0   90.0   16.666666666666668
-250.0   90.0   16.666666666666668
-300.0   90.0   0.0
-300.0   60.0   16.666666666666668
-250.0   90.0   16.666666666666668
-250.0   60.0   16.666666666666668
-250.0   60.0   0.0
-300.0   60.0   16.666666666666668
-250.0   90.0   16.666666666666668
-250.0   60.0   0.0
-300.0   90.0   0.0
-300.0   60.0   16.666666666666668
-250.0   60.0   16.666666666666668
-300.0   90.0   16.666666666666668
-300.0   60.0   33.333333333333336
-250.0   60.0   16.666666666666668
-250.0   90.0   16.666666666666668
-300.0   90.0   16.666666666666668
-250.0   90.0   33.333333333333336
-300.0   60.0   33.333333333333336
-300.0   90.0   33.333333333333336
-250.0   90.0   33.333333333333336
-300.0   90.0   16.666666666666668
-300.0   60.0   33.333333333333336
-250.0   90.0   33.333333333333336
-250.0   60.0   33.333333333333336
-250.0   60.0   16.666666666666668
-300.0   60.0   33.333333333333336
-250.0   90.0   33.333333333333336
-250.0   60.0   16.666666666666668
-300.0   90.0   16.666666666666668
-300.0   60.0   33.333333333333336
-250.0   60.0   33.333333333333336
-300.0   90.0   33.333333333333336
-300.0   60.0   50.0
-250.0   60.0   33.333333333333336
-250.0   90.0   33.333333333333336
-300.0   90.0   33.333333333333336
-250.0   90.0   50.0
-300.0   60.0   50.0
-300.0   90.0   50.0
-250.0   90.0   50.0
-300.0   90.0   33.333333333333336
-300.0   60.0   50.0
-250.0   90.0   50.0
-250.0   60.0   50.0
-250.0   60.0   33.333333333333336
-300.0   60.0   50.0
-250.0   90.0   50.0
-250.0   60.0   33.333333333333336
-300.0   90.0   33.333333333333336
-300.0   90.0   0.0
-250.0   90.0   0.0
-300.0   120.0   0.0
-300.0   90.0   16.666666666666668
-250.0   90.0   0.0
-250.0   120.0   0.0
-300.0   120.0   0.0
-250.0   120.0   16.666666666666668
-300.0   90.0   16.666666666666668
-300.0   120.0   16.666666666666668
-250.0   120.0   16.666666666666668
-300.0   120.0   0.0
-300.0   90.0   16.666666666666668
-250.0   120.0   16.666666666666668
-250.0   90.0   16.666666666666668
-250.0   90.0   0.0
-300.0   90.0   16.666666666666668
-250.0   120.0   16.666666666666668
-250.0   90.0   0.0
-300.0   120.0   0.0
-300.0   90.0   16.666666666666668
-250.0   90.0   16.666666666666668
-300.0   120.0   16.666666666666668
-300.0   90.0   33.333333333333336
-250.0   90.0   16.666666666666668
-250.0   120.0   16.666666666666668
-300.0   120.0   16.666666666666668
-250.0   120.0   33.333333333333336
-300.0   90.0   33.333333333333336
-300.0   120.0   33.333333333333336
-250.0   120.0   33.333333333333336
-300.0   120.0   16.666666666666668
-300.0   90.0   33.333333333333336
-250.0   120.0   33.333333333333336
-250.0   90.0   33.333333333333336
-250.0   90.0   16.666666666666668
-300.0   90.0   33.333333333333336
-250.0   120.0   33.333333333333336
-250.0   90.0   16.666666666666668
-300.0   120.0   16.666666666666668
-300.0   90.0   33.333333333333336
-250.0   90.0   33.333333333333336
-300.0   120.0   33.333333333333336
-300.0   90.0   50.0
-250.0   90.0   33.333333333333336
-250.0   120.0   33.333333333333336
-300.0   120.0   33.333333333333336
-250.0   120.0   50.0
-300.0   90.0   50.0
-300.0   120.0   50.0
-250.0   120.0   50.0
-300.0   120.0   33.333333333333336
-300.0   90.0   50.0
-250.0   120.0   50.0
-250.0   90.0   50.0
-250.0   90.0   33.333333333333336
-300.0   90.0   50.0
-250.0   120.0   50.0
-250.0   90.0   33.333333333333336
-300.0   120.0   33.333333333333336
-300.0   120.0   0.0
-250.0   120.0   0.0
-300.0   150.0   0.0
-300.0   120.0   16.666666666666668
-250.0   120.0   0.0
-250.0   150.0   0.0
-300.0   150.0   0.0
-250.0   150.0   16.666666666666668
-300.0   120.0   16.666666666666668
-300.0   150.0   16.666666666666668
-250.0   150.0   16.666666666666668
-300.0   150.0   0.0
-300.0   120.0   16.666666666666668
-250.0   150.0   16.666666666666668
-250.0   120.0   16.666666666666668
-250.0   120.0   0.0
-300.0   120.0   16.666666666666668
-250.0   150.0   16.666666666666668
-250.0   120.0   0.0
-300.0   150.0   0.0
-300.0   120.0   16.666666666666668
-250.0   120.0   16.666666666666668
-300.0   150.0   16.666666666666668
-300.0   120.0   33.333333333333336
-250.0   120.0   16.666666666666668
-250.0   150.0   16.666666666666668
-300.0   150.0   16.666666666666668
-250.0   150.0   33.333333333333336
-300.0   120.0   33.333333333333336
-300.0   150.0   33.333333333333336
-250.0   150.0   33.333333333333336
-300.0   150.0   16.666666666666668
-300.0   120.0   33.333333333333336
-250.0   150.0   33.333333333333336
-250.0   120.0   33.333333333333336
-250.0   120.0   16.666666666666668
-300.0   120.0   33.333333333333336
-250.0   150.0   33.333333333333336
-250.0   120.0   16.666666666666668
-300.0   150.0   16.666666666666668
-300.0   120.0   33.333333333333336
-250.0   120.0   33.333333333333336
-300.0   150.0   33.333333333333336
-300.0   120.0   50.0
-250.0   120.0   33.333333333333336
-250.0   150.0   33.333333333333336
-300.0   150.0   33.333333333333336
-250.0   150.0   50.0
-300.0   120.0   50.0
-300.0   150.0   50.0
-250.0   150.0   50.0
-300.0   150.0   33.333333333333336
-300.0   120.0   50.0
-250.0   150.0   50.0
-250.0   120.0   50.0
-250.0   120.0   33.333333333333336
-300.0   120.0   50.0
-250.0   150.0   50.0
-250.0   120.0   33.333333333333336
-300.0   150.0   33.333333333333336
-250.0   0.0   0.0
-200.0   0.0   0.0
-250.0   30.0   0.0
-250.0   0.0   16.666666666666668
-200.0   0.0   0.0
-200.0   30.0   0.0
-250.0   30.0   0.0
-200.0   30.0   16.666666666666668
-250.0   0.0   16.666666666666668
-250.0   30.0   16.666666666666668
-200.0   30.0   16.666666666666668
-250.0   30.0   0.0
-250.0   0.0   16.666666666666668
-200.0   30.0   16.666666666666668
-200.0   0.0   16.666666666666668
-200.0   0.0   0.0
-250.0   0.0   16.666666666666668
-200.0   30.0   16.666666666666668
-200.0   0.0   0.0
-250.0   30.0   0.0
-250.0   0.0   16.666666666666668
-200.0   0.0   16.666666666666668
-250.0   30.0   16.666666666666668
-250.0   0.0   33.333333333333336
-200.0   0.0   16.666666666666668
-200.0   30.0   16.666666666666668
-250.0   30.0   16.666666666666668
-200.0   30.0   33.333333333333336
-250.0   0.0   33.333333333333336
-250.0   30.0   33.333333333333336
-200.0   30.0   33.333333333333336
-250.0   30.0   16.666666666666668
-250.0   0.0   33.333333333333336
-200.0   30.0   33.333333333333336
-200.0   0.0   33.333333333333336
-200.0   0.0   16.666666666666668
-250.0   0.0   33.333333333333336
-200.0   30.0   33.333333333333336
-200.0   0.0   16.666666666666668
-250.0   30.0   16.666666666666668
-250.0   0.0   33.333333333333336
-200.0   0.0   33.333333333333336
-250.0   30.0   33.333333333333336
-250.0   0.0   50.0
-200.0   0.0   33.333333333333336
-200.0   30.0   33.333333333333336
-250.0   30.0   33.333333333333336
-200.0   30.0   50.0
-250.0   0.0   50.0
-250.0   30.0   50.0
-200.0   30.0   50.0
-250.0   30.0   33.333333333333336
-250.0   0.0   50.0
-200.0   30.0   50.0
-200.0   0.0   50.0
-200.0   0.0   33.333333333333336
-250.0   0.0   50.0
-200.0   30.0   50.0
-200.0   0.0   33.333333333333336
-250.0   30.0   33.333333333333336
-250.0   30.0   0.0
-200.0   30.0   0.0
-250.0   60.0   0.0
-250.0   30.0   16.666666666666668
-200.0   30.0   0.0
-200.0   60.0   0.0
-250.0   60.0   0.0
-200.0   60.0   16.666666666666668
-250.0   30.0   16.666666666666668
-250.0   60.0   16.666666666666668
-200.0   60.0   16.666666666666668
-250.0   60.0   0.0
-250.0   30.0   16.666666666666668
-200.0   60.0   16.666666666666668
-200.0   30.0   16.666666666666668
-200.0   30.0   0.0
-250.0   30.0   16.666666666666668
-200.0   60.0   16.666666666666668
-200.0   30.0   0.0
-250.0   60.0   0.0
-250.0   30.0   16.666666666666668
-200.0   30.0   16.666666666666668
-250.0   60.0   16.666666666666668
-250.0   30.0   33.333333333333336
-200.0   30.0   16.666666666666668
-200.0   60.0   16.666666666666668
-250.0   60.0   16.666666666666668
-200.0   60.0   33.333333333333336
-250.0   30.0   33.333333333333336
-250.0   60.0   33.333333333333336
-200.0   60.0   33.333333333333336
-250.0   60.0   16.666666666666668
-250.0   30.0   33.333333333333336
-200.0   60.0   33.333333333333336
-200.0   30.0   33.333333333333336
-200.0   30.0   16.666666666666668
-250.0   30.0   33.333333333333336
-200.0   60.0   33.333333333333336
-200.0   30.0   16.666666666666668
-250.0   60.0   16.666666666666668
-250.0   30.0   33.333333333333336
-200.0   30.0   33.333333333333336
-250.0   60.0   33.333333333333336
-250.0   30.0   50.0
-200.0   30.0   33.333333333333336
-200.0   60.0   33.333333333333336
-250.0   60.0   33.333333333333336
-200.0   60.0   50.0
-250.0   30.0   50.0
-250.0   60.0   50.0
-200.0   60.0   50.0
-250.0   60.0   33.333333333333336
-250.0   30.0   50.0
-200.0   60.0   50.0
-200.0   30.0   50.0
-200.0   30.0   33.333333333333336
-250.0   30.0   50.0
-200.0   60.0   50.0
-200.0   30.0   33.333333333333336
-250.0   60.0   33.333333333333336
-250.0   60.0   0.0
-200.0   60.0   0.0
-250.0   90.0   0.0
-250.0   60.0   16.666666666666668
-200.0   60.0   0.0
-200.0   90.0   0.0
-250.0   90.0   0.0
-200.0   90.0   16.666666666666668
-250.0   60.0   16.666666666666668
-250.0   90.0   16.666666666666668
-200.0   90.0   16.666666666666668
-250.0   90.0   0.0
-250.0   60.0   16.666666666666668
-200.0   90.0   16.666666666666668
-200.0   60.0   16.666666666666668
-200.0   60.0   0.0
-250.0   60.0   16.666666666666668
-200.0   90.0   16.666666666666668
-200.0   60.0   0.0
-250.0   90.0   0.0
-250.0   60.0   16.666666666666668
-200.0   60.0   16.666666666666668
-250.0   90.0   16.666666666666668
-250.0   60.0   33.333333333333336
-200.0   60.0   16.666666666666668
-200.0   90.0   16.666666666666668
-250.0   90.0   16.666666666666668
-200.0   90.0   33.333333333333336
-250.0   60.0   33.333333333333336
-250.0   90.0   33.333333333333336
-200.0   90.0   33.333333333333336
-250.0   90.0   16.666666666666668
-250.0   60.0   33.333333333333336
-200.0   90.0   33.333333333333336
-200.0   60.0   33.333333333333336
-200.0   60.0   16.666666666666668
-250.0   60.0   33.333333333333336
-200.0   90.0   33.333333333333336
-200.0   60.0   16.666666666666668
-250.0   90.0   16.666666666666668
-250.0   60.0   33.333333333333336
-200.0   60.0   33.333333333333336
-250.0   90.0   33.333333333333336
-250.0   60.0   50.0
-200.0   60.0   33.333333333333336
-200.0   90.0   33.333333333333336
-250.0   90.0   33.333333333333336
-200.0   90.0   50.0
-250.0   60.0   50.0
-250.0   90.0   50.0
-200.0   90.0   50.0
-250.0   90.0   33.333333333333336
-250.0   60.0   50.0
-200.0   90.0   50.0
-200.0   60.0   50.0
-200.0   60.0   33.333333333333336
-250.0   60.0   50.0
-200.0   90.0   50.0
-200.0   60.0   33.333333333333336
-250.0   90.0   33.333333333333336
-250.0   90.0   0.0
-200.0   90.0   0.0
-250.0   120.0   0.0
-250.0   90.0   16.666666666666668
-200.0   90.0   0.0
-200.0   120.0   0.0
-250.0   120.0   0.0
-200.0   120.0   16.666666666666668
-250.0   90.0   16.666666666666668
-250.0   120.0   16.666666666666668
-200.0   120.0   16.666666666666668
-250.0   120.0   0.0
-250.0   90.0   16.666666666666668
-200.0   120.0   16.666666666666668
-200.0   90.0   16.666666666666668
-200.0   90.0   0.0
-250.0   90.0   16.666666666666668
-200.0   120.0   16.666666666666668
-200.0   90.0   0.0
-250.0   120.0   0.0
-250.0   90.0   16.666666666666668
-200.0   90.0   16.666666666666668
-250.0   120.0   16.666666666666668
-250.0   90.0   33.333333333333336
-200.0   90.0   16.666666666666668
-200.0   120.0   16.666666666666668
-250.0   120.0   16.666666666666668
-200.0   120.0   33.333333333333336
-250.0   90.0   33.333333333333336
-250.0   120.0   33.333333333333336
-200.0   120.0   33.333333333333336
-250.0   120.0   16.666666666666668
-250.0   90.0   33.333333333333336
-200.0   120.0   33.333333333333336
-200.0   90.0   33.333333333333336
-200.0   90.0   16.666666666666668
-250.0   90.0   33.333333333333336
-200.0   120.0   33.333333333333336
-200.0   90.0   16.666666666666668
-250.0   120.0   16.666666666666668
-250.0   90.0   33.333333333333336
-200.0   90.0   33.333333333333336
-250.0   120.0   33.333333333333336
-250.0   90.0   50.0
-200.0   90.0   33.333333333333336
-200.0   120.0   33.333333333333336
-250.0   120.0   33.333333333333336
-200.0   120.0   50.0
-250.0   90.0   50.0
-250.0   120.0   50.0
-200.0   120.0   50.0
-250.0   120.0   33.333333333333336
-250.0   90.0   50.0
-200.0   120.0   50.0
-200.0   90.0   50.0
-200.0   90.0   33.333333333333336
-250.0   90.0   50.0
-200.0   120.0   50.0
-200.0   90.0   33.333333333333336
-250.0   120.0   33.333333333333336
-250.0   120.0   0.0
-200.0   120.0   0.0
-250.0   150.0   0.0
-250.0   120.0   16.666666666666668
-200.0   120.0   0.0
-200.0   150.0   0.0
-250.0   150.0   0.0
-200.0   150.0   16.666666666666668
-250.0   120.0   16.666666666666668
-250.0   150.0   16.666666666666668
-200.0   150.0   16.666666666666668
-250.0   150.0   0.0
-250.0   120.0   16.666666666666668
-200.0   150.0   16.666666666666668
-200.0   120.0   16.666666666666668
-200.0   120.0   0.0
-250.0   120.0   16.666666666666668
-200.0   150.0   16.666666666666668
-200.0   120.0   0.0
-250.0   150.0   0.0
-250.0   120.0   16.666666666666668
-200.0   120.0   16.666666666666668
-250.0   150.0   16.666666666666668
-250.0   120.0   33.333333333333336
-200.0   120.0   16.666666666666668
-200.0   150.0   16.666666666666668
-250.0   150.0   16.666666666666668
-200.0   150.0   33.333333333333336
-250.0   120.0   33.333333333333336
-250.0   150.0   33.333333333333336
-200.0   150.0   33.333333333333336
-250.0   150.0   16.666666666666668
-250.0   120.0   33.333333333333336
-200.0   150.0   33.333333333333336
-200.0   120.0   33.333333333333336
-200.0   120.0   16.666666666666668
-250.0   120.0   33.333333333333336
-200.0   150.0   33.333333333333336
-200.0   120.0   16.666666666666668
-250.0   150.0   16.666666666666668
-250.0   120.0   33.333333333333336
-200.0   120.0   33.333333333333336
-250.0   150.0   33.333333333333336
-250.0   120.0   50.0
-200.0   120.0   33.333333333333336
-200.0   150.0   33.333333333333336
-250.0   150.0   33.333333333333336
-200.0   150.0   50.0
-250.0   120.0   50.0
-250.0   150.0   50.0
-200.0   150.0   50.0
-250.0   150.0   33.333333333333336
-250.0   120.0   50.0
-200.0   150.0   50.0
-200.0   120.0   50.0
-200.0   120.0   33.333333333333336
-250.0   120.0   50.0
-200.0   150.0   50.0
-200.0   120.0   33.333333333333336
-250.0   150.0   33.333333333333336
-200.0   0.0   0.0
-150.0   0.0   0.0
-200.0   30.0   0.0
-200.0   0.0   16.666666666666668
-150.0   0.0   0.0
-150.0   30.0   0.0
-200.0   30.0   0.0
-150.0   30.0   16.666666666666668
-200.0   0.0   16.666666666666668
-200.0   30.0   16.666666666666668
-150.0   30.0   16.666666666666668
-200.0   30.0   0.0
-200.0   0.0   16.666666666666668
-150.0   30.0   16.666666666666668
-150.0   0.0   16.666666666666668
-150.0   0.0   0.0
-200.0   0.0   16.666666666666668
-150.0   30.0   16.666666666666668
-150.0   0.0   0.0
-200.0   30.0   0.0
-200.0   0.0   16.666666666666668
-150.0   0.0   16.666666666666668
-200.0   30.0   16.666666666666668
-200.0   0.0   33.333333333333336
-150.0   0.0   16.666666666666668
-150.0   30.0   16.666666666666668
-200.0   30.0   16.666666666666668
-150.0   30.0   33.333333333333336
-200.0   0.0   33.333333333333336
-200.0   30.0   33.333333333333336
-150.0   30.0   33.333333333333336
-200.0   30.0   16.666666666666668
-200.0   0.0   33.333333333333336
-150.0   30.0   33.333333333333336
-150.0   0.0   33.333333333333336
-150.0   0.0   16.666666666666668
-200.0   0.0   33.333333333333336
-150.0   30.0   33.333333333333336
-150.0   0.0   16.666666666666668
-200.0   30.0   16.666666666666668
-200.0   0.0   33.333333333333336
-150.0   0.0   33.333333333333336
-200.0   30.0   33.333333333333336
-200.0   0.0   50.0
-150.0   0.0   33.333333333333336
-150.0   30.0   33.333333333333336
-200.0   30.0   33.333333333333336
-150.0   30.0   50.0
-200.0   0.0   50.0
-200.0   30.0   50.0
-150.0   30.0   50.0
-200.0   30.0   33.333333333333336
-200.0   0.0   50.0
-150.0   30.0   50.0
-150.0   0.0   50.0
-150.0   0.0   33.333333333333336
-200.0   0.0   50.0
-150.0   30.0   50.0
-150.0   0.0   33.333333333333336
-200.0   30.0   33.333333333333336
-200.0   30.0   0.0
-150.0   30.0   0.0
-200.0   60.0   0.0
-200.0   30.0   16.666666666666668
-150.0   30.0   0.0
-150.0   60.0   0.0
-200.0   60.0   0.0
-150.0   60.0   16.666666666666668
-200.0   30.0   16.666666666666668
-200.0   60.0   16.666666666666668
-150.0   60.0   16.666666666666668
-200.0   60.0   0.0
-200.0   30.0   16.666666666666668
-150.0   60.0   16.666666666666668
-150.0   30.0   16.666666666666668
-150.0   30.0   0.0
-200.0   30.0   16.666666666666668
-150.0   60.0   16.666666666666668
-150.0   30.0   0.0
-200.0   60.0   0.0
-200.0   30.0   16.666666666666668
-150.0   30.0   16.666666666666668
-200.0   60.0   16.666666666666668
-200.0   30.0   33.333333333333336
-150.0   30.0   16.666666666666668
-150.0   60.0   16.666666666666668
-200.0   60.0   16.666666666666668
-150.0   60.0   33.333333333333336
-200.0   30.0   33.333333333333336
-200.0   60.0   33.333333333333336
-150.0   60.0   33.333333333333336
-200.0   60.0   16.666666666666668
-200.0   30.0   33.333333333333336
-150.0   60.0   33.333333333333336
-150.0   30.0   33.333333333333336
-150.0   30.0   16.666666666666668
-200.0   30.0   33.333333333333336
-150.0   60.0   33.333333333333336
-150.0   30.0   16.666666666666668
-200.0   60.0   16.666666666666668
-200.0   30.0   33.333333333333336
-150.0   30.0   33.333333333333336
-200.0   60.0   33.333333333333336
-200.0   30.0   50.0
-150.0   30.0   33.333333333333336
-150.0   60.0   33.333333333333336
-200.0   60.0   33.333333333333336
-150.0   60.0   50.0
-200.0   30.0   50.0
-200.0   60.0   50.0
-150.0   60.0   50.0
-200.0   60.0   33.333333333333336
-200.0   30.0   50.0
-150.0   60.0   50.0
-150.0   30.0   50.0
-150.0   30.0   33.333333333333336
-200.0   30.0   50.0
-150.0   60.0   50.0
-150.0   30.0   33.333333333333336
-200.0   60.0   33.333333333333336
-200.0   60.0   0.0
-150.0   60.0   0.0
-200.0   90.0   0.0
-200.0   60.0   16.666666666666668
-150.0   60.0   0.0
-150.0   90.0   0.0
-200.0   90.0   0.0
-150.0   90.0   16.666666666666668
-200.0   60.0   16.666666666666668
-200.0   90.0   16.666666666666668
-150.0   90.0   16.666666666666668
-200.0   90.0   0.0
-200.0   60.0   16.666666666666668
-150.0   90.0   16.666666666666668
-150.0   60.0   16.666666666666668
-150.0   60.0   0.0
-200.0   60.0   16.666666666666668
-150.0   90.0   16.666666666666668
-150.0   60.0   0.0
-200.0   90.0   0.0
-200.0   60.0   16.666666666666668
-150.0   60.0   16.666666666666668
-200.0   90.0   16.666666666666668
-200.0   60.0   33.333333333333336
-150.0   60.0   16.666666666666668
-150.0   90.0   16.666666666666668
-200.0   90.0   16.666666666666668
-150.0   90.0   33.333333333333336
-200.0   60.0   33.333333333333336
-200.0   90.0   33.333333333333336
-150.0   90.0   33.333333333333336
-200.0   90.0   16.666666666666668
-200.0   60.0   33.333333333333336
-150.0   90.0   33.333333333333336
-150.0   60.0   33.333333333333336
-150.0   60.0   16.666666666666668
-200.0   60.0   33.333333333333336
-150.0   90.0   33.333333333333336
-150.0   60.0   16.666666666666668
-200.0   90.0   16.666666666666668
-200.0   60.0   33.333333333333336
-150.0   60.0   33.333333333333336
-200.0   90.0   33.333333333333336
-200.0   60.0   50.0
-150.0   60.0   33.333333333333336
-150.0   90.0   33.333333333333336
-200.0   90.0   33.333333333333336
-150.0   90.0   50.0
-200.0   60.0   50.0
-200.0   90.0   50.0
-150.0   90.0   50.0
-200.0   90.0   33.333333333333336
-200.0   60.0   50.0
-150.0   90.0   50.0
-150.0   60.0   50.0
-150.0   60.0   33.333333333333336
-200.0   60.0   50.0
-150.0   90.0   50.0
-150.0   60.0   33.333333333333336
-200.0   90.0   33.333333333333336
-200.0   90.0   0.0
-150.0   90.0   0.0
-200.0   120.0   0.0
-200.0   90.0   16.666666666666668
-150.0   90.0   0.0
-150.0   120.0   0.0
-200.0   120.0   0.0
-150.0   120.0   16.666666666666668
-200.0   90.0   16.666666666666668
-200.0   120.0   16.666666666666668
-150.0   120.0   16.666666666666668
-200.0   120.0   0.0
-200.0   90.0   16.666666666666668
-150.0   120.0   16.666666666666668
-150.0   90.0   16.666666666666668
-150.0   90.0   0.0
-200.0   90.0   16.666666666666668
-150.0   120.0   16.666666666666668
-150.0   90.0   0.0
-200.0   120.0   0.0
-200.0   90.0   16.666666666666668
-150.0   90.0   16.666666666666668
-200.0   120.0   16.666666666666668
-200.0   90.0   33.333333333333336
-150.0   90.0   16.666666666666668
-150.0   120.0   16.666666666666668
-200.0   120.0   16.666666666666668
-150.0   120.0   33.333333333333336
-200.0   90.0   33.333333333333336
-200.0   120.0   33.333333333333336
-150.0   120.0   33.333333333333336
-200.0   120.0   16.666666666666668
-200.0   90.0   33.333333333333336
-150.0   120.0   33.333333333333336
-150.0   90.0   33.333333333333336
-150.0   90.0   16.666666666666668
-200.0   90.0   33.333333333333336
-150.0   120.0   33.333333333333336
-150.0   90.0   16.666666666666668
-200.0   120.0   16.666666666666668
-200.0   90.0   33.333333333333336
-150.0   90.0   33.333333333333336
-200.0   120.0   33.333333333333336
-200.0   90.0   50.0
-150.0   90.0   33.333333333333336
-150.0   120.0   33.333333333333336
-200.0   120.0   33.333333333333336
-150.0   120.0   50.0
-200.0   90.0   50.0
-200.0   120.0   50.0
-150.0   120.0   50.0
-200.0   120.0   33.333333333333336
-200.0   90.0   50.0
-150.0   120.0   50.0
-150.0   90.0   50.0
-150.0   90.0   33.333333333333336
-200.0   90.0   50.0
-150.0   120.0   50.0
-150.0   90.0   33.333333333333336
-200.0   120.0   33.333333333333336
-200.0   120.0   0.0
-150.0   120.0   0.0
-200.0   150.0   0.0
-200.0   120.0   16.666666666666668
-150.0   120.0   0.0
-150.0   150.0   0.0
-200.0   150.0   0.0
-150.0   150.0   16.666666666666668
-200.0   120.0   16.666666666666668
-200.0   150.0   16.666666666666668
-150.0   150.0   16.666666666666668
-200.0   150.0   0.0
-200.0   120.0   16.666666666666668
-150.0   150.0   16.666666666666668
-150.0   120.0   16.666666666666668
-150.0   120.0   0.0
-200.0   120.0   16.666666666666668
-150.0   150.0   16.666666666666668
-150.0   120.0   0.0
-200.0   150.0   0.0
-200.0   120.0   16.666666666666668
-150.0   120.0   16.666666666666668
-200.0   150.0   16.666666666666668
-200.0   120.0   33.333333333333336
-150.0   120.0   16.666666666666668
-150.0   150.0   16.666666666666668
-200.0   150.0   16.666666666666668
-150.0   150.0   33.333333333333336
-200.0   120.0   33.333333333333336
-200.0   150.0   33.333333333333336
-150.0   150.0   33.333333333333336
-200.0   150.0   16.666666666666668
-200.0   120.0   33.333333333333336
-150.0   150.0   33.333333333333336
-150.0   120.0   33.333333333333336
-150.0   120.0   16.666666666666668
-200.0   120.0   33.333333333333336
-150.0   150.0   33.333333333333336
-150.0   120.0   16.666666666666668
-200.0   150.0   16.666666666666668
-200.0   120.0   33.333333333333336
-150.0   120.0   33.333333333333336
-200.0   150.0   33.333333333333336
-200.0   120.0   50.0
-150.0   120.0   33.333333333333336
-150.0   150.0   33.333333333333336
-200.0   150.0   33.333333333333336
-150.0   150.0   50.0
-200.0   120.0   50.0
-200.0   150.0   50.0
-150.0   150.0   50.0
-200.0   150.0   33.333333333333336
-200.0   120.0   50.0
-150.0   150.0   50.0
-150.0   120.0   50.0
-150.0   120.0   33.333333333333336
-200.0   120.0   50.0
-150.0   150.0   50.0
-150.0   120.0   33.333333333333336
-200.0   150.0   33.333333333333336
-150.0   0.0   0.0
-100.0   0.0   0.0
-150.0   30.0   0.0
-150.0   0.0   16.666666666666668
-100.0   0.0   0.0
-100.0   30.0   0.0
-150.0   30.0   0.0
-100.0   30.0   16.666666666666668
-150.0   0.0   16.666666666666668
-150.0   30.0   16.666666666666668
-100.0   30.0   16.666666666666668
-150.0   30.0   0.0
-150.0   0.0   16.666666666666668
-100.0   30.0   16.666666666666668
-100.0   0.0   16.666666666666668
-100.0   0.0   0.0
-150.0   0.0   16.666666666666668
-100.0   30.0   16.666666666666668
-100.0   0.0   0.0
-150.0   30.0   0.0
-150.0   0.0   16.666666666666668
-100.0   0.0   16.666666666666668
-150.0   30.0   16.666666666666668
-150.0   0.0   33.333333333333336
-100.0   0.0   16.666666666666668
-100.0   30.0   16.666666666666668
-150.0   30.0   16.666666666666668
-100.0   30.0   33.333333333333336
-150.0   0.0   33.333333333333336
-150.0   30.0   33.333333333333336
-100.0   30.0   33.333333333333336
-150.0   30.0   16.666666666666668
-150.0   0.0   33.333333333333336
-100.0   30.0   33.333333333333336
-100.0   0.0   33.333333333333336
-100.0   0.0   16.666666666666668
-150.0   0.0   33.333333333333336
-100.0   30.0   33.333333333333336
-100.0   0.0   16.666666666666668
-150.0   30.0   16.666666666666668
-150.0   0.0   33.333333333333336
-100.0   0.0   33.333333333333336
-150.0   30.0   33.333333333333336
-150.0   0.0   50.0
-100.0   0.0   33.333333333333336
-100.0   30.0   33.333333333333336
-150.0   30.0   33.333333333333336
-100.0   30.0   50.0
-150.0   0.0   50.0
-150.0   30.0   50.0
-100.0   30.0   50.0
-150.0   30.0   33.333333333333336
-150.0   0.0   50.0
-100.0   30.0   50.0
-100.0   0.0   50.0
-100.0   0.0   33.333333333333336
-150.0   0.0   50.0
-100.0   30.0   50.0
-100.0   0.0   33.333333333333336
-150.0   30.0   33.333333333333336
-150.0   30.0   0.0
-100.0   30.0   0.0
-150.0   60.0   0.0
-150.0   30.0   16.666666666666668
-100.0   30.0   0.0
-100.0   60.0   0.0
-150.0   60.0   0.0
-100.0   60.0   16.666666666666668
-150.0   30.0   16.666666666666668
-150.0   60.0   16.666666666666668
-100.0   60.0   16.666666666666668
-150.0   60.0   0.0
-150.0   30.0   16.666666666666668
-100.0   60.0   16.666666666666668
-100.0   30.0   16.666666666666668
-100.0   30.0   0.0
-150.0   30.0   16.666666666666668
-100.0   60.0   16.666666666666668
-100.0   30.0   0.0
-150.0   60.0   0.0
-150.0   30.0   16.666666666666668
-100.0   30.0   16.666666666666668
-150.0   60.0   16.666666666666668
-150.0   30.0   33.333333333333336
-100.0   30.0   16.666666666666668
-100.0   60.0   16.666666666666668
-150.0   60.0   16.666666666666668
-100.0   60.0   33.333333333333336
-150.0   30.0   33.333333333333336
-150.0   60.0   33.333333333333336
-100.0   60.0   33.333333333333336
-150.0   60.0   16.666666666666668
-150.0   30.0   33.333333333333336
-100.0   60.0   33.333333333333336
-100.0   30.0   33.333333333333336
-100.0   30.0   16.666666666666668
-150.0   30.0   33.333333333333336
-100.0   60.0   33.333333333333336
-100.0   30.0   16.666666666666668
-150.0   60.0   16.666666666666668
-150.0   30.0   33.333333333333336
-100.0   30.0   33.333333333333336
-150.0   60.0   33.333333333333336
-150.0   30.0   50.0
-100.0   30.0   33.333333333333336
-100.0   60.0   33.333333333333336
-150.0   60.0   33.333333333333336
-100.0   60.0   50.0
-150.0   30.0   50.0
-150.0   60.0   50.0
-100.0   60.0   50.0
-150.0   60.0   33.333333333333336
-150.0   30.0   50.0
-100.0   60.0   50.0
-100.0   30.0   50.0
-100.0   30.0   33.333333333333336
-150.0   30.0   50.0
-100.0   60.0   50.0
-100.0   30.0   33.333333333333336
-150.0   60.0   33.333333333333336
-150.0   60.0   0.0
-100.0   60.0   0.0
-150.0   90.0   0.0
-150.0   60.0   16.666666666666668
-100.0   60.0   0.0
-100.0   90.0   0.0
-150.0   90.0   0.0
-100.0   90.0   16.666666666666668
-150.0   60.0   16.666666666666668
-150.0   90.0   16.666666666666668
-100.0   90.0   16.666666666666668
-150.0   90.0   0.0
-150.0   60.0   16.666666666666668
-100.0   90.0   16.666666666666668
-100.0   60.0   16.666666666666668
-100.0   60.0   0.0
-150.0   60.0   16.666666666666668
-100.0   90.0   16.666666666666668
-100.0   60.0   0.0
-150.0   90.0   0.0
-150.0   60.0   16.666666666666668
-100.0   60.0   16.666666666666668
-150.0   90.0   16.666666666666668
-150.0   60.0   33.333333333333336
-100.0   60.0   16.666666666666668
-100.0   90.0   16.666666666666668
-150.0   90.0   16.666666666666668
-100.0   90.0   33.333333333333336
-150.0   60.0   33.333333333333336
-150.0   90.0   33.333333333333336
-100.0   90.0   33.333333333333336
-150.0   90.0   16.666666666666668
-150.0   60.0   33.333333333333336
-100.0   90.0   33.333333333333336
-100.0   60.0   33.333333333333336
-100.0   60.0   16.666666666666668
-150.0   60.0   33.333333333333336
-100.0   90.0   33.333333333333336
-100.0   60.0   16.666666666666668
-150.0   90.0   16.666666666666668
-150.0   60.0   33.333333333333336
-100.0   60.0   33.333333333333336
-150.0   90.0   33.333333333333336
-150.0   60.0   50.0
-100.0   60.0   33.333333333333336
-100.0   90.0   33.333333333333336
-150.0   90.0   33.333333333333336
-100.0   90.0   50.0
-150.0   60.0   50.0
-150.0   90.0   50.0
-100.0   90.0   50.0
-150.0   90.0   33.333333333333336
-150.0   60.0   50.0
-100.0   90.0   50.0
-100.0   60.0   50.0
-100.0   60.0   33.333333333333336
-150.0   60.0   50.0
-100.0   90.0   50.0
-100.0   60.0   33.333333333333336
-150.0   90.0   33.333333333333336
-150.0   90.0   0.0
-100.0   90.0   0.0
-150.0   120.0   0.0
-150.0   90.0   16.666666666666668
-100.0   90.0   0.0
-100.0   120.0   0.0
-150.0   120.0   0.0
-100.0   120.0   16.666666666666668
-150.0   90.0   16.666666666666668
-150.0   120.0   16.666666666666668
-100.0   120.0   16.666666666666668
-150.0   120.0   0.0
-150.0   90.0   16.666666666666668
-100.0   120.0   16.666666666666668
-100.0   90.0   16.666666666666668
-100.0   90.0   0.0
-150.0   90.0   16.666666666666668
-100.0   120.0   16.666666666666668
-100.0   90.0   0.0
-150.0   120.0   0.0
-150.0   90.0   16.666666666666668
-100.0   90.0   16.666666666666668
-150.0   120.0   16.666666666666668
-150.0   90.0   33.333333333333336
-100.0   90.0   16.666666666666668
-100.0   120.0   16.666666666666668
-150.0   120.0   16.666666666666668
-100.0   120.0   33.333333333333336
-150.0   90.0   33.333333333333336
-150.0   120.0   33.333333333333336
-100.0   120.0   33.333333333333336
-150.0   120.0   16.666666666666668
-150.0   90.0   33.333333333333336
-100.0   120.0   33.333333333333336
-100.0   90.0   33.333333333333336
-100.0   90.0   16.666666666666668
-150.0   90.0   33.333333333333336
-100.0   120.0   33.333333333333336
-100.0   90.0   16.666666666666668
-150.0   120.0   16.666666666666668
-150.0   90.0   33.333333333333336
-100.0   90.0   33.333333333333336
-150.0   120.0   33.333333333333336
-150.0   90.0   50.0
-100.0   90.0   33.333333333333336
-100.0   120.0   33.333333333333336
-150.0   120.0   33.333333333333336
-100.0   120.0   50.0
-150.0   90.0   50.0
-150.0   120.0   50.0
-100.0   120.0   50.0
-150.0   120.0   33.333333333333336
-150.0   90.0   50.0
-100.0   120.0   50.0
-100.0   90.0   50.0
-100.0   90.0   33.333333333333336
-150.0   90.0   50.0
-100.0   120.0   50.0
-100.0   90.0   33.333333333333336
-150.0   120.0   33.333333333333336
-150.0   120.0   0.0
-100.0   120.0   0.0
-150.0   150.0   0.0
-150.0   120.0   16.666666666666668
-100.0   120.0   0.0
-100.0   150.0   0.0
-150.0   150.0   0.0
-100.0   150.0   16.666666666666668
-150.0   120.0   16.666666666666668
-150.0   150.0   16.666666666666668
-100.0   150.0   16.666666666666668
-150.0   150.0   0.0
-150.0   120.0   16.666666666666668
-100.0   150.0   16.666666666666668
-100.0   120.0   16.666666666666668
-100.0   120.0   0.0
-150.0   120.0   16.666666666666668
-100.0   150.0   16.666666666666668
-100.0   120.0   0.0
-150.0   150.0   0.0
-150.0   120.0   16.666666666666668
-100.0   120.0   16.666666666666668
-150.0   150.0   16.666666666666668
-150.0   120.0   33.333333333333336
-100.0   120.0   16.666666666666668
-100.0   150.0   16.666666666666668
-150.0   150.0   16.666666666666668
-100.0   150.0   33.333333333333336
-150.0   120.0   33.333333333333336
-150.0   150.0   33.333333333333336
-100.0   150.0   33.333333333333336
-150.0   150.0   16.666666666666668
-150.0   120.0   33.333333333333336
-100.0   150.0   33.333333333333336
-100.0   120.0   33.333333333333336
-100.0   120.0   16.666666666666668
-150.0   120.0   33.333333333333336
-100.0   150.0   33.333333333333336
-100.0   120.0   16.666666666666668
-150.0   150.0   16.666666666666668
-150.0   120.0   33.333333333333336
-100.0   120.0   33.333333333333336
-150.0   150.0   33.333333333333336
-150.0   120.0   50.0
-100.0   120.0   33.333333333333336
-100.0   150.0   33.333333333333336
-150.0   150.0   33.333333333333336
-100.0   150.0   50.0
-150.0   120.0   50.0
-150.0   150.0   50.0
-100.0   150.0   50.0
-150.0   150.0   33.333333333333336
-150.0   120.0   50.0
-100.0   150.0   50.0
-100.0   120.0   50.0
-100.0   120.0   33.333333333333336
-150.0   120.0   50.0
-100.0   150.0   50.0
-100.0   120.0   33.333333333333336
-150.0   150.0   33.333333333333336
-100.0   0.0   0.0
-50.0   0.0   0.0
-100.0   30.0   0.0
-100.0   0.0   16.666666666666668
-50.0   0.0   0.0
-50.0   30.0   0.0
-100.0   30.0   0.0
-50.0   30.0   16.666666666666668
-100.0   0.0   16.666666666666668
-100.0   30.0   16.666666666666668
-50.0   30.0   16.666666666666668
-100.0   30.0   0.0
-100.0   0.0   16.666666666666668
-50.0   30.0   16.666666666666668
-50.0   0.0   16.666666666666668
-50.0   0.0   0.0
-100.0   0.0   16.666666666666668
-50.0   30.0   16.666666666666668
-50.0   0.0   0.0
-100.0   30.0   0.0
-100.0   0.0   16.666666666666668
-50.0   0.0   16.666666666666668
-100.0   30.0   16.666666666666668
-100.0   0.0   33.333333333333336
-50.0   0.0   16.666666666666668
-50.0   30.0   16.666666666666668
-100.0   30.0   16.666666666666668
-50.0   30.0   33.333333333333336
-100.0   0.0   33.333333333333336
-100.0   30.0   33.333333333333336
-50.0   30.0   33.333333333333336
-100.0   30.0   16.666666666666668
-100.0   0.0   33.333333333333336
-50.0   30.0   33.333333333333336
-50.0   0.0   33.333333333333336
-50.0   0.0   16.666666666666668
-100.0   0.0   33.333333333333336
-50.0   30.0   33.333333333333336
-50.0   0.0   16.666666666666668
-100.0   30.0   16.666666666666668
-100.0   0.0   33.333333333333336
-50.0   0.0   33.333333333333336
-100.0   30.0   33.333333333333336
-100.0   0.0   50.0
-50.0   0.0   33.333333333333336
-50.0   30.0   33.333333333333336
-100.0   30.0   33.333333333333336
-50.0   30.0   50.0
-100.0   0.0   50.0
-100.0   30.0   50.0
-50.0   30.0   50.0
-100.0   30.0   33.333333333333336
-100.0   0.0   50.0
-50.0   30.0   50.0
-50.0   0.0   50.0
-50.0   0.0   33.333333333333336
-100.0   0.0   50.0
-50.0   30.0   50.0
-50.0   0.0   33.333333333333336
-100.0   30.0   33.333333333333336
-100.0   30.0   0.0
-50.0   30.0   0.0
-100.0   60.0   0.0
-100.0   30.0   16.666666666666668
-50.0   30.0   0.0
-50.0   60.0   0.0
-100.0   60.0   0.0
-50.0   60.0   16.666666666666668
-100.0   30.0   16.666666666666668
-100.0   60.0   16.666666666666668
-50.0   60.0   16.666666666666668
-100.0   60.0   0.0
-100.0   30.0   16.666666666666668
-50.0   60.0   16.666666666666668
-50.0   30.0   16.666666666666668
-50.0   30.0   0.0
-100.0   30.0   16.666666666666668
-50.0   60.0   16.666666666666668
-50.0   30.0   0.0
-100.0   60.0   0.0
-100.0   30.0   16.666666666666668
-50.0   30.0   16.666666666666668
-100.0   60.0   16.666666666666668
-100.0   30.0   33.333333333333336
-50.0   30.0   16.666666666666668
-50.0   60.0   16.666666666666668
-100.0   60.0   16.666666666666668
-50.0   60.0   33.333333333333336
-100.0   30.0   33.333333333333336
-100.0   60.0   33.333333333333336
-50.0   60.0   33.333333333333336
-100.0   60.0   16.666666666666668
-100.0   30.0   33.333333333333336
-50.0   60.0   33.333333333333336
-50.0   30.0   33.333333333333336
-50.0   30.0   16.666666666666668
-100.0   30.0   33.333333333333336
-50.0   60.0   33.333333333333336
-50.0   30.0   16.666666666666668
-100.0   60.0   16.666666666666668
-100.0   30.0   33.333333333333336
-50.0   30.0   33.333333333333336
-100.0   60.0   33.333333333333336
-100.0   30.0   50.0
-50.0   30.0   33.333333333333336
-50.0   60.0   33.333333333333336
-100.0   60.0   33.333333333333336
-50.0   60.0   50.0
-100.0   30.0   50.0
-100.0   60.0   50.0
-50.0   60.0   50.0
-100.0   60.0   33.333333333333336
-100.0   30.0   50.0
-50.0   60.0   50.0
-50.0   30.0   50.0
-50.0   30.0   33.333333333333336
-100.0   30.0   50.0
-50.0   60.0   50.0
-50.0   30.0   33.333333333333336
-100.0   60.0   33.333333333333336
-100.0   60.0   0.0
-50.0   60.0   0.0
-100.0   90.0   0.0
-100.0   60.0   16.666666666666668
-50.0   60.0   0.0
-50.0   90.0   0.0
-100.0   90.0   0.0
-50.0   90.0   16.666666666666668
-100.0   60.0   16.666666666666668
-100.0   90.0   16.666666666666668
-50.0   90.0   16.666666666666668
-100.0   90.0   0.0
-100.0   60.0   16.666666666666668
-50.0   90.0   16.666666666666668
-50.0   60.0   16.666666666666668
-50.0   60.0   0.0
-100.0   60.0   16.666666666666668
-50.0   90.0   16.666666666666668
-50.0   60.0   0.0
-100.0   90.0   0.0
-100.0   60.0   16.666666666666668
-50.0   60.0   16.666666666666668
-100.0   90.0   16.666666666666668
-100.0   60.0   33.333333333333336
-50.0   60.0   16.666666666666668
-50.0   90.0   16.666666666666668
-100.0   90.0   16.666666666666668
-50.0   90.0   33.333333333333336
-100.0   60.0   33.333333333333336
-100.0   90.0   33.333333333333336
-50.0   90.0   33.333333333333336
-100.0   90.0   16.666666666666668
-100.0   60.0   33.333333333333336
-50.0   90.0   33.333333333333336
-50.0   60.0   33.333333333333336
-50.0   60.0   16.666666666666668
-100.0   60.0   33.333333333333336
-50.0   90.0   33.333333333333336
-50.0   60.0   16.666666666666668
-100.0   90.0   16.666666666666668
-100.0   60.0   33.333333333333336
-50.0   60.0   33.333333333333336
-100.0   90.0   33.333333333333336
-100.0   60.0   50.0
-50.0   60.0   33.333333333333336
-50.0   90.0   33.333333333333336
-100.0   90.0   33.333333333333336
-50.0   90.0   50.0
-100.0   60.0   50.0
-100.0   90.0   50.0
-50.0   90.0   50.0
-100.0   90.0   33.333333333333336
-100.0   60.0   50.0
-50.0   90.0   50.0
-50.0   60.0   50.0
-50.0   60.0   33.333333333333336
-100.0   60.0   50.0
-50.0   90.0   50.0
-50.0   60.0   33.333333333333336
-100.0   90.0   33.333333333333336
-100.0   90.0   0.0
-50.0   90.0   0.0
-100.0   120.0   0.0
-100.0   90.0   16.666666666666668
-50.0   90.0   0.0
-50.0   120.0   0.0
-100.0   120.0   0.0
-50.0   120.0   16.666666666666668
-100.0   90.0   16.666666666666668
-100.0   120.0   16.666666666666668
-50.0   120.0   16.666666666666668
-100.0   120.0   0.0
-100.0   90.0   16.666666666666668
-50.0   120.0   16.666666666666668
-50.0   90.0   16.666666666666668
-50.0   90.0   0.0
-100.0   90.0   16.666666666666668
-50.0   120.0   16.666666666666668
-50.0   90.0   0.0
-100.0   120.0   0.0
-100.0   90.0   16.666666666666668
-50.0   90.0   16.666666666666668
-100.0   120.0   16.666666666666668
-100.0   90.0   33.333333333333336
-50.0   90.0   16.666666666666668
-50.0   120.0   16.666666666666668
-100.0   120.0   16.666666666666668
-50.0   120.0   33.333333333333336
-100.0   90.0   33.333333333333336
-100.0   120.0   33.333333333333336
-50.0   120.0   33.333333333333336
-100.0   120.0   16.666666666666668
-100.0   90.0   33.333333333333336
-50.0   120.0   33.333333333333336
-50.0   90.0   33.333333333333336
-50.0   90.0   16.666666666666668
-100.0   90.0   33.333333333333336
-50.0   120.0   33.333333333333336
-50.0   90.0   16.666666666666668
-100.0   120.0   16.666666666666668
-100.0   90.0   33.333333333333336
-50.0   90.0   33.333333333333336
-100.0   120.0   33.333333333333336
-100.0   90.0   50.0
-50.0   90.0   33.333333333333336
-50.0   120.0   33.333333333333336
-100.0   120.0   33.333333333333336
-50.0   120.0   50.0
-100.0   90.0   50.0
-100.0   120.0   50.0
-50.0   120.0   50.0
-100.0   120.0   33.333333333333336
-100.0   90.0   50.0
-50.0   120.0   50.0
-50.0   90.0   50.0
-50.0   90.0   33.333333333333336
-100.0   90.0   50.0
-50.0   120.0   50.0
-50.0   90.0   33.333333333333336
-100.0   120.0   33.333333333333336
-100.0   120.0   0.0
-50.0   120.0   0.0
-100.0   150.0   0.0
-100.0   120.0   16.666666666666668
-50.0   120.0   0.0
-50.0   150.0   0.0
-100.0   150.0   0.0
-50.0   150.0   16.666666666666668
-100.0   120.0   16.666666666666668
-100.0   150.0   16.666666666666668
-50.0   150.0   16.666666666666668
-100.0   150.0   0.0
-100.0   120.0   16.666666666666668
-50.0   150.0   16.666666666666668
-50.0   120.0   16.666666666666668
-50.0   120.0   0.0
-100.0   120.0   16.666666666666668
-50.0   150.0   16.666666666666668
-50.0   120.0   0.0
-100.0   150.0   0.0
-100.0   120.0   16.666666666666668
-50.0   120.0   16.666666666666668
-100.0   150.0   16.666666666666668
-100.0   120.0   33.333333333333336
-50.0   120.0   16.666666666666668
-50.0   150.0   16.666666666666668
-100.0   150.0   16.666666666666668
-50.0   150.0   33.333333333333336
-100.0   120.0   33.333333333333336
-100.0   150.0   33.333333333333336
-50.0   150.0   33.333333333333336
-100.0   150.0   16.666666666666668
-100.0   120.0   33.333333333333336
-50.0   150.0   33.333333333333336
-50.0   120.0   33.333333333333336
-50.0   120.0   16.666666666666668
-100.0   120.0   33.333333333333336
-50.0   150.0   33.333333333333336
-50.0   120.0   16.666666666666668
-100.0   150.0   16.666666666666668
-100.0   120.0   33.333333333333336
-50.0   120.0   33.333333333333336
-100.0   150.0   33.333333333333336
-100.0   120.0   50.0
-50.0   120.0   33.333333333333336
-50.0   150.0   33.333333333333336
-100.0   150.0   33.333333333333336
-50.0   150.0   50.0
-100.0   120.0   50.0
-100.0   150.0   50.0
-50.0   150.0   50.0
-100.0   150.0   33.333333333333336
-100.0   120.0   50.0
-50.0   150.0   50.0
-50.0   120.0   50.0
-50.0   120.0   33.333333333333336
-100.0   120.0   50.0
-50.0   150.0   50.0
-50.0   120.0   33.333333333333336
-100.0   150.0   33.333333333333336
-50.0   0.0   0.0
0.0   0.0   0.0
-50.0   30.0   0.0
-50.0   0.0   16.666666666666668
0.0   0.0   0.0
0.0   30.0   0.0
-50.0   30.0   0.0
0.0   30.0   16.666666666666668
-50.0   0.0   16.666666666666668
-50.0   30.0   16.666666666666668
0.0   30.0   16.666666666666668
-50.0   30.0   0.0
-50.0   0.0   16.666666666666668
0.0   30.0   16.666666666666668
0.0   0.0   16.666666666666668
0.0   0.0   0.0
-50.0   0.0   16.666666666666668
0.0   30.0   16.666666666666668
0.0   0.0   0.0
-50.0   30.0   0.0
-50.0   0.0   16.666666666666668
0.0   0.0   16.666666666666668
-50.0   30.0   16.666666666666668
-50.0   0.0   33.333333333333336
0.0   0.0   16.666666666666668
0.0   30.0   16.666666666666668
-50.0   30.0   16.666666666666668
0.0   30.0   33.333333333333336
-50.0   0.0   33.333333333333336
-50.0   30.0   33.333333333333336
0.0   30.0   33.333333333333336
-50.0   30.0   16.666666666666668
-50.0   0.0   33.333333333333336
0.0   30.0   33.333333333333336
0.0   0.0   33.333333333333336
0.0   0.0   16.666666666666668
-50.0   0.0   33.333333333333336
0.0   30.0   33.333333333333336
0.0   0.0   16.666666666666668
-50.0   30.0   16.666666666666668
-50.0   0.0   33.333333333333336
0.0   0.0   33.333333333333336
-50.0   30.0   33.333333333333336
-50.0   0.0   50.0
0.0   0.0   33.333333333333336
0.0   30.0   33.333333333333336
-50.0   30.0   33.333333333333336
0.0   30.0   50.0
-50.0   0.0   50.0
-50.0   30.0   50.0
0.0   30.0   50.0
-50.0   30.0   33.333333333333336
-50.0   0.0   50.0
0.0   30.0   50.0
0.0   0.0   50.0
0.0   0.0   33.333333333333336
-50.0   0.0   50.0
0.0   30.0   50.0
0.0   0.0   33.333333333333336
-50.0   30.0   33.333333333333336
-50.0   30.0   0.0
0.0   30.0   0.0
-50.0   60.0   0.0
-50.0   30.0   16.666666666666668
0.0   30.0   0.0
0.0   60.0   0.0
-50.0   60.0   0.0
0.0   60.0   16.666666666666668
-50.0   30.0   16.666666666666668
-50.0   60.0   16.666666666666668
0.0   60.0   16.666666666666668
-50.0   60.0   0.0
-50.0   30.0   16.666666666666668
0.0   60.0   16.666666666666668
0.0   30.0   16.666666666666668
0.0   30.0   0.0
-50.0   30.0   16.666666666666668
0.0   60.0   16.666666666666668
0.0   30.0   0.0
-50.0   60.0   0.0
-50.0   30.0   16.666666666666668
0.0   30.0   16.666666666666668
-50.0   60.0   16.666666666666668
-50.0   30.0   33.333333333333336
0.0   30.0   16.666666666666668
0.0   60.0   16.666666666666668
-50.0   60.0   16.666666666666668
0.0   60.0   33.333333333333336
-50.0   30.0   33.333333333333336
-50.0   60.0   33.333333333333336
0.0   60.0   33.333333333333336
-50.0   60.0   16.666666666666668
-50.0   30.0   33.333333333333336
0.0   60.0   33.333333333333336
0.0   30.0   33.333333333333336
0.0   30.0   16.666666666666668
-50.0   30.0   33.333333333333336
0.0   60.0   33.333333333333336
0.0   30.0   16.666666666666668
-50.0   60.0   16.666666666666668
-50.0   30.0   33.333333333333336
0.0   30.0   33.333333333333336
-50.0   60.0   33.333333333333336
-50.0   30.0   50.0
0.0   30.0   33.333333333333336
0.0   60.0   33.333333333333336
-50.0   60.0   33.333333333333336
0.0   60.0   50.0
-50.0   30.0   50.0
-50.0   60.0   50.0
0.0   60.0   50.0
-50.0   60.0   33.333333333333336
-50.0   30.0   50.0
0.0   60.0   50.0
0.0   30.0   50.0
0.0   30.0   33.333333333333336
-50.0   30.0   50.0
0.0   60.0   50.0
0.0   30.0   33.333333333333336
-50.0   60.0   33.333333333333336
-50.0   60.0   0.0
0.0   60.0   0.0
-50.0   90.0   0.0
-50.0   60.0   16.666666666666668
0.0   60.0   0.0
0.0   90.0   0.0
-50.0   90.0   0.0
0.0   90.0   16.666666666666668
-50.0   60.0   16.666666666666668
-50.0   90.0   16.666666666666668
0.0   90.0   16.666666666666668
-50.0   90.0   0.0
-50.0   60.0   16.666666666666668
0.0   90.0   16.666666666666668
0.0   60.0   16.666666666666668
0.0   60.0   0.0
-50.0   60.0   16.666666666666668
0.0   90.0   16.666666666666668
0.0   60.0   0.0
-50.0   90.0   0.0
-50.0   60.0   16.666666666666668
0.0   60.0   16.666666666666668
-50.0   90.0   16.666666666666668
-50.0   60.0   33.333333333333336
0.0   60.0   16.666666666666668
0.0   90.0   16.666666666666668
-50.0   90.0   16.666666666666668
0.0   90.0   33.333333333333336
-50.0   60.0   33.333333333333336
-50.0   90.0   33.333333333333336
0.0   90.0   33.333333333333336
-50.0   90.0   16.666666666666668
-50.0   60.0   33.333333333333336
0.0   90.0   33.333333333333336
0.0   60.0   33.333333333333336
0.0   60.0   16.666666666666668
-50.0   60.0   33.333333333333336
0.0   90.0   33.333333333333336
0.0   60.0   16.666666666666668
-50.0   90.0   16.666666666666668
-50.0   60.0   33.333333333333336
0.0   60.0   33.333333333333336
-50.0   90.0   33.333333333333336
-50.0   60.0   50.0
0.0   60.0   33.333333333333336
0.0   90.0   33.333333333333336
-50.0   90.0   33.333333333333336
0.0   90.0   50.0
-50.0   60.0   50.0
-50.0   90.0   50.0
0.0   90.0   50.0
-50.0   90.0   33.333333333333336
-50.0   60.0   50.0
0.0   90.0   50.0
0.0   60.0   50.0
0.0   60.0   33.333333333333336
-50.0   60.0   50.0
0.0   90.0   50.0
0.0   60.0   33.333333333333336
-50.0   90.0   33.333333333333336
-50.0   90.0   0.0
0.0   90.0   0.0
-50.0   120.0   0.0
-50.0   90.0   16.666666666666668
0.0   90.0   0.0
0.0   120.0   0.0
-50.0   120.0   0.0
0.0   120.0   16.666666666666668
-50.0   90.0   16.666666666666668
-50.0   120.0   16.666666666666668
0.0   120.0   16.666666666666668
-50.0   120.0   0.0
-50.0   90.0   16.666666666666668
0.0   120.0   16.666666666666668
0.0   90.0   16.666666666666668
0.0   90.0   0.0
-50.0   90.0   16.666666666666668
0.0   120.0   16.666666666666668
0.0   90.0   0.0
-50.0   120.0   0.0
-50.0   90.0   16.666666666666668
0.0   90.0   16.666666666666668
-50.0   120.0   16.666666666666668
-50.0   90.0   33.333333333333336
0.0   90.0   16.666666666666668
0.0   120.0   16.666666666666668
-50.0   120.0   16.666666666666668
0.0   120.0   33.333333333333336
-50.0   90.0   33.333333333333336
-50.0   120.0   33.333333333333336
0.0   120.0   33.333333333333336
-50.0   120.0   16.666666666666668
-50.0   90.0   33.333333333333336
0.0   120.0   33.333333333333336
0.0   90.0   33.333333333333336
0.0   90.0   16.666666666666668
-50.0   90.0   33.333333333333336
0.0   120.0   33.333333333333336
0.0   90.0   16.666666666666668
-50.0   120.0   16.666666666666668
-50.0   90.0   33.333333333333336
0.0   90.0   33.333333333333336
-50.0   120.0   33.333333333333336
-50.0   90.0   50.0
0.0   90.0   33.333333333333336
0.0   120.0   33.333333333333336
-50.0   120.0   33.333333333333336
0.0   120.0   50.0
-50.0   90.0   50.0
-50.0   120.0   50.0
0.0   120.0   50.0
-50.0   120.0   33.333333333333336
-50.0   90.0   50.0
0.0   120.0   50.0
0.0   90.0   50.0
0.0   90.0   33.333333333333336
-50.0   90.0   50.0
0.0   120.0   50.0
0.0   90.0   33.333333333333336
-50.0   120.0   33.333333333333336
-50.0   120.0   0.0
0.0   120.0   0.0
-50.0   150.0   0.0
-50.0   120.0   16.666666666666668
0.0   120.0   0.0
0.0   150.0   0.0
-50.0   150.0   0.0
0.0   150.0   16.666666666666668
-50.0   120.0   16.666666666666668
-50.0   150.0   16.666666666666668
0.0   150.0   16.666666666666668
-50.0   150.0   0.0
-50.0   120.0   16.666666666666668
0.0   150.0   16.666666666666668
0.0   120.0   16.666666666666668
0.0   120.0   0.0
-50.0   120.0   16.666666666666668
0.0   150.0   16.666666666666668
0.0   120.0   0.0
-50.0   150.0   0.0
-50.0   120.0   16.666666666666668
0.0   120.0   16.666666666666668
-50.0   150.0   16.666666666666668
-50.0   120.0   33.333333333333336
0.0   120.0   16.666666666666668
0.0   150.0   16.666666666666668
-50.0   150.0   16.666666666666668
0.0   150.0   33.333333333333336
-50.0   120.0   33.333333333333336
-50.0   150.0   33.333333333333336
0.0   150.0   33.333333333333336
-50.0   150.0   16.666666666666668
-50.0   120.0   33.333333333333336
0.0   150.0   33.333333333333336
0.0   120.0   33.333333333333336
0.0   120.0   16.666666666666668
-50.0   120.0   33.333333333333336
0.0   150.0   33.333333333333336
0.0   120.0   16.666666666666668
-50.0   150.0   16.666666666666668
-50.0   120.0   33.333333333333336
0.0   120.0   33.333333333333336
-50.0   150.0   33.333333333333336
-50.0   120.0   50.0
0.0   120.0   33.333333333333336
0.0   150.0   33.333333333333336
-50.0   150.0   33.333333333333336
0.0   150.0   50.0
-50.0   120.0   50.0
-50.0   150.0   50.0
0.0   150.0   50.0
-50.0   150.0   33.333333333333336
-50.0   120.0   50.0
0.0   150.0   50.0
0.0   120.0   50.0
0.0   120.0   33.333333333333336
-50.0   120.0   50.0
0.0   150.0   50.0
0.0   120.0   33.333333333333336
-50.0   150.0   33.333333333333336
0.0   0.0   0.0
50.0   0.0   0.0
0.0   30.0   0.0
0.0   0.0   16.666666666666668
50.0   0.0   0.0
50.0   30.0   0.0
0.0   30.0   0.0
50.0   30.0   16.666666666666668
0.0   0.0   16.666666666666668
0.0   30.0   16.666666666666668
50.0   30.0   16.666666666666668
0.0   30.0   0.0
0.0   0.0   16.666666666666668
50.0   30.0   16.666666666666668
50.0   0.0   16.666666666666668
50.0   0.0   0.0
0.0   0.0   16.666666666666668
50.0   30.0   16.666666666666668
50.0   0.0   0.0
0.0   30.0   0.0
0.0   0.0   16.666666666666668
50.0   0.0   16.666666666666668
0.0   30.0   16.666666666666668
0.0   0.0   33.333333333333336
50.0   0.0   16.666666666666668
50.0   30.0   16.666666666666668
0.0   30.0   16.666666666666668
50.0   30.0   33.333333333333336
0.0   0.0   33.333333333333336
0.0   30.0   33.333333333333336
50.0   30.0   33.333333333333336
0.0   30.0   16.666666666666668
0.0   0.0   33.333333333333336
50.0   30.0   33.333333333333336
50.0   0.0   33.333333333333336
50.0   0.0   16.666666666666668
0.0   0.0   33.333333333333336
50.0   30.0   33.333333333333336
50.0   0.0   16.666666666666668
0.0   30.0   16.666666666666668
0.0   0.0   33.333333333333336
50.0   0.0   33.333333333333336
0.0   30.0   33.333333333333336
0.0   0.0   50.0
50.0   0.0   33.333333333333336
50.0   30.0   33.333333333333336
0.0   30.0   33.333333333333336
50.0   30.0   50.0
0.0   0.0   50.0
0.0   30.0   50.0
50.0   30.0   50.0
0.0   30.0   33.333333333333336
0.0   0.0   50.0
50.0   30.0   50.0
50.0   0.0   50.0
50.0   0.0   33.333333333333336
0.0   0.0   50.0
50.0   30.0   50.0
50.0   0.0   33.333333333333336
0.0   30.0   33.333333333333336
0.0   30.0   0.0
50.0   30.0   0.0
0.0   60.0   0.0
0.0   30.0   16.666666666666668
50.0   30.0   0.0
50.0   60.0   0.0
0.0   60.0   0.0
50.0   60.0   16.666666666666668
0.0   30.0   16.666666666666668
0.0   60.0   16.666666666666668
50.0   60.0   16.666666666666668
0.0   60.0   0.0
0.0   30.0   16.666666666666668
50.0   60.0   16.666666666666668
50.0   30.0   16.666666666666668
50.0   30.0   0.0
0.0   30.0   16.666666666666668
50.0   60.0   16.666666666666668
50.0   30.0   0.0
0.0   60.0   0.0
0.0   30.0   16.666666666666668
50.0   30.0   16.666666666666668
0.0   60.0   16.666666666666668
0.0   30.0   33.333333333333336
50.0   30.0   16.666666666666668
50.0   60.0   16.666666666666668
0.0   60.0   16.666666666666668
50.0   60.0   33.333333333333336
0.0   30.0   33.333333333333336
0.0   60.0   33.333333333333336
50.0   60.0   33.333333333333336
0.0   60.0   16.666666666666668
0.0   30.0   33.333333333333336
50.0   60.0   33.333333333333336
50.0   30.0   33.333333333333336
50.0   30.0   16.666666666666668
0.0   30.0   33.333333333333336
50.0   60.0   33.333333333333336
50.0   30.0   16.666666666666668
0.0   60.0   16.666666666666668
0.0   30.0   33.333333333333336
50.0   30.0   33.333333333333336
0.0   60.0   33.333333333333336
0.0   30.0   50.0
50.0   30.0   33.333333333333336
50.0   60.0   33.333333333333336
0.0   60.0   33.333333333333336
50.0   60.0   50.0
0.0   30.0   50.0
0.0   60.0   50.0
50.0   60.0   50.0
0.0   60.0   33.333333333333336
0.0   30.0   50.0
50.0   60.0   50.0
50.0   30.0   50.0
50.0   30.0   33.333333333333336
0.0   30.0   50.0
50.0   60.0   50.0
50.0   30.0   33.333333333333336
0.0   60.0   33.333333333333336
0.0   60.0   0.0
50.0   60.0   0.0
0.0   90.0   0.0
0.0   60.0   16.666666666666668
50.0   60.0   0.0
50.0   90.0   0.0
0.0   90.0   0.0
50.0   90.0   16.666666666666668
0.0   60.0   16.666666666666668
0.0   90.0   16.666666666666668
50.0   90.0   16.666666666666668
0.0   90.0   0.0
0.0   60.0   16.666666666666668
50.0   90.0   16.666666666666668
50.0   60.0   16.666666666666668
50.0   60.0   0.0
0.0   60.0   16.666666666666668
50.0   90.0   16.666666666666668
50.0   60.0   0.0
0.0   90.0   0.0
0.0   60.0   16.666666666666668
50.0   60.0   16.666666666666668
0.0   90.0   16.666666666666668
0.0   60.0   33.333333333333336
50.0   60.0   16.666666666666668
50.0   90.0   16.666666666666668
0.0   90.0   16.666666666666668
50.0   90.0   33.333333333333336
0.0   60.0   33.333333333333336
0.0   90.0   33.333333333333336
50.0   90.0   33.333333333333336
0.0   90.0   16.666666666666668
0.0   60.0   33.333333333333336
50.0   90.0   33.333333333333336
50.0   60.0   33.333333333333336
50.0   60.0   16.666666666666668
0.0   60.0   33.333333333333336
50.0   90.0   33.333333333333336
50.0   60.0   16.666666666666668
0.0   90.0   16.666666666666668
0.0   60.0   33.333333333333336
50.0   60.0   33.333333333333336
0.0   90.0   33.333333333333336
0.0   60.0   50.0
50.0   60.0   33.333333333333336
50.0   90.0   33.333333333333336
0.0   90.0   33.333333333333336
50.0   90.0   50.0
0.0   60.0   50.0
0.0   90.0   50.0
50.0   90.0   50.0
0.0   90.0   33.333333333333336
0.0   60.0   50.0
50.0   90.0   50.0
50.0   60.0   50.0
50.0   60.0   33.333333333333336
0.0   60.0   50.0
50.0   90.0   50.0
50.0   60.0   33.333333333333336
0.0   90.0   33.333333333333336
0.0   90.0   0.0
50.0   90.0   0.0
0.0   120.0   0.0
0.0   90.0   16.666666666666668
50.0   90.0   0.0
50.0   120.0   0.0
0.0   120.0   0.0
50.0   120.0   16.666666666666668
0.0   90.0   16.666666666666668
0.0   120.0   16.666666666666668
50.0   120.0   16.666666666666668
0.0   120.0   0.0
0.0   90.0   16.666666666666668
50.0   120.0   16.666666666666668
50.0   90.0   16.666666666666668
50.0   90.0   0.0
0.0   90.0   16.666666666666668
50.0   120.0   16.666666666666668
50.0   90.0   0.0
0.0   120.0   0.0
0.0   90.0   16.666666666666668
50.0   90.0   16.666666666666668
0.0   120.0   16.666666666666668
0.0   90.0   33.333333333333336
50.0   90.0   16.666666666666668
50.0   120.0   16.666666666666668
0.0   120.0   16.666666666666668
50.0   120.0   33.333333333333336
0.0   90.0   33.333333333333336
0.0   120.0   33.333333333333336
50.0   120.0   33.333333333333336
0.0   120.0   16.666666666666668
0.0   90.0   33.333333333333336
50.0   120.0   33.333333333333336
50.0   90.0   33.333333333333336
50.0   90.0   16.666666666666668
0.0   90.0   33.333333333333336
50.0   120.0   33.333333333333336
50.0   90.0   16.666666666666668
0.0   120.0   16.666666666666668
0.0   90.0   33.333333333333336
50.0   90.0   33.333333333333336
0.0   120.0   33.333333333333336
0.0   90.0   50.0
50.0   90.0   33.333333333333336
50.0   120.0   33.333333333333336
0.0   120.0   33.333333333333336
50.0   120.0   50.0
0.0   90.0   50.0
0.0   120.0   50.0
50.0   120.0   50.0
0.0   120.0   33.333333333333336
0.0   90.0   50.0
50.0   120.0   50.0
50.0   90.0   50.0
50.0   90.0   33.333333333333336
0.0   90.0   50.0
50.0   120.0   50.0
50.0   90.0   33.333333333333336
0.0   120.0   33.333333333333336
0.0   120.0   0.0
50.0   120.0   0.0
0.0   150.0   0.0
0.0   120.0   16.666666666666668
50.0   120.0   0.0
50.0   150.0   0.0
0.0   150.0   0.0
50.0   150.0   16.666666666666668
0.0   120.0   16.666666666666668
0.0   150.0   16.666666666666668
50.0   150.0   16.666666666666668
0.0   150.0   0.0
0.0   120.0   16.666666666666668
50.0   150.0   16.666666666666668
50.0   120.0   16.666666666666668
50.0   120.0   0.0
0.0   120.0   16.666666666666668
50.0   150.0   16.666666666666668
50.0   120.0   0.0
0.0   150.0   0.0
0.0   120.0   16.666666666666668
50.0   120.0   16.666666666666668
0.0   150.0   16.666666666666668
0.0   120.0   33.333333333333336
50.0   120.0   16.666666666666668
50.0   150.0   16.666666666666668
0.0   150.0   16.666666666666668
50.0   150.0   33.333333333333336
0.0   120.0   33.333333333333336
0.0   150.0   33.333333333333336
50.0   150.0   33.333333333333336
0.0   150.0   16.666666666666668
0.0   120.0   33.333333333333336
50.0   150.0   33.333333333333336
50.0   120.0   33.333333333333336
50.0   120.0   16.666666666666668
0.0   120.0   33.333333333333336
50.0   150.0   33.333333333333336
50.0   120.0   16.666666666666668
0.0   150.0   16.666666666666668
0.0   120.0   33.333333333333336
50.0   120.0   33.333333333333336
0.0   150.0   33.333333333333336
0.0   120.0   50.0
50.0   120.0   33.333333333333336
50.0   150.0   33.333333333333336
0.0   150.0   33.333333333333336
50.0   150.0   50.0
0.0   120.0   50.0
0.0   150.0   50.0
50.0   150.0   50.0
0.0   150.0   33.333333333333336
0.0   120.0   50.0
50.0   150.0   50.0
50.0   120.0   50.0
50.0   120.0   33.333333333333336
0.0   120.0   50.0
50.0   150.0   50.0
50.0   120.0   33.333333333333336
0.0   150.0   33.333333333333336
50.0   0.0   0.0
100.0   0.0   0.0
50.0   30.0   0.0
50.0   0.0   16.666666666666668
100.0   0.0   0.0
100.0   30.0   0.0
50.0   30.0   0.0
100.0   30.0   16.666666666666668
50.0   0.0   16.666666666666668
50.0   30.0   16.666666666666668
100.0   30.0   16.666666666666668
50.0   30.0   0.0
50.0   0.0   16.666666666666668
100.0   30.0   16.666666666666668
100.0   0.0   16.666666666666668
100.0   0.0   0.0
50.0   0.0   16.666666666666668
100.0   30.0   16.666666666666668
100.0   0.0   0.0
50.0   30.0   0.0
50.0   0.0   16.666666666666668
100.0   0.0   16.666666666666668
50.0   30.0   16.666666666666668
50.0   0.0   33.333333333333336
100.0   0.0   16.666666666666668
100.0   30.0   16.666666666666668
50.0   30.0   16.666666666666668
100.0   30.0   33.333333333333336
50.0   0.0   33.333333333333336
50.0   30.0   33.333333333333336
100.0   30.0   33.333333333333336
50.0   30.0   16.666666666666668
50.0   0.0   33.333333333333336
100.0   30.0   33.333333333333336
100.0   0.0   33.333333333333336
100.0   0.0   16.666666666666668
50.0   0.0   33.333333333333336
100.0   30.0   33.333333333333336
100.0   0.0   16.666666666666668
50.0   30.0   16.666666666666668
50.0   0.0   33.333333333333336
100.0   0.0   33.333333333333336
50.0   30.0   33.333333333333336
50.0   0.0   50.0
100.0   0.0   33.333333333333336
100.0   30.0   33.333333333333336
50.0   30.0   33.333333333333336
100.0   30.0   50.0
50.0   0.0   50.0
50.0   30.0   50.0
100.0   30.0   50.0
50.0   30.0   33.333333333333336
50.0   0.0   50.0
100.0   30.0   50.0
100.0   0.0   50.0
100.0   0.0   33.333333333333336
50.0   0.0   50.0
100.0   30.0   50.0
100.0   0.0   33.333333333333336
50.0   30.0   33.333333333333336
50.0   30.0   0.0
100.0   30.0   0.0
50.0   60.0   0.0
50.0   30.0   16.666666666666668
100.0   30.0   0.0
100.0   60.0   0.0
50.0   60.0   0.0
100.0   60.0   16.666666666666668
50.0   30.0   16.666666666666668
50.0   60.0   16.666666666666668
100.0   60.0   16.666666666666668
50.0   60.0   0.0
50.0   30.0   16.666666666666668
100.0   60.0   16.666666666666668
100.0   30.0   16.666666666666668
100.0   30.0   0.0
50.0   30.0   16.666666666666668
100.0   60.0   16.666666666666668
100.0   30.0   0.0
50.0   60.0   0.0
50.0   30.0   16.666666666666668
100.0   30.0   16.666666666666668
50.0   60.0   16.666666666666668
50.0   30.0   33.333333333333336
100.0   30.0   16.666666666666668
100.0   60.0   16.666666666666668
50.0   60.0   16.666666666666668
100.0   60.0   33.333333333333336
50.0   30.0   33.333333333333336
50.0   60.0   33.333333333333336
100.0   60.0   33.333333333333336
50.0   60.0   16.666666666666668
50.0   30.0   33.333333333333336
100.0   60.0   33.333333333333336
100.0   30.0   33.333333333333336
100.0   30.0   16.666666666666668
50.0   30.0   33.333333333333336
100.0   60.0   33.333333333333336
100.0   30.0   16.666666666666668
50.0   60.0   16.666666666666668
50.0   30.0   33.333333333333336
100.0   30.0   33.333333333333336
50.0   60.0   33.333333333333336
50.0   30.0   50.0
100.0   30.0   33.333333333333336
100.0   60.0   33.333333333333336
50.0   60.0   33.333333333333336
100.0   60.0   50.0
50.0   30.0   50.0
50.0   60.0   50.0
100.0   60.0   50.0
50.0   60.0   33.333333333333336
50.0   30.0   50.0
100.0   60.0   50.0
100.0   30.0   50.0
100.0   30.0   33.333333333333336
50.0   30.0   50.0
100.0   60.0   50.0
100.0   30.0   33.333333333333336
50.0   60.0   33.333333333333336
50.0   60.0   0.0
100.0   60.0   0.0
50.0   90.0   0.0
50.0   60.0   16.666666666666668
100.0   60.0   0.0
100.0   90.0   0.0
50.0   90.0   0.0
100.0   90.0   16.666666666666668
50.0   60.0   16.666666666666668
50.0   90.0   16.666666666666668
100.0   90.0   16.666666666666668
50.0   90.0   0.0
50.0   60.0   16.666666666666668
100.0   90.0   16.666666666666668
100.0   60.0   16.666666666666668
100.0   60.0   0.0
50.0   60.0   16.666666666666668
100.0   90.0   16.666666666666668
100.0   60.0   0.0
50.0   90.0   0.0
50.0   60.0   16.666666666666668
100.0   60.0   16.666666666666668
50.0   90.0   16.666666666666668
50.0   60.0   33.333333333333336
100.0   60.0   16.666666666666668
100.0   90.0   16.666666666666668
50.0   90.0   16.666666666666668
100.0   90.0   33.333333333333336
50.0   60.0   33.333333333333336
50.0   90.0   33.333333333333336
100.0   90.0   33.333333333333336
50.0   90.0   16.666666666666668
50.0   60.0   33.333333333333336
100.0   90.0   33.333333333333336
100.0   60.0   33.333333333333336
100.0   60.0   16.666666666666668
50.0   60.0   33.333333333333336
100.0   90.0   33.333333333333336
100.0   60.0   16.666666666666668
50.0   90.0   16.666666666666668
50.0   60.0   33.333333333333336
100.0   60.0   33.333333333333336
50.0   90.0   33.333333333333336
50.0   60.0   50.0
100.0   60.0   33.333333333333336
100.0   90.0   33.333333333333336
50.0   90.0   33.333333333333336
100.0   90.0   50.0
50.0   60.0   50.0
50.0   90.0   50.0
100.0   90.0   50.0
50.0   90.0   33.333333333333336
50.0   60.0   50.0
100.0   90.0   50.0
100.0   60.0   50.0
100.0   60.0   33.333333333333336
50.0   60.0   50.0
100.0   90.0   50.0
100.0   60.0   33.333333333333336
50.0   90.0   33.333333333333336
50.0   90.0   0.0
100.0   90.0   0.0
50.0   120.0   0.0
50.0   90.0   16.666666666666668
100.0   90.0   0.0
100.0   120.0   0.0
50.0   120.0   0.0
100.0   120.0   16.666666666666668
50.0   90.0   16.666666666666668
50.0   120.0   16.666666666666668
100.0   120.0   16.666666666666668
50.0   120.0   0.0
50.0   90.0   16.666666666666668
100.0   120.0   16.666666666666668
100.0   90.0   16.666666666666668
100.0   90.0   0.0
50.0   90.0   16.666666666666668
100.0   120.0   16.666666666666668
100.0   90.0   0.0
50.0   120.0   0.0
50.0   90.0   16.666666666666668
100.0   90.0   16.666666666666668
50.0   120.0   16.666666666666668
50.0   90.0   33.333333333333336
100.0   90.0   16.666666666666668
100.0   120.0   16.666666666666668
50.0   120.0   16.666666666666668
100.0   120.0   33.333333333333336
50.0   90.0   33.333333333333336
50.0   120.0   33.333333333333336
100.0   120.0   33.333333333333336
50.0   120.0   16.666666666666668
50.0   90.0   33.333333333333336
100.0   120.0   33.333333333333336
100.0   90.0   33.333333333333336
100.0   90.0   16.666666666666668
50.0   90.0   33.333333333333336
100.0   120.0   33.333333333333336
100.0   90.0   16.666666666666668
50.0   120.0   16.666666666666668
50.0   90.0   33.333333333333336
100.0   90.0   33.333333333333336
50.0   120.0   33.333333333333336
50.0   90.0   50.0
100.0   90.0   33.333333333333336
100.0   120.0   33.333333333333336
50.0   120.0   33.333333333333336
100.0   120.0   50.0
50.0   90.0   50.0
50.0   120.0   50.0
100.0   120.0   50.0
50.0   120.0   33.333333333333336
50.0   90.0   50.0
100.0   120.0   50.0
100.0   90.0   50.0
100.0   90.0   33.333333333333336
50.0   90.0   50.0
100.0   120.0   50.0
100.0   90.0   33.333333333333336
50.0   120.0   33.333333333333336
50.0   120.0   0.0
100.0   120.0   0.0
50.0   150.0   0.0
50.0   120.0   16.666666666666668
100.0   120.0   0.0
100.0   150.0   0.0
50.0   150.0   0.0
100.0   150.0   16.666666666666668
50.0   120.0   16.666666666666668
50.0   150.0   16.666666666666668
100.0   150.0   16.666666666666668
50.0   150.0   0.0
50.0   120.0   16.666666666666668
100.0   150.0   16.666666666666668
100.0   120.0   16.666666666666668
100.0   120.0   0.0
50.0   120.0   16.666666666666668
100.0   150.0   16.666666666666668
100.0   120.0   0.0
50.0   150.0   0.0
50.0   120.0   16.666666666666668
100.0   120.0   16.666666666666668
50.0   150.0   16.666666666666668
50.0   120.0   33.333333333333336
100.0   120.0   16.666666666666668
100.0   150.0   16.666666666666668
50.0   150.0   16.666666666666668
100.0   150.0   33.333333333333336
50.0   120.0   33.333333333333336
50.0   150.0   33.333333333333336
100.0   150.0   33.333333333333336
50.0   150.0   16.666666666666668
50.0   120.0   33.333333333333336
100.0   150.0   33.333333333333336
100.0   120.0   33.333333333333336
100.0   120.0   16.666666666666668
50.0   120.0   33.333333333333336
100.0   150.0   33.333333333333336
100.0   120.0   16.666666666666668
50.0   150.0   16.666666666666668
50.0   120.0   33.333333333333336
100.0   120.0   33.333333333333336
50.0   150.0   33.333333333333336
50.0   120.0   50.0
100.0   120.0   33.333333333333336
100.0   150.0   33.333333333333336
50.0   150.0   33.333333333333336
100.0   150.0   50.0
50.0   120.0   50.0
50.0   150.0   50.0
100.0   150.0   50.0
50.0   150.0   33.333333333333336
50.0   120.0   50.0
100.0   150.0   50.0
100.0   120.0   50.0
100.0   120.0   33.333333333333336
50.0   120.0   50.0
100.0   150.0   50.0
100.0   120.0   33.333333333333336
50.0   150.0   33.333333333333336
100.0   0.0   0.0
150.0   0.0   0.0
100.0   30.0   0.0
100.0   0.0   16.666666666666668
150.0   0.0   0.0
150.0   30.0   0.0
100.0   30.0   0.0
150.0   30.0   16.666666666666668
100.0   0.0   16.666666666666668
100.0   30.0   16.666666666666668
150.0   30.0   16.666666666666668
100.0   30.0   0.0
100.0   0.0   16.666666666666668
150.0   30.0   16.666666666666668
150.0   0.0   16.666666666666668
150.0   0.0   0.0
100.0   0.0   16.666666666666668
150.0   30.0   16.666666666666668
150.0   0.0   0.0
100.0   30.0   0.0
100.0   0.0   16.666666666666668
150.0   0.0   16.666666666666668
100.0   30.0   16.666666666666668
100.0   0.0   33.333333333333336
150.0   0.0   16.666666666666668
150.0   30.0   16.666666666666668
100.0   30.0   16.666666666666668
150.0   30.0   33.333333333333336
100.0   0.0   33.333333333333336
100.0   30.0   33.333333333333336
150.0   30.0   33.333333333333336
100.0   30.0   16.666666666666668
100.0   0.0   33.333333333333336
150.0   30.0   33.333333333333336
150.0   0.0   33.333333333333336
150.0   0.0   16.666666666666668
100.0   0.0   33.333333333333336
150.0   30.0   33.333333333333336
150.0   0.0   16.666666666666668
100.0   30.0   16.666666666666668
100.0   0.0   33.333333333333336
150.0   0.0   33.333333333333336
100.0   30.0   33.333333333333336
100.0   0.0   50.0
150.0   0.0   33.333333333333336
150.0   30.0   33.333333333333336
100.0   30.0   33.333333333333336
150.0   30.0   50.0
100.0   0.0   50.0
100.0   30.0   50.0
150.0   30.0   50.0
100.0   30.0   33.333333333333336
100.0   0.0   50.0
150.0   30.0   50.0
150.0   0.0   50.0
150.0   0.0   33.333333333333336
100.0   0.0   50.0
150.0   30.0   50.0
150.0   0.0   33.333333333333336
100.0   30.0   33.333333333333336
100.0   30.0   0.0
150.0   30.0   0.0
100.0   60.0   0.0
100.0   30.0   16.666666666666668
150.0   30.0   0.0
150.0   60.0   0.0
100.0   60.0   0.0
150.0   60.0   16.666666666666668
100.0   30.0   16.666666666666668
100.0   60.0   16.666666666666668
150.0   60.0   16.666666666666668
100.0   60.0   0.0
100.0   30.0   16.666666666666668
150.0   60.0   16.666666666666668
150.0   30.0   16.666666666666668
150.0   30.0   0.0
100.0   30.0   16.666666666666668
150.0   60.0   16.666666666666668
150.0   30.0   0.0
100.0   60.0   0.0
100.0   30.0   16.666666666666668
150.0   30.0   16.666666666666668
100.0   60.0   16.666666666666668
100.0   30.0   33.333333333333336
150.0   30.0   16.666666666666668
150.0   60.0   16.666666666666668
100.0   60.0   16.666666666666668
150.0   60.0   33.333333333333336
100.0   30.0   33.333333333333336
100.0   60.0   33.333333333333336
150.0   60.0   33.333333333333336
100.0   60.0   16.666666666666668
100.0   30.0   33.333333333333336
150.0   60.0   33.333333333333336
150.0   30.0   33.333333333333336
150.0   30.0   16.666666666666668
100.0   30.0   33.333333333333336
150.0   60.0   33.333333333333336
150.0   30.0   16.666666666666668
100.0   60.0   16.666666666666668
100.0   30.0   33.333333333333336
150.0   30.0   33.333333333333336
100.0   60.0   33.333333333333336
100.0   30.0   50.0
150.0   30.0   33.333333333333336
150.0   60.0   33.333333333333336
100.0   60.0   33.333333333333336
150.0   60.0   50.0
100.0   30.0   50.0
100.0   60.0   50.0
150.0   60.0   50.0
100.0   60.0   33.333333333333336
100.0   30.0   50.0
150.0   60.0   50.0
150.0   30.0   50.0
150.0   30.0   33.333333333333336
100.0   30.0   50.0
150.0   60.0   50.0
150.0   30.0   33.333333333333336
100.0   60.0   33.333333333333336
100.0   60.0   0.0
150.0   60.0   0.0
100.0   90.0   0.0
100.0   60.0   16.666666666666668
150.0   60.0   0.0
150.0   90.0   0.0
100.0   90.0   0.0
150.0   90.0   16.666666666666668
100.0   60.0   16.666666666666668
100.0   90.0   16.666666666666668
150.0   90.0   16.666666666666668
100.0   90.0   0.0
100.0   60.0   16.666666666666668
150.0   90.0   16.666666666666668
150.0   60.0   16.666666666666668
150.0   60.0   0.0
100.0   60.0   16.666666666666668
150.0   90.0   16.666666666666668
150.0   60.0   0.0
100.0   90.0   0.0
100.0   60.0   16.666666666666668
150.0   60.0   16.666666666666668
100.0   90.0   16.666666666666668
100.0   60.0   33.333333333333336
150.0   60.0   16.666666666666668
150.0   90.0   16.666666666666668
100.0   90.0   16.666666666666668
150.0   90.0   33.333333333333336
100.0   60.0   33.333333333333336
100.0   90.0   33.333333333333336
150.0   90.0   33.333333333333336
100.0   90.0   16.666666666666668
100.0   60.0   33.333333333333336
150.0   90.0   33.333333333333336
150.0   60.0   33.333333333333336
150.0   60.0   16.666666666666668
100.0   60.0   33.333333333333336
150.0   90.0   33.333333333333336
150.0   60.0   16.666666666666668
100.0   90.0   16.666666666666668
100.0   60.0   33.333333333333336
150.0   60.0   33.333333333333336
100.0   90.0   33.333333333333336
100.0   60.0   50.0
150.0   60.0   33.333333333333336
150.0   90.0   33.333333333333336
100.0   90.0   33.333333333333336
150.0   90.0   50.0
100.0   60.0   50.0
100.0   90.0   50.0
150.0   90.0   50.0
100.0   90.0   33.333333333333336
100.0   60.0   50.0
150.0   90.0   50.0
150.0   60.0   50.0
150.0   60.0   33.333333333333336
100.0   60.0   50.0
150.0   90.0   50.0
150.0   60.0   33.333333333333336
100.0   90.0   33.333333333333336
100.0   90.0   0.0
150.0   90.0   0.0
100.0   120.0   0.0
100.0   90.0   16.666666666666668
150.0   90.0   0.0
150.0   120.0   0.0
100.0   120.0   0.0
150.0   120.0   16.666666666666668
100.0   90.0   16.666666666666668
100.0   120.0   16.666666666666668
150.0   120.0   16.666666666666668
100.0   120.0   0.0
100.0   90.0   16.666666666666668
150.0   120.0   16.666666666666668
150.0   90.0   16.666666666666668
150.0   90.0   0.0
100.0   90.0   16.666666666666668
150.0   120.0   16.666666666666668
150.0   90.0   0.0
100.0   120.0   0.0
100.0   90.0   16.666666666666668
150.0   90.0   16.666666666666668
100.0   120.0   16.666666666666668
100.0   90.0   33.333333333333336
150.0   90.0   16.666666666666668
150.0   120.0   16.666666666666668
100.0   120.0   16.666666666666668
150.0   120.0   33.333333333333336
100.0   90.0   33.333333333333336
100.0   120.0   33.333333333333336
150.0   120.0   33.333333333333336
100.0   120.0   16.666666666666668
100.0   90.0   33.333333333333336
150.0   120.0   33.333333333333336
150.0   90.0   33.333333333333336
150.0   90.0   16.666666666666668
100.0   90.0   33.333333333333336
150.0   120.0   33.333333333333336
150.0   90.0   16.666666666666668
100.0   120.0   16.666666666666668
100.0   90.0   33.333333333333336
150.0   90.0   33.333333333333336
100.0   120.0   33.333333333333336
100.0   90.0   50.0
150.0   90.0   33.333333333333336
150.0   120.0   33.333333333333336
100.0   120.0   33.333333333333336
150.0   120.0   50.0
100.0   90.0   50.0
100.0   120.0   50.0
150.0   120.0   50.0
100.0   120.0   33.333333333333336
100.0   90.0   50.0
150.0   120.0   50.0
150.0   90.0   50.0
150.0   90.0   33.333333333333336
100.0   90.0   50.0
150.0   120.0   50.0
150.0   90.0   33.333333333333336
100.0   120.0   33.333333333333336
100.0   120.0   0.0
150.0   120.0   0.0
100.0   150.0   0.0
100.0   120.0   16.666666666666668
150.0   120.0   0.0
150.0   150.0   0.0
100.0   150.0   0.0
150.0   150.0   16.666666666666668
100.0   120.0   16.666666666666668
100.0   150.0   16.666666666666668
150.0   150.0   16.666666666666668
100.0   150.0   0.0
100.0   120.0   16.666666666666668
150.0   150.0   16.666666666666668
150.0   120.0   16.666666666666668
150.0   120.0   0.0
100.0   120.0   16.666666666666668
150.0   150.0   16.666666666666668
150.0   120.0   0.0
100.0   150.0   0.0
100.0   120.0   16.666666666666668
150.0   120.0   16.666666666666668
100.0   150.0   16.666666666666668
100.0   120.0   33.333333333333336
150.0   120.0   16.666666666666668
150.0   150.0   16.666666666666668
100.0   150.0   16.666666666666668
150.0   150.0   33.333333333333336
100.0   120.0   33.333333333333336
100.0   150.0   33.333333333333336
150.0   150.0   33.333333333333336
100.0   150.0   16.666666666666668
100.0   120.0   33.333333333333336
150.0   150.0   33.333333333333336
150.0   120.0   33.333333333333336
150.0   120.0   16.666666666666668
100.0   120.0   33.333333333333336
150.0   150.0   33.333333333333336
150.0   120.0   16.666666666666668
100.0   150.0   16.666666666666668
100.0   120.0   33.333333333333336
150.0   120.0   33.333333333333336
100.0   150.0   33.333333333333336
100.0   120.0   50.0
150.0   120.0   33.333333333333336
150.0   150.0   33.333333333333336
100.0   150.0   33.333333333333336
150.0   150.0   50.0
100.0   120.0   50.0
100.0   150.0   50.0
150.0   150.0   50.0
100.0   150.0   33.333333333333336
100.0   120.0   50.0
150.0   150.0   50.0
150.0   120.0   50.0
150.0   120.0   33.333333333333336
100.0   120.0   50.0
150.0   150.0   50.0
150.0   120.0   33.333333333333336
100.0   150.0   33.333333333333336
150.0   0.0   0.0
200.0   0.0   0.0
150.0   30.0   0.0
150.0   0.0   16.666666666666668
200.0   0.0   0.0
200.0   30.0   0.0
150.0   30.0   0.0
200.0   30.0   16.666666666666668
150.0   0.0   16.666666666666668
150.0   30.0   16.666666666666668
200.0   30.0   16.666666666666668
150.0   30.0   0.0
150.0   0.0   16.666666666666668
200.0   30.0   16.666666666666668
200.0   0.0   16.666666666666668
200.0   0.0   0.0
150.0   0.0   16.666666666666668
200.0   30.0   16.666666666666668
200.0   0.0   0.0
150.0   30.0   0.0
150.0   0.0   16.666666666666668
200.0   0.0   16.666666666666668
150.0   30.0   16.666666666666668
150.0   0.0   33.333333333333336
200.0   0.0   16.666666666666668
200.0   30.0   16.666666666666668
150.0   30.0   16.666666666666668
200.0   30.0   33.333333333333336
150.0   0.0   33.333333333333336
150.0   30.0   33.333333333333336
200.0   30.0   33.333333333333336
150.0   30.0   16.666666666666668
150.0   0.0   33.333333333333336
200.0   30.0   33.333333333333336
200.0   0.0   33.333333333333336
200.0   0.0   16.666666666666668
150.0   0.0   33.333333333333336
200.0   30.0   33.333333333333336
200.0   0.0   16.666666666666668
150.0   30.0   16.666666666666668
150.0   0.0   33.333333333333336
200.0   0.0   33.333333333333336
150.0   30.0   33.333333333333336
150.0   0.0   50.0
200.0   0.0   33.333333333333336
200.0   30.0   33.333333333333336
150.0   30.0   33.333333333333336
200.0   30.0   50.0
150.0   0.0   50.0
150.0   30.0   50.0
200.0   30.0   50.0
150.0   30.0   33.333333333333336
150.0   0.0   50.0
200.0   30.0   50.0
200.0   0.0   50.0
200.0   0.0   33.333333333333336
150.0   0.0   50.0
200.0   30.0   50.0
200.0   0.0   33.333333333333336
150.0   30.0   33.333333333333336
150.0   30.0   0.0
200.0   30.0   0.0
150.0   60.0   0.0
150.0   30.0   16.666666666666668
200.0   30.0   0.0
200.0   60.0   0.0
150.0   60.0   0.0
200.0   60.0   16.666666666666668
150.0   30.0   16.666666666666668
150.0   60.0   16.666666666666668
200.0   60.0   16.666666666666668
150.0   60.0   0.0
150.0   30.0   16.666666666666668
200.0   60.0   16.666666666666668
200.0   30.0   16.666666666666668
200.0   30.0   0.0
150.0   30.0   16.666666666666668
200.0   60.0   16.666666666666668
200.0   30.0   0.0
150.0   60.0   0.0
150.0   30.0   16.666666666666668
200.0   30.0   16.666666666666668
150.0   60.0   16.666666666666668
150.0   30.0   33.333333333333336
200.0   30.0   16.666666666666668
200.0   60.0   16.666666666666668
150.0   60.0   16.666666666666668
200.0   60.0   33.333333333333336
150.0   30.0   33.333333333333336
150.0   60.0   33.333333333333336
200.0   60.0   33.333333333333336
150.0   60.0   16.666666666666668
150.0   30.0   33.333333333333336
200.0   60.0   33.333333333333336
200.0   30.0   33.333333333333336
200.0   30.0   16.666666666666668
150.0   30.0   33.333333333333336
200.0   60.0   33.333333333333336
200.0   30.0   16.666666666666668
150.0   60.0   16.666666666666668
150.0   30.0   33.333333333333336
200.0   30.0   33.333333333333336
150.0   60.0   33.333333333333336
150.0   30.0   50.0
200.0   30.0   33.333333333333336
200.0   60.0   33.333333333333336
150.0   60.0   33.333333333333336
200.0   60.0   50.0
150.0   30.0   50.0
150.0   60.0   50.0
200.0   60.0   50.0
150.0   60.0   33.333333333333336
150.0   30.0   50.0
200.0   60.0   50.0
200.0   30.0   50.0
200.0   30.0   33.333333333333336
150.0   30.0   50.0
200.0   60.0   50.0
200.0   30.0   33.333333333333336
150.0   60.0   33.333333333333336
150.0   60.0   0.0
200.0   60.0   0.0
150.0   90.0   0.0
150.0   60.0   16.666666666666668
200.0   60.0   0.0
200.0   90.0   0.0
150.0   90.0   0.0
200.0   90.0   16.666666666666668
150.0   60.0   16.666666666666668
150.0   90.0   16.666666666666668
200.0   90.0   16.666666666666668
150.0   90.0   0.0
150.0   60.0   16.666666666666668
200.0   90.0   16.666666666666668
200.0   60.0   16.666666666666668
200.0   60.0   0.0
150.0   60.0   16.666666666666668
200.0   90.0   16.666666666666668
200.0   60.0   0.0
150.0   90.0   0.0
150.0   60.0   16.666666666666668
200.0   60.0   16.666666666666668
150.0   90.0   16.666666666666668
150.0   60.0   33.333333333333336
200.0   60.0   16.666666666666668
200.0   90.0   16.666666666666668
150.0   90.0   16.666666666666668
200.0   90.0   33.333333333333336
150.0   60.0   33.333333333333336
150.0   90.0   33.333333333333336
200.0   90.0   33.333333333333336
150.0   90.0   16.666666666666668
150.0   60.0   33.333333333333336
200.0   90.0   33.333333333333336
200.0   60.0   33.333333333333336
200.0   60.0   16.666666666666668
150.0   60.0   33.333333333333336
200.0   90.0   33.333333333333336
200.0   60.0   16.666666666666668
150.0   90.0   16.666666666666668
150.0   60.0   33.333333333333336
200.0   60.0   33.333333333333336
150.0   90.0   33.333333333333336
150.0   60.0   50.0
200.0   60.0   33.333333333333336
200.0   90.0   33.333333333333336
150.0   90.0   33.333333333333336
200.0   90.0   50.0
150.0   60.0   50.0
150.0   90.0   50.0
200.0   90.0   50.0
150.0   90.0   33.333333333333336
150.0   60.0   50.0
200.0   90.0   50.0
200.0   60.0   50.0
200.0   60.0   33.333333333333336
150.0   60.0   50.0
200.0   90.0   50.0
200.0   60.0   33.333333333333336
150.0   90.0   33.333333333333336
150.0   90.0   0.0
200.0   90.0   0.0
150.0   120.0   0.0
150.0   90.0   16.666666666666668
200.0   90.0   0.0
200.0   120.0   0.0
150.0   120.0   0.0
200.0   120.0   16.666666666666668
150.0   90.0   16.666666666666668
150.0   120.0   16.666666666666668
200.0   120.0   16.666666666666668
150.0   120.0   0.0
150.0   90.0   16.666666666666668
200.0   120.0   16.666666666666668
200.0   90.0   16.666666666666668
200.0   90.0   0.0
150.0   90.0   16.666666666666668
200.0   120.0   16.666666666666668
200.0   90.0   0.0
150.0   120.0   0.0
150.0   90.0   16.666666666666668
200.0   90.0   16.666666666666668
150.0   120.0   16.666666666666668
150.0   90.0   33.333333333333336
200.0   90.0   16.666666666666668
200.0   120.0   16.666666666666668
150.0   120.0   16.666666666666668
200.0   120.0   33.333333333333336
150.0   90.0   33.333333333333336
150.0   120.0   33.333333333333336
200.0   120.0   33.333333333333336
150.0   120.0   16.666666666666668
150.0   90.0   33.333333333333336
200.0   120.0   33.333333333333336
200.0   90.0   33.333333333333336
200.0   90.0   16.666666666666668
150.0   90.0   33.333333333333336
200.0   120.0   33.333333333333336
200.0   90.0   16.666666666666668
150.0   120.0   16.666666666666668
150.0   90.0   33.333333333333336
200.0   90.0   33.333333333333336
150.0   120.0   33.333333333333336
150.0   90.0   50.0
200.0   90.0   33.333333333333336
200.0   120.0   33.333333333333336
150.0   120.0   33.333333333333336
200.0   120.0   50.0
150.0   90.0   50.0
150.0   120.0   50.0
200.0   120.0   50.0
150.0   120.0   33.333333333333336
150.0   90.0   50.0
200.0   120.0   50.0
200.0   90.0   50.0
200.0   90.0   33.333333333333336
150.0   90.0   50.0
200.0   120.0   50.0
200.0   90.0   33.333333333333336
150.0   120.0   33.333333333333336
150.0   120.0   0.0
200.0   120.0   0.0
150.0   150.0   0.0
150.0   120.0   16.666666666666668
200.0   120.0   0.0
200.0   150.0   0.0
150.0   150.0   0.0
200.0   150.0   16.666666666666668
150.0   120.0   16.666666666666668
150.0   150.0   16.666666666666668
200.0   150.0   16.666666666666668
150.0   150.0   0.0
150.0   120.0   16.666666666666668
200.0   150.0   16.666666666666668
200.0   120.0   16.666666666666668
200.0   120.0   0.0
150.0   120.0   16.666666666666668
200.0   150.0   16.666666666666668
200.0   120.0   0.0
150.0   150.0   0.0
150.0   120.0   16.666666666666668
200.0   120.0   16.666666666666668
150.0   150.0   16.666666666666668
150.0   120.0   33.333333333333336
200.0   120.0   16.666666666666668
200.0   150.0   16.666666666666668
150.0   150.0   16.666666666666668
200.0   150.0   33.333333333333336
150.0   120.0   33.333333333333336
150.0   150.0   33.333333333333336
200.0   150.0   33.333333333333336
150.0   150.0   16.666666666666668
150.0   120.0   33.333333333333336
200.0   150.0   33.333333333333336
200.0   120.0   33.333333333333336
200.0   120.0   16.666666666666668
150.0   120.0   33.333333333333336
200.0   150.0   33.333333333333336
200.0   120.0   16.666666666666668
150.0   150.0   16.666666666666668
150.0   120.0   33.333333333333336
200.0   120.0   33.333333333333336
150.0   150.0   33.333333333333336
150.0   120.0   50.0
200.0   120.0   33.333333333333336
200.0   150.0   33.333333333333336
150.0   150.0   33.333333333333336
200.0   150.0   50.0
150.0   120.0   50.0
150.0   150.0   50.0
200.0   150.0   50.0
150.0   150.0   33.333333333333336
150.0   120.0   50.0
200.0   150.0   50.0
200.0   120.0   50.0
200.0   120.0   33.333333333333336
150.0   120.0   50.0
200.0   150.0   50.0
200.0   120.0   33.333333333333336
150.0   150.0   33.333333333333336
200.0   0.0   0.0
250.0   0.0   0.0
200.0   30.0   0.0
200.0   0.0   16.666666666666668
250.0   0.0   0.0
250.0   30.0   0.0
200.0   30.0   0.0
250.0   30.0   16.666666666666668
200.0   0.0   16.666666666666668
200.0   30.0   16.666666666666668
250.0   30.0   16.666666666666668
200.0   30.0   0.0
200.0   0.0   16.666666666666668
250.0   30.0   16.666666666666668
250.0   0.0   16.666666666666668
250.0   0.0   0.0
200.0   0.0   16.666666666666668
250.0   30.0   16.666666666666668
250.0   0.0   0.0
200.0   30.0   0.0
200.0   0.0   16.666666666666668
250.0   0.0   16.666666666666668
200.0   30.0   16.666666666666668
200.0   0.0   33.333333333333336
250.0   0.0   16.666666666666668
250.0   30.0   16.666666666666668
200.0   30.0   16.666666666666668
250.0   30.0   33.333333333333336
200.0   0.0   33.333333333333336
200.0   30.0   33.333333333333336
250.0   30.0   33.333333333333336
200.0   30.0   16.666666666666668
200.0   0.0   33.333333333333336
250.0   30.0   33.333333333333336
250.0   0.0   33.333333333333336
250.0   0.0   16.666666666666668
200.0   0.0   33.333333333333336
250.0   30.0   33.333333333333336
250.0   0.0   16.666666666666668
200.0   30.0   16.666666666666668
200.0   0.0   33.333333333333336
250.0   0.0   33.333333333333336
200.0   30.0   33.333333333333336
200.0   0.0   50.0
250.0   0.0   33.333333333333336
250.0   30.0   33.333333333333336
200.0   30.0   33.333333333333336
250.0   30.0   50.0
200.0   0.0   50.0
200.0   30.0   50.0
250.0   30.0   50.0
200.0   30.0   33.333333333333336
200.0   0.0   50.0
250.0   30.0   50.0
250.0   0.0   50.0
250.0   0.0   33.333333333333336
200.0   0.0   50.0
250.0   30.0   50.0
250.0   0.0   33.333333333333336
200.0   30.0   33.333333333333336
200.0   30.0   0.0
250.0   30.0   0.0
200.0   60.0   0.0
200.0   30.0   16.666666666666668
250.0   30.0   0.0
250.0   60.0   0.0
200.0   60.0   0.0
250.0   60.0   16.666666666666668
200.0   30.0   16.666666666666668
200.0   60.0   16.666666666666668
250.0   60.0   16.666666666666668
200.0   60.0   0.0
200.0   30.0   16.666666666666668
250.0   60.0   16.666666666666668
250.0   30.0   16.666666666666668
250.0   30.0   0.0
200.0   30.0   16.666666666666668
250.0   60.0   16.666666666666668
250.0   30.0   0.0
200.0   60.0   0.0
200.0   30.0   16.666666666666668
250.0   30.0   16.666666666666668
200.0   60.0   16.666666666666668
200.0   30.0   33.333333333333336
250.0   30.0   16.666666666666668
250.0   60.0   16.666666666666668
200.0   60.0   16.666666666666668
250.0   60.0   33.333333333333336
200.0   30.0   33.333333333333336
200.0   60.0   33.333333333333336
250.0   60.0   33.333333333333336
200.0   60.0   16.666666666666668
200.0   30.0   33.333333333333336
250.0   60.0   33.333333333333336
250.0   30.0   33.333333333333336
250.0   30.0   16.666666666666668
200.0   30.0   33.333333333333336
250.0   60.0   33.333333333333336
250.0   30.0   16.666666666666668
200.0   60.0   16.666666666666668
200.0   30.0   33.333333333333336
250.0   30.0   33.333333333333336
200.0   60.0   33.333333333333336
200.0   30.0   50.0
250.0   30.0   33.333333333333336
250.0   60.0   33.333333333333336
200.0   60.0   33.333333333333336
250.0   60.0   50.0
200.0   30.0   50.0
200.0   60.0   50.0
250.0   60.0   50.0
200.0   60.0   33.333333333333336
200.0   30.0   50.0
250.0   60.0   50.0
250.0   30.0   50.0
250.0   30.0   33.333333333333336
200.0   30.0   50.0
250.0   60.0   50.0
250.0   30.0   33.333333333333336
200.0   60.0   33.333333333333336
200.0   60.0   0.0
250.0   60.0   0.0
200.0   90.0   0.0
200.0   60.0   16.666666666666668
250.0   60.0   0.0
250.0   90.0   0.0
200.0   90.0   0.0
250.0   90.0   16.666666666666668
200.0   60.0   16.666666666666668
200.0   90.0   16.666666666666668
250.0   90.0   16.666666666666668
200.0   90.0   0.0
200.0   60.0   16.666666666666668
250.0   90.0   16.666666666666668
250.0   60.0   16.666666666666668
250.0   60.0   0.0
200.0   60.0   16.666666666666668
250.0   90.0   16.666666666666668
250.0   60.0   0.0
200.0   90.0   0.0
200.0   60.0   16.666666666666668
250.0   60.0   16.666666666666668
200.0   90.0   16.666666666666668
200.0   60.0   33.333333333333336
250.0   60.0   16.666666666666668
250.0   90.0   16.666666666666668
200.0   90.0   16.666666666666668
250.0   90.0   33.333333333333336
200.0   60.0   33.333333333333336
200.0   90.0   33.333333333333336
250.0   90.0   33.333333333333336
200.0   90.0   16.666666666666668
200.0   60.0   33.333333333333336
250.0   90.0   33.333333333333336
250.0   60.0   33.333333333333336
250.0   60.0   16.666666666666668
200.0   60.0   33.333333333333336
250.0   90.0   33.333333333333336
250.0   60.0   16.666666666666668
200.0   90.0   16.666666666666668
200.0   60.0   33.333333333333336
250.0   60.0   33.333333333333336
200.0   90.0   33.333333333333336
200.0   60.0   50.0
250.0   60.0   33.333333333333336
250.0   90.0   33.333333333333336
200.0   90.0   33.333333333333336
250.0   90.0   50.0
200.0   60.0   50.0
200.0   90.0   50.0
250.0   90.0   50.0
200.0   90.0   33.333333333333336
200.0   60.0   50.0
250.0   90.0   50.0
250.0   60.0   50.0
250.0   60.0   33.333333333333336
200.0   60.0   50.0
250.0   90.0   50.0
250.0   60.0   33.333333333333336
200.0   90.0   33.333333333333336
200.0   90.0   0.0
250.0   90.0   0.0
200.0   120.0   0.0
200.0   90.0   16.666666666666668
250.0   90.0   0.0
250.0   120.0   0.0
200.0   120.0   0.0
250.0   120.0   16.666666666666668
200.0   90.0   16.666666666666668
200.0   120.0   16.666666666666668
250.0   120.0   16.666666666666668
200.0   120.0   0.0
200.0   90.0   16.666666666666668
250.0   120.0   16.666666666666668
250.0   90.0   16.666666666666668
250.0   90.0   0.0
200.0   90.0   16.666666666666668
250.0   120.0   16.666666666666668
250.0   90.0   0.0
200.0   120.0   0.0
200.0   90.0   16.666666666666668
250.0   90.0   16.666666666666668
200.0   120.0   16.666666666666668
200.0   90.0   33.333333333333336
250.0   90.0   16.666666666666668
250.0   120.0   16.666666666666668
200.0   120.0   16.666666666666668
250.0   120.0   33.333333333333336
200.0   90.0   33.333333333333336
200.0   120.0   33.333333333333336
250.0   120.0   33.333333333333336
200.0   120.0   16.666666666666668
200.0   90.0   33.333333333333336
250.0   120.0   33.333333333333336
250.0   90.0   33.333333333333336
250.0   90.0   16.666666666666668
200.0   90.0   33.333333333333336
250.0   120.0   33.333333333333336
250.0   90.0   16.666666666666668
200.0   120.0   16.666666666666668
200.0   90.0   33.333333333333336
250.0   90.0   33.333333333333336
200.0   120.0   33.333333333333336
200.0   90.0   50.0
250.0   90.0   33.333333333333336
250.0   120.0   33.333333333333336
200.0   120.0   33.333333333333336
250.0   120.0   50.0
200.0   90.0   50.0
200.0   120.0   50.0
250.0   120.0   50.0
200.0   120.0   33.333333333333336
200.0   90.0   50.0
250.0   120.0   50.0
250.0   90.0   50.0
250.0   90.0   33.333333333333336
200.0   90.0   50.0
250.0   120.0   50.0
250.0   90.0   33.333333333333336
200.0   120.0   33.333333333333336
200.0   120.0   0.0
250.0   120.0   0.0
200.0   150.0   0.0
200.0   120.0   16.666666666666668
250.0   120.0   0.0
250.0   150.0   0.0
200.0   150.0   0.0
250.0   150.0   16.666666666666668
200.0   120.0   16.666666666666668
200.0   150.0   16.666666666666668
250.0   150.0   16.666666666666668
200.0   150.0   0.0
200.0   120.0   16.666666666666668
250.0   150.0   16.666666666666668
250.0   120.0   16.666666666666668
250.0   120.0   0.0
200.0   120.0   16.666666666666668
250.0   150.0   16.666666666666668
250.0   120.0   0.0
200.0   150.0   0.0
200.0   120.0   16.666666666666668
250.0   120.0   16.666666666666668
200.0   150.0   16.666666666666668
200.0   120.0   33.333333333333336
250.0   120.0   16.666666666666668
250.0   150.0   16.666666666666668
200.0   150.0   16.666666666666668
250.0   150.0   33.333333333333336
200.0   120.0   33.333333333333336
200.0   150.0   33.333333333333336
250.0   150.0   33.333333333333336
200.0   150.0   16.666666666666668
200.0   120.0   33.333333333333336
250.0   150.0   33.333333333333336
250.0   120.0   33.333333333333336
250.0   120.0   16.666666666666668
200.0   120.0   33.333333333333336
250.0   150.0   33.333333333333336
250.0   120.0   16.666666666666668
200.0   150.0   16.666666666666668
200.0   120.0   33.333333333333336
250.0   120.0   33.333333333333336
200.0   150.0   33.333333333333336
200.0   120.0   50.0
250.0   120.0   33.333333333333336
250.0   150.0   33.333333333333336
200.0   150.0   33.333333333333336
250.0   150.0   50.0
200.0   120.0   50.0
200.0   150.0   50.0
250.0   150.0   50.0
200.0   150.0   33.333333333333336
200.0   120.0   50.0
250.0   150.0   50.0
250.0   120.0   50.0
250.0   120.0   33.333333333333336
200.0   120.0   50.0
250.0   150.0   50.0
250.0   120.0   33.333333333333336
200.0   150.0   33.333333333333336
250.0   0.0   0.0
300.0   0.0   0.0
250.0   30.0   0.0
250.0   0.0   16.666666666666668
300.0   0.0   0.0
300.0   30.0   0.0
250.0   30.0   0.0
300.0   30.0   16.666666666666668
250.0   0.0   16.666666666666668
250.0   30.0   16.666666666666668
300.0   30.0   16.666666666666668
250.0   30.0   0.0
250.0   0.0   16.666666666666668
300.0   30.0   16.666666666666668
300.0   0.0   16.666666666666668
300.0   0.0   0.0
250.0   0.0   16.666666666666668
300.0   30.0   16.666666666666668
300.0   0.0   0.0
250.0   30.0   0.0
250.0   0.0   16.666666666666668
300.0   0.0   16.666666666666668
250.0   30.0   16.666666666666668
250.0   0.0   33.333333333333336
300.0   0.0   16.666666666666668
300.0   30.0   16.666666666666668
250.0   30.0   16.666666666666668
300.0   30.0   33.333333333333336
250.0   0.0   33.333333333333336
250.0   30.0   33.333333333333336
300.0   30.0   33.333333333333336
250.0   30.0   16.666666666666668
250.0   0.0   33.333333333333336
300.0   30.0   33.333333333333336
300.0   0.0   33.333333333333336
300.0   0.0   16.666666666666668
250.0   0.0   33.333333333333336
300.0   30.0   33.333333333333336
300.0   0.0   16.666666666666668
250.0   30.0   16.666666666666668
250.0   0.0   33.333333333333336
300.0   0.0   33.333333333333336
250.0   30.0   33.333333333333336
250.0   0.0   50.0
300.0   0.0   33.333333333333336
300.0   30.0   33.333333333333336
250.0   30.0   33.333333333333336
300.0   30.0   50.0
250.0   0.0   50.0
250.0   30.0   50.0
300.0   30.0   50.0
250.0   30.0   33.333333333333336
250.0   0.0   50.0
300.0   30.0   50.0
300.0   0.0   50.0
300.0   0.0   33.333333333333336
250.0   0.0   50.0
300.0   30.0   50.0
300.0   0.0   33.333333333333336
250.0   30.0   33.333333333333336
250.0   30.0   0.0
300.0   30.0   0.0
250.0   60.0   0.0
250.0   30.0   16.666666666666668
300.0   30.0   0.0
300.0   60.0   0.0
250.0   60.0   0.0
300.0   60.0   16.666666666666668
250.0   30.0   16.666666666666668
250.0   60.0   16.666666666666668
300.0   60.0   16.666666666666668
250.0   60.0   0.0
250.0   30.0   16.666666666666668
300.0   60.0   16.666666666666668
300.0   30.0   16.666666666666668
300.0   30.0   0.0
250.0   30.0   16.666666666666668
300.0   60.0   16.666666666666668
300.0   30.0   0.0
250.0   60.0   0.0
250.0   30.0   16.666666666666668
300.0   30.0   16.666666666666668
250.0   60.0   16.666666666666668
250.0   30.0   33.333333333333336
300.0   30.0   16.666666666666668
300.0   60.0   16.666666666666668
250.0   60.0   16.666666666666668
300.0   60.0   33.333333333333336
250.0   30.0   33.333333333333336
250.0   60.0   33.333333333333336
300.0   60.0   33.333333333333336
250.0   60.0   16.666666666666668
250.0   30.0   33.333333333333336
300.0   60.0   33.333333333333336
300.0   30.0   33.333333333333336
300.0   30.0   16.666666666666668
250.0   30.0   33.333333333333336
300.0   60.0   33.333333333333336
300.0   30.0   16.666666666666668
250.0   60.0   16.666666666666668
250.0   30.0   33.333333333333336
300.0   30.0   33.333333333333336
250.0   60.0   33.333333333333336
250.0   30.0   50.0
300.0   30.0   33.333333333333336
300.0   60.0   33.333333333333336
250.0   60.0   33.333333333333336
300.0   60.0   50.0
250.0   30.0   50.0
250.0   60.0   50.0
300.0   60.0   50.0
250.0   60.0   33.333333333333336
250.0   30.0   50.0
300.0   60.0   50.0
300.0   30.0   50.0
300.0   30.0   33.333333333333336
250.0   30.0   50.0
300.0   60.0   50.0
300.0   30.0   33.333333333333336
250.0   60.0   33.333333333333336
250.0   60.0   0.0
300.0   60.0   0.0
250.0   90.0   0.0
250.0   60.0   16.666666666666668
300.0   60.0   0.0
300.0   90.0   0.0
250.0   90.0   0.0
300.0   90.0   16.666666666666668
250.0   60.0   16.666666666666668
250.0   90.0   16.666666666666668
300.0   90.0   16.666666666666668
250.0   90.0   0.0
250.0   60.0   16.666666666666668
300.0   90.0   16.666666666666668
300.0   60.0   16.666666666666668
300.0   60.0   0.0
250.0   60.0   16.666666666666668
300.0   90.0   16.666666666666668
300.0   60.0   0.0
250.0   90.0   0.0
250.0   60.0   16.666666666666668
300.0   60.0   16.666666666666668
250.0   90.0   16.666666666666668
250.0   60.0   33.333333333333336
300.0   60.0   16.666666666666668
300.0   90.0   16.666666666666668
250.0   90.0   16.666666666666668
300.0   90.0   33.333333333333336
250.0   60.0   33.333333333333336
250.0   90.0   33.333333333333336
300.0   90.0   33.333333333333336
250.0   90.0   16.666666666666668
250.0   60.0   33.333333333333336
300.0   90.0   33.333333333333336
300.0   60.0   33.333333333333336
300.0   60.0   16.666666666666668
250.0   60.0   33.333333333333336
300.0   90.0   33.333333333333336
300.0   60.0   16.666666666666668
250.0   90.0   16.666666666666668
250.0   60.0   33.333333333333336
300.0   60.0   33.333333333333336
250.0   90.0   33.333333333333336
250.0   60.0   50.0
300.0   60.0   33.333333333333336
300.0   90.0   33.333333333333336
250.0   90.0   33.333333333333336
300.0   90.0   50.0
250.0   60.0   50.0
250.0   90.0   50.0
300.0   90.0   50.0
250.0   90.0   33.333333333333336
250.0   60.0   50.0
300.0   90.0   50.0
300.0   60.0   50.0
300.0   60.0   33.333333333333336
250.0   60.0   50.0
300.0   90.0   50.0
300.0   60.0   33.333333333333336
250.0   90.0   33.333333333333336
250.0   90.0   0.0
300.0   90.0   0.0
250.0   120.0   0.0
250.0   90.0   16.666666666666668
300.0   90.0   0.0
300.0   120.0   0.0
250.0   120.0   0.0
300.0   120.0   16.666666666666668
250.0   90.0   16.666666666666668
250.0   120.0   16.666666666666668
300.0   120.0   16.666666666666668
250.0   120.0   0.0
250.0   90.0   16.666666666666668
300.0   120.0   16.666666666666668
300.0   90.0   16.666666666666668
300.0   90.0   0.0
250.0   90.0   16.666666666666668
300.0   120.0   16.666666666666668
300.0   90.0   0.0
250.0   120.0   0.0
250.0   90.0   16.666666666666668
300.0   90.0   16.666666666666668
250.0   120.0   16.666666666666668
250.0   90.0   33.333333333333336
300.0   90.0   16.666666666666668
300.0   120.0   16.666666666666668
250.0   120.0   16.666666666666668
300.0   120.0   33.333333333333336
250.0   90.0   33.333333333333336
250.0   120.0   33.333333333333336
300.0   120.0   33.333333333333336
250.0   120.0   16.666666666666668
250.0   90.0   33.333333333333336
300.0   120.0   33.333333333333336
300.0   90.0   33.333333333333336
300.0   90.0   16.666666666666668
250.0   90.0   33.333333333333336
300.0   120.0   33.333333333333336
300.0   90.0   16.666666666666668
250.0   120.0   16.666666666666668
250.0   90.0   33.333333333333336
300.0   90.0   33.333333333333336
250.0   120.0   33.333333333333336
250.0   90.0   50.0
300.0   90.0   33.333333333333336
300.0   120.0   33.333333333333336
250.0   120.0   33.333333333333336
300.0   120.0   50.0
250.0   90.0   50.0
250.0   120.0   50.0
300.0   120.0   50.0
250.0   120.0   33.333333333333336
250.0   90.0   50.0
300.0   120.0   50.0
300.0   90.0   50.0
300.0   90.0   33.333333333333336
250.0   90.0   50.0
300.0   120.0   50.0
300.0   90.0   33.333333333333336
250.0   120.0   33.333333333333336
250.0   120.0   0.0
300.0   120.0   0.0
250.0   150.0   0.0
250.0   120.0   16.666666666666668
300.0   120.0   0.0
300.0   150.0   0.0
250.0   150.0   0.0
300.0   150.0   16.666666666666668
250.0   120.0   16.666666666666668
250.0   150.0   16.666666666666668
300.0   150.0   16.666666666666668
250.0   150.0   0.0
250.0   120.0   16.666666666666668
300.0   150.0   16.666666666666668
300.0   120.0   16.666666666666668
300.0   120.0   0.0
250.0   120.0   16.666666666666668
300.0   150.0   16.666666666666668
300.0   120.0   0.0
250.0   150.0   0.0
250.0   120.0   16.666666666666668
300.0   120.0   16.666666666666668
250.0   150.0   16.666666666666668
250.0   120.0   33.333333333333336
300.0   120.0   16.666666666666668
300.0   150.0   16.666666666666668
250.0   150.0   16.666666666666668
300.0   150.0   33.333333333333336
250.0   120.0   33.333333333333336
250.0   150.0   33.333333333333336
300.0   150.0   33.333333333333336
250.0   150.0   16.666666666666668
250.0   120.0   33.333333333333336
300.0   150.0   33.333333333333336
300.0   120.0   33.333333333333336
300.0   120.0   16.666666666666668
250.0   120.0   33.333333333333336
300.0   150.0   33.333333333333336
300.0   120.0   16.666666666666668
250.0   150.0   16.666666666666668
250.0   120.0   33.333333333333336
300.0   120.0   33.333333333333336
250.0   150.0   33.333333333333336
250.0   120.0   50.0
300.0   120.0   33.333333333333336
300.0   150.0   33.333333333333336
250.0   150.0   33.333333333333336
300.0   150.0   50.0
250.0   120.0   50.0
250.0   150.0   50.0
300.0   150.0   50.0
250.0   150.0   33.333333333333336
250.0   120.0   50.0
300.0   150.0   50.0
300.0   120.0   50.0
300.0   120.0   33.333333333333336
250.0   120.0   50.0
300.0   150.0   50.0
300.0   120.0   33.333333333333336
250.0   150.0   33.333333333333336
300.0   0.0   0.0
350.0   0.0   0.0
300.0   30.0   0.0
300.0   0.0   16.666666666666668
350.0   0.0   0.0
350.0   30.0   0.0
300.0   30.0   0.0
350.0   30.0   16.666666666666668
300.0   0.0   16.666666666666668
300.0   30.0   16.666666666666668
350.0   30.0   16.666666666666668
300.0   30.0   0.0
300.0   0.0   16.666666666666668
350.0   30.0   16.666666666666668
350.0   0.0   16.666666666666668
350.0   0.0   0.0
300.0   0.0   16.666666666666668
350.0   30.0   16.666666666666668
350.0   0.0   0.0
300.0   30.0   0.0
300.0   0.0   16.666666666666668
350.0   0.0   16.666666666666668
300.0   30.0   16.666666666666668
300.0   0.0   33.333333333333336
350.0   0.0   16.666666666666668
350.0   30.0   16.666666666666668
300.0   30.0   16.666666666666668
350.0   30.0   33.333333333333336
300.0   0.0   33.333333333333336
300.0   30.0   33.333333333333336
350.0   30.0   33.333333333333336
300.0   30.0   16.666666666666668
300.0   0.0   33.333333333333336
350.0   30.0   33.333333333333336
350.0   0.0   33.333333333333336
350.0   0.0   16.666666666666668
300.0   0.0   33.333333333333336
350.0   30.0   33.333333333333336
350.0   0.0   16.666666666666668
300.0   30.0   16.666666666666668
300.0   0.0   33.333333333333336
350.0   0.0   33.333333333333336
300.0   30.0   33.333333333333336
300.0   0.0   50.0
350.0   0.0   33.333333333333336
350.0   30.0   33.333333333333336
300.0   30.0   33.333333333333336
350.0   30.0   50.0
300.0   0.0   50.0
300.0   30.0   50.0
350.0   30.0   50.0
300.0   30.0   33.333333333333336
300.0   0.0   50.0
350.0   30.0   50.0
350.0   0.0   50.0
350.0   0.0   33.333333333333336
300.0   0.0   50.0
350.0   30.0   50.0
350.0   0.0   33.333333333333336
300.0   30.0   33.333333333333336
300.0   30.0   0.0
350.0   30.0   0.0
300.0   60.0   0.0
300.0   30.0   16.666666666666668
350.0   30.0   0.0
350.0   60.0   0.0
300.0   60.0   0.0
350.0   60.0   16.666666666666668
300.0   30.0   16.666666666666668
300.0   60.0   16.666666666666668
350.0   60.0   16.666666666666668
300.0   60.0   0.0
300.0   30.0   16.666666666666668
350.0   60.0   16.666666666666668
350.0   30.0   16.666666666666668
350.0   30.0   0.0
300.0   30.0   16.666666666666668
350.0   60.0   16.666666666666668
350.0   30.0   0.0
300.0   60.0   0.0
300.0   30.0   16.666666666666668
350.0   30.0   16.666666666666668
300.0   60.0   16.666666666666668
300.0   30.0   33.333333333333336
350.0   30.0   16.666666666666668
350.0   60.0   16.666666666666668
300.0   60.0   16.666666666666668
350.0   60.0   33.333333333333336
300.0   30.0   33.333333333333336
300.0   60.0   33.333333333333336
350.0   60.0   33.333333333333336
300.0   60.0   16.666666666666668
300.0   30.0   33.333333333333336
350.0   60.0   33.333333333333336
350.0   30.0   33.333333333333336
350.0   30.0   16.666666666666668
300.0   30.0   33.333333333333336
350.0   60.0   33.333333333333336
350.0   30.0   16.666666666666668
300.0   60.0   16.666666666666668
300.0   30.0   33.333333333333336
350.0   30.0   33.333333333333336
300.0   60.0   33.333333333333336
300.0   30.0   50.0
350.0   30.0   33.333333333333336
350.0   60.0   33.333333333333336
300.0   60.0   33.333333333333336
350.0   60.0   50.0
300.0   30.0   50.0
300.0   60.0   50.0
350.0   60.0   50.0
300.0   60.0   33.333333333333336
300.0   30.0   50.0
350.0   60.0   50.0
350.0   30.0   50.0
350.0   30.0   33.333333333333336
300.0   30.0   50.0
350.0   60.0   50.0
350.0   30.0   33.333333333333336
300.0   60.0   33.333333333333336
300.0   60.0   0.0
350.0   60.0   0.0
300.0   90.0   0.0
300.0   60.0   16.666666666666668
350.0   60.0   0.0
350.0   90.0   0.0
300.0   90.0   0.0
350.0   90.0   16.666666666666668
300.0   60.0   16.666666666666668
300.0   90.0   16.666666666666668
350.0   90.0   16.666666666666668
300.0   90.0   0.0
300.0   60.0   16.666666666666668
350.0   90.0   16.666666666666668
350.0   60.0   16.666666666666668
350.0   60.0   0.0
300.0   60.0   16.666666666666668
350.0   90.0   16.666666666666668
350.0   60.0   0.0
300.0   90.0   0.0
300.0   60.0   16.666666666666668
350.0   60.0   16.666666666666668
300.0   90.0   16.666666666666668
300.0   60.0   33.333333333333336
350.0   60.0   16.666666666666668
350.0   90.0   16.666666666666668
300.0   90.0   16.666666666666668
350.0   90.0   33.333333333333336
300.0   60.0   33.333333333333336
300.0   90.0   33.333333333333336
350.0   90.0   33.333333333333336
300.0   90.0   16.666666666666668
300.0   60.0   33.333333333333336
350.0   90.0   33.333333333333336
350.0   60.0   33.333333333333336
350.0   60.0   16.666666666666668
300.0   60.0   33.333333333333336
350.0   90.0   33.333333333333336
350.0   60.0   16.666666666666668
300.0   90.0   16.666666666666668
300.0   60.0   33.333333333333336
350.0   60.0   33.333333333333336
300.0   90.0   33.333333333333336
300.0   60.0   50.0
350.0   60.0   33.333333333333336
350.0   90.0   33.333333333333336
300.0   90.0   33.333333333333336
350.0   90.0   50.0
300.0   60.0   50.0
300.0   90.0   50.0
350.0   90.0   50.0
300.0   90.0   33.333333333333336
300.0   60.0   50.0
350.0   90.0   50.0
350.0   60.0   50.0
350.0   60.0   33.333333333333336
300.0   60.0   50.0
350.0   90.0   50.0
350.0   60.0   33.333333333333336
300.0   90.0   33.333333333333336
300.0   90.0   0.0
350.0   90.0   0.0
300.0   120.0   0.0
300.0   90.0   16.666666666666668
350.0   90.0   0.0
350.0   120.0   0.0
300.0   120.0   0.0
350.0   120.0   16.666666666666668
300.0   90.0   16.666666666666668
300.0   120.0   16.666666666666668
350.0   120.0   16.666666666666668
300.0   120.0   0.0
300.0   90.0   16.666666666666668
350.0   120.0   16.666666666666668
350.0   90.0   16.666666666666668
350.0   90.0   0.0
300.0   90.0   16.666666666666668
350.0   120.0   16.666666666666668
350.0   90.0   0.0
300.0   120.0   0.0
300.0   90.0   16.666666666666668
350.0   90.0   16.666666666666668
300.0   120.0   16.666666666666668
300.0   90.0   33.333333333333336
350.0   90.0   16.666666666666668
350.0   120.0   16.666666666666668
300.0   120.0   16.666666666666668
350.0   120.0   33.333333333333336
300.0   90.0   33.333333333333336
300.0   120.0   33.333333333333336
350.0   120.0   33.333333333333336
300.0   120.0   16.666666666666668
300.0   90.0   33.333333333333336
350.0   120.0   33.333333333333336
350.0   90.0   33.333333333333336
350.0   90.0   16.666666666666668
300.0   90.0   33.333333333333336
350.0   120.0   33.333333333333336
350.0   90.0   16.666666666666668
300.0   120.0   16.666666666666668
300.0   90.0   33.333333333333336
350.0   90.0   33.333333333333336
300.0   120.0   33.333333333333336
300.0   90.0   50.0
350.0   90.0   33.333333333333336
350.0   120.0   33.333333333333336
300.0   120.0   33.333333333333336
350.0   120.0   50.0
300.0   90.0   50.0
300.0   120.0   50.0
350.0   120.0   50.0
300.0   120.0   33.333333333333336
300.0   90.0   50.0
350.0   120.0   50.0
350.0   90.0   50.0
350.0   90.0   33.333333333333336
300.0   90.0   50.0
350.0   120.0   50.0
350.0   90.0   33.333333333333336
300.0   120.0   33.333333333333336
300.0   120.0   0.0
350.0   120.0   0.0
300.0   150.0   0.0
300.0   120.0   16.666666666666668
350.0   120.0   0.0
350.0   150.0   0.0
300.0   150.0   0.0
350.0   150.0   16.666666666666668
300.0   120.0   16.666666666666668
300.0   150.0   16.666666666666668
350.0   150.0   16.666666666666668
300.0   150.0   0.0
300.0   120.0   16.666666666666668
350.0   150.0   16.666666666666668
350.0   120.0   16.666666666666668
350.0   120.0   0.0
300.0   120.0   16.666666666666668
350.0   150.0   16.666666666666668
350.0   120.0   0.0
300.0   150.0   0.0
300.0   120.0   16.666666666666668
350.0   120.0   16.666666666666668
300.0   150.0   16.666666666666668
300.0   120.0   33.333333333333336
350.0   120.0   16.666666666666668
350.0   150.0   16.666666666666668
300.0   150.0   16.666666666666668
350.0   150.0   33.333333333333336
300.0   120.0   33.333333333333336
300.0   150.0   33.333333333333336
350.0   150.0   33.333333333333336
300.0   150.0   16.666666666666668
300.0   120.0   33.333333333333336
350.0   150.0   33.333333333333336
350.0   120.0   33.333333333333336
350.0   120.0   16.666666666666668
300.0   120.0   33.333333333333336
350.0   150.0   33.333333333333336
350.0   120.0   16.666666666666668
300.0   150.0   16.666666666666668
300.0   120.0   33.333333333333336
350.0   120.0   33.333333333333336
300.0   150.0   33.333333333333336
300.0   120.0   50.0
350.0   120.0   33.333333333333336
350.0   150.0   33.333333333333336
300.0   150.0   33.333333333333336
350.0   150.0   50.0
300.0   120.0   50.0
300.0   150.0   50.0
350.0   150.0   50.0
300.0   150.0   33.333333333333336
300.0   120.0   50.0
350.0   150.0   50.0
350.0   120.0   50.0
350.0   120.0   33.333333333333336
300.0   120.0   50.0
350.0   150.0   50.0
350.0   120.0   33.333333333333336
300.0   150.0   33.333333333333336
350.0   0.0   0.0
400.0   0.0   0.0
350.0   30.0   0.0
350.0   0.0   16.666666666666668
400.0   0.0   0.0
400.0   30.0   0.0
350.0   30.0   0.0
400.0   30.0   16.666666666666668
350.0   0.0   16.666666666666668
350.0   30.0   16.666666666666668
400.0   30.0   16.666666666666668
350.0   30.0   0.0
350.0   0.0   16.666666666666668
400.0   30.0   16.666666666666668
400.0   0.0   16.666666666666668
400.0   0.0   0.0
350.0   0.0   16.666666666666668
400.0   30.0   16.666666666666668
400.0   0.0   0.0
350.0   30.0   0.0
350.0   0.0   16.666666666666668
400.0   0.0   16.666666666666668
350.0   30.0   16.666666666666668
350.0   0.0   33.333333333333336
400.0   0.0   16.666666666666668
400.0   30.0   16.666666666666668
350.0   30.0   16.666666666666668
400.0   30.0   33.333333333333336
350.0   0.0   33.333333333333336
350.0   30.0   33.333333333333336
400.0   30.0   33.333333333333336
350.0   30.0   16.666666666666668
350.0   0.0   33.333333333333336
400.0   30.0   33.333333333333336
400.0   0.0   33.333333333333336
400.0   0.0   16.666666666666668
350.0   0.0   33.333333333333336
400.0   30.0   33.333333333333336
400.0   0.0   16.666666666666668
350.0   30.0   16.666666666666668
350.0   0.0   33.333333333333336
400.0   0.0   33.333333333333336
350.0   30.0   33.333333333333336
350.0   0.0   50.0
400.0   0.0   33.333333333333336
400.0   30.0   33.333333333333336
350.0   30.0   33.333333333333336
400.0   30.0   50.0
350.0   0.0   50.0
350.0   30.0   50.0
400.0   30.0   50.0
350.0   30.0   33.333333333333336
350.0   0.0   50.0
400.0   30.0   50.0
400.0   0.0   50.0
400.0   0.0   33.333333333333336
350.0   0.0   50.0
400.0   30.0   50.0
400.0   0.0   33.333333333333336
350.0   30.0   33.333333333333336
350.0   30.0   0.0
400.0   30.0   0.0
350.0   60.0   0.0
350.0   30.0   16.666666666666668
400.0   30.0   0.0
400.0   60.0   0.0
350.0   60.0   0.0
400.0   60.0   16.666666666666668
350.0   30.0   16.666666666666668
350.0   60.0   16.666666666666668
400.0   60.0   16.666666666666668
350.0   60.0   0.0
350.0   30.0   16.666666666666668
400.0   60.0   16.666666666666668
400.0   30.0   16.666666666666668
400.0   30.0   0.0
350.0   30.0   16.666666666666668
400.0   60.0   16.666666666666668
400.0   30.0   0.0
350.0   60.0   0.0
350.0   30.0   16.666666666666668
400.0   30.0   16.666666666666668
350.0   60.0   16.666666666666668
350.0   30.0   33.333333333333336
400.0   30.0   16.666666666666668
400.0   60.0   16.666666666666668
350.0   60.0   16.666666666666668
400.0   60.0   33.333333333333336
350.0   30.0   33.333333333333336
350.0   60.0   33.333333333333336
400.0   60.0   33.333333333333336
350.0   60.0   16.666666666666668
350.0   30.0   33.333333333333336
400.0   60.0   33.333333333333336
400.0   30.0   33.333333333333336
400.0   30.0   16.666666666666668
350.0   30.0   33.333333333333336
400.0   60.0   33.333333333333336
400.0   30.0   16.666666666666668
350.0   60.0   16.666666666666668
350.0   30.0   33.333333333333336
400.0   30.0   33.333333333333336
350.0   60.0   33.333333333333336
350.0   30.0   50.0
400.0   30.0   33.333333333333336
400.0   60.0   33.333333333333336
350.0   60.0   33.333333333333336
400.0   60.0   50.0
350.0   30.0   50.0
350.0   60.0   50.0
400.0   60.0   50.0
350.0   60.0   33.333333333333336
350.0   30.0   50.0
400.0   60.0   50.0
400.0   30.0   50.0
400.0   30.0   33.333333333333336
350.0   30.0   50.0
400.0   60.0   50.0
400.0   30.0   33.333333333333336
350.0   60.0   33.333333333333336
350.0   60.0   0.0
400.0   60.0   0.0
350.0   90.0   0.0
350.0   60.0   16.666666666666668
400.0   60.0   0.0
400.0   90.0   0.0
350.0   90.0   0.0
400.0   90.0   16.666666666666668
350.0   60.0   16.666666666666668
350.0   90.0   16.666666666666668
400.0   90.0   16.666666666666668
350.0   90.0   0.0
350.0   60.0   16.666666666666668
400.0   90.0   16.666666666666668
400.0   60.0   16.666666666666668
400.0   60.0   0.0
350.0   60.0   16.666666666666668
400.0   90.0   16.666666666666668
400.0   60.0   0.0
350.0   90.0   0.0
350.0   60.0   16.666666666666668
400.0   60.0   16.666666666666668
350.0   90.0   16.666666666666668
350.0   60.0   33.333333333333336
400.0   60.0   16.666666666666668
400.0   90.0   16.666666666666668
350.0   90.0   16.666666666666668
400.0   90.0   33.333333333333336
350.0   60.0   33.333333333333336
350.0   90.0   33.333333333333336
400.0   90.0   33.333333333333336
350.0   90.0   16.666666666666668
350.0   60.0   33.333333333333336
400.0   90.0   33.333333333333336
400.0   60.0   33.333333333333336
400.0   60.0   16.666666666666668
350.0   60.0   33.333333333333336
400.0   90.0   33.333333333333336
400.0   60.0   16.666666666666668
350.0   90.0   16.666666666666668
350.0   60.0   33.333333333333336
400.0   60.0   33.333333333333336
350.0   90.0   33.333333333333336
350.0   60.0   50.0
400.0   60.0   33.333333333333336
400.0   90.0   33.333333333333336
350.0   90.0   33.333333333333336
400.0   90.0   50.0
350.0   60.0   50.0
350.0   90.0   50.0
400.0   90.0   50.0
350.0   90.0   33.333333333333336
350.0   60.0   50.0
400.0   90.0   50.0
400.0   60.0   50.0
400.0   60.0   33.333333333333336
350.0   60.0   50.0
400.0   90.0   50.0
400.0   60.0   33.333333333333336
350.0   90.0   33.333333333333336
350.0   90.0   0.0
400.0   90.0   0.0
350.0   120.0   0.0
350.0   90.0   16.666666666666668
400.0   90.0   0.0
400.0   120.0   0.0
350.0   120.0   0.0
400.0   120.0   16.666666666666668
350.0   90.0   16.666666666666668
350.0   120.0   16.666666666666668
400.0   120.0   16.666666666666668
350.0   120.0   0.0
350.0   90.0   16.666666666666668
400.0   120.0   16.666666666666668
400.0   90.0   16.666666666666668
400.0   90.0   0.0
350.0   90.0   16.666666666666668
400.0   120.0   16.666666666666668
400.0   90.0   0.0
350.0   120.0   0.0
350.0   90.0   16.666666666666668
400.0   90.0   16.666666666666668
350.0   120.0   16.666666666666668
350.0   90.0   33.333333333333336
400.0   90.0   16.666666666666668
400.0   120.0   16.666666666666668
350.0   120.0   16.666666666666668
400.0   120.0   33.333333333333336
350.0   90.0   33.333333333333336
350.0   120.0   33.333333333333336
400.0   120.0   33.333333333333336
350.0   120.0   16.666666666666668
350.0   90.0   33.333333333333336
400.0   120.0   33.333333333333336
400.0   90.0   33.333333333333336
400.0   90.0   16.666666666666668
350.0   90.0   33.333333333333336
400.0   120.0   33.333333333333336
400.0   90.0   16.666666666666668
350.0   120.0   16.666666666666668
350.0   90.0   33.333333333333336
400.0   90.0   33.333333333333336
350.0   120.0   33.333333333333336
350.0   90.0   50.0
400.0   90.0   33.333333333333336
400.0   120.0   33.333333333333336
350.0   120.0   33.333333333333336
400.0   120.0   50.0
350.0   90.0   50.0
350.0   120.0   50.0
400.0   120.0   50.0
350.0   120.0   33.333333333333336
350.0   90.0   50.0
400.0   120.0   50.0
400.0   90.0   50.0
400.0   90.0   33.333333333333336
350.0   90.0   50.0
400.0   120.0   50.0
400.0   90.0   33.333333333333336
350.0   120.0   33.333333333333336
350.0   120.0   0.0
400.0   120.0   0.0
350.0   150.0   0.0
350.0   120.0   16.666666666666668
400.0   120.0   0.0
400.0   150.0   0.0
350.0   150.0   0.0
400.0   150.0   16.666666666666668
350.0   120.0   16.666666666666668
350.0   150.0   16.666666666666668
400.0   150.0   16.666666666666668
350.0   150.0   0.0
350.0   120.0   16.666666666666668
400.0   150.0   16.666666666666668
400.0   120.0   16.666666666666668
400.0   120.0   0.0
350.0   120.0   16.666666666666668
400.0   150.0   16.666666666666668
400.0   120.0   0.0
350.0   150.0   0.0
350.0   120.0   16.666666666666668
400.0   120.0   16.666666666666668
350.0   150.0   16.666666666666668
350.0   120.0   33.333333333333336
400.0   120.0   16.666666666666668
400.0   150.0   16.666666666666668
350.0   150.0   16.666666666666668
400.0   150.0   33.333333333333336
350.0   120.0   33.333333333333336
350.0   150.0   33.333333333333336
400.0   150.0   33.333333333333336
350.0   150.0   16.666666666666668
350.0   120.0   33.333333333333336
400.0   150.0   33.333333333333336
400.0   120.0   33.333333333333336
400.0   120.0   16.666666666666668
350.0   120.0   33.333333333333336
400.0   150.0   33.333333333333336
400.0   120.0   16.666666666666668
350.0   150.0   16.666666666666668
350.0   120.0   33.333333333333336
400.0   120.0   33.333333333333336
350.0   150.0   33.333333333333336
350.0   120.0   50.0
400.0   120.0   33.333333333333336
400.0   150.0   33.333333333333336
350.0   150.0   33.333333333333336
400.0   150.0   50.0
350.0   120.0   50.0
350.0   150.0   50.0
400.0   150.0   50.0
350.0   150.0   33.333333333333336
350.0   120.0   50.0
400.0   150.0   50.0
400.0   120.0   50.0
400.0   120.0   33.333333333333336
350.0   120.0   50.0
400.0   150.0   50.0
400.0   120.0   33.333333333333336
350.0   150.0   33.333333333333336
400.0   0.0   0.0
450.0   0.0   0.0
400.0   30.0   0.0
400.0   0.0   16.666666666666668
450.0   0.0   0.0
450.0   30.0   0.0
400.0   30.0   0.0
450.0   30.0   16.666666666666668
400.0   0.0   16.666666666666668
400.0   30.0   16.666666666666668
450.0   30.0   16.666666666666668
400.0   30.0   0.0
400.0   0.0   16.666666666666668
450.0   30.0   16.666666666666668
450.0   0.0   16.666666666666668
450.0   0.0   0.0
400.0   0.0   16.666666666666668
450.0   30.0   16.666666666666668
450.0   0.0   0.0
400.0   30.0   0.0
400.0   0.0   16.666666666666668
450.0   0.0   16.666666666666668
400.0   30.0   16.666666666666668
400.0   0.0   33.333333333333336
450.0   0.0   16.666666666666668
450.0   30.0   16.666666666666668
400.0   30.0   16.666666666666668
450.0   30.0   33.333333333333336
400.0   0.0   33.333333333333336
400.0   30.0   33.333333333333336
450.0   30.0   33.333333333333336
400.0   30.0   16.666666666666668
400.0   0.0   33.333333333333336
450.0   30.0   33.333333333333336
450.0   0.0   33.333333333333336
450.0   0.0   16.666666666666668
400.0   0.0   33.333333333333336
450.0   30.0   33.333333333333336
450.0   0.0   16.666666666666668
400.0   30.0   16.666666666666668
400.0   0.0   33.333333333333336
450.0   0.0   33.333333333333336
400.0   30.0   33.333333333333336
400.0   0.0   50.0
450.0   0.0   33.333333333333336
450.0   30.0   33.333333333333336
400.0   30.0   33.333333333333336
450.0   30.0   50.0
400.0   0.0   50.0
400.0   30.0   50.0
450.0   30.0   50.0
400.0   30.0   33.333333333333336
400.0   0.0   50.0
450.0   30.0   50.0
450.0   0.0   50.0
450.0   0.0   33.333333333333336
400.0   0.0   50.0
450.0   30.0   50.0
450.0   0.0   33.333333333333336
400.0   30.0   33.333333333333336
400.0   30.0   0.0
450.0   30.0   0.0
400.0   60.0   0.0
400.0   30.0   16.666666666666668
450.0   30.0   0.0
450.0   60.0   0.0
400.0   60.0   0.0
450.0   60.0   16.666666666666668
400.0   30.0   16.666666666666668
400.0   60.0   16.666666666666668
450.0   60.0   16.666666666666668
400.0   60.0   0.0
400.0   30.0   16.666666666666668
450.0   60.0   16.666666666666668
450.0   30.0   16.666666666666668
450.0   30.0   0.0
400.0   30.0   16.666666666666668
450.0   60.0   16.666666666666668
450.0   30.0   0.0
400.0   60.0   0.0
400.0   30.0   16.666666666666668
450.0   30.0   16.666666666666668
400.0   60.0   16.666666666666668
400.0   30.0   33.333333333333336
450.0   30.0   16.666666666666668
450.0   60.0   16.666666666666668
400.0   60.0   16.666666666666668
450.0   60.0   33.333333333333336
400.0   30.0   33.333333333333336
400.0   60.0   33.333333333333336
450.0   60.0   33.333333333333336
400.0   60.0   16.666666666666668
400.0   30.0   33.333333333333336
450.0   60.0   33.333333333333336
450.0   30.0   33.333333333333336
450.0   30.0   16.666666666666668
400.0   30.0   33.333333333333336
450.0   60.0   33.333333333333336
450.0   30.0   16.666666666666668
400.0   60.0   16.666666666666668
400.0   30.0   33.333333333333336
450.0   30.0   33.333333333333336
400.0   60.0   33.333333333333336
400.0   30.0   50.0
450.0   30.0   33.333333333333336
450.0   60.0   33.333333333333336
400.0   60.0   33.333333333333336
450.0   60.0   50.0
400.0   30.0   50.0
400.0   60.0   50.0
450.0   60.0   50.0
400.0   60.0   33.333333333333336
400.0   30.0   50.0
450.0   60.0   50.0
450.0   30.0   50.0
450.0   30.0   33.333333333333336
400.0   30.0   50.0
450.0   60.0   50.0
450.0   30.0   33.333333333333336
400.0   60.0   33.333333333333336
400.0   60.0   0.0
450.0   60.0   0.0
400.0   90.0   0.0
400.0   60.0   16.666666666666668
450.0   60.0   0.0
450.0   90.0   0.0
400.0   90.0   0.0
450.0   90.0   16.666666666666668
400.0   60.0   16.666666666666668
400.0   90.0   16.666666666666668
450.0   90.0   16.666666666666668
400.0   90.0   0.0
400.0   60.0   16.666666666666668
450.0   90.0   16.666666666666668
450.0   60.0   16.666666666666668
450.0   60.0   0.0
400.0   60.0   16.666666666666668
450.0   90.0   16.666666666666668
450.0   60.0   0.0
400.0   90.0   0.0
400.0   60.0   16.666666666666668
450.0   60.0   16.666666666666668
400.0   90.0   16.666666666666668
400.0   60.0   33.333333333333336
450.0   60.0   16.666666666666668
450.0   90.0   16.666666666666668
400.0   90.0   16.666666666666668
450.0   90.0   33.333333333333336
400.0   60.0   33.333333333333336
400.0   90.0   33.333333333333336
450.0   90.0   33.333333333333336
400.0   90.0   16.666666666666668
400.0   60.0   33.333333333333336
450.0   90.0   33.333333333333336
450.0   60.0   33.333333333333336
450.0   60.0   16.666666666666668
400.0   60.0   33.333333333333336
450.0   90.0   33.333333333333336
450.0   60.0   16.666666666666668
400.0   90.0   16.666666666666668
400.0   60.0   33.333333333333336
450.0   60.0   33.333333333333336
400.0   90.0   33.333333333333336
400.0   60.0   50.0
450.0   60.0   33.333333333333336
450.0   90.0   33.333333333333336
400.0   90.0   33.333333333333336
450.0   90.0   50.0
400.0   60.0   50.0
400.0   90.0   50.0
450.0   90.0   50.0
400.0   90.0   33.333333333333336
400.0   60.0   50.0
450.0   90.0   50.0
450.0   60.0   50.0
450.0   60.0   33.333333333333336
400.0   60.0   50.0
450.0   90.0   50.0
450.0   60.0   33.333333333333336
400.0   90.0   33.333333333333336
400.0   90.0   0.0
450.0   90.0   0.0
400.0   120.0   0.0
400.0   90.0   16.666666666666668
450.0   90.0   0.0
450.0   120.0   0.0
400.0   120.0   0.0
450.0   120.0   16.666666666666668
400.0   90.0   16.666666666666668
400.0   120.0   16.666666666666668
450.0   120.0   16.666666666666668
400.0   120.0   0.0
400.0   90.0   16.666666666666668
450.0   120.0   16.666666666666668
450.0   90.0   16.666666666666668
450.0   90.0   0.0
400.0   90.0   16.666666666666668
450.0   120.0   16.666666666666668
450.0   90.0   0.0
400.0   120.0   0.0
400.0   90.0   16.666666666666668
450.0   90.0   16.666666666666668
400.0   120.0   16.666666666666668
400.0   90.0   33.333333333333336
450.0   90.0   16.666666666666668
450.0   120.0   16.666666666666668
400.0   120.0   16.666666666666668
450.0   120.0   33.333333333333336
400.0   90.0   33.333333333333336
400.0   120.0   33.333333333333336
450.0   120.0   33.333333333333336
400.0   120.0   16.666666666666668
400.0   90.0   33.333333333333336
450.0   120.0   33.333333333333336
450.0   90.0   33.333333333333336
450.0   90.0   16.666666666666668
400.0   90.0   33.333333333333336
450.0   120.0   33.333333333333336
450.0   90.0   16.666666666666668
400.0   120.0   16.666666666666668
400.0   90.0   33.333333333333336
450.0   90.0   33.333333333333336
400.0   120.0   33.333333333333336
400.0   90.0   50.0
450.0   90.0   33.333333333333336
450.0   120.0   33.333333333333336
400.0   120.0   33.333333333333336
450.0   120.0   50.0
400.0   90.0   50.0
400.0   120.0   50.0
450.0   120.0   50.0
400.0   120.0   33.333333333333336
400.0   90.0   50.0
450.0   120.0   50.0
450.0   90.0   50.0
450.0   90.0   33.333333333333336
400.0   90.0   50.0
450.0   120.0   50.0
450.0   90.0   33.333333333333336
400.0   120.0   33.333333333333336
400.0   120.0   0.0
450.0   120.0   0.0
400.0   150.0   0.0
400.0   120.0   16.666666666666668
450.0   120.0   0.0
450.0   150.0   0.0
400.0   150.0   0.0
450.0   150.0   16.666666666666668
400.0   120.0   16.666666666666668
400.0   150.0   16.666666666666668
450.0   150.0   16.666666666666668
400.0   150.0   0.0
400.0   120.0   16.666666666666668
450.0   150.0   16.666666666666668
450.0   120.0   16.666666666666668
450.0   120.0   0.0
400.0   120.0   16.666666666666668
450.0   150.0   16.666666666666668
450.0   120.0   0.0
400.0   150.0   0.0
400.0   120.0   16.666666666666668
450.0   120.0   16.666666666666668
400.0   150.0   16.666666666666668
400.0   120.0   33.333333333333336
450.0   120.0   16.666666666666668
450.0   150.0   16.666666666666668
400.0   150.0   16.666666666666668
450.0   150.0   33.333333333333336
400.0   120.0   33.333333333333336
400.0   150.0   33.333333333333336
450.0   150.0   33.333333333333336
400.0   150.0   16.666666666666668
400.0   120.0   33.333333333333336
450.0   150.0   33.333333333333336
450.0   120.0   33.333333333333336
450.0   120.0   16.666666666666668
400.0   120.0   33.333333333333336
450.0   150.0   33.333333333333336
450.0   120.0   16.666666666666668
400.0   150.0   16.666666666666668
400.0   120.0   33.333333333333336
450.0   120.0   33.333333333333336
400.0   150.0   33.333333333333336
400.0   120.0   50.0
450.0   120.0   33.333333333333336
450.0   150.0   33.333333333333336
400.0   150.0   33.333333333333336
450.0   150.0   50.0
400.0   120.0   50.0
400.0   150.0   50.0
450.0   150.0   50.0
400.0   150.0   33.333333333333336
400.0   120.0   50.0
450.0   150.0   50.0
450.0   120.0   50.0
450.0   120.0   33.333333333333336
400.0   120.0   50.0
450.0   150.0   50.0
450.0   120.0   33.333333333333336
400.0   150.0   33.333333333333336
450.0   0.0   0.0
500.0   0.0   0.0
450.0   30.0   0.0
450.0   0.0   16.666666666666668
500.0   0.0   0.0
500.0   30.0   0.0
450.0   30.0   0.0
500.0   30.0   16.666666666666668
450.0   0.0   16.666666666666668
450.0   30.0   16.666666666666668
500.0   30.0   16.666666666666668
450.0   30.0   0.0
450.0   0.0   16.666666666666668
500.0   30.0   16.666666666666668
500.0   0.0   16.666666666666668
500.0   0.0   0.0
450.0   0.0   16.666666666666668
500.0   30.0   16.666666666666668
500.0   0.0   0.0
450.0   30.0   0.0
450.0   0.0   16.666666666666668
500.0   0.0   16.666666666666668
450.0   30.0   16.666666666666668
450.0   0.0   33.333333333333336
500.0   0.0   16.666666666666668
500.0   30.0   16.666666666666668
450.0   30.0   16.666666666666668
500.0   30.0   33.333333333333336
450.0   0.0   33.333333333333336
450.0   30.0   33.333333333333336
500.0   30.0   33.333333333333336
450.0   30.0   16.666666666666668
450.0   0.0   33.333333333333336
500.0   30.0   33.333333333333336
500.0   0.0   33.333333333333336
500.0   0.0   16.666666666666668
450.0   0.0   33.333333333333336
500.0   30.0   33.333333333333336
500.0   0.0   16.666666666666668
450.0   30.0   16.666666666666668
450.0   0.0   33.333333333333336
500.0   0.0   33.333333333333336
450.0   30.0   33.333333333333336
450.0   0.0   50.0
500.0   0.0   33.333333333333336
500.0   30.0   33.333333333333336
450.0   30.0   33.333333333333336
500.0   30.0   50.0
450.0   0.0   50.0
450.0   30.0   50.0
500.0   30.0   50.0
450.0   30.0   33.333333333333336
450.0   0.0   50.0
500.0   30.0   50.0
500.0   0.0   50.0
500.0   0.0   33.333333333333336
450.0   0.0   50.0
500.0   30.0   50.0
500.0   0.0   33.333333333333336
450.0   30.0   33.333333333333336
450.0   30.0   0.0
500.0   30.0   0.0
450.0   60.0   0.0
450.0   30.0   16.666666666666668
500.0   30.0   0.0
500.0   60.0   0.0
450.0   60.0   0.0
500.0   60.0   16.666666666666668
450.0   30.0   16.666666666666668
450.0   60.0   16.666666666666668
500.0   60.0   16.666666666666668
450.0   60.0   0.0
450.0   30.0   16.666666666666668
500.0   60.0   16.666666666666668
500.0   30.0   16.666666666666668
500.0   30.0   0.0
450.0   30.0   16.666666666666668
500.0   60.0   16.666666666666668
500.0   30.0   0.0
450.0   60.0   0.0
450.0   30.0   16.666666666666668
500.0   30.0   16.666666666666668
450.0   60.0   16.666666666666668
450.0   30.0   33.333333333333336
500.0   30.0   16.666666666666668
500.0   60.0   16.666666666666668
450.0   60.0   16.666666666666668
500.0   60.0   33.333333333333336
450.0   30.0   33.333333333333336
450.0   60.0   33.333333333333336
500.0   60.0   33.333333333333336
450.0   60.0   16.666666666666668
450.0   30.0   33.333333333333336
500.0   60.0   33.333333333333336
500.0   30.0   33.333333333333336
500.0   30.0   16.666666666666668
450.0   30.0   33.333333333333336
500.0   60.0   33.333333333333336
500.0   30.0   16.666666666666668
450.0   60.0   16.666666666666668
450.0   30.0   33.333333333333336
500.0   30.0   33.333333333333336
450.0   60.0   33.333333333333336
450.0   30.0   50.0
500.0   30.0   33.333333333333336
500.0   60.0   33.333333333333336
450.0   60.0   33.333333333333336
500.0   60.0   50.0
450.0   30.0   50.0
450.0   60.0   50.0
500.0   60.0   50.0
450.0   60.0   33.333333333333336
450.0   30.0   50.0
500.0   60.0   50.0
500.0   30.0   50.0
500.0   30.0   33.333333333333336
450.0   30.0   50.0
500.0   60.0   50.0
500.0   30.0   33.333333333333336
450.0   60.0   33.333333333333336
450.0   60.0   0.0
500.0   60.0   0.0
450.0   90.0   0.0
450.0   60.0   16.666666666666668
500.0   60.0   0.0
500.0   90.0   0.0
450.0   90.0   0.0
500.0   90.0   16.666666666666668
450.0   60.0   16.666666666666668
450.0   90.0   16.666666666666668
500.0   90.0   16.666666666666668
450.0   90.0   0.0
450.0   60.0   16.666666666666668
500.0   90.0   16.666666666666668
500.0   60.0   16.666666666666668
500.0   60.0   0.0
450.0   60.0   16.666666666666668
500.0   90.0   16.666666666666668
500.0   60.0   0.0
450.0   90.0   0.0
450.0   60.0   16.666666666666668
500.0   60.0   16.666666666666668
450.0   90.0   16.666666666666668
450.0   60.0   33.333333333333336
500.0   60.0   16.666666666666668
500.0   90.0   16.666666666666668
450.0   90.0   16.666666666666668
500.0   90.0   33.333333333333336
450.0   60.0   33.333333333333336
450.0   90.0   33.333333333333336
500.0   90.0   33.333333333333336
450.0   90.0   16.666666666666668
450.0   60.0   33.333333333333336
500.0   90.0   33.333333333333336
500.0   60.0   33.333333333333336
500.0   60.0   16.666666666666668
450.0   60.0   33.333333333333336
500.0   90.0   33.333333333333336
500.0   60.0   16.666666666666668
450.0   90.0   16.666666666666668
450.0   60.0   33.333333333333336
500.0   60.0   33.333333333333336
450.0   90.0   33.333333333333336
450.0   60.0   50.0
500.0   60.0   33.333333333333336
500.0   90.0   33.333333333333336
450.0   90.0   33.333333333333336
500.0   90.0   50.0
450.0   60.0   50.0
450.0   90.0   50.0
500.0   90.0   50.0
450.0   90.0   33.333333333333336
450.0   60.0   50.0
500.0   90.0   50.0
500.0   60.0   50.0
500.0   60.0   33.333333333333336
450.0   60.0   50.0
500.0   90.0   50.0
500.0   60.0   33.333333333333336
450.0   90.0   33.333333333333336
450.0   90.0   0.0
500.0   90.0   0.0
450.0   120.0   0.0
450.0   90.0   16.666666666666668
500.0   90.0   0.0
500.0   120.0   0.0
450.0   120.0   0.0
500.0   120.0   16.666666666666668
450.0   90.0   16.666666666666668
450.0   120.0   16.666666666666668
500.0   120.0   16.666666666666668
450.0   120.0   0.0
450.0   90.0   16.666666666666668
500.0   120.0   16.666666666666668
500.0   90.0   16.666666666666668
500.0   90.0   0.0
450.0   90.0   16.666666666666668
500.0   120.0   16.666666666666668
500.0   90.0   0.0
450.0   120.0   0.0
450.0   90.0   16.666666666666668
500.0   90.0   16.666666666666668
450.0   120.0   16.666666666666668
450.0   90.0   33.333333333333336
500.0   90.0   16.666666666666668
500.0   120.0   16.666666666666668
450.0   120.0   16.666666666666668
500.0   120.0   33.333333333333336
450.0   90.0   33.333333333333336
450.0   120.0   33.333333333333336
500.0   120.0   33.333333333333336
450.0   120.0   16.666666666666668
450.0   90.0   33.333333333333336
500.0   120.0   33.333333333333336
500.0   90.0   33.333333333333336
500.0   90.0   16.666666666666668
450.0   90.0   33.333333333333336
500.0   120.0   33.333333333333336
500.0   90.0   16.666666666666668
450.0   120.0   16.666666666666668
450.0   90.0   33.333333333333336
500.0   90.0   33.333333333333336
450.0   120.0   33.333333333333336
450.0   90.0   50.0
500.0   90.0   33.333333333333336
500.0   120.0   33.333333333333336
450.0   120.0   33.333333333333336
500.0   120.0   50.0
450.0   90.0   50.0
450.0   120.0   50.0
500.0   120.0   50.0
450.0   120.0   33.333333333333336
450.0   90.0   50.0
500.0   120.0   50.0
500.0   90.0   50.0
500.0   90.0   33.333333333333336
450.0   90.0   50.0
500.0   120.0   50.0
500.0   90.0   33.333333333333336
450.0   120.0   33.333333333333336
450.0   120.0   0.0
500.0   120.0   0.0
450.0   150.0   0.0
450.0   120.0   16.666666666666668
500.0   120.0   0.0
500.0   150.0   0.0
450.0   150.0   0.0
500.0   150.0   16.666666666666668
450.0   120.0   16.666666666666668
450.0   150.0   16.666666666666668
500.0   150.0   16.666666666666668
450.0   150.0   0.0
450.0   120.0   16.666666666666668
500.0   150.0   16.666666666666668
500.0   120.0   16.666666666666668
500.0   120.0   0.0
450.0   120.0   16.666666666666668
500.0   150.0   16.666666666666668
500.0   120.0   0.0
450.0   150.0   0.0
450.0   120.0   16.666666666666668
500.0   120.0   16.666666666666668
450.0   150.0   16.666666666666668
450.0   120.0   33.333333333333336
500.0   120.0   16.666666666666668
500.0   150.0   16.666666666666668
450.0   150.0   16.666666666666668
500.0   150.0   33.333333333333336
450.0   120.0   33.333333333333336
450.0   150.0   33.333333333333336
500.0   150.0   33.333333333333336
450.0   150.0   16.666666666666668
450.0   120.0   33.333333333333336
500.0   150.0   33.333333333333336
500.0   120.0   33.333333333333336
500.0   120.0   16.666666666666668
450.0   120.0   33.333333333333336
500.0   150.0   33.333333333333336
500.0   120.0   16.666666666666668
450.0   150.0   16.666666666666668
450.0   120.0   33.333333333333336
500.0   120.0   33.333333333333336
450.0   150.0   33.333333333333336
450.0   120.0   50.0
500.0   120.0   33.333333333333336
500.0   150.0   33.333333333333336
450.0   150.0   33.333333333333336
500.0   150.0   50.0
450.0   120.0   50.0
450.0   150.0   50.0
500.0   150.0   50.0
450.0   150.0   33.333333333333336
450.0   120.0   50.0
500.0   150.0   50.0
500.0   120.0   50.0
500.0   120.0   33.333333333333336
450.0   120.0   50.0
500.0   150.0   50.0
500.0   120.0   33.333333333333336
450.0   150.0   33.333333333333336
             </DataArray>   
          </Points>  
          <Cells>  
             <DataArray type="Int32" Name="connectivity" format="ascii">   
0   1   2   3
4   5   6   7
8   9   10   11
12   13   14   15
16   17   18   19
20   21   22   23
24   25   26   27
28   29   30   31
32   33   34   35
36   37   38   39
40   41   42   43
44   45   46   47
48   49   50   51
52   53   54   55
56   57   58   59
60   61   62   63
64   65   66   67
68   69   70   71
72   73   74   75
76   77   78   79
80   81   82   83
84   85   86   87
88   89   90   91
92   93   94   95
96   97   98   99
100   101   102   103
104   105   106   107
108   109   110   111
112   113   114   115
116   117   118   119
120   121   122   123
124   125   126   127
128   129   130   131
132   133   134   135
136   137   138   139
140   141   142   143
144   145   146   147
148   149   150   151
152   153   154   155
156   157   158   159
160   161   162   163
164   165   166   167
168   169   170   171
172   173   174   175
176   177   178   179
180   181   182   183
184   185   186   187
188   189   190   191
192   193   194   195
196   197   198   199
200   201   202   203
204   205   206   207
208   209   210   211
212   213   214   215
216   217   218   219
220   221   222   223
224   225   226   227
228   229   230   231
232   233   234   235
236   237   238   239
240   241   242   243
244   245   246   247
248   249   250   251
252   253   254   255
256   257   258   259
260   261   262   263
264   265   266   267
268   269   270   271
272   273   274   275
276   277   278   279
280   281   282   283
284   285   286   287
288   289   290   291
292   293   294   295
296   297   298   299
300   301   302   303
304   305   306   307
308   309   310   311
312   313   314   315
316   317   318   319
320   321   322   323
324   325   326   327
328   329   330   331
332   333   334   335
336   337   338   339
340   341   342   343
344   345   346   347
348   349   350   351
352   353   354   355
356   357   358   359
360   361   362   363
364   365   366   367
368   369   370   371
372   373   374   375
376   377   378   379
380   381   382   383
384   385   386   387
388   389   390   391
392   393   394   395
396   397   398   399
400   401   402   403
404   405   406   407
408   409   410   411
412   413   414   415
416   417   418   419
420   421   422   423
424   425   426   427
428   429   430   431
432   433   434   435
436   437   438   439
440   441   442   443
444   445   446   447
448   449   450   451
452   453   454   455
456   457   458   459
460   461   462   463
464   465   466   467
468   469   470   471
472   473   474   475
476   477   478   479
480   481   482   483
484   485   486   487
488   489   490   491
492   493   494   495
496   497   498   499
500   501   502   503
504   505   506   507
508   509   510   511
512   513   514   515
516   517   518   519
520   521   522   523
524   525   526   527
528   529   530   531
532   533   534   535
536   537   538   539
540   541   542   543
544   545   546   547
548   549   550   551
552   553   554   555
556   557   558   559
560   561   562   563
564   565   566   567
568   569   570   571
572   573   574   575
576   577   578   579
580   581   582   583
584   585   586   587
588   589   590   591
592   593   594   595
596   597   598   599
600   601   602   603
604   605   606   607
608   609   610   611
612   613   614   615
616   617   618   619
620   621   622   623
624   625   626   627
628   629   630   631
632   633   634   635
636   637   638   639
640   641   642   643
644   645   646   647
648   649   650   651
652   653   654   655
656   657   658   659
660   661   662   663
664   665   666   667
668   669   670   671
672   673   674   675
676   677   678   679
680   681   682   683
684   685   686   687
688   689   690   691
692   693   694   695
696   697   698   699
700   701   702   703
704   705   706   707
708   709   710   711
712   713   714   715
716   717   718   719
720   721   722   723
724   725   726   727
728   729   730   731
732   733   734   735
736   737   738   739
740   741   742   743
744   745   746   747
748   749   750   751
752   753   754   755
756   757   758   759
760   761   762   763
764   765   766   767
768   769   770   771
772   773   774   775
776   777   778   779
780   781   782   783
784   785   786   787
788   789   790   791
792   793   794   795
796   797   798   799
800   801   802   803
804   805   806   807
808   809   810   811
812   813   814   815
816   817   818   819
820   821   822   823
824   825   826   827
828   829   830   831
832   833   834   835
836   837   838   839
840   841   842   843
844   845   846   847
848   849   850   851
852   853   854   855
856   857   858   859
860   861   862   863
864   865   866   867
868   869   870   871
872   873   874   875
876   877   878   879
880   881   882   883
884   885   886   887
888   889   890   891
892   893   894   895
896   897   898   899
900   901   902   903
904   905   906   907
908   909   910   911
912   913   914   915
916   917   918   919
920   921   922   923
924   925   926   927
928   929   930   931
932   933   934   935
936   937   938   939
940   941   942   943
944   945   946   947
948   949   950   951
952   953   954   955
956   957   958   959
960   961   962   963
964   965   966   967
968   969   970   971
972   973   974   975
976   977   978   979
980   981   982   983
984   985   986   987
988   989   990   991
992   993   994   995
996   997   998   999
1000   1001   1002   1003
1004   1005   1006   1007
1008   1009   1010   1011
1012   1013   1014   1015
1016   1017   1018   1019
1020   1021   1022   1023
1024   1025   1026   1027
1028   1029   1030   1031
1032   1033   1034   1035
1036   1037   1038   1039
1040   1041   1042   1043
1044   1045   1046   1047
1048   1049   1050   1051
1052   1053   1054   1055
1056   1057   1058   1059
1060   1061   1062   1063
1064   1065   1066   1067
1068   1069   1070   1071
1072   1073   1074   1075
1076   1077   1078   1079
1080   1081   1082   1083
1084   1085   1086   1087
1088   1089   1090   1091
1092   1093   1094   1095
1096   1097   1098   1099
1100   1101   1102   1103
1104   1105   1106   1107
1108   1109   1110   1111
1112   1113   1114   1115
1116   1117   1118   1119
1120   1121   1122   1123
1124   1125   1126   1127
1128   1129   1130   1131
1132   1133   1134   1135
1136   1137   1138   1139
1140   1141   1142   1143
1144   1145   1146   1147
1148   1149   1150   1151
1152   1153   1154   1155
1156   1157   1158   1159
1160   1161   1162   1163
1164   1165   1166   1167
1168   1169   1170   1171
1172   1173   1174   1175
1176   1177   1178   1179
1180   1181   1182   1183
1184   1185   1186   1187
1188   1189   1190   1191
1192   1193   1194   1195
1196   1197   1198   1199
1200   1201   1202   1203
1204   1205   1206   1207
1208   1209   1210   1211
1212   1213   1214   1215
1216   1217   1218   1219
1220   1221   1222   1223
1224   1225   1226   1227
1228   1229   1230   1231
1232   1233   1234   1235
1236   1237   1238   1239
1240   1241   1242   1243
1244   1245   1246   1247
1248   1249   1250   1251
1252   1253   1254   1255
1256   1257   1258   1259
1260   1261   1262   1263
1264   1265   1266   1267
1268   1269   1270   1271
1272   1273   1274   1275
1276   1277   1278   1279
1280   1281   1282   1283
1284   1285   1286   1287
1288   1289   1290   1291
1292   1293   1294   1295
1296   1297   1298   1299
1300   1301   1302   1303
1304   1305   1306   1307
1308   1309   1310   1311
1312   1313   1314   1315
1316   1317   1318   1319
1320   1321   1322   1323
1324   1325   1326   1327
1328   1329   1330   1331
1332   1333   1334   1335
1336   1337   1338   1339
1340   1341   1342   1343
1344   1345   1346   1347
1348   1349   1350   1351
1352   1353   1354   1355
1356   1357   1358   1359
1360   1361   1362   1363
1364   1365   1366   1367
1368   1369   1370   1371
1372   1373   1374   1375
1376   1377   1378   1379
1380   1381   1382   1383
1384   1385   1386   1387
1388   1389   1390   1391
1392   1393   1394   1395
1396   1397   1398   1399
1400   1401   1402   1403
1404   1405   1406   1407
1408   1409   1410   1411
1412   1413   1414   1415
1416   1417   1418   1419
1420   1421   1422   1423
1424   1425   1426   1427
1428   1429   1430   1431
1432   1433   1434   1435
1436   1437   1438   1439
1440   1441   1442   1443
1444   1445   1446   1447
1448   1449   1450   1451
1452   1453   1454   1455
1456   1457   1458   1459
1460   1461   1462   1463
1464   1465   1466   1467
1468   1469   1470   1471
1472   1473   1474   1475
1476   1477   1478   1479
1480   1481   1482   1483
1484   1485   1486   1487
1488   1489   1490   1491
1492   1493   1494   1495
1496   1497   1498   1499
1500   1501   1502   1503
1504   1505   1506   1507
1508   1509   1510   1511
1512   1513   1514   1515
1516   1517   1518   1519
1520   1521   1522   1523
1524   1525   1526   1527
1528   1529   1530   1531
1532   1533   1534   1535
1536   1537   1538   1539
1540   1541   1542   1543
1544   1545   1546   1547
1548   1549   1550   1551
1552   1553   1554   1555
1556   1557   1558   1559
1560   1561   1562   1563
1564   1565   1566   1567
1568   1569   1570   1571
1572   1573   1574   1575
1576   1577   1578   1579
1580   1581   1582   1583
1584   1585   1586   1587
1588   1589   1590   1591
1592   1593   1594   1595
1596   1597   1598   1599
1600   1601   1602   1603
1604   1605   1606   1607
1608   1609   1610   1611
1612   1613   1614   1615
1616   1617   1618   1619
1620   1621   1622   1623
1624   1625   1626   1627
1628   1629   1630   1631
1632   1633   1634   1635
1636   1637   1638   1639
1640   1641   1642   1643
1644   1645   1646   1647
1648   1649   1650   1651
1652   1653   1654   1655
1656   1657   1658   1659
1660   1661   1662   1663
1664   1665   1666   1667
1668   1669   1670   1671
1672   1673   1674   1675
1676   1677   1678   1679
1680   1681   1682   1683
1684   1685   1686   1687
1688   1689   1690   1691
1692   1693   1694   1695
1696   1697   1698   1699
1700   1701   1702   1703
1704   1705   1706   1707
1708   1709   1710   1711
1712   1713   1714   1715
1716   1717   1718   1719
1720   1721   1722   1723
1724   1725   1726   1727
1728   1729   1730   1731
1732   1733   1734   1735
1736   1737   1738   1739
1740   1741   1742   1743
1744   1745   1746   1747
1748   1749   1750   1751
1752   1753   1754   1755
1756   1757   1758   1759
1760   1761   1762   1763
1764   1765   1766   1767
1768   1769   1770   1771
1772   1773   1774   1775
1776   1777   1778   1779
1780   1781   1782   1783
1784   1785   1786   1787
1788   1789   1790   1791
1792   1793   1794   1795
1796   1797   1798   1799
1800   1801   1802   1803
1804   1805   1806   1807
1808   1809   1810   1811
1812   1813   1814   1815
1816   1817   1818   1819
1820   1821   1822   1823
1824   1825   1826   1827
1828   1829   1830   1831
1832   1833   1834   1835
1836   1837   1838   1839
1840   1841   1842   1843
1844   1845   1846   1847
1848   1849   1850   1851
1852   1853   1854   1855
1856   1857   1858   1859
1860   1861   1862   1863
1864   1865   1866   1867
1868   1869   1870   1871
1872   1873   1874   1875
1876   1877   1878   1879
1880   1881   1882   1883
1884   1885   1886   1887
1888   1889   1890   1891
1892   1893   1894   1895
1896   1897   1898   1899
1900   1901   1902   1903
1904   1905   1906   1907
1908   1909   1910   1911
1912   1913   1914   1915
1916   1917   1918   1919
1920   1921   1922   1923
1924   1925   1926   1927
1928   1929   1930   1931
1932   1933   1934   1935
1936   1937   1938   1939
1940   1941   1942   1943
1944   1945   1946   1947
1948   1949   1950   1951
1952   1953   1954   1955
1956   1957   1958   1959
1960   1961   1962   1963
1964   1965   1966   1967
1968   1969   1970   1971
1972   1973   1974   1975
1976   1977   1978   1979
1980   1981   1982   1983
1984   1985   1986   1987
1988   1989   1990   1991
1992   1993   1994   1995
1996   1997   1998   1999
2000   2001   2002   2003
2004   2005   2006   2007
2008   2009   2010   2011
2012   2013   2014   2015
2016   2017   2018   2019
2020   2021   2022   2023
2024   2025   2026   2027
2028   2029   2030   2031
2032   2033   2034   2035
2036   2037   2038   2039
2040   2041   2042   2043
2044   2045   2046   2047
2048   2049   2050   2051
2052   2053   2054   2055
2056   2057   2058   2059
2060   2061   2062   2063
2064   2065   2066   2067
2068   2069   2070   2071
2072   2073   2074   2075
2076   2077   2078   2079
2080   2081   2082   2083
2084   2085   2086   2087
2088   2089   2090   2091
2092   2093   2094   2095
2096   2097   2098   2099
2100   2101   2102   2103
2104   2105   2106   2107
2108   2109   2110   2111
2112   2113   2114   2115
2116   2117   2118   2119
2120   2121   2122   2123
2124   2125   2126   2127
2128   2129   2130   2131
2132   2133   2134   2135
2136   2137   2138   2139
2140   2141   2142   2143
2144   2145   2146   2147
2148   2149   2150   2151
2152   2153   2154   2155
2156   2157   2158   2159
2160   2161   2162   2163
2164   2165   2166   2167
2168   2169   2170   2171
2172   2173   2174   2175
2176   2177   2178   2179
2180   2181   2182   2183
2184   2185   2186   2187
2188   2189   2190   2191
2192   2193   2194   2195
2196   2197   2198   2199
2200   2201   2202   2203
2204   2205   2206   2207
2208   2209   2210   2211
2212   2213   2214   2215
2216   2217   2218   2219
2220   2221   2222   2223
2224   2225   2226   2227
2228   2229   2230   2231
2232   2233   2234   2235
2236   2237   2238   2239
2240   2241   2242   2243
2244   2245   2246   2247
2248   2249   2250   2251
2252   2253   2254   2255
2256   2257   2258   2259
2260   2261   2262   2263
2264   2265   2266   2267
2268   2269   2270   2271
2272   2273   2274   2275
2276   2277   2278   2279
2280   2281   2282   2283
2284   2285   2286   2287
2288   2289   2290   2291
2292   2293   2294   2295
2296   2297   2298   2299
2300   2301   2302   2303
2304   2305   2306   2307
2308   2309   2310   2311
2312   2313   2314   2315
2316   2317   2318   2319
2320   2321   2322   2323
2324   2325   2326   2327
2328   2329   2330   2331
2332   2333   2334   2335
2336   2337   2338   2339
2340   2341   2342   2343
2344   2345   2346   2347
2348   2349   2350   2351
2352   2353   2354   2355
2356   2357   2358   2359
2360   2361   2362   2363
2364   2365   2366   2367
2368   2369   2370   2371
2372   2373   2374   2375
2376   2377   2378   2379
2380   2381   2382   2383
2384   2385   2386   2387
2388   2389   2390   2391
2392   2393   2394   2395
2396   2397   2398   2399
2400   2401   2402   2403
2404   2405   2406   2407
2408   2409   2410   2411
2412   2413   2414   2415
2416   2417   2418   2419
2420   2421   2422   2423
2424   2425   2426   2427
2428   2429   2430   2431
2432   2433   2434   2435
2436   2437   2438   2439
2440   2441   2442   2443
2444   2445   2446   2447
2448   2449   2450   2451
2452   2453   2454   2455
2456   2457   2458   2459
2460   2461   2462   2463
2464   2465   2466   2467
2468   2469   2470   2471
2472   2473   2474   2475
2476   2477   2478   2479
2480   2481   2482   2483
2484   2485   2486   2487
2488   2489   2490   2491
2492   2493   2494   2495
2496   2497   2498   2499
2500   2501   2502   2503
2504   2505   2506   2507
2508   2509   2510   2511
2512   2513   2514   2515
2516   2517   2518   2519
2520   2521   2522   2523
2524   2525   2526   2527
2528   2529   2530   2531
2532   2533   2534   2535
2536   2537   2538   2539
2540   2541   2542   2543
2544   2545   2546   2547
2548   2549   2550   2551
2552   2553   2554   2555
2556   2557   2558   2559
2560   2561   2562   2563
2564   2565   2566   2567
2568   2569   2570   2571
2572   2573   2574   2575
2576   2577   2578   2579
2580   2581   2582   2583
2584   2585   2586   2587
2588   2589   2590   2591
2592   2593   2594   2595
2596   2597   2598   2599
2600   2601   2602   2603
2604   2605   2606   2607
2608   2609   2610   2611
2612   2613   2614   2615
2616   2617   2618   2619
2620   2621   2622   2623
2624   2625   2626   2627
2628   2629   2630   2631
2632   2633   2634   2635
2636   2637   2638   2639
2640   2641   2642   2643
2644   2645   2646   2647
2648   2649   2650   2651
2652   2653   2654   2655
2656   2657   2658   2659
2660   2661   2662   2663
2664   2665   2666   2667
2668   2669   2670   2671
2672   2673   2674   2675
2676   2677   2678   2679
2680   2681   2682   2683
2684   2685   2686   2687
2688   2689   2690   2691
2692   2693   2694   2695
2696   2697   2698   2699
2700   2701   2702   2703
2704   2705   2706   2707
2708   2709   2710   2711
2712   2713   2714   2715
2716   2717   2718   2719
2720   2721   2722   2723
2724   2725   2726   2727
2728   2729   2730   2731
2732   2733   2734   2735
2736   2737   2738   2739
2740   2741   2742   2743
2744   2745   2746   2747
2748   2749   2750   2751
2752   2753   2754   2755
2756   2757   2758   2759
2760   2761   2762   2763
2764   2765   2766   2767
2768   2769   2770   2771
2772   2773   2774   2775
2776   2777   2778   2779
2780   2781   2782   2783
2784   2785   2786   2787
2788   2789   2790   2791
2792   2793   2794   2795
2796   2797   2798   2799
2800   2801   2802   2803
2804   2805   2806   2807
2808   2809   2810   2811
2812   2813   2814   2815
2816   2817   2818   2819
2820   2821   2822   2823
2824   2825   2826   2827
2828   2829   2830   2831
2832   2833   2834   2835
2836   2837   2838   2839
2840   2841   2842   2843
2844   2845   2846   2847
2848   2849   2850   2851
2852   2853   2854   2855
2856   2857   2858   2859
2860   2861   2862   2863
2864   2865   2866   2867
2868   2869   2870   2871
2872   2873   2874   2875
2876   2877   2878   2879
2880   2881   2882   2883
2884   2885   2886   2887
2888   2889   2890   2891
2892   2893   2894   2895
2896   2897   2898   2899
2900   2901   2902   2903
2904   2905   2906   2907
2908   2909   2910   2911
2912   2913   2914   2915
2916   2917   2918   2919
2920   2921   2922   2923
2924   2925   2926   2927
2928   2929   2930   2931
2932   2933   2934   2935
2936   2937   2938   2939
2940   2941   2942   2943
2944   2945   2946   2947
2948   2949   2950   2951
2952   2953   2954   2955
2956   2957   2958   2959
2960   2961   2962   2963
2964   2965   2966   2967
2968   2969   2970   2971
2972   2973   2974   2975
2976   2977   2978   2979
2980   2981   2982   2983
2984   2985   2986   2987
2988   2989   2990   2991
2992   2993   2994   2995
2996   2997   2998   2999
3000   3001   3002   3003
3004   3005   3006   3007
3008   3009   3010   3011
3012   3013   3014   3015
3016   3017   3018   3019
3020   3021   3022   3023
3024   3025   3026   3027
3028   3029   3030   3031
3032   3033   3034   3035
3036   3037   3038   3039
3040   3041   3042   3043
3044   3045   3046   3047
3048   3049   3050   3051
3052   3053   3054   3055
3056   3057   3058   3059
3060   3061   3062   3063
3064   3065   3066   3067
3068   3069   3070   3071
3072   3073   3074   3075
3076   3077   3078   3079
3080   3081   3082   3083
3084   3085   3086   3087
3088   3089   3090   3091
3092   3093   3094   3095
3096   3097   3098   3099
3100   3101   3102   3103
3104   3105   3106   3107
3108   3109   3110   3111
3112   3113   3114   3115
3116   3117   3118   3119
3120   3121   3122   3123
3124   3125   3126   3127
3128   3129   3130   3131
3132   3133   3134   3135
3136   3137   3138   3139
3140   3141   3142   3143
3144   3145   3146   3147
3148   3149   3150   3151
3152   3153   3154   3155
3156   3157   3158   3159
3160   3161   3162   3163
3164   3165   3166   3167
3168   3169   3170   3171
3172   3173   3174   3175
3176   3177   3178   3179
3180   3181   3182   3183
3184   3185   3186   3187
3188   3189   3190   3191
3192   3193   3194   3195
3196   3197   3198   3199
3200   3201   3202   3203
3204   3205   3206   3207
3208   3209   3210   3211
3212   3213   3214   3215
3216   3217   3218   3219
3220   3221   3222   3223
3224   3225   3226   3227
3228   3229   3230   3231
3232   3233   3234   3235
3236   3237   3238   3239
3240   3241   3242   3243
3244   3245   3246   3247
3248   3249   3250   3251
3252   3253   3254   3255
3256   3257   3258   3259
3260   3261   3262   3263
3264   3265   3266   3267
3268   3269   3270   3271
3272   3273   3274   3275
3276   3277   3278   3279
3280   3281   3282   3283
3284   3285   3286   3287
3288   3289   3290   3291
3292   3293   3294   3295
3296   3297   3298   3299
3300   3301   3302   3303
3304   3305   3306   3307
3308   3309   3310   3311
3312   3313   3314   3315
3316   3317   3318   3319
3320   3321   3322   3323
3324   3325   3326   3327
3328   3329   3330   3331
3332   3333   3334   3335
3336   3337   3338   3339
3340   3341   3342   3343
3344   3345   3346   3347
3348   3349   3350   3351
3352   3353   3354   3355
3356   3357   3358   3359
3360   3361   3362   3363
3364   3365   3366   3367
3368   3369   3370   3371
3372   3373   3374   3375
3376   3377   3378   3379
3380   3381   3382   3383
3384   3385   3386   3387
3388   3389   3390   3391
3392   3393   3394   3395
3396   3397   3398   3399
3400   3401   3402   3403
3404   3405   3406   3407
3408   3409   3410   3411
3412   3413   3414   3415
3416   3417   3418   3419
3420   3421   3422   3423
3424   3425   3426   3427
3428   3429   3430   3431
3432   3433   3434   3435
3436   3437   3438   3439
3440   3441   3442   3443
3444   3445   3446   3447
3448   3449   3450   3451
3452   3453   3454   3455
3456   3457   3458   3459
3460   3461   3462   3463
3464   3465   3466   3467
3468   3469   3470   3471
3472   3473   3474   3475
3476   3477   3478   3479
3480   3481   3482   3483
3484   3485   3486   3487
3488   3489   3490   3491
3492   3493   3494   3495
3496   3497   3498   3499
3500   3501   3502   3503
3504   3505   3506   3507
3508   3509   3510   3511
3512   3513   3514   3515
3516   3517   3518   3519
3520   3521   3522   3523
3524   3525   3526   3527
3528   3529   3530   3531
3532   3533   3534   3535
3536   3537   3538   3539
3540   3541   3542   3543
3544   3545   3546   3547
3548   3549   3550   3551
3552   3553   3554   3555
3556   3557   3558   3559
3560   3561   3562   3563
3564   3565   3566   3567
3568   3569   3570   3571
3572   3573   3574   3575
3576   3577   3578   3579
3580   3581   3582   3583
3584   3585   3586   3587
3588   3589   3590   3591
3592   3593   3594   3595
3596   3597   3598   3599
3600   3601   3602   3603
3604   3605   3606   3607
3608   3609   3610   3611
3612   3613   3614   3615
3616   3617   3618   3619
3620   3621   3622   3623
3624   3625   3626   3627
3628   3629   3630   3631
3632   3633   3634   3635
3636   3637   3638   3639
3640   3641   3642   3643
3644   3645   3646   3647
3648   3649   3650   3651
3652   3653   3654   3655
3656   3657   3658   3659
3660   3661   3662   3663
3664   3665   3666   3667
3668   3669   3670   3671
3672   3673   3674   3675
3676   3677   3678   3679
3680   3681   3682   3683
3684   3685   3686   3687
3688   3689   3690   3691
3692   3693   3694   3695
3696   3697   3698   3699
3700   3701   3702   3703
3704   3705   3706   3707
3708   3709   3710   3711
3712   3713   3714   3715
3716   3717   3718   3719
3720   3721   3722   3723
3724   3725   3726   3727
3728   3729   3730   3731
3732   3733   3734   3735
3736   3737   3738   3739
3740   3741   3742   3743
3744   3745   3746   3747
3748   3749   3750   3751
3752   3753   3754   3755
3756   3757   3758   3759
3760   3761   3762   3763
3764   3765   3766   3767
3768   3769   3770   3771
3772   3773   3774   3775
3776   3777   3778   3779
3780   3781   3782   3783
3784   3785   3786   3787
3788   3789   3790   3791
3792   3793   3794   3795
3796   3797   3798   3799
3800   3801   3802   3803
3804   3805   3806   3807
3808   3809   3810   3811
3812   3813   3814   3815
3816   3817   3818   3819
3820   3821   3822   3823
3824   3825   3826   3827
3828   3829   3830   3831
3832   3833   3834   3835
3836   3837   3838   3839
3840   3841   3842   3843
3844   3845   3846   3847
3848   3849   3850   3851
3852   3853   3854   3855
3856   3857   3858   3859
3860   3861   3862   3863
3864   3865   3866   3867
3868   3869   3870   3871
3872   3873   3874   3875
3876   3877   3878   3879
3880   3881   3882   3883
3884   3885   3886   3887
3888   3889   3890   3891
3892   3893   3894   3895
3896   3897   3898   3899
3900   3901   3902   3903
3904   3905   3906   3907
3908   3909   3910   3911
3912   3913   3914   3915
3916   3917   3918   3919
3920   3921   3922   3923
3924   3925   3926   3927
3928   3929   3930   3931
3932   3933   3934   3935
3936   3937   3938   3939
3940   3941   3942   3943
3944   3945   3946   3947
3948   3949   3950   3951
3952   3953   3954   3955
3956   3957   3958   3959
3960   3961   3962   3963
3964   3965   3966   3967
3968   3969   3970   3971
3972   3973   3974   3975
3976   3977   3978   3979
3980   3981   3982   3983
3984   3985   3986   3987
3988   3989   3990   3991
3992   3993   3994   3995
3996   3997   3998   3999
4000   4001   4002   4003
4004   4005   4006   4007
4008   4009   4010   4011
4012   4013   4014   4015
4016   4017   4018   4019
4020   4021   4022   4023
4024   4025   4026   4027
4028   4029   4030   4031
4032   4033   4034   4035
4036   4037   4038   4039
4040   4041   4042   4043
4044   4045   4046   4047
4048   4049   4050   4051
4052   4053   4054   4055
4056   4057   4058   4059
4060   4061   4062   4063
4064   4065   4066   4067
4068   4069   4070   4071
4072   4073   4074   4075
4076   4077   4078   4079
4080   4081   4082   4083
4084   4085   4086   4087
4088   4089   4090   4091
4092   4093   4094   4095
4096   4097   4098   4099
4100   4101   4102   4103
4104   4105   4106   4107
4108   4109   4110   4111
4112   4113   4114   4115
4116   4117   4118   4119
4120   4121   4122   4123
4124   4125   4126   4127
4128   4129   4130   4131
4132   4133   4134   4135
4136   4137   4138   4139
4140   4141   4142   4143
4144   4145   4146   4147
4148   4149   4150   4151
4152   4153   4154   4155
4156   4157   4158   4159
4160   4161   4162   4163
4164   4165   4166   4167
4168   4169   4170   4171
4172   4173   4174   4175
4176   4177   4178   4179
4180   4181   4182   4183
4184   4185   4186   4187
4188   4189   4190   4191
4192   4193   4194   4195
4196   4197   4198   4199
4200   4201   4202   4203
4204   4205   4206   4207
4208   4209   4210   4211
4212   4213   4214   4215
4216   4217   4218   4219
4220   4221   4222   4223
4224   4225   4226   4227
4228   4229   4230   4231
4232   4233   4234   4235
4236   4237   4238   4239
4240   4241   4242   4243
4244   4245   4246   4247
4248   4249   4250   4251
4252   4253   4254   4255
4256   4257   4258   4259
4260   4261   4262   4263
4264   4265   4266   4267
4268   4269   4270   4271
4272   4273   4274   4275
4276   4277   4278   4279
4280   4281   4282   4283
4284   4285   4286   4287
4288   4289   4290   4291
4292   4293   4294   4295
4296   4297   4298   4299
4300   4301   4302   4303
4304   4305   4306   4307
4308   4309   4310   4311
4312   4313   4314   4315
4316   4317   4318   4319
4320   4321   4322   4323
4324   4325   4326   4327
4328   4329   4330   4331
4332   4333   4334   4335
4336   4337   4338   4339
4340   4341   4342   4343
4344   4345   4346   4347
4348   4349   4350   4351
4352   4353   4354   4355
4356   4357   4358   4359
4360   4361   4362   4363
4364   4365   4366   4367
4368   4369   4370   4371
4372   4373   4374   4375
4376   4377   4378   4379
4380   4381   4382   4383
4384   4385   4386   4387
4388   4389   4390   4391
4392   4393   4394   4395
4396   4397   4398   4399
4400   4401   4402   4403
4404   4405   4406   4407
4408   4409   4410   4411
4412   4413   4414   4415
4416   4417   4418   4419
4420   4421   4422   4423
4424   4425   4426   4427
4428   4429   4430   4431
4432   4433   4434   4435
4436   4437   4438   4439
4440   4441   4442   4443
4444   4445   4446   4447
4448   4449   4450   4451
4452   4453   4454   4455
4456   4457   4458   4459
4460   4461   4462   4463
4464   4465   4466   4467
4468   4469   4470   4471
4472   4473   4474   4475
4476   4477   4478   4479
4480   4481   4482   4483
4484   4485   4486   4487
4488   4489   4490   4491
4492   4493   4494   4495
4496   4497   4498   4499
4500   4501   4502   4503
4504   4505   4506   4507
4508   4509   4510   4511
4512   4513   4514   4515
4516   4517   4518   4519
4520   4521   4522   4523
4524   4525   4526   4527
4528   4529   4530   4531
4532   4533   4534   4535
4536   4537   4538   4539
4540   4541   4542   4543
4544   4545   4546   4547
4548   4549   4550   4551
4552   4553   4554   4555
4556   4557   4558   4559
4560   4561   4562   4563
4564   4565   4566   4567
4568   4569   4570   4571
4572   4573   4574   4575
4576   4577   4578   4579
4580   4581   4582   4583
4584   4585   4586   4587
4588   4589   4590   4591
4592   4593   4594   4595
4596   4597   4598   4599
4600   4601   4602   4603
4604   4605   4606   4607
4608   4609   4610   4611
4612   4613   4614   4615
4616   4617   4618   4619
4620   4621   4622   4623
4624   4625   4626   4627
4628   4629   4630   4631
4632   4633   4634   4635
4636   4637   4638   4639
4640   4641   4642   4643
4644   4645   4646   4647
4648   4649   4650   4651
4652   4653   4654   4655
4656   4657   4658   4659
4660   4661   4662   4663
4664   4665   4666   4667
4668   4669   4670   4671
4672   4673   4674   4675
4676   4677   4678   4679
4680   4681   4682   4683
4684   4685   4686   4687
4688   4689   4690   4691
4692   4693   4694   4695
4696   4697   4698   4699
4700   4701   4702   4703
4704   4705   4706   4707
4708   4709   4710   4711
4712   4713   4714   4715
4716   4717   4718   4719
4720   4721   4722   4723
4724   4725   4726   4727
4728   4729   4730   4731
4732   4733   4734   4735
4736   4737   4738   4739
4740   4741   4742   4743
4744   4745   4746   4747
4748   4749   4750   4751
4752   4753   4754   4755
4756   4757   4758   4759
4760   4761   4762   4763
4764   4765   4766   4767
4768   4769   4770   4771
4772   4773   4774   4775
4776   4777   4778   4779
4780   4781   4782   4783
4784   4785   4786   4787
4788   4789   4790   4791
4792   4793   4794   4795
4796   4797   4798   4799
4800   4801   4802   4803
4804   4805   4806   4807
4808   4809   4810   4811
4812   4813   4814   4815
4816   4817   4818   4819
4820   4821   4822   4823
4824   4825   4826   4827
4828   4829   4830   4831
4832   4833   4834   4835
4836   4837   4838   4839
4840   4841   4842   4843
4844   4845   4846   4847
4848   4849   4850   4851
4852   4853   4854   4855
4856   4857   4858   4859
4860   4861   4862   4863
4864   4865   4866   4867
4868   4869   4870   4871
4872   4873   4874   4875
4876   4877   4878   4879
4880   4881   4882   4883
4884   4885   4886   4887
4888   4889   4890   4891
4892   4893   4894   4895
4896   4897   4898   4899
4900   4901   4902   4903
4904   4905   4906   4907
4908   4909   4910   4911
4912   4913   4914   4915
4916   4917   4918   4919
4920   4921   4922   4923
4924   4925   4926   4927
4928   4929   4930   4931
4932   4933   4934   4935
4936   4937   4938   4939
4940   4941   4942   4943
4944   4945   4946   4947
4948   4949   4950   4951
4952   4953   4954   4955
4956   4957   4958   4959
4960   4961   4962   4963
4964   4965   4966   4967
4968   4969   4970   4971
4972   4973   4974   4975
4976   4977   4978   4979
4980   4981   4982   4983
4984   4985   4986   4987
4988   4989   4990   4991
4992   4993   4994   4995
4996   4997   4998   4999
5000   5001   5002   5003
5004   5005   5006   5007
5008   5009   5010   5011
5012   5013   5014   5015
5016   5017   5018   5019
5020   5021   5022   5023
5024   5025   5026   5027
5028   5029   5030   5031
5032   5033   5034   5035
5036   5037   5038   5039
5040   5041   5042   5043
5044   5045   5046   5047
5048   5049   5050   5051
5052   5053   5054   5055
5056   5057   5058   5059
5060   5061   5062   5063
5064   5065   5066   5067
5068   5069   5070   5071
5072   5073   5074   5075
5076   5077   5078   5079
5080   5081   5082   5083
5084   5085   5086   5087
5088   5089   5090   5091
5092   5093   5094   5095
5096   5097   5098   5099
5100   5101   5102   5103
5104   5105   5106   5107
5108   5109   5110   5111
5112   5113   5114   5115
5116   5117   5118   5119
5120   5121   5122   5123
5124   5125   5126   5127
5128   5129   5130   5131
5132   5133   5134   5135
5136   5137   5138   5139
5140   5141   5142   5143
5144   5145   5146   5147
5148   5149   5150   5151
5152   5153   5154   5155
5156   5157   5158   5159
5160   5161   5162   5163
5164   5165   5166   5167
5168   5169   5170   5171
5172   5173   5174   5175
5176   5177   5178   5179
5180   5181   5182   5183
5184   5185   5186   5187
5188   5189   5190   5191
5192   5193   5194   5195
5196   5197   5198   5199
5200   5201   5202   5203
5204   5205   5206   5207
5208   5209   5210   5211
5212   5213   5214   5215
5216   5217   5218   5219
5220   5221   5222   5223
5224   5225   5226   5227
5228   5229   5230   5231
5232   5233   5234   5235
5236   5237   5238   5239
5240   5241   5242   5243
5244   5245   5246   5247
5248   5249   5250   5251
5252   5253   5254   5255
5256   5257   5258   5259
5260   5261   5262   5263
5264   5265   5266   5267
5268   5269   5270   5271
5272   5273   5274   5275
5276   5277   5278   5279
5280   5281   5282   5283
5284   5285   5286   5287
5288   5289   5290   5291
5292   5293   5294   5295
5296   5297   5298   5299
5300   5301   5302   5303
5304   5305   5306   5307
5308   5309   5310   5311
5312   5313   5314   5315
5316   5317   5318   5319
5320   5321   5322   5323
5324   5325   5326   5327
5328   5329   5330   5331
5332   5333   5334   5335
5336   5337   5338   5339
5340   5341   5342   5343
5344   5345   5346   5347
5348   5349   5350   5351
5352   5353   5354   5355
5356   5357   5358   5359
5360   5361   5362   5363
5364   5365   5366   5367
5368   5369   5370   5371
5372   5373   5374   5375
5376   5377   5378   5379
5380   5381   5382   5383
5384   5385   5386   5387
5388   5389   5390   5391
5392   5393   5394   5395
5396   5397   5398   5399
5400   5401   5402   5403
5404   5405   5406   5407
5408   5409   5410   5411
5412   5413   5414   5415
5416   5417   5418   5419
5420   5421   5422   5423
5424   5425   5426   5427
5428   5429   5430   5431
5432   5433   5434   5435
5436   5437   5438   5439
5440   5441   5442   5443
5444   5445   5446   5447
5448   5449   5450   5451
5452   5453   5454   5455
5456   5457   5458   5459
5460   5461   5462   5463
5464   5465   5466   5467
5468   5469   5470   5471
5472   5473   5474   5475
5476   5477   5478   5479
5480   5481   5482   5483
5484   5485   5486   5487
5488   5489   5490   5491
5492   5493   5494   5495
5496   5497   5498   5499
5500   5501   5502   5503
5504   5505   5506   5507
5508   5509   5510   5511
5512   5513   5514   5515
5516   5517   5518   5519
5520   5521   5522   5523
5524   5525   5526   5527
5528   5529   5530   5531
5532   5533   5534   5535
5536   5537   5538   5539
5540   5541   5542   5543
5544   5545   5546   5547
5548   5549   5550   5551
5552   5553   5554   5555
5556   5557   5558   5559
5560   5561   5562   5563
5564   5565   5566   5567
5568   5569   5570   5571
5572   5573   5574   5575
5576   5577   5578   5579
5580   5581   5582   5583
5584   5585   5586   5587
5588   5589   5590   5591
5592   5593   5594   5595
5596   5597   5598   5599
5600   5601   5602   5603
5604   5605   5606   5607
5608   5609   5610   5611
5612   5613   5614   5615
5616   5617   5618   5619
5620   5621   5622   5623
5624   5625   5626   5627
5628   5629   5630   5631
5632   5633   5634   5635
5636   5637   5638   5639
5640   5641   5642   5643
5644   5645   5646   5647
5648   5649   5650   5651
5652   5653   5654   5655
5656   5657   5658   5659
5660   5661   5662   5663
5664   5665   5666   5667
5668   5669   5670   5671
5672   5673   5674   5675
5676   5677   5678   5679
5680   5681   5682   5683
5684   5685   5686   5687
5688   5689   5690   5691
5692   5693   5694   5695
5696   5697   5698   5699
5700   5701   5702   5703
5704   5705   5706   5707
5708   5709   5710   5711
5712   5713   5714   5715
5716   5717   5718   5719
5720   5721   5722   5723
5724   5725   5726   5727
5728   5729   5730   5731
5732   5733   5734   5735
5736   5737   5738   5739
5740   5741   5742   5743
5744   5745   5746   5747
5748   5749   5750   5751
5752   5753   5754   5755
5756   5757   5758   5759
5760   5761   5762   5763
5764   5765   5766   5767
5768   5769   5770   5771
5772   5773   5774   5775
5776   5777   5778   5779
5780   5781   5782   5783
5784   5785   5786   5787
5788   5789   5790   5791
5792   5793   5794   5795
5796   5797   5798   5799
5800   5801   5802   5803
5804   5805   5806   5807
5808   5809   5810   5811
5812   5813   5814   5815
5816   5817   5818   5819
5820   5821   5822   5823
5824   5825   5826   5827
5828   5829   5830   5831
5832   5833   5834   5835
5836   5837   5838   5839
5840   5841   5842   5843
5844   5845   5846   5847
5848   5849   5850   5851
5852   5853   5854   5855
5856   5857   5858   5859
5860   5861   5862   5863
5864   5865   5866   5867
5868   5869   5870   5871
5872   5873   5874   5875
5876   5877   5878   5879
5880   5881   5882   5883
5884   5885   5886   5887
5888   5889   5890   5891
5892   5893   5894   5895
5896   5897   5898   5899
5900   5901   5902   5903
5904   5905   5906   5907
5908   5909   5910   5911
5912   5913   5914   5915
5916   5917   5918   5919
5920   5921   5922   5923
5924   5925   5926   5927
5928   5929   5930   5931
5932   5933   5934   5935
5936   5937   5938   5939
5940   5941   5942   5943
5944   5945   5946   5947
5948   5949   5950   5951
5952   5953   5954   5955
5956   5957   5958   5959
5960   5961   5962   5963
5964   5965   5966   5967
5968   5969   5970   5971
5972   5973   5974   5975
5976   5977   5978   5979
5980   5981   5982   5983
5984   5985   5986   5987
5988   5989   5990   5991
5992   5993   5994   5995
5996   5997   5998   5999
              </DataArray>   
              <DataArray type="Int32" Name="offsets" format="ascii">   
4
8
12
16
20
24
28
32
36
40
44
48
52
56
60
64
68
72
76
80
84
88
92
96
100
104
108
112
116
120
124
128
132
136
140
144
148
152
156
160
164
168
172
176
180
184
188
192
196
200
204
208
212
216
220
224
228
232
236
240
244
248
252
256
260
264
268
272
276
280
284
288
292
296
300
304
308
312
316
320
324
328
332
336
340
344
348
352
356
360
364
368
372
376
380
384
388
392
396
400
404
408
412
416
420
424
428
432
436
440
444
448
452
456
460
464
468
472
476
480
484
488
492
496
500
504
508
512
516
520
524
528
532
536
540
544
548
552
556
560
564
568
572
576
580
584
588
592
596
600
604
608
612
616
620
624
628
632
636
640
644
648
652
656
660
664
668
672
676
680
684
688
692
696
700
704
708
712
716
720
724
728
732
736
740
744
748
752
756
760
764
768
772
776
780
784
788
792
796
800
804
808
812
816
820
824
828
832
836
840
844
848
852
856
860
864
868
872
876
880
884
888
892
896
900
904
908
912
916
920
924
928
932
936
940
944
948
952
956
960
964
968
972
976
980
984
988
992
996
1000
1004
1008
1012
1016
1020
1024
1028
1032
1036
1040
1044
1048
1052
1056
1060
1064
1068
1072
1076
1080
1084
1088
1092
1096
1100
1104
1108
1112
1116
1120
1124
1128
1132
1136
1140
1144
1148
1152
1156
1160
1164
1168
1172
1176
1180
1184
1188
1192
1196
1200
1204
1208
1212
1216
1220
1224
1228
1232
1236
1240
1244
1248
1252
1256
1260
1264
1268
1272
1276
1280
1284
1288
1292
1296
1300
1304
1308
1312
1316
1320
1324
1328
1332
1336
1340
1344
1348
1352
1356
1360
1364
1368
1372
1376
1380
1384
1388
1392
1396
1400
1404
1408
1412
1416
1420
1424
1428
1432
1436
1440
1444
1448
1452
1456
1460
1464
1468
1472
1476
1480
1484
1488
1492
1496
1500
1504
1508
1512
1516
1520
1524
1528
1532
1536
1540
1544
1548
1552
1556
1560
1564
1568
1572
1576
1580
1584
1588
1592
1596
1600
1604
1608
1612
1616
1620
1624
1628
1632
1636
1640
1644
1648
1652
1656
1660
1664
1668
1672
1676
1680
1684
1688
1692
1696
1700
1704
1708
1712
1716
1720
1724
1728
1732
1736
1740
1744
1748
1752
1756
1760
1764
1768
1772
1776
1780
1784
1788
1792
1796
1800
1804
1808
1812
1816
1820
1824
1828
1832
1836
1840
1844
1848
1852
1856
1860
1864
1868
1872
1876
1880
1884
1888
1892
1896
1900
1904
1908
1912
1916
1920
1924
1928
1932
1936
1940
1944
1948
1952
1956
1960
1964
1968
1972
1976
1980
1984
1988
1992
1996
2000
2004
2008
2012
2016
2020
2024
2028
2032
2036
2040
2044
2048
2052
2056
2060
2064
2068
2072
2076
2080
2084
2088
2092
2096
2100
2104
2108
2112
2116
2120
2124
2128
2132
2136
2140
2144
2148
2152
2156
2160
2164
2168
2172
2176
2180
2184
2188
2192
2196
2200
2204
2208
2212
2216
2220
2224
2228
2232
2236
2240
2244
2248
2252
2256
2260
2264
2268
2272
2276
2280
2284
2288
2292
2296
2300
2304
2308
2312
2316
2320
2324
2328
2332
2336
2340
2344
2348
2352
2356
2360
2364
2368
2372
2376
2380
2384
2388
2392
2396
2400
2404
2408
2412
2416
2420
2424
2428
2432
2436
2440
2444
2448
2452
2456
2460
2464
2468
2472
2476
2480
2484
2488
2492
2496
2500
2504
2508
2512
2516
2520
2524
2528
2532
2536
2540
2544
2548
2552
2556
2560
2564
2568
2572
2576
2580
2584
2588
2592
2596
2600
2604
2608
2612
2616
2620
2624
2628
2632
2636
2640
2644
2648
2652
2656
2660
2664
2668
2672
2676
2680
2684
2688
2692
2696
2700
2704
2708
2712
2716
2720
2724
2728
2732
2736
2740
2744
2748
2752
2756
2760
2764
2768
2772
2776
2780
2784
2788
2792
2796
2800
2804
2808
2812
2816
2820
2824
2828
2832
2836
2840
2844
2848
2852
2856
2860
2864
2868
2872
2876
2880
2884
2888
2892
2896
2900
2904
2908
2912
2916
2920
2924
2928
2932
2936
2940
2944
2948
2952
2956
2960
2964
2968
2972
2976
2980
2984
2988
2992
2996
3000
3004
3008
3012
3016
3020
3024
3028
3032
3036
3040
3044
3048
3052
3056
3060
3064
3068
3072
3076
3080
3084
3088
3092
3096
3100
3104
3108
3112
3116
3120
3124
3128
3132
3136
3140
3144
3148
3152
3156
3160
3164
3168
3172
3176
3180
3184
3188
3192
3196
3200
3204
3208
3212
3216
3220
3224
3228
3232
3236
3240
3244
3248
3252
3256
3260
3264
3268
3272
3276
3280
3284
3288
3292
3296
3300
3304
3308
3312
3316
3320
3324
3328
3332
3336
3340
3344
3348
3352
3356
3360
3364
3368
3372
3376
3380
3384
3388
3392
3396
3400
3404
3408
3412
3416
3420
3424
3428
3432
3436
3440
3444
3448
3452
3456
3460
3464
3468
3472
3476
3480
3484
3488
3492
3496
3500
3504
3508
3512
3516
3520
3524
3528
3532
3536
3540
3544
3548
3552
3556
3560
3564
3568
3572
3576
3580
3584
3588
3592
3596
3600
3604
3608
3612
3616
3620
3624
3628
3632
3636
3640
3644
3648
3652
3656
3660
3664
3668
3672
3676
3680
3684
3688
3692
3696
3700
3704
3708
3712
3716
3720
3724
3728
3732
3736
3740
3744
3748
3752
3756
3760
3764
3768
3772
3776
3780
3784
3788
3792
3796
3800
3804
3808
3812
3816
3820
3824
3828
3832
3836
3840
3844
3848
3852
3856
3860
3864
3868
3872
3876
3880
3884
3888
3892
3896
3900
3904
3908
3912
3916
3920
3924
3928
3932
3936
3940
3944
3948
3952
3956
3960
3964
3968
3972
3976
3980
3984
3988
3992
3996
4000
4004
4008
4012
4016
4020
4024
4028
4032
4036
4040
4044
4048
4052
4056
4060
4064
4068
4072
4076
4080
4084
4088
4092
4096
4100
4104
4108
4112
4116
4120
4124
4128
4132
4136
4140
4144
4148
4152
4156
4160
4164
4168
4172
4176
4180
4184
4188
4192
4196
4200
4204
4208
4212
4216
4220
4224
4228
4232
4236
4240
4244
4248
4252
4256
4260
4264
4268
4272
4276
4280
4284
4288
4292
4296
4300
4304
4308
4312
4316
4320
4324
4328
4332
4336
4340
4344
4348
4352
4356
4360
4364
4368
4372
4376
4380
4384
4388
4392
4396
4400
4404
4408
4412
4416
4420
4424
4428
4432
4436
4440
4444
4448
4452
4456
4460
4464
4468
4472
4476
4480
4484
4488
4492
4496
4500
4504
4508
4512
4516
4520
4524
4528
4532
4536
4540
4544
4548
4552
4556
4560
4564
4568
4572
4576
4580
4584
4588
4592
4596
4600
4604
4608
4612
4616
4620
4624
4628
4632
4636
4640
4644
4648
4652
4656
4660
4664
4668
4672
4676
4680
4684
4688
4692
4696
4700
4704
4708
4712
4716
4720
4724
4728
4732
4736
4740
4744
4748
4752
4756
4760
4764
4768
4772
4776
4780
4784
4788
4792
4796
4800
4804
4808
4812
4816
4820
4824
4828
4832
4836
4840
4844
4848
4852
4856
4860
4864
4868
4872
4876
4880
4884
4888
4892
4896
4900
4904
4908
4912
4916
4920
4924
4928
4932
4936
4940
4944
4948
4952
4956
4960
4964
4968
4972
4976
4980
4984
4988
4992
4996
5000
5004
5008
5012
5016
5020
5024
5028
5032
5036
5040
5044
5048
5052
5056
5060
5064
5068
5072
5076
5080
5084
5088
5092
5096
5100
5104
5108
5112
5116
5120
5124
5128
5132
5136
5140
5144
5148
5152
5156
5160
5164
5168
5172
5176
5180
5184
5188
5192
5196
5200
5204
5208
5212
5216
5220
5224
5228
5232
5236
5240
5244
5248
5252
5256
5260
5264
5268
5272
5276
5280
5284
5288
5292
5296
5300
5304
5308
5312
5316
5320
5324
5328
5332
5336
5340
5344
5348
5352
5356
5360
5364
5368
5372
5376
5380
5384
5388
5392
5396
5400
5404
5408
5412
5416
5420
5424
5428
5432
5436
5440
5444
5448
5452
5456
5460
5464
5468
5472
5476
5480
5484
5488
5492
5496
5500
5504
5508
5512
5516
5520
5524
5528
5532
5536
5540
5544
5548
5552
5556
5560
5564
5568
5572
5576
5580
5584
5588
5592
5596
5600
5604
5608
5612
5616
5620
5624
5628
5632
5636
5640
5644
5648
5652
5656
5660
5664
5668
5672
5676
5680
5684
5688
5692
5696
5700
5704
5708
5712
5716
5720
5724
5728
5732
5736
5740
5744
5748
5752
5756
5760
5764
5768
5772
5776
5780
5784
5788
5792
5796
5800
5804
5808
5812
5816
5820
5824
5828
5832
5836
5840
5844
5848
5852
5856
5860
5864
5868
5872
5876
5880
5884
5888
5892
5896
5900
5904
5908
5912
5916
5920
5924
5928
5932
5936
5940
5944
5948
5952
5956
5960
5964
5968
5972
5976
5980
5984
5988
5992
5996
6000
              </DataArray>   
              <DataArray type="UInt8" Name="types" format="ascii">   
10
10
10
10
10
10
10
10
10
10
10
10
10
10
10
10
10
10
10
10
10
10
10
10
10
10
10
10
10
10
10
10
10
10
10
10
10
10
10
10
10
10
10
10
10
10
10
10
10
10
10
10
10
10
10
10
10
10
10
10
10
10
10
10
10
10
10
10
10
10
10
10
10
10
10
10
10
10
10
10
10
10
10
10
10
10
10
10
10
10
10
10
10
10
10
10
10
10
10
10
10
10
10
10
10
10
10
10
10
10
10
10
10
10
10
10
10
10
10
10
10
10
10
10
10
10
10
10
10
10
10
10
10
10
10
10
10
10
10
10
10
10
10
10
10
10
10
10
10
10
10
10
10
10
10
10
10
10
10
10
10
10
10
10
10
10
10
10
10
10
10
10
10
10
10
10
10
10
10
10
10
10
10
10
10
10
10
10
10
10
10
10
10
10
10
10
10
10
10
10
10
10
10
10
10
10
10
10
10
10
10
10
10
10
10
10
10
10
10
10
10
10
10
10
10
10
10
10
10
10
10
10
10
10
10
10
10
10
10
10
10
10
10
10
10
10
10
10
10
10
10
10
10
10
10
10
10
10
10
10
10
10
10
10
10
10
10
10
10
10
10
10
10
10
10
10
10
10
10
10
10
10
10
10
10
10
10
10
10
10
10
10
10
10
10
10
10
10
10
10
10
10
10
10
10
10
10
10
10
10
10
10
10
10
10
10
10
10
10
10
10
10
10
10
10
10
10
10
10
10
10
10
10
10
10
10
10
10
10
10
10
10
10
10
10
10
10
10
10
10
10
10
10
10
10
10
10
10
10
10
10
10
10
10
10
10
10
10
10
10
10
10
10
10
10
10
10
10
10
10
10
10
10
10
10
10
10
10
10
10
10
10
10
10
10
10
10
10
10
10
10
10
10
10
10
10
10
10
10
10
10
10
10
10
10
10
10
10
10
10
10
10
10
10
10
10
10
10
10
10
10
10
10
10
10
10
10
10
10
10
10
10
10
10
10
10
10
10
10
10
10
10
10
10
10
10
10
10
10
10
10
10
10
10
10
10
10
10
10
10
10
10
10
10
10
10
10
10
10
10
10
10
10
10
10
10
10
10
10
10
10
10
10
10
10
10
10
10
10
10
10
10
10
10
10
10
10
10
10
10
10
10
10
10
10
10
10
10
10
10
10
10
10
10
10
10
10
10
10
10
10
10
10
10
10
10
10
10
10
10
10
10
10
10
10
10
10
10
10
10
10
10
10
10
10
10
10
10
10
10
10
10
10
10
10
10
10
10
10
10
10
10
10
10
10
10
10
10
10
10
10
10
10
10
10
10
10
10
10
10
10
10
10
10
10
10
10
10
10
10
10
10
10
10
10
10
10
10
10
10
10
10
10
10
10
10
10
10
10
10
10
10
10
10
10
10
10
10
10
10
10
10
10
10
10
10
10
10
10
10
10
10
10
10
10
10
10
10
10
10
10
10
10
10
10
10
10
10
10
10
10
10
10
10
10
10
10
10
10
10
10
10
10
10
10
10
10
10
10
10
10
10
10
10
10
10
10
10
10
10
10
10
10
10
10
10
10
10
10
10
10
10
10
10
10
10
10
10
10
10
10
10
10
10
10
10
10
10
10
10
10
10
10
10
10
10
10
10
10
10
10
10
10
10
10
10
10
10
10
10
10
10
10
10
10
10
10
10
10
10
10
10
10
10
10
10
10
10
10
10
10
10
10
10
10
10
10
10
10
10
10
10
10
10
10
10
10
10
10
10
10
10
10
10
10
10
10
10
10
10
10
10
10
10
10
10
10
10
10
10
10
10
10
10
10
10
10
10
10
10
10
10
10
10
10
10
10
10
10
10
10
10
10
10
10
10
10
10
10
10
10
10
10
10
10
10
10
10
10
10
10
10
10
10
10
10
10
10
10
10
10
10
10
10
10
10
10
10
10
10
10
10
10
10
10
10
10
10
10
10
10
10
10
10
10
10
10
10
10
10
10
10
10
10
10
10
10
10
10
10
10
10
10
10
10
10
10
10
10
10
10
10
10
10
10
10
10
10
10
10
10
10
10
10
10
10
10
10
10
10
10
10
10
10
10
10
10
10
10
10
10
10
10
10
10
10
10
10
10
10
10
10
10
10
10
10
10
10
10
10
10
10
10
10
10
10
10
10
10
10
10
10
10
10
10
10
10
10
10
10
10
10
10
10
10
10
10
10
10
10
10
10
10
10
10
10
10
10
10
10
10
10
10
10
10
10
10
10
10
10
10
10
10
10
10
10
10
10
10
10
10
10
10
10
10
10
10
10
10
10
10
10
10
10
10
10
10
10
10
10
10
10
10
10
10
10
10
10
10
10
10
10
10
10
10
10
10
10
10
10
10
10
10
10
10
10
10
10
10
10
10
10
10
10
10
10
10
10
10
10
10
10
10
10
10
10
10
10
10
10
10
10
10
10
10
10
10
10
10
10
10
10
10
10
10
10
10
10
10
10
10
10
10
10
10
10
10
10
10
10
10
10
10
10
10
10
10
10
10
10
10
10
10
10
10
10
10
10
10
10
10
10
10
10
10
10
10
10
10
10
10
10
10
10
10
10
10
10
10
10
10
10
10
10
10
10
10
10
10
10
10
10
10
10
10
10
10
10
10
10
10
10
10
10
10
10
10
10
10
10
10
10
10
10
10
10
10
10
10
10
10
10
10
10
10
10
10
10
10
10
10
10
10
10
10
10
10
10
10
10
10
10
10
10
10
10
10
10
10
10
10
10
10
10
10
10
10
10
10
10
10
10
10
10
10
10
10
10
10
10
10
10
10
10
10
10
10
10
10
10
10
10
10
10
10
10
10
10
10
10
10
10
10
10
10
10
10
10
10
10
10
10
10
10
10
10
10
10
10
10
10
10
10
10
10
10
10
10
10
10
10
10
10
10
10
10
10
10
10
10
10
10
10
10
10
10
10
10
10
10
10
10
10
10
10
10
10
10
10
10
10
10
10
10
10
10
10
10
10
10
10
10
10
10
10
10
10
10
10
10
10
10
10
10
10
10
10
10
10
10
10
10
10
10
10
10
10
10
10
10
10
10
10
10
10
10
10
10
10
10
10
10
10
10
10
10
10
10
10
10
10
10
10
10
10
10
10
10
10
10
10
10
10
10
10
10
10
10
10
10
10
10
10
10
10
10
10
10
10
10
10
10
10
10
10
10
10
10
10
10
10
10
10
10
10
10
10
10
10
10
10
10
10
10
10
10
10
10
10
10
10
10
10
10
10
10
10
10
10
10
10
10
10
10
10
10
10
10
10
10
10
10
10
10
10
10
10
10
10
10
10
10
10
10
10
10
10
10
10
10
10
10
10
10
10
10
10
10
10
10
10
10
10
10
10
10
10
10
10
10
              </DataArray>   
          </Cells>  
          <PointData>  
             <DataArray type="Float64" NumberOfComponents="3" Name="Strains" format="ascii">   
-1.301156881172154e-05   0.0   -8.765400633043916e-06
-1.301156881172154e-05   0.0   -8.765400633043916e-06
-1.301156881172154e-05   0.0   -8.765400633043916e-06
-1.301156881172154e-05   0.0   -8.765400633043916e-06
-8.257168956740587e-06   1.4114596980914288e-06   5.474944112510483e-09
-8.257168956740587e-06   1.4114596980914288e-06   5.474944112510483e-09
-8.257168956740587e-06   1.4114596980914288e-06   5.474944112510483e-09
-8.257168956740587e-06   1.4114596980914288e-06   5.474944112510483e-09
-8.078434054844386e-06   0.0   -8.302558785152473e-06
-8.078434054844386e-06   0.0   -8.302558785152473e-06
-8.078434054844386e-06   0.0   -8.302558785152473e-06
-8.078434054844386e-06   0.0   -8.302558785152473e-06
-1.3598135785059314e-05   1.7081239535861338e-06   -1.2793027361257178e-07
-1.3598135785059314e-05   1.7081239535861338e-06   -1.2793027361257178e-07
-1.3598135785059314e-05   1.7081239535861338e-06   -1.2793027361257178e-07
-1.3598135785059314e-05   1.7081239535861338e-06   -1.2793027361257178e-07
-1.0545001433282944e-05   3.857015399095365e-07   -4.423034078367223e-06
-1.0545001433282944e-05   3.857015399095365e-07   -4.423034078367223e-06
-1.0545001433282944e-05   3.857015399095365e-07   -4.423034078367223e-06
-1.0545001433282944e-05   3.857015399095365e-07   -4.423034078367223e-06
-1.3598135785059338e-05   0.0   -9.327433157304156e-06
-1.3598135785059338e-05   0.0   -9.327433157304156e-06
-1.3598135785059338e-05   0.0   -9.327433157304156e-06
-1.3598135785059338e-05   0.0   -9.327433157304156e-06
-8.078434054844386e-06   1.7081239535861372e-06   8.969440985391139e-07
-8.078434054844386e-06   1.7081239535861372e-06   8.969440985391139e-07
-8.078434054844386e-06   1.7081239535861372e-06   8.969440985391139e-07
-8.078434054844386e-06   1.7081239535861372e-06   8.969440985391139e-07
-8.084526561204816e-06   0.0   -8.501283916858447e-06
-8.084526561204816e-06   0.0   -8.501283916858447e-06
-8.084526561204816e-06   0.0   -8.501283916858447e-06
-8.084526561204816e-06   0.0   -8.501283916858447e-06
-1.4002413926501562e-05   1.8338924872245077e-06   2.615261996347985e-07
-1.4002413926501562e-05   1.8338924872245077e-06   2.615261996347985e-07
-1.4002413926501562e-05   1.8338924872245077e-06   2.615261996347985e-07
-1.4002413926501562e-05   1.8338924872245077e-06   2.615261996347985e-07
-1.084133117313206e-05   6.884577003714228e-07   -4.31968418386919e-06
-1.084133117313206e-05   6.884577003714228e-07   -4.31968418386919e-06
-1.084133117313206e-05   6.884577003714228e-07   -4.31968418386919e-06
-1.084133117313206e-05   6.884577003714228e-07   -4.31968418386919e-06
-1.4002413926501587e-05   0.0   -9.601619409193155e-06
-1.4002413926501587e-05   0.0   -9.601619409193155e-06
-1.4002413926501587e-05   0.0   -9.601619409193155e-06
-1.4002413926501587e-05   0.0   -9.601619409193155e-06
-8.084526561204803e-06   1.8338924872245077e-06   1.3618616919695034e-06
-8.084526561204803e-06   1.8338924872245077e-06   1.3618616919695034e-06
-8.084526561204803e-06   1.8338924872245077e-06   1.3618616919695034e-06
-8.084526561204803e-06   1.8338924872245077e-06   1.3618616919695034e-06
-8.061462743176183e-06   0.0   -8.554980204905388e-06
-8.061462743176183e-06   0.0   -8.554980204905388e-06
-8.061462743176183e-06   0.0   -8.554980204905388e-06
-8.061462743176183e-06   0.0   -8.554980204905388e-06
-1.4889903526822637e-05   2.101342691318657e-06   1.5649488197142142e-06
-1.4889903526822637e-05   2.101342691318657e-06   1.5649488197142142e-06
-1.4889903526822637e-05   2.101342691318657e-06   1.5649488197142142e-06
-1.4889903526822637e-05   2.101342691318657e-06   1.5649488197142142e-06
-1.1031938334838866e-05   8.721993369064701e-07   -4.1275071542780904e-06
-1.1031938334838866e-05   8.721993369064701e-07   -4.1275071542780904e-06
-1.1031938334838866e-05   8.721993369064701e-07   -4.1275071542780904e-06
-1.1031938334838866e-05   8.721993369064701e-07   -4.1275071542780904e-06
-8.257168956740602e-06   0.0   -7.918524814189058e-06
-8.257168956740602e-06   0.0   -7.918524814189058e-06
-8.257168956740602e-06   0.0   -7.918524814189058e-06
-8.257168956740602e-06   0.0   -7.918524814189058e-06
-3.779660286466673e-06   5.118849063727964e-07   -1.4887941990883877e-07
-3.779660286466673e-06   5.118849063727964e-07   -1.4887941990883877e-07
-3.779660286466673e-06   5.118849063727964e-07   -1.4887941990883877e-07
-3.779660286466673e-06   5.118849063727964e-07   -1.4887941990883877e-07
-3.618956973313767e-06   0.0   -7.859375196558435e-06
-3.618956973313767e-06   0.0   -7.859375196558435e-06
-3.618956973313767e-06   0.0   -7.859375196558435e-06
-3.618956973313767e-06   0.0   -7.859375196558435e-06
-8.078434054844386e-06   7.386393143233744e-07   -8.700969826014542e-07
-8.078434054844386e-06   7.386393143233744e-07   -8.700969826014542e-07
-8.078434054844386e-06   7.386393143233744e-07   -8.700969826014542e-07
-8.078434054844386e-06   7.386393143233744e-07   -8.700969826014542e-07
-5.938062965027177e-06   4.9291348025508456e-08   -4.023773352518053e-06
-5.938062965027177e-06   4.9291348025508456e-08   -4.023773352518053e-06
-5.938062965027177e-06   4.9291348025508456e-08   -4.023773352518053e-06
-5.938062965027177e-06   4.9291348025508456e-08   -4.023773352518053e-06
-8.078434054844379e-06   0.0   -8.302558785152467e-06
-8.078434054844379e-06   0.0   -8.302558785152467e-06
-8.078434054844379e-06   0.0   -8.302558785152467e-06
-8.078434054844379e-06   0.0   -8.302558785152467e-06
-3.618956973313767e-06   7.386393143233727e-07   -4.2691339400742867e-07
-3.618956973313767e-06   7.386393143233727e-07   -4.2691339400742867e-07
-3.618956973313767e-06   7.386393143233727e-07   -4.2691339400742867e-07
-3.618956973313767e-06   7.386393143233727e-07   -4.2691339400742867e-07
-3.5218785485863944e-06   0.0   -7.95458001864733e-06
-3.5218785485863944e-06   0.0   -7.95458001864733e-06
-3.5218785485863944e-06   0.0   -7.95458001864733e-06
-3.5218785485863944e-06   0.0   -7.95458001864733e-06
-8.084526561204816e-06   9.111731636851717e-07   -8.96870562494422e-07
-8.084526561204816e-06   9.111731636851717e-07   -8.96870562494422e-07
-8.084526561204816e-06   9.111731636851717e-07   -8.96870562494422e-07
-8.084526561204816e-06   9.111731636851717e-07   -8.96870562494422e-07
-5.800156301715391e-06   2.899823054209409e-07   -4.331439813351582e-06
-5.800156301715391e-06   2.899823054209409e-07   -4.331439813351582e-06
-5.800156301715391e-06   2.899823054209409e-07   -4.331439813351582e-06
-5.800156301715391e-06   2.899823054209409e-07   -4.331439813351582e-06
-8.084526561204816e-06   0.0   -8.501283916858447e-06
-8.084526561204816e-06   0.0   -8.501283916858447e-06
-8.084526561204816e-06   0.0   -8.501283916858447e-06
-8.084526561204816e-06   0.0   -8.501283916858447e-06
-3.5218785485864007e-06   9.111731636851717e-07   -3.5016666428331964e-07
-3.5218785485864007e-06   9.111731636851717e-07   -3.5016666428331964e-07
-3.5218785485864007e-06   9.111731636851717e-07   -3.5016666428331964e-07
-3.5218785485864007e-06   9.111731636851717e-07   -3.5016666428331964e-07
-3.430723927042589e-06   0.0   -7.916451089397108e-06
-3.430723927042589e-06   0.0   -7.916451089397108e-06
-3.430723927042589e-06   0.0   -7.916451089397108e-06
-3.430723927042589e-06   0.0   -7.916451089397108e-06
-8.06146274317616e-06   1.064215192513789e-06   -8.37082178016061e-07
-8.06146274317616e-06   1.064215192513789e-06   -8.37082178016061e-07
-8.06146274317616e-06   1.064215192513789e-06   -8.37082178016061e-07
-8.06146274317616e-06   1.064215192513789e-06   -8.37082178016061e-07
-5.757625244123701e-06   4.873606895511108e-07   -4.330698641325921e-06
-5.757625244123701e-06   4.873606895511108e-07   -4.330698641325921e-06
-5.757625244123701e-06   4.873606895511108e-07   -4.330698641325921e-06
-5.757625244123701e-06   4.873606895511108e-07   -4.330698641325921e-06
-3.7796602864666797e-06   0.0   -7.611393870365381e-06
-3.7796602864666797e-06   0.0   -7.611393870365381e-06
-3.7796602864666797e-06   0.0   -7.611393870365381e-06
-3.7796602864666797e-06   0.0   -7.611393870365381e-06
4.364803614625127e-07   -6.993256020091485e-08   -6.264523266039356e-07
4.364803614625127e-07   -6.993256020091485e-08   -6.264523266039356e-07
4.364803614625127e-07   -6.993256020091485e-08   -6.264523266039356e-07
4.364803614625127e-07   -6.993256020091485e-08   -6.264523266039356e-07
5.467938193259376e-07   0.0   -7.779658742561189e-06
5.467938193259376e-07   0.0   -7.779658742561189e-06
5.467938193259376e-07   0.0   -7.779658742561189e-06
5.467938193259376e-07   0.0   -7.779658742561189e-06
-3.618956973313767e-06   1.3286075666205406e-07   -9.164572088255931e-07
-3.618956973313767e-06   1.3286075666205406e-07   -9.164572088255931e-07
-3.618956973313767e-06   1.3286075666205406e-07   -9.164572088255931e-07
-3.618956973313767e-06   1.3286075666205406e-07   -9.164572088255931e-07
-1.6164332335703673e-06   -1.4022072682986185e-07   -4.090147884969439e-06
-1.6164332335703673e-06   -1.4022072682986185e-07   -4.090147884969439e-06
-1.6164332335703673e-06   -1.4022072682986185e-07   -4.090147884969439e-06
-1.6164332335703673e-06   -1.4022072682986185e-07   -4.090147884969439e-06
-3.6189569733137733e-06   0.0   -7.859375196558449e-06
-3.6189569733137733e-06   0.0   -7.859375196558449e-06
-3.6189569733137733e-06   0.0   -7.859375196558449e-06
-3.6189569733137733e-06   0.0   -7.859375196558449e-06
5.467938193259385e-07   1.3286075666205406e-07   -8.367407548283604e-07
5.467938193259385e-07   1.3286075666205406e-07   -8.367407548283604e-07
5.467938193259385e-07   1.3286075666205406e-07   -8.367407548283604e-07
5.467938193259385e-07   1.3286075666205406e-07   -8.367407548283604e-07
6.360661970022597e-07   0.0   -7.767247078738778e-06
6.360661970022597e-07   0.0   -7.767247078738778e-06
6.360661970022597e-07   0.0   -7.767247078738778e-06
6.360661970022597e-07   0.0   -7.767247078738778e-06
-3.5218785485863884e-06   3.1222156651425386e-07   -1.024672109332906e-06
-3.5218785485863884e-06   3.1222156651425386e-07   -1.024672109332906e-06
-3.5218785485863884e-06   3.1222156651425386e-07   -1.024672109332906e-06
-3.5218785485863884e-06   3.1222156651425386e-07   -1.024672109332906e-06
-1.4914453881557536e-06   7.677343151638148e-08   -4.267458495718581e-06
-1.4914453881557536e-06   7.677343151638148e-08   -4.267458495718581e-06
-1.4914453881557536e-06   7.677343151638148e-08   -4.267458495718581e-06
-1.4914453881557536e-06   7.677343151638148e-08   -4.267458495718581e-06
-3.5218785485864007e-06   0.0   -7.954580018647344e-06
-3.5218785485864007e-06   0.0   -7.954580018647344e-06
-3.5218785485864007e-06   0.0   -7.954580018647344e-06
-3.5218785485864007e-06   0.0   -7.954580018647344e-06
6.360661970022608e-07   3.1222156651425386e-07   -8.373391694243568e-07
6.360661970022608e-07   3.1222156651425386e-07   -8.373391694243568e-07
6.360661970022608e-07   3.1222156651425386e-07   -8.373391694243568e-07
6.360661970022608e-07   3.1222156651425386e-07   -8.373391694243568e-07
7.506422246996845e-07   0.0   -7.605066232057808e-06
7.506422246996845e-07   0.0   -7.605066232057808e-06
7.506422246996845e-07   0.0   -7.605066232057808e-06
7.506422246996845e-07   0.0   -7.605066232057808e-06
-3.430723927042586e-06   5.189747622321541e-07   -9.475075031599847e-07
-3.430723927042586e-06   5.189747622321541e-07   -9.475075031599847e-07
-3.430723927042586e-06   5.189747622321541e-07   -9.475075031599847e-07
-3.430723927042586e-06   5.189747622321541e-07   -9.475075031599847e-07
-1.385618161943355e-06   2.9126148882460195e-07   -4.219389147614167e-06
-1.385618161943355e-06   2.9126148882460195e-07   -4.219389147614167e-06
-1.385618161943355e-06   2.9126148882460195e-07   -4.219389147614167e-06
-1.385618161943355e-06   2.9126148882460195e-07   -4.219389147614167e-06
4.3648036146251343e-07   0.0   -7.65335340648593e-06
4.3648036146251343e-07   0.0   -7.65335340648593e-06
4.3648036146251343e-07   0.0   -7.65335340648593e-06
4.3648036146251343e-07   0.0   -7.65335340648593e-06
5.027236771108268e-06   -5.897314647185468e-07   -3.559316025740998e-07
5.027236771108268e-06   -5.897314647185468e-07   -3.559316025740998e-07
5.027236771108268e-06   -5.897314647185468e-07   -3.559316025740998e-07
5.027236771108268e-06   -5.897314647185468e-07   -3.559316025740998e-07
5.057065175192305e-06   0.0   -8.04358375875315e-06
5.057065175192305e-06   0.0   -8.04358375875315e-06
5.057065175192305e-06   0.0   -8.04358375875315e-06
5.057065175192305e-06   0.0   -8.04358375875315e-06
5.467938193259385e-07   -4.398750269865567e-07   -2.625398161172724e-07
5.467938193259385e-07   -4.398750269865567e-07   -2.625398161172724e-07
5.467938193259385e-07   -4.398750269865567e-07   -2.625398161172724e-07
5.467938193259385e-07   -4.398750269865567e-07   -2.625398161172724e-07
2.746772768327409e-06   -3.251919602226836e-07   -3.9979812378447105e-06
2.746772768327409e-06   -3.251919602226836e-07   -3.9979812378447105e-06
2.746772768327409e-06   -3.251919602226836e-07   -3.9979812378447105e-06
2.746772768327409e-06   -3.251919602226836e-07   -3.9979812378447105e-06
5.467938193259395e-07   0.0   -7.779658742561216e-06
5.467938193259395e-07   0.0   -7.779658742561216e-06
5.467938193259395e-07   0.0   -7.779658742561216e-06
5.467938193259395e-07   0.0   -7.779658742561216e-06
5.057065175192297e-06   -4.398750269865567e-07   -5.264648323092063e-07
5.057065175192297e-06   -4.398750269865567e-07   -5.264648323092063e-07
5.057065175192297e-06   -4.398750269865567e-07   -5.264648323092063e-07
5.057065175192297e-06   -4.398750269865567e-07   -5.264648323092063e-07
5.053408354964278e-06   0.0   -7.92887407228015e-06
5.053408354964278e-06   0.0   -7.92887407228015e-06
5.053408354964278e-06   0.0   -7.92887407228015e-06
5.053408354964278e-06   0.0   -7.92887407228015e-06
6.360661970022608e-07   -2.693783225689311e-07   -4.050101488020965e-07
6.360661970022608e-07   -2.693783225689311e-07   -4.050101488020965e-07
6.360661970022608e-07   -2.693783225689311e-07   -4.050101488020965e-07
6.360661970022608e-07   -2.693783225689311e-07   -4.050101488020965e-07
2.8001010871451085e-06   -1.243461080991128e-07   -4.098754294388732e-06
2.8001010871451085e-06   -1.243461080991128e-07   -4.098754294388732e-06
2.8001010871451085e-06   -1.243461080991128e-07   -4.098754294388732e-06
2.8001010871451085e-06   -1.243461080991128e-07   -4.098754294388732e-06
6.360661970022608e-07   0.0   -7.767247078738791e-06
6.360661970022608e-07   0.0   -7.767247078738791e-06
6.360661970022608e-07   0.0   -7.767247078738791e-06
6.360661970022608e-07   0.0   -7.767247078738791e-06
5.053408354964269e-06   -2.693783225689311e-07   -5.666371423434533e-07
5.053408354964269e-06   -2.693783225689311e-07   -5.666371423434533e-07
5.053408354964269e-06   -2.693783225689311e-07   -5.666371423434533e-07
5.053408354964269e-06   -2.693783225689311e-07   -5.666371423434533e-07
5.168575062589247e-06   0.0   -7.629885727194679e-06
5.168575062589247e-06   0.0   -7.629885727194679e-06
5.168575062589247e-06   0.0   -7.629885727194679e-06
5.168575062589247e-06   0.0   -7.629885727194679e-06
7.506422246996858e-07   -4.1365825228096816e-08   -2.418448355752197e-07
7.506422246996858e-07   -4.1365825228096816e-08   -2.418448355752197e-07
7.506422246996858e-07   -4.1365825228096816e-08   -2.418448355752197e-07
7.506422246996858e-07   -4.1365825228096816e-08   -2.418448355752197e-07
2.902320629795754e-06   1.1446779295342661e-07   -3.921475681644244e-06
2.902320629795754e-06   1.1446779295342661e-07   -3.921475681644244e-06
2.902320629795754e-06   1.1446779295342661e-07   -3.921475681644244e-06
2.902320629795754e-06   1.1446779295342661e-07   -3.921475681644244e-06
5.027236771108286e-06   0.0   -8.00719228531706e-06
5.027236771108286e-06   0.0   -8.00719228531706e-06
5.027236771108286e-06   0.0   -8.00719228531706e-06
5.027236771108286e-06   0.0   -8.00719228531706e-06
1.1460153835278909e-05   -1.5090194608070879e-06   1.8089244784830957e-06
1.1460153835278909e-05   -1.5090194608070879e-06   1.8089244784830957e-06
1.1460153835278909e-05   -1.5090194608070879e-06   1.8089244784830957e-06
1.1460153835278909e-05   -1.5090194608070879e-06   1.8089244784830957e-06
1.079006733867128e-05   0.0   -8.807325162908588e-06
1.079006733867128e-05   0.0   -8.807325162908588e-06
1.079006733867128e-05   0.0   -8.807325162908588e-06
1.079006733867128e-05   0.0   -8.807325162908588e-06
5.057065175192297e-06   -1.2729023402590588e-06   1.5114198470451385e-06
5.057065175192297e-06   -1.2729023402590588e-06   1.5114198470451385e-06
5.057065175192297e-06   -1.2729023402590588e-06   1.5114198470451385e-06
5.057065175192297e-06   -1.2729023402590588e-06   1.5114198470451385e-06
7.908652054889783e-06   -6.667773979929405e-07   -3.6048999178103247e-06
7.908652054889783e-06   -6.667773979929405e-07   -3.6048999178103247e-06
7.908652054889783e-06   -6.667773979929405e-07   -3.6048999178103247e-06
7.908652054889783e-06   -6.667773979929405e-07   -3.6048999178103247e-06
5.057065175192301e-06   0.0   -8.043583758753143e-06
5.057065175192301e-06   0.0   -8.043583758753143e-06
5.057065175192301e-06   0.0   -8.043583758753143e-06
5.057065175192301e-06   0.0   -8.043583758753143e-06
1.079006733867128e-05   -1.2729023402590622e-06   7.476784428897056e-07
1.079006733867128e-05   -1.2729023402590622e-06   7.476784428897056e-07
1.079006733867128e-05   -1.2729023402590622e-06   7.476784428897056e-07
1.079006733867128e-05   -1.2729023402590622e-06   7.476784428897056e-07
1.0489194918621581e-05   0.0   -8.624413389309531e-06
1.0489194918621581e-05   0.0   -8.624413389309531e-06
1.0489194918621581e-05   0.0   -8.624413389309531e-06
1.0489194918621581e-05   0.0   -8.624413389309531e-06
5.053408354964269e-06   -1.1592321950489668e-06   1.1307702004820182e-06
5.053408354964269e-06   -1.1592321950489668e-06   1.1307702004820182e-06
5.053408354964269e-06   -1.1592321950489668e-06   1.1307702004820182e-06
5.053408354964269e-06   -1.1592321950489668e-06   1.1307702004820182e-06
7.773130046906939e-06   -4.840246921303179e-07   -3.80722378784027e-06
7.773130046906939e-06   -4.840246921303179e-07   -3.80722378784027e-06
7.773130046906939e-06   -4.840246921303179e-07   -3.80722378784027e-06
7.773130046906939e-06   -4.840246921303179e-07   -3.80722378784027e-06
5.053408354964278e-06   0.0   -7.92887407228015e-06
5.053408354964278e-06   0.0   -7.92887407228015e-06
5.053408354964278e-06   0.0   -7.92887407228015e-06
5.053408354964278e-06   0.0   -7.92887407228015e-06
1.0489194918621563e-05   -1.1592321950489668e-06   4.3523088345263745e-07
1.0489194918621563e-05   -1.1592321950489668e-06   4.3523088345263745e-07
1.0489194918621563e-05   -1.1592321950489668e-06   4.3523088345263745e-07
1.0489194918621563e-05   -1.1592321950489668e-06   4.3523088345263745e-07
1.0028698233517528e-05   0.0   -8.162694671001556e-06
1.0028698233517528e-05   0.0   -8.162694671001556e-06
1.0028698233517528e-05   0.0   -8.162694671001556e-06
1.0028698233517528e-05   0.0   -8.162694671001556e-06
5.168575062589234e-06   -8.880149063447935e-07   4.703195576857927e-07
5.168575062589234e-06   -8.880149063447935e-07   4.703195576857927e-07
5.168575062589234e-06   -8.880149063447935e-07   4.703195576857927e-07
5.168575062589234e-06   -8.880149063447935e-07   4.703195576857927e-07
7.54105329424089e-06   -1.9485049893450374e-07   -3.8997094728464686e-06
7.54105329424089e-06   -1.9485049893450374e-07   -3.8997094728464686e-06
7.54105329424089e-06   -1.9485049893450374e-07   -3.8997094728464686e-06
7.54105329424089e-06   -1.9485049893450374e-07   -3.8997094728464686e-06
-1.1122161246849772e-05   1.4114596980914271e-06   -7.447797858020811e-06
-1.1122161246849772e-05   1.4114596980914271e-06   -7.447797858020811e-06
-1.1122161246849772e-05   1.4114596980914271e-06   -7.447797858020811e-06
-1.1122161246849772e-05   1.4114596980914271e-06   -7.447797858020811e-06
-7.138690086180189e-06   1.2591770111733337e-06   -9.000488690556949e-07
-7.138690086180189e-06   1.2591770111733337e-06   -9.000488690556949e-07
-7.138690086180189e-06   1.2591770111733337e-06   -9.000488690556949e-07
-7.138690086180189e-06   1.2591770111733337e-06   -9.000488690556949e-07
-7.309309956631336e-06   1.7081239535861338e-06   -6.269211391253301e-06
-7.309309956631336e-06   1.7081239535861338e-06   -6.269211391253301e-06
-7.309309956631336e-06   1.7081239535861338e-06   -6.269211391253301e-06
-7.309309956631336e-06   1.7081239535861338e-06   -6.269211391253301e-06
-1.1223726696857343e-05   1.5205112958190911e-06   3.673841037836085e-07
-1.1223726696857343e-05   1.5205112958190911e-06   3.673841037836085e-07
-1.1223726696857343e-05   1.5205112958190911e-06   3.673841037836085e-07
-1.1223726696857343e-05   1.5205112958190911e-06   3.673841037836085e-07
-8.833084664123563e-06   1.4790279436533563e-06   -3.5921292728066203e-06
-8.833084664123563e-06   1.4790279436533563e-06   -3.5921292728066203e-06
-8.833084664123563e-06   1.4790279436533563e-06   -3.5921292728066203e-06
-8.833084664123563e-06   1.4790279436533563e-06   -3.5921292728066203e-06
-1.1223726696857343e-05   1.7081239535861343e-06   -6.1566437965930795e-06
-1.1223726696857343e-05   1.7081239535861343e-06   -6.1566437965930795e-06
-1.1223726696857343e-05   1.7081239535861343e-06   -6.1566437965930795e-06
-1.1223726696857343e-05   1.7081239535861343e-06   -6.1566437965930795e-06
-7.309309956631358e-06   1.5205112958190979e-06   2.5481650912340353e-07
-7.309309956631358e-06   1.5205112958190979e-06   2.5481650912340353e-07
-7.309309956631358e-06   1.5205112958190979e-06   2.5481650912340353e-07
-7.309309956631358e-06   1.5205112958190979e-06   2.5481650912340353e-07
-7.33555202101618e-06   1.8338924872245094e-06   -5.646749332427115e-06
-7.33555202101618e-06   1.8338924872245094e-06   -5.646749332427115e-06
-7.33555202101618e-06   1.8338924872245094e-06   -5.646749332427115e-06
-7.33555202101618e-06   1.8338924872245094e-06   -5.646749332427115e-06
-1.1286458192541405e-05   1.638815016761091e-06   1.0551407690596195e-06
-1.1286458192541405e-05   1.638815016761091e-06   1.0551407690596195e-06
-1.1286458192541405e-05   1.638815016761091e-06   1.0551407690596195e-06
-1.1286458192541405e-05   1.638815016761091e-06   1.0551407690596195e-06
-9.08054654139587e-06   1.642884669596662e-06   -2.6238204412176037e-06
-9.08054654139587e-06   1.642884669596662e-06   -2.6238204412176037e-06
-9.08054654139587e-06   1.642884669596662e-06   -2.6238204412176037e-06
-9.08054654139587e-06   1.642884669596662e-06   -2.6238204412176037e-06
-1.1286458192541385e-05   1.833892487224509e-06   -5.529702850149064e-06
-1.1286458192541385e-05   1.833892487224509e-06   -5.529702850149064e-06
-1.1286458192541385e-05   1.833892487224509e-06   -5.529702850149064e-06
-1.1286458192541385e-05   1.833892487224509e-06   -5.529702850149064e-06
-7.335552021016194e-06   1.638815016761091e-06   9.380942867815583e-07
-7.335552021016194e-06   1.638815016761091e-06   9.380942867815583e-07
-7.335552021016194e-06   1.638815016761091e-06   9.380942867815583e-07
-7.335552021016194e-06   1.638815016761091e-06   9.380942867815583e-07
-7.283351183873646e-06   2.1013426913186517e-06   -4.203969919634632e-06
-7.283351183873646e-06   2.1013426913186517e-06   -4.203969919634632e-06
-7.283351183873646e-06   2.1013426913186517e-06   -4.203969919634632e-06
-7.283351183873646e-06   2.1013426913186517e-06   -4.203969919634632e-06
-1.0949750152107242e-05   1.7378306966493127e-06   2.124802224222939e-06
-1.0949750152107242e-05   1.7378306966493127e-06   2.124802224222939e-06
-1.0949750152107242e-05   1.7378306966493127e-06   2.124802224222939e-06
-1.0949750152107242e-05   1.7378306966493127e-06   2.124802224222939e-06
-8.829627979032676e-06   1.80773750588124e-06   -1.4506788164404916e-06
-8.829627979032676e-06   1.80773750588124e-06   -1.4506788164404916e-06
-8.829627979032676e-06   1.80773750588124e-06   -1.4506788164404916e-06
-8.829627979032676e-06   1.80773750588124e-06   -1.4506788164404916e-06
-7.138690086180189e-06   5.118849063727947e-07   -8.000652778016692e-06
-7.138690086180189e-06   5.118849063727947e-07   -8.000652778016692e-06
-7.138690086180189e-06   5.118849063727947e-07   -8.000652778016692e-06
-7.138690086180189e-06   5.118849063727947e-07   -8.000652778016692e-06
-3.4095500621937175e-06   5.862321843568485e-07   -1.740811037915464e-06
-3.4095500621937175e-06   5.862321843568485e-07   -1.740811037915464e-06
-3.4095500621937175e-06   5.862321843568485e-07   -1.740811037915464e-06
-3.4095500621937175e-06   5.862321843568485e-07   -1.740811037915464e-06
-3.4814316841008037e-06   7.386393143233727e-07   -7.98363847473555e-06
-3.4814316841008037e-06   7.386393143233727e-07   -7.98363847473555e-06
-3.4814316841008037e-06   7.386393143233727e-07   -7.98363847473555e-06
-3.4814316841008037e-06   7.386393143233727e-07   -7.98363847473555e-06
-7.309309956631335e-06   8.263293104205754e-07   -1.6564553515096306e-06
-7.309309956631335e-06   8.263293104205754e-07   -1.6564553515096306e-06
-7.309309956631335e-06   8.263293104205754e-07   -1.6564553515096306e-06
-7.309309956631335e-06   8.263293104205754e-07   -1.6564553515096306e-06
-5.319076679512158e-06   6.644845696703109e-07   -4.876403968924788e-06
-5.319076679512158e-06   6.644845696703109e-07   -4.876403968924788e-06
-5.319076679512158e-06   6.644845696703109e-07   -4.876403968924788e-06
-5.319076679512158e-06   6.644845696703109e-07   -4.876403968924788e-06
-7.309309956631329e-06   7.386393143233722e-07   -8.036252472393849e-06
-7.309309956631329e-06   7.386393143233722e-07   -8.036252472393849e-06
-7.309309956631329e-06   7.386393143233722e-07   -8.036252472393849e-06
-7.309309956631329e-06   7.386393143233722e-07   -8.036252472393849e-06
-3.481431684100798e-06   8.263293104205754e-07   -1.6038413538512929e-06
-3.481431684100798e-06   8.263293104205754e-07   -1.6038413538512929e-06
-3.481431684100798e-06   8.263293104205754e-07   -1.6038413538512929e-06
-3.481431684100798e-06   8.263293104205754e-07   -1.6038413538512929e-06
-3.496781235383465e-06   9.111731636851717e-07   -7.836470899212545e-06
-3.496781235383465e-06   9.111731636851717e-07   -7.836470899212545e-06
-3.496781235383465e-06   9.111731636851717e-07   -7.836470899212545e-06
-3.496781235383465e-06   9.111731636851717e-07   -7.836470899212545e-06
-7.33555202101618e-06   1.026190976482668e-06   -1.5075302775031596e-06
-7.33555202101618e-06   1.026190976482668e-06   -1.5075302775031596e-06
-7.33555202101618e-06   1.026190976482668e-06   -1.5075302775031596e-06
-7.33555202101618e-06   1.026190976482668e-06   -1.5075302775031596e-06
-5.351460130463501e-06   8.480979234778822e-07   -4.707494263288086e-06
-5.351460130463501e-06   8.480979234778822e-07   -4.707494263288086e-06
-5.351460130463501e-06   8.480979234778822e-07   -4.707494263288086e-06
-5.351460130463501e-06   8.480979234778822e-07   -4.707494263288086e-06
-7.33555202101618e-06   9.111731636851687e-07   -7.90548158689103e-06
-7.33555202101618e-06   9.111731636851687e-07   -7.90548158689103e-06
-7.33555202101618e-06   9.111731636851687e-07   -7.90548158689103e-06
-7.33555202101618e-06   9.111731636851687e-07   -7.90548158689103e-06
-3.4967812353834704e-06   1.026190976482668e-06   -1.4385195898246748e-06
-3.4967812353834704e-06   1.026190976482668e-06   -1.4385195898246748e-06
-3.4967812353834704e-06   1.026190976482668e-06   -1.4385195898246748e-06
-3.4967812353834704e-06   1.026190976482668e-06   -1.4385195898246748e-06
-3.478473635289162e-06   1.064215192513789e-06   -7.760024949277792e-06
-3.478473635289162e-06   1.064215192513789e-06   -7.760024949277792e-06
-3.478473635289162e-06   1.064215192513789e-06   -7.760024949277792e-06
-3.478473635289162e-06   1.064215192513789e-06   -7.760024949277792e-06
-7.28335118387364e-06   1.2421844973109692e-06   -1.5253439511819515e-06
-7.28335118387364e-06   1.2421844973109692e-06   -1.5253439511819515e-06
-7.28335118387364e-06   1.2421844973109692e-06   -1.5253439511819515e-06
-7.28335118387364e-06   1.2421844973109692e-06   -1.5253439511819515e-06
-5.372967426395087e-06   1.0143374823394383e-06   -4.572608671329975e-06
-5.372967426395087e-06   1.0143374823394383e-06   -4.572608671329975e-06
-5.372967426395087e-06   1.0143374823394383e-06   -4.572608671329975e-06
-5.372967426395087e-06   1.0143374823394383e-06   -4.572608671329975e-06
-3.409550062193711e-06   -6.993256020091494e-08   -8.391657781800811e-06
-3.409550062193711e-06   -6.993256020091494e-08   -8.391657781800811e-06
-3.409550062193711e-06   -6.993256020091494e-08   -8.391657781800811e-06
-3.409550062193711e-06   -6.993256020091494e-08   -8.391657781800811e-06
2.7090838635611605e-07   -2.013371656892825e-08   -2.2276810613718996e-06
2.7090838635611605e-07   -2.013371656892825e-08   -2.2276810613718996e-06
2.7090838635611605e-07   -2.013371656892825e-08   -2.2276810613718996e-06
2.7090838635611605e-07   -2.013371656892825e-08   -2.2276810613718996e-06
2.651087775713977e-07   1.3286075666205406e-07   -8.431940939076073e-06
2.651087775713977e-07   1.3286075666205406e-07   -8.431940939076073e-06
2.651087775713977e-07   1.3286075666205406e-07   -8.431940939076073e-06
2.651087775713977e-07   1.3286075666205406e-07   -8.431940939076073e-06
-3.481431684100798e-06   2.0159634079143854e-07   -2.2289481867667055e-06
-3.481431684100798e-06   2.0159634079143854e-07   -2.2289481867667055e-06
-3.481431684100798e-06   2.0159634079143854e-07   -2.2289481867667055e-06
-3.481431684100798e-06   2.0159634079143854e-07   -2.2289481867667055e-06
-1.597415569955897e-06   6.78807106254588e-08   -5.288745665575292e-06
-1.597415569955897e-06   6.78807106254588e-08   -5.288745665575292e-06
-1.597415569955897e-06   6.78807106254588e-08   -5.288745665575292e-06
-1.597415569955897e-06   6.78807106254588e-08   -5.288745665575292e-06
-3.481431684100798e-06   1.328607566620545e-07   -8.473182289553701e-06
-3.481431684100798e-06   1.328607566620545e-07   -8.473182289553701e-06
-3.481431684100798e-06   1.328607566620545e-07   -8.473182289553701e-06
-3.481431684100798e-06   1.328607566620545e-07   -8.473182289553701e-06
2.6510877757139814e-07   2.0159634079143854e-07   -2.187706836289067e-06
2.6510877757139814e-07   2.0159634079143854e-07   -2.187706836289067e-06
2.6510877757139814e-07   2.0159634079143854e-07   -2.187706836289067e-06
2.6510877757139814e-07   2.0159634079143854e-07   -2.187706836289067e-06
2.546677155131721e-07   3.1222156651425386e-07   -8.44716307468615e-06
2.546677155131721e-07   3.1222156651425386e-07   -8.44716307468615e-06
2.546677155131721e-07   3.1222156651425386e-07   -8.44716307468615e-06
2.546677155131721e-07   3.1222156651425386e-07   -8.44716307468615e-06
-3.4967812353834585e-06   4.1857701580753903e-07   -2.2585614261010666e-06
-3.4967812353834585e-06   4.1857701580753903e-07   -2.2585614261010666e-06
-3.4967812353834585e-06   4.1857701580753903e-07   -2.2585614261010666e-06
-3.4967812353834585e-06   4.1857701580753903e-07   -2.2585614261010666e-06
-1.6172850078193414e-06   2.5506557265980346e-07   -5.292948272819295e-06
-1.6172850078193414e-06   2.5506557265980346e-07   -5.292948272819295e-06
-1.6172850078193414e-06   2.5506557265980346e-07   -5.292948272819295e-06
-1.6172850078193414e-06   2.5506557265980346e-07   -5.292948272819295e-06
-3.496781235383458e-06   3.122215665142542e-07   -8.510976344262123e-06
-3.496781235383458e-06   3.122215665142542e-07   -8.510976344262123e-06
-3.496781235383458e-06   3.122215665142542e-07   -8.510976344262123e-06
-3.496781235383458e-06   3.122215665142542e-07   -8.510976344262123e-06
2.546677155131721e-07   4.1857701580753903e-07   -2.194748156525108e-06
2.546677155131721e-07   4.1857701580753903e-07   -2.194748156525108e-06
2.546677155131721e-07   4.1857701580753903e-07   -2.194748156525108e-06
2.546677155131721e-07   4.1857701580753903e-07   -2.194748156525108e-06
2.22668963392682e-07   5.189747622321541e-07   -8.43381133739003e-06
2.22668963392682e-07   5.189747622321541e-07   -8.43381133739003e-06
2.22668963392682e-07   5.189747622321541e-07   -8.43381133739003e-06
2.22668963392682e-07   5.189747622321541e-07   -8.43381133739003e-06
-3.4784736352891584e-06   6.442548497987376e-07   -2.340408392126919e-06
-3.4784736352891584e-06   6.442548497987376e-07   -2.340408392126919e-06
-3.4784736352891584e-06   6.442548497987376e-07   -2.340408392126919e-06
-3.4784736352891584e-06   6.442548497987376e-07   -2.340408392126919e-06
-1.62534543291858e-06   4.4737260599770294e-07   -5.310826049797257e-06
-1.62534543291858e-06   4.4737260599770294e-07   -5.310826049797257e-06
-1.62534543291858e-06   4.4737260599770294e-07   -5.310826049797257e-06
-1.62534543291858e-06   4.4737260599770294e-07   -5.310826049797257e-06
2.7090838635611605e-07   -5.897314647185475e-07   -7.737418872760657e-06
2.7090838635611605e-07   -5.897314647185475e-07   -7.737418872760657e-06
2.7090838635611605e-07   -5.897314647185475e-07   -7.737418872760657e-06
2.7090838635611605e-07   -5.897314647185475e-07   -7.737418872760657e-06
4.063218975261233e-06   -6.054846183274268e-07   -1.4263531167507882e-06
4.063218975261233e-06   -6.054846183274268e-07   -1.4263531167507882e-06
4.063218975261233e-06   -6.054846183274268e-07   -1.4263531167507882e-06
4.063218975261233e-06   -6.054846183274268e-07   -1.4263531167507882e-06
4.107814936201622e-06   -4.398750269865567e-07   -7.835111646254267e-06
4.107814936201622e-06   -4.398750269865567e-07   -7.835111646254267e-06
4.107814936201622e-06   -4.398750269865567e-07   -7.835111646254267e-06
4.107814936201622e-06   -4.398750269865567e-07   -7.835111646254267e-06
2.6510877757139814e-07   -4.02161103468694e-07   -1.4532297359812772e-06
2.6510877757139814e-07   -4.02161103468694e-07   -1.4532297359812772e-06
2.6510877757139814e-07   -4.02161103468694e-07   -1.4532297359812772e-06
2.6510877757139814e-07   -4.02161103468694e-07   -1.4532297359812772e-06
2.1491191343891655e-06   -4.844290935147186e-07   -4.543886203316606e-06
2.1491191343891655e-06   -4.844290935147186e-07   -4.543886203316606e-06
2.1491191343891655e-06   -4.844290935147186e-07   -4.543886203316606e-06
2.1491191343891655e-06   -4.844290935147186e-07   -4.543886203316606e-06
2.651087775713977e-07   -4.3987502698655595e-07   -7.857740000364987e-06
2.651087775713977e-07   -4.3987502698655595e-07   -7.857740000364987e-06
2.651087775713977e-07   -4.3987502698655595e-07   -7.857740000364987e-06
2.651087775713977e-07   -4.3987502698655595e-07   -7.857740000364987e-06
4.107814936201622e-06   -4.0216110346868723e-07   -1.4306013818705459e-06
4.107814936201622e-06   -4.0216110346868723e-07   -1.4306013818705459e-06
4.107814936201622e-06   -4.0216110346868723e-07   -1.4306013818705459e-06
4.107814936201622e-06   -4.0216110346868723e-07   -1.4306013818705459e-06
4.099362589480236e-06   -2.693783225689328e-07   -7.97570211826057e-06
4.099362589480236e-06   -2.693783225689328e-07   -7.97570211826057e-06
4.099362589480236e-06   -2.693783225689328e-07   -7.97570211826057e-06
4.099362589480236e-06   -2.693783225689328e-07   -7.97570211826057e-06
2.5466771551317207e-07   -2.04158429563373e-07   -1.6070092641187938e-06
2.5466771551317207e-07   -2.04158429563373e-07   -1.6070092641187938e-06
2.5466771551317207e-07   -2.04158429563373e-07   -1.6070092641187938e-06
2.5466771551317207e-07   -2.04158429563373e-07   -1.6070092641187938e-06
2.135771084573643e-06   -3.2386010926800844e-07   -4.670360538063462e-06
2.135771084573643e-06   -3.2386010926800844e-07   -4.670360538063462e-06
2.135771084573643e-06   -3.2386010926800844e-07   -4.670360538063462e-06
2.135771084573643e-06   -3.2386010926800844e-07   -4.670360538063462e-06
2.546677155131721e-07   -2.6937832256893133e-07   -8.01483405406389e-06
2.546677155131721e-07   -2.6937832256893133e-07   -8.01483405406389e-06
2.546677155131721e-07   -2.6937832256893133e-07   -8.01483405406389e-06
2.546677155131721e-07   -2.6937832256893133e-07   -8.01483405406389e-06
4.099362589480236e-06   -2.04158429563373e-07   -1.5678773283154687e-06
4.099362589480236e-06   -2.04158429563373e-07   -1.5678773283154687e-06
4.099362589480236e-06   -2.04158429563373e-07   -1.5678773283154687e-06
4.099362589480236e-06   -2.04158429563373e-07   -1.5678773283154687e-06
3.988225680079498e-06   -4.1365825228096816e-08   -7.991137274018575e-06
3.988225680079498e-06   -4.1365825228096816e-08   -7.991137274018575e-06
3.988225680079498e-06   -4.1365825228096816e-08   -7.991137274018575e-06
3.988225680079498e-06   -4.1365825228096816e-08   -7.991137274018575e-06
2.2266896339268195e-07   3.9294596648539325e-08   -1.7636056659998735e-06
2.2266896339268195e-07   3.9294596648539325e-08   -1.7636056659998735e-06
2.2266896339268195e-07   3.9294596648539325e-08   -1.7636056659998735e-06
2.2266896339268195e-07   3.9294596648539325e-08   -1.7636056659998735e-06
2.121742037760111e-06   -1.3644514598234122e-07   -4.8232836110337195e-06
2.121742037760111e-06   -1.3644514598234122e-07   -4.8232836110337195e-06
2.121742037760111e-06   -1.3644514598234122e-07   -4.8232836110337195e-06
2.121742037760111e-06   -1.3644514598234122e-07   -4.8232836110337195e-06
4.063218975261233e-06   -1.5090194608070847e-06   -4.6766030073845435e-06
4.063218975261233e-06   -1.5090194608070847e-06   -4.6766030073845435e-06
4.063218975261233e-06   -1.5090194608070847e-06   -4.6766030073845435e-06
4.063218975261233e-06   -1.5090194608070847e-06   -4.6766030073845435e-06
7.785510151498505e-06   -1.1165288556286903e-06   1.7627099827846143e-06
7.785510151498505e-06   -1.1165288556286903e-06   1.7627099827846143e-06
7.785510151498505e-06   -1.1165288556286903e-06   1.7627099827846143e-06
7.785510151498505e-06   -1.1165288556286903e-06   1.7627099827846143e-06
8.108715989617519e-06   -1.2729023402590605e-06   -5.635946805538924e-06
8.108715989617519e-06   -1.2729023402590605e-06   -5.635946805538924e-06
8.108715989617519e-06   -1.2729023402590605e-06   -5.635946805538924e-06
8.108715989617519e-06   -1.2729023402590605e-06   -5.635946805538924e-06
4.1078149362016276e-06   -1.0041020713240416e-06   8.709414554598895e-07
4.1078149362016276e-06   -1.0041020713240416e-06   8.709414554598895e-07
4.1078149362016276e-06   -1.0041020713240416e-06   8.709414554598895e-07
4.1078149362016276e-06   -1.0041020713240416e-06   8.709414554598895e-07
5.736010032093546e-06   -1.2183100369232899e-06   -1.7141922583337557e-06
5.736010032093546e-06   -1.2183100369232899e-06   -1.7141922583337557e-06
5.736010032093546e-06   -1.2183100369232899e-06   -1.7141922583337557e-06
5.736010032093546e-06   -1.2183100369232899e-06   -1.7141922583337557e-06
4.107814936201617e-06   -1.2729023402590573e-06   -5.797226966899912e-06
4.107814936201617e-06   -1.2729023402590573e-06   -5.797226966899912e-06
4.107814936201617e-06   -1.2729023402590573e-06   -5.797226966899912e-06
4.107814936201617e-06   -1.2729023402590573e-06   -5.797226966899912e-06
8.108715989617507e-06   -1.0041020713240416e-06   1.032221616820916e-06
8.108715989617507e-06   -1.0041020713240416e-06   1.032221616820916e-06
8.108715989617507e-06   -1.0041020713240416e-06   1.032221616820916e-06
8.108715989617507e-06   -1.0041020713240416e-06   1.032221616820916e-06
8.095775681710567e-06   -1.1592321950489651e-06   -6.116994382389706e-06
8.095775681710567e-06   -1.1592321950489651e-06   -6.116994382389706e-06
8.095775681710567e-06   -1.1592321950489651e-06   -6.116994382389706e-06
8.095775681710567e-06   -1.1592321950489651e-06   -6.116994382389706e-06
4.099362589480237e-06   -8.903982066399982e-07   3.8239371161548684e-07
4.099362589480237e-06   -8.903982066399982e-07   3.8239371161548684e-07
4.099362589480237e-06   -8.903982066399982e-07   3.8239371161548684e-07
4.099362589480237e-06   -8.903982066399982e-07   3.8239371161548684e-07
5.953187509045261e-06   -1.0697406696987227e-06   -2.5997090098243247e-06
5.953187509045261e-06   -1.0697406696987227e-06   -2.5997090098243247e-06
5.953187509045261e-06   -1.0697406696987227e-06   -2.5997090098243247e-06
5.953187509045261e-06   -1.0697406696987227e-06   -2.5997090098243247e-06
4.099362589480229e-06   -1.1592321950489647e-06   -6.278294775435084e-06
4.099362589480229e-06   -1.1592321950489647e-06   -6.278294775435084e-06
4.099362589480229e-06   -1.1592321950489647e-06   -6.278294775435084e-06
4.099362589480229e-06   -1.1592321950489647e-06   -6.278294775435084e-06
8.095775681710567e-06   -8.903982066399982e-07   5.436941046608511e-07
8.095775681710567e-06   -8.903982066399982e-07   5.436941046608511e-07
8.095775681710567e-06   -8.903982066399982e-07   5.436941046608511e-07
8.095775681710567e-06   -8.903982066399982e-07   5.436941046608511e-07
8.067033793346152e-06   -8.880149063447918e-07   -7.109252821842543e-06
8.067033793346152e-06   -8.880149063447918e-07   -7.109252821842543e-06
8.067033793346152e-06   -8.880149063447918e-07   -7.109252821842543e-06
8.067033793346152e-06   -8.880149063447918e-07   -7.109252821842543e-06
3.988225680079502e-06   -6.465139667145118e-07   -4.561398635096225e-07
3.988225680079502e-06   -6.465139667145118e-07   -4.561398635096225e-07
3.988225680079502e-06   -6.465139667145118e-07   -4.561398635096225e-07
3.988225680079502e-06   -6.465139667145118e-07   -4.561398635096225e-07
5.795366495048695e-06   -9.165560994683431e-07   -3.3060159421393037e-06
5.795366495048695e-06   -9.165560994683431e-07   -3.3060159421393037e-06
5.795366495048695e-06   -9.165560994683431e-07   -3.3060159421393037e-06
5.795366495048695e-06   -9.165560994683431e-07   -3.3060159421393037e-06
-8.722253885152416e-06   1.2591770111733352e-06   -6.123381883561844e-06
-8.722253885152416e-06   1.2591770111733352e-06   -6.123381883561844e-06
-8.722253885152416e-06   1.2591770111733352e-06   -6.123381883561844e-06
-8.722253885152416e-06   1.2591770111733352e-06   -6.123381883561844e-06
-5.751454218164789e-06   9.502058877691098e-07   -1.3574317792916564e-06
-5.751454218164789e-06   9.502058877691098e-07   -1.3574317792916564e-06
-5.751454218164789e-06   9.502058877691098e-07   -1.3574317792916564e-06
-5.751454218164789e-06   9.502058877691098e-07   -1.3574317792916564e-06
-5.77387716909296e-06   1.5205112958190979e-06   -5.090427148023068e-06
-5.77387716909296e-06   1.5205112958190979e-06   -5.090427148023068e-06
-5.77387716909296e-06   1.5205112958190979e-06   -5.090427148023068e-06
-5.77387716909296e-06   1.5205112958190979e-06   -5.090427148023068e-06
-8.574336765120538e-06   1.1559392167157786e-06   -2.0425124051511381e-07
-8.574336765120538e-06   1.1559392167157786e-06   -2.0425124051511381e-07
-8.574336765120538e-06   1.1559392167157786e-06   -2.0425124051511381e-07
-8.574336765120538e-06   1.1559392167157786e-06   -2.0425124051511381e-07
-6.899941799727479e-06   1.2836294125695842e-06   -3.0715236336825144e-06
-6.899941799727479e-06   1.2836294125695842e-06   -3.0715236336825144e-06
-6.899941799727479e-06   1.2836294125695842e-06   -3.0715236336825144e-06
-6.899941799727479e-06   1.2836294125695842e-06   -3.0715236336825144e-06
-8.574336765120537e-06   1.5205112958190968e-06   -4.871683900561079e-06
-8.574336765120537e-06   1.5205112958190968e-06   -4.871683900561079e-06
-8.574336765120537e-06   1.5205112958190968e-06   -4.871683900561079e-06
-8.574336765120537e-06   1.5205112958190968e-06   -4.871683900561079e-06
-5.77387716909296e-06   1.1559392167157786e-06   -4.2299448797710166e-07
-5.77387716909296e-06   1.1559392167157786e-06   -4.2299448797710166e-07
-5.77387716909296e-06   1.1559392167157786e-06   -4.2299448797710166e-07
-5.77387716909296e-06   1.1559392167157786e-06   -4.2299448797710166e-07
-5.7623012309015915e-06   1.638815016761091e-06   -4.3594672676114615e-06
-5.7623012309015915e-06   1.638815016761091e-06   -4.3594672676114615e-06
-5.7623012309015915e-06   1.638815016761091e-06   -4.3594672676114615e-06
-5.7623012309015915e-06   1.638815016761091e-06   -4.3594672676114615e-06
-8.433176174937838e-06   1.2474557095963303e-06   3.2680655674779843e-07
-8.433176174937838e-06   1.2474557095963303e-06   3.2680655674779843e-07
-8.433176174937838e-06   1.2474557095963303e-06   3.2680655674779843e-07
-8.433176174937838e-06   1.2474557095963303e-06   3.2680655674779843e-07
-6.9509814648205595e-06   1.402794980441141e-06   -2.236721522621215e-06
-6.9509814648205595e-06   1.402794980441141e-06   -2.236721522621215e-06
-6.9509814648205595e-06   1.402794980441141e-06   -2.236721522621215e-06
-6.9509814648205595e-06   1.402794980441141e-06   -2.236721522621215e-06
-8.43317617493784e-06   1.6388150167610914e-06   -4.124651683312606e-06
-8.43317617493784e-06   1.6388150167610914e-06   -4.124651683312606e-06
-8.43317617493784e-06   1.6388150167610914e-06   -4.124651683312606e-06
-8.43317617493784e-06   1.6388150167610914e-06   -4.124651683312606e-06
-5.762301230901602e-06   1.2474557095963303e-06   9.199097244897998e-08
-5.762301230901602e-06   1.2474557095963303e-06   9.199097244897998e-08
-5.762301230901602e-06   1.2474557095963303e-06   9.199097244897998e-08
-5.762301230901602e-06   1.2474557095963303e-06   9.199097244897998e-08
-5.763947990931888e-06   1.7378306966493127e-06   -3.345095867556829e-06
-5.763947990931888e-06   1.7378306966493127e-06   -3.345095867556829e-06
-5.763947990931888e-06   1.7378306966493127e-06   -3.345095867556829e-06
-5.763947990931888e-06   1.7378306966493127e-06   -3.345095867556829e-06
-8.253119292004301e-06   1.341236077673211e-06   1.041479738949486e-06
-8.253119292004301e-06   1.341236077673211e-06   1.041479738949486e-06
-8.253119292004301e-06   1.341236077673211e-06   1.041479738949486e-06
-8.253119292004301e-06   1.341236077673211e-06   1.041479738949486e-06
-6.785538975405823e-06   1.4684440711432812e-06   -1.4808122514632457e-06
-6.785538975405823e-06   1.4684440711432812e-06   -1.4808122514632457e-06
-6.785538975405823e-06   1.4684440711432812e-06   -1.4808122514632457e-06
-6.785538975405823e-06   1.4684440711432812e-06   -1.4808122514632457e-06
-5.751454218164789e-06   5.862321843568442e-07   -7.194135093254565e-06
-5.751454218164789e-06   5.862321843568442e-07   -7.194135093254565e-06
-5.751454218164789e-06   5.862321843568442e-07   -7.194135093254565e-06
-5.751454218164789e-06   5.862321843568442e-07   -7.194135093254565e-06
-2.9633898359972788e-06   4.783129438757467e-07   -2.61211266726405e-06
-2.9633898359972788e-06   4.783129438757467e-07   -2.61211266726405e-06
-2.9633898359972788e-06   4.783129438757467e-07   -2.61211266726405e-06
-2.9633898359972788e-06   4.783129438757467e-07   -2.61211266726405e-06
-2.9949476695461134e-06   8.263293104205754e-07   -7.088529893271071e-06
-2.9949476695461134e-06   8.263293104205754e-07   -7.088529893271071e-06
-2.9949476695461134e-06   8.263293104205754e-07   -7.088529893271071e-06
-2.9949476695461134e-06   8.263293104205754e-07   -7.088529893271071e-06
-5.773877169092959e-06   6.816111693956124e-07   -2.370149842744677e-06
-5.773877169092959e-06   6.816111693956124e-07   -2.370149842744677e-06
-5.773877169092959e-06   6.816111693956124e-07   -2.370149842744677e-06
-5.773877169092959e-06   6.816111693956124e-07   -2.370149842744677e-06
-4.332847613955076e-06   6.821924976517074e-07   -4.772214564928136e-06
-4.332847613955076e-06   6.821924976517074e-07   -4.772214564928136e-06
-4.332847613955076e-06   6.821924976517074e-07   -4.772214564928136e-06
-4.332847613955076e-06   6.821924976517074e-07   -4.772214564928136e-06
-5.773877169092953e-06   8.263293104205786e-07   -7.0016990086560685e-06
-5.773877169092953e-06   8.263293104205786e-07   -7.0016990086560685e-06
-5.773877169092953e-06   8.263293104205786e-07   -7.0016990086560685e-06
-5.773877169092953e-06   8.263293104205786e-07   -7.0016990086560685e-06
-2.9949476695461176e-06   6.816111693956124e-07   -2.456980727359661e-06
-2.9949476695461176e-06   6.816111693956124e-07   -2.456980727359661e-06
-2.9949476695461176e-06   6.816111693956124e-07   -2.456980727359661e-06
-2.9949476695461176e-06   6.816111693956124e-07   -2.456980727359661e-06
-3.01388285391576e-06   1.026190976482668e-06   -6.9026157345995065e-06
-3.01388285391576e-06   1.026190976482668e-06   -6.9026157345995065e-06
-3.01388285391576e-06   1.026190976482668e-06   -6.9026157345995065e-06
-3.01388285391576e-06   1.026190976482668e-06   -6.9026157345995065e-06
-5.762301230901592e-06   8.636511386438123e-07   -2.2243945369198015e-06
-5.762301230901592e-06   8.636511386438123e-07   -2.2243945369198015e-06
-5.762301230901592e-06   8.636511386438123e-07   -2.2243945369198015e-06
-5.762301230901592e-06   8.636511386438123e-07   -2.2243945369198015e-06
-4.336848289409361e-06   8.504080882349035e-07   -4.592203609161482e-06
-4.336848289409361e-06   8.504080882349035e-07   -4.592203609161482e-06
-4.336848289409361e-06   8.504080882349035e-07   -4.592203609161482e-06
-4.336848289409361e-06   8.504080882349035e-07   -4.592203609161482e-06
-5.7623012309015915e-06   1.0261909764826676e-06   -6.80509183189619e-06
-5.7623012309015915e-06   1.0261909764826676e-06   -6.80509183189619e-06
-5.7623012309015915e-06   1.0261909764826676e-06   -6.80509183189619e-06
-5.7623012309015915e-06   1.0261909764826676e-06   -6.80509183189619e-06
-3.013882853915765e-06   8.636511386437987e-07   -2.321918439623087e-06
-3.013882853915765e-06   8.636511386437987e-07   -2.321918439623087e-06
-3.013882853915765e-06   8.636511386437987e-07   -2.321918439623087e-06
-3.013882853915765e-06   8.636511386437987e-07   -2.321918439623087e-06
-3.0400300132653323e-06   1.2421844973109692e-06   -6.887162118755652e-06
-3.0400300132653323e-06   1.2421844973109692e-06   -6.887162118755652e-06
-3.0400300132653323e-06   1.2421844973109692e-06   -6.887162118755652e-06
-3.0400300132653323e-06   1.2421844973109692e-06   -6.887162118755652e-06
-5.763947990931883e-06   1.0588057096517361e-06   -2.23727155004921e-06
-5.763947990931883e-06   1.0588057096517361e-06   -2.23727155004921e-06
-5.763947990931883e-06   1.0588057096517361e-06   -2.23727155004921e-06
-5.763947990931883e-06   1.0588057096517361e-06   -2.23727155004921e-06
-4.384066838849988e-06   1.0182992110876584e-06   -4.512769571047184e-06
-4.384066838849988e-06   1.0182992110876584e-06   -4.512769571047184e-06
-4.384066838849988e-06   1.0182992110876584e-06   -4.512769571047184e-06
-4.384066838849988e-06   1.0182992110876584e-06   -4.512769571047184e-06
-2.963389835997273e-06   -2.013371656892438e-08   -7.775635967178861e-06
-2.963389835997273e-06   -2.013371656892438e-08   -7.775635967178861e-06
-2.963389835997273e-06   -2.013371656892438e-08   -7.775635967178861e-06
-2.963389835997273e-06   -2.013371656892438e-08   -7.775635967178861e-06
-2.017617292255147e-07   2.6350249549499626e-08   -3.145032076221539e-06
-2.017617292255147e-07   2.6350249549499626e-08   -3.145032076221539e-06
-2.017617292255147e-07   2.6350249549499626e-08   -3.145032076221539e-06
-2.017617292255147e-07   2.6350249549499626e-08   -3.145032076221539e-06
-2.265222426114847e-07   2.0159634079143854e-07   -7.697929444391633e-06
-2.265222426114847e-07   2.0159634079143854e-07   -7.697929444391633e-06
-2.265222426114847e-07   2.0159634079143854e-07   -7.697929444391633e-06
-2.265222426114847e-07   2.0159634079143854e-07   -7.697929444391633e-06
-2.994947669546107e-06   2.277751437828159e-07   -3.099594347962087e-06
-2.994947669546107e-06   2.277751437828159e-07   -3.099594347962087e-06
-2.994947669546107e-06   2.277751437828159e-07   -3.099594347962087e-06
-2.994947669546107e-06   2.277751437828159e-07   -3.099594347962087e-06
-1.587109960387935e-06   1.3369208411048673e-07   -5.3895406940889845e-06
-1.587109960387935e-06   1.3369208411048673e-07   -5.3895406940889845e-06
-1.587109960387935e-06   1.3369208411048673e-07   -5.3895406940889845e-06
-1.587109960387935e-06   1.3369208411048673e-07   -5.3895406940889845e-06
-2.9949476695461134e-06   2.0159634079144158e-07   -7.713636726186464e-06
-2.9949476695461134e-06   2.0159634079144158e-07   -7.713636726186464e-06
-2.9949476695461134e-06   2.0159634079144158e-07   -7.713636726186464e-06
-2.9949476695461134e-06   2.0159634079144158e-07   -7.713636726186464e-06
-2.265222426114847e-07   2.277751437828159e-07   -3.0838870661672565e-06
-2.265222426114847e-07   2.277751437828159e-07   -3.0838870661672565e-06
-2.265222426114847e-07   2.277751437828159e-07   -3.0838870661672565e-06
-2.265222426114847e-07   2.277751437828159e-07   -3.0838870661672565e-06
-2.4287067114717775e-07   4.1857701580753903e-07   -7.716563515552396e-06
-2.4287067114717775e-07   4.1857701580753903e-07   -7.716563515552396e-06
-2.4287067114717775e-07   4.1857701580753903e-07   -7.716563515552396e-06
-2.4287067114717775e-07   4.1857701580753903e-07   -7.716563515552396e-06
-3.01388285391576e-06   4.2873377468005875e-07   -3.1043039329282765e-06
-3.01388285391576e-06   4.2873377468005875e-07   -3.1043039329282765e-06
-3.01388285391576e-06   4.2873377468005875e-07   -3.1043039329282765e-06
-3.01388285391576e-06   4.2873377468005875e-07   -3.1043039329282765e-06
-1.6203579492599534e-06   3.116720730315085e-07   -5.356608419698825e-06
-1.6203579492599534e-06   3.116720730315085e-07   -5.356608419698825e-06
-1.6203579492599534e-06   3.116720730315085e-07   -5.356608419698825e-06
-1.6203579492599534e-06   3.116720730315085e-07   -5.356608419698825e-06
-3.01388285391576e-06   4.1857701580754115e-07   -7.722657570875912e-06
-3.01388285391576e-06   4.1857701580754115e-07   -7.722657570875912e-06
-3.01388285391576e-06   4.1857701580754115e-07   -7.722657570875912e-06
-3.01388285391576e-06   4.1857701580754115e-07   -7.722657570875912e-06
-2.4287067114717775e-07   4.2873377468005875e-07   -3.098209877604733e-06
-2.4287067114717775e-07   4.2873377468005875e-07   -3.098209877604733e-06
-2.4287067114717775e-07   4.2873377468005875e-07   -3.098209877604733e-06
-2.4287067114717775e-07   4.2873377468005875e-07   -3.098209877604733e-06
-2.7108481035557045e-07   6.442548497987376e-07   -7.815029473774304e-06
-2.7108481035557045e-07   6.442548497987376e-07   -7.815029473774304e-06
-2.7108481035557045e-07   6.442548497987376e-07   -7.815029473774304e-06
-2.7108481035557045e-07   6.442548497987376e-07   -7.815029473774304e-06
-3.0400300132653344e-06   6.342192978064573e-07   -3.1940994710626838e-06
-3.0400300132653344e-06   6.342192978064573e-07   -3.1940994710626838e-06
-3.0400300132653344e-06   6.342192978064573e-07   -3.1940994710626838e-06
-3.0400300132653344e-06   6.342192978064573e-07   -3.1940994710626838e-06
-1.6559263051662522e-06   4.917795499172659e-07   -5.415475135827587e-06
-1.6559263051662522e-06   4.917795499172659e-07   -5.415475135827587e-06
-1.6559263051662522e-06   4.917795499172659e-07   -5.415475135827587e-06
-1.6559263051662522e-06   4.917795499172659e-07   -5.415475135827587e-06
-2.017617292255151e-07   -6.054846183274358e-07   -6.9369657507213564e-06
-2.017617292255151e-07   -6.054846183274358e-07   -6.9369657507213564e-06
-2.017617292255151e-07   -6.054846183274358e-07   -6.9369657507213564e-06
-2.017617292255151e-07   -6.054846183274358e-07   -6.9369657507213564e-06
2.537297231827465e-06   -3.982698766609276e-07   -2.2475386372998297e-06
2.537297231827465e-06   -3.982698766609276e-07   -2.2475386372998297e-06
2.537297231827465e-06   -3.982698766609276e-07   -2.2475386372998297e-06
2.537297231827465e-06   -3.982698766609276e-07   -2.2475386372998297e-06
2.539760731885394e-06   -4.0216110346868723e-07   -6.849225164782583e-06
2.539760731885394e-06   -4.0216110346868723e-07   -6.849225164782583e-06
2.539760731885394e-06   -4.0216110346868723e-07   -6.849225164782583e-06
2.539760731885394e-06   -4.0216110346868723e-07   -6.849225164782583e-06
-2.2652224261148468e-07   -2.11782471299941e-07   -2.3529807199223734e-06
-2.2652224261148468e-07   -2.11782471299941e-07   -2.3529807199223734e-06
-2.2652224261148468e-07   -2.11782471299941e-07   -2.3529807199223734e-06
-2.2652224261148468e-07   -2.11782471299941e-07   -2.3529807199223734e-06
1.1539547593027893e-06   -3.8891475587366625e-07   -4.547496352368593e-06
1.1539547593027893e-06   -3.8891475587366625e-07   -4.547496352368593e-06
1.1539547593027893e-06   -3.8891475587366625e-07   -4.547496352368593e-06
1.1539547593027893e-06   -3.8891475587366625e-07   -4.547496352368593e-06
-2.265222426114847e-07   -4.0216110346868946e-07   -6.963452344083835e-06
-2.265222426114847e-07   -4.0216110346868946e-07   -6.963452344083835e-06
-2.265222426114847e-07   -4.0216110346868946e-07   -6.963452344083835e-06
-2.265222426114847e-07   -4.0216110346868946e-07   -6.963452344083835e-06
2.539760731885399e-06   -2.11782471299941e-07   -2.238753540621131e-06
2.539760731885399e-06   -2.11782471299941e-07   -2.238753540621131e-06
2.539760731885399e-06   -2.11782471299941e-07   -2.238753540621131e-06
2.539760731885399e-06   -2.11782471299941e-07   -2.238753540621131e-06
2.558347122105189e-06   -2.04158429563373e-07   -7.024402206001922e-06
2.558347122105189e-06   -2.04158429563373e-07   -7.024402206001922e-06
2.558347122105189e-06   -2.04158429563373e-07   -7.024402206001922e-06
2.558347122105189e-06   -2.04158429563373e-07   -7.024402206001922e-06
-2.428706711471783e-07   -3.012106765641349e-08   -2.4601283010588184e-06
-2.428706711471783e-07   -3.012106765641349e-08   -2.4601283010588184e-06
-2.428706711471783e-07   -3.012106765641349e-08   -2.4601283010588184e-06
-2.428706711471783e-07   -3.012106765641349e-08   -2.4601283010588184e-06
1.120442198463097e-06   -2.276450923262261e-07   -4.613802002274065e-06
1.120442198463097e-06   -2.276450923262261e-07   -4.613802002274065e-06
1.120442198463097e-06   -2.276450923262261e-07   -4.613802002274065e-06
1.120442198463097e-06   -2.276450923262261e-07   -4.613802002274065e-06
-2.4287067114717775e-07   -2.041584295633708e-07   -7.128824623146094e-06
-2.4287067114717775e-07   -2.041584295633708e-07   -7.128824623146094e-06
-2.4287067114717775e-07   -2.041584295633708e-07   -7.128824623146094e-06
-2.4287067114717775e-07   -2.041584295633708e-07   -7.128824623146094e-06
2.5583471221051924e-06   -3.012106765641349e-08   -2.355705883914614e-06
2.5583471221051924e-06   -3.012106765641349e-08   -2.355705883914614e-06
2.5583471221051924e-06   -3.012106765641349e-08   -2.355705883914614e-06
2.5583471221051924e-06   -3.012106765641349e-08   -2.355705883914614e-06
2.5437512596778775e-06   3.9294596648539325e-08   -7.228599538137146e-06
2.5437512596778775e-06   3.9294596648539325e-08   -7.228599538137146e-06
2.5437512596778775e-06   3.9294596648539325e-08   -7.228599538137146e-06
2.5437512596778775e-06   3.9294596648539325e-08   -7.228599538137146e-06
-2.710848103555709e-07   1.8062003339866257e-07   -2.6220013501314905e-06
-2.710848103555709e-07   1.8062003339866257e-07   -2.6220013501314905e-06
-2.710848103555709e-07   1.8062003339866257e-07   -2.6220013501314905e-06
-2.710848103555709e-07   1.8062003339866257e-07   -2.6220013501314905e-06
1.1111665555890008e-06   -5.648396040448074e-08   -4.783491230423846e-06
1.1111665555890008e-06   -5.648396040448074e-08   -4.783491230423846e-06
1.1111665555890008e-06   -5.648396040448074e-08   -4.783491230423846e-06
1.1111665555890008e-06   -5.648396040448074e-08   -4.783491230423846e-06
2.5372972318274615e-06   -1.1165288556286928e-06   -3.859068169293078e-06
2.5372972318274615e-06   -1.1165288556286928e-06   -3.859068169293078e-06
2.5372972318274615e-06   -1.1165288556286928e-06   -3.859068169293078e-06
2.5372972318274615e-06   -1.1165288556286928e-06   -3.859068169293078e-06
5.067264018803413e-06   -7.104970415768133e-07   6.011622307646326e-07
5.067264018803413e-06   -7.104970415768133e-07   6.011622307646326e-07
5.067264018803413e-06   -7.104970415768133e-07   6.011622307646326e-07
5.067264018803413e-06   -7.104970415768133e-07   6.011622307646326e-07
5.255397561487403e-06   -1.0041020713240348e-06   -4.305286678226143e-06
5.255397561487403e-06   -1.0041020713240348e-06   -4.305286678226143e-06
5.255397561487403e-06   -1.0041020713240348e-06   -4.305286678226143e-06
5.255397561487403e-06   -1.0041020713240348e-06   -4.305286678226143e-06
2.539760731885394e-06   -6.001093226140592e-07   -2.1620944782105848e-08
2.539760731885394e-06   -6.001093226140592e-07   -2.1620944782105848e-08
2.539760731885394e-06   -6.001093226140592e-07   -2.1620944782105848e-08
2.539760731885394e-06   -6.001093226140592e-07   -2.1620944782105848e-08
3.6856948849009104e-06   -8.470183549302336e-07   -1.7833657804182595e-06
3.6856948849009104e-06   -8.470183549302336e-07   -1.7833657804182595e-06
3.6856948849009104e-06   -8.470183549302336e-07   -1.7833657804182595e-06
3.6856948849009104e-06   -8.470183549302336e-07   -1.7833657804182595e-06
2.5397607318853923e-06   -1.0041020713240444e-06   -4.547682327452114e-06
2.5397607318853923e-06   -1.0041020713240444e-06   -4.547682327452114e-06
2.5397607318853923e-06   -1.0041020713240444e-06   -4.547682327452114e-06
2.5397607318853923e-06   -1.0041020713240444e-06   -4.547682327452114e-06
5.255397561487403e-06   -6.001093226140592e-07   2.2077470444387343e-07
5.255397561487403e-06   -6.001093226140592e-07   2.2077470444387343e-07
5.255397561487403e-06   -6.001093226140592e-07   2.2077470444387343e-07
5.255397561487403e-06   -6.001093226140592e-07   2.2077470444387343e-07
5.403330751495154e-06   -8.903982066399982e-07   -4.845168199531548e-06
5.403330751495154e-06   -8.903982066399982e-07   -4.845168199531548e-06
5.403330751495154e-06   -8.903982066399982e-07   -4.845168199531548e-06
5.403330751495154e-06   -8.903982066399982e-07   -4.845168199531548e-06
2.5583471221051847e-06   -5.087932624076139e-07   -3.324917837543711e-07
2.5583471221051847e-06   -5.087932624076139e-07   -3.324917837543711e-07
2.5583471221051847e-06   -5.087932624076139e-07   -3.324917837543711e-07
2.5583471221051847e-06   -5.087932624076139e-07   -3.324917837543711e-07
3.820693961186655e-06   -7.7612230876039e-07   -2.276005754411809e-06
3.820693961186655e-06   -7.7612230876039e-07   -2.276005754411809e-06
3.820693961186655e-06   -7.7612230876039e-07   -2.276005754411809e-06
3.820693961186655e-06   -7.7612230876039e-07   -2.276005754411809e-06
2.558347122105189e-06   -8.903982066399956e-07   -5.074131166070978e-06
2.558347122105189e-06   -8.903982066399956e-07   -5.074131166070978e-06
2.558347122105189e-06   -8.903982066399956e-07   -5.074131166070978e-06
2.558347122105189e-06   -8.903982066399956e-07   -5.074131166070978e-06
5.403330751495147e-06   -5.087932624076139e-07   -1.0352881721490727e-07
5.403330751495147e-06   -5.087932624076139e-07   -1.0352881721490727e-07
5.403330751495147e-06   -5.087932624076139e-07   -1.0352881721490727e-07
5.403330751495147e-06   -5.087932624076139e-07   -1.0352881721490727e-07
5.563811471510051e-06   -6.46513966714505e-07   -5.771484814070943e-06
5.563811471510051e-06   -6.46513966714505e-07   -5.771484814070943e-06
5.563811471510051e-06   -6.46513966714505e-07   -5.771484814070943e-06
5.563811471510051e-06   -6.46513966714505e-07   -5.771484814070943e-06
2.5437512596778665e-06   -3.1643867554463525e-07   -9.360963023858919e-07
2.5437512596778665e-06   -3.1643867554463525e-07   -9.360963023858919e-07
2.5437512596778665e-06   -3.1643867554463525e-07   -9.360963023858919e-07
2.5437512596778665e-06   -3.1643867554463525e-07   -9.360963023858919e-07
3.814445110961279e-06   -6.644891659928604e-07   -2.8450890935893014e-06
3.814445110961279e-06   -6.644891659928604e-07   -2.8450890935893014e-06
3.814445110961279e-06   -6.644891659928604e-07   -2.8450890935893014e-06
3.814445110961279e-06   -6.644891659928604e-07   -2.8450890935893014e-06
-6.150671708092042e-06   9.502058877691109e-07   -4.755541871406589e-06
-6.150671708092042e-06   9.502058877691109e-07   -4.755541871406589e-06
-6.150671708092042e-06   9.502058877691109e-07   -4.755541871406589e-06
-6.150671708092042e-06   9.502058877691109e-07   -4.755541871406589e-06
-4.2336037877338455e-06   5.932483656148575e-07   -1.7746031841021552e-06
-4.2336037877338455e-06   5.932483656148575e-07   -1.7746031841021552e-06
-4.2336037877338455e-06   5.932483656148575e-07   -1.7746031841021552e-06
-4.2336037877338455e-06   5.932483656148575e-07   -1.7746031841021552e-06
-4.217294917193352e-06   1.1559392167157786e-06   -4.042232305108946e-06
-4.217294917193352e-06   1.1559392167157786e-06   -4.042232305108946e-06
-4.217294917193352e-06   1.1559392167157786e-06   -4.042232305108946e-06
-4.217294917193352e-06   1.1559392167157786e-06   -4.042232305108946e-06
-5.9558140297365135e-06   7.60998339457042e-07   -9.077359245151037e-07
-5.9558140297365135e-06   7.60998339457042e-07   -9.077359245151037e-07
-5.9558140297365135e-06   7.60998339457042e-07   -9.077359245151037e-07
-5.9558140297365135e-06   7.60998339457042e-07   -9.077359245151037e-07
-4.921029620727501e-06   9.170702688371678e-07   -2.7260197638248683e-06
-4.921029620727501e-06   9.170702688371678e-07   -2.7260197638248683e-06
-4.921029620727501e-06   9.170702688371678e-07   -2.7260197638248683e-06
-4.921029620727501e-06   9.170702688371678e-07   -2.7260197638248683e-06
-5.955814029736514e-06   1.155939216715778e-06   -3.805267778753715e-06
-5.955814029736514e-06   1.155939216715778e-06   -3.805267778753715e-06
-5.955814029736514e-06   1.155939216715778e-06   -3.805267778753715e-06
-5.955814029736514e-06   1.155939216715778e-06   -3.805267778753715e-06
-4.2172949171933585e-06   7.609983394570556e-07   -1.1447004508703509e-06
-4.2172949171933585e-06   7.609983394570556e-07   -1.1447004508703509e-06
-4.2172949171933585e-06   7.609983394570556e-07   -1.1447004508703509e-06
-4.2172949171933585e-06   7.609983394570556e-07   -1.1447004508703509e-06
-4.18470513580789e-06   1.2474557095963303e-06   -3.525624339455709e-06
-4.18470513580789e-06   1.2474557095963303e-06   -3.525624339455709e-06
-4.18470513580789e-06   1.2474557095963303e-06   -3.525624339455709e-06
-4.18470513580789e-06   1.2474557095963303e-06   -3.525624339455709e-06
-5.812071890174986e-06   8.407293137248486e-07   -5.693105779876721e-07
-5.812071890174986e-06   8.407293137248486e-07   -5.693105779876721e-07
-5.812071890174986e-06   8.407293137248486e-07   -5.693105779876721e-07
-5.812071890174986e-06   8.407293137248486e-07   -5.693105779876721e-07
-4.917714375577371e-06   1.0109969759187104e-06   -2.162067032966706e-06
-4.917714375577371e-06   1.0109969759187104e-06   -2.162067032966706e-06
-4.917714375577371e-06   1.0109969759187104e-06   -2.162067032966706e-06
-4.917714375577371e-06   1.0109969759187104e-06   -2.162067032966706e-06
-5.8120718901749836e-06   1.2474557095963318e-06   -3.281588501932832e-06
-5.8120718901749836e-06   1.2474557095963318e-06   -3.281588501932832e-06
-5.8120718901749836e-06   1.2474557095963318e-06   -3.281588501932832e-06
-5.8120718901749836e-06   1.2474557095963318e-06   -3.281588501932832e-06
-4.184705135807897e-06   8.407293137248486e-07   -8.133464155105426e-07
-4.184705135807897e-06   8.407293137248486e-07   -8.133464155105426e-07
-4.184705135807897e-06   8.407293137248486e-07   -8.133464155105426e-07
-4.184705135807897e-06   8.407293137248486e-07   -8.133464155105426e-07
-4.172912653008011e-06   1.341236077673211e-06   -2.8163689390404593e-06
-4.172912653008011e-06   1.341236077673211e-06   -2.8163689390404593e-06
-4.172912653008011e-06   1.341236077673211e-06   -2.8163689390404593e-06
-4.172912653008011e-06   1.341236077673211e-06   -2.8163689390404593e-06
-5.626228072039054e-06   9.434053337359572e-07   -1.554781276263728e-07
-5.626228072039054e-06   9.434053337359572e-07   -1.554781276263728e-07
-5.626228072039054e-06   9.434053337359572e-07   -1.554781276263728e-07
-5.626228072039054e-06   9.434053337359572e-07   -1.554781276263728e-07
-4.7703209855443755e-06   1.0648864014697364e-06   -1.6548785790910928e-06
-4.7703209855443755e-06   1.0648864014697364e-06   -1.6548785790910928e-06
-4.7703209855443755e-06   1.0648864014697364e-06   -1.6548785790910928e-06
-4.7703209855443755e-06   1.0648864014697364e-06   -1.6548785790910928e-06
-4.233603787733839e-06   4.78312943875742e-07   -6.159645728382867e-06
-4.233603787733839e-06   4.78312943875742e-07   -6.159645728382867e-06
-4.233603787733839e-06   4.78312943875742e-07   -6.159645728382867e-06
-4.233603787733839e-06   4.78312943875742e-07   -6.159645728382867e-06
-2.481764737742477e-06   3.1419967203964196e-07   -3.33838194149893e-06
-2.481764737742477e-06   3.1419967203964196e-07   -3.33838194149893e-06
-2.481764737742477e-06   3.1419967203964196e-07   -3.33838194149893e-06
-2.481764737742477e-06   3.1419967203964196e-07   -3.33838194149893e-06
-2.4834107125072234e-06   6.816111693956124e-07   -6.102927801717944e-06
-2.4834107125072234e-06   6.816111693956124e-07   -6.102927801717944e-06
-2.4834107125072234e-06   6.816111693956124e-07   -6.102927801717944e-06
-2.4834107125072234e-06   6.816111693956124e-07   -6.102927801717944e-06
-4.217294917193352e-06   4.92377599659922e-07   -3.099580652066297e-06
-4.217294917193352e-06   4.92377599659922e-07   -3.099580652066297e-06
-4.217294917193352e-06   4.92377599659922e-07   -3.099580652066297e-06
-4.217294917193352e-06   4.92377599659922e-07   -3.099580652066297e-06
-3.3227213615304928e-06   5.278217494396705e-07   -4.6118030680389315e-06
-3.3227213615304928e-06   5.278217494396705e-07   -4.6118030680389315e-06
-3.3227213615304928e-06   5.278217494396705e-07   -4.6118030680389315e-06
-3.3227213615304928e-06   5.278217494396705e-07   -4.6118030680389315e-06
-4.217294917193352e-06   6.81611169395607e-07   -5.989387659876503e-06
-4.217294917193352e-06   6.81611169395607e-07   -5.989387659876503e-06
-4.217294917193352e-06   6.81611169395607e-07   -5.989387659876503e-06
-4.217294917193352e-06   6.81611169395607e-07   -5.989387659876503e-06
-2.483410712507215e-06   4.923775996599084e-07   -3.213120793907711e-06
-2.483410712507215e-06   4.923775996599084e-07   -3.213120793907711e-06
-2.483410712507215e-06   4.923775996599084e-07   -3.213120793907711e-06
-2.483410712507215e-06   4.923775996599084e-07   -3.213120793907711e-06
-2.482225752151352e-06   8.636511386438123e-07   -5.966553474761848e-06
-2.482225752151352e-06   8.636511386438123e-07   -5.966553474761848e-06
-2.482225752151352e-06   8.636511386438123e-07   -5.966553474761848e-06
-2.482225752151352e-06   8.636511386438123e-07   -5.966553474761848e-06
-4.184705135807892e-06   6.560784287481576e-07   -3.0045442093969005e-06
-4.184705135807892e-06   6.560784287481576e-07   -3.0045442093969005e-06
-4.184705135807892e-06   6.560784287481576e-07   -3.0045442093969005e-06
-4.184705135807892e-06   6.560784287481576e-07   -3.0045442093969005e-06
-3.30798417385786e-06   6.756147504639024e-07   -4.477467605676363e-06
-3.30798417385786e-06   6.756147504639024e-07   -4.477467605676363e-06
-3.30798417385786e-06   6.756147504639024e-07   -4.477467605676363e-06
-3.30798417385786e-06   6.756147504639024e-07   -4.477467605676363e-06
-4.18470513580789e-06   8.63651138643807e-07   -5.84200984882447e-06
-4.18470513580789e-06   8.63651138643807e-07   -5.84200984882447e-06
-4.18470513580789e-06   8.63651138643807e-07   -5.84200984882447e-06
-4.18470513580789e-06   8.63651138643807e-07   -5.84200984882447e-06
-2.482225752151352e-06   6.560784287481576e-07   -3.129087835334275e-06
-2.482225752151352e-06   6.560784287481576e-07   -3.129087835334275e-06
-2.482225752151352e-06   6.560784287481576e-07   -3.129087835334275e-06
-2.482225752151352e-06   6.560784287481576e-07   -3.129087835334275e-06
-2.485175871958658e-06   1.0588057096517361e-06   -5.9911490145103435e-06
-2.485175871958658e-06   1.0588057096517361e-06   -5.9911490145103435e-06
-2.485175871958658e-06   1.0588057096517361e-06   -5.9911490145103435e-06
-2.485175871958658e-06   1.0588057096517361e-06   -5.9911490145103435e-06
-4.172912653008005e-06   8.354964465570147e-07   -3.0442688215712383e-06
-4.172912653008005e-06   8.354964465570147e-07   -3.0442688215712383e-06
-4.172912653008005e-06   8.354964465570147e-07   -3.0442688215712383e-06
-4.172912653008005e-06   8.354964465570147e-07   -3.0442688215712383e-06
-3.330091920309439e-06   8.234774983711132e-07   -4.4417586738239935e-06
-3.330091920309439e-06   8.234774983711132e-07   -4.4417586738239935e-06
-3.330091920309439e-06   8.234774983711132e-07   -4.4417586738239935e-06
-3.330091920309439e-06   8.234774983711132e-07   -4.4417586738239935e-06
-2.481764737742482e-06   2.6350249549502226e-08   -6.818923480113087e-06
-2.481764737742482e-06   2.6350249549502226e-08   -6.818923480113087e-06
-2.481764737742482e-06   2.6350249549502226e-08   -6.818923480113087e-06
-2.481764737742482e-06   2.6350249549502226e-08   -6.818923480113087e-06
-7.473800888264675e-07   5.876085100549528e-08   -3.908836037712804e-06
-7.473800888264675e-07   5.876085100549528e-08   -3.908836037712804e-06
-7.473800888264675e-07   5.876085100549528e-08   -3.908836037712804e-06
-7.473800888264675e-07   5.876085100549528e-08   -3.908836037712804e-06
-7.495424663824787e-07   2.277751437828159e-07   -6.738477701231235e-06
-7.495424663824787e-07   2.277751437828159e-07   -6.738477701231235e-06
-7.495424663824787e-07   2.277751437828159e-07   -6.738477701231235e-06
-7.495424663824787e-07   2.277751437828159e-07   -6.738477701231235e-06
-2.4834107125072145e-06   2.3954801226471313e-07   -3.855761012112461e-06
-2.4834107125072145e-06   2.3954801226471313e-07   -3.855761012112461e-06
-2.4834107125072145e-06   2.3954801226471313e-07   -3.855761012112461e-06
-2.4834107125072145e-06   2.3954801226471313e-07   -3.855761012112461e-06
-1.6044088630646012e-06   1.6286545962914973e-07   -5.2747545629355005e-06
-1.6044088630646012e-06   1.6286545962914973e-07   -5.2747545629355005e-06
-1.6044088630646012e-06   1.6286545962914973e-07   -5.2747545629355005e-06
-1.6044088630646012e-06   1.6286545962914973e-07   -5.2747545629355005e-06
-2.4834107125072183e-06   2.2777514378281766e-07   -6.745541422320372e-06
-2.4834107125072183e-06   2.2777514378281766e-07   -6.745541422320372e-06
-2.4834107125072183e-06   2.2777514378281766e-07   -6.745541422320372e-06
-2.4834107125072183e-06   2.2777514378281766e-07   -6.745541422320372e-06
-7.495424663824787e-07   2.395480122646996e-07   -3.848697291023337e-06
-7.495424663824787e-07   2.395480122646996e-07   -3.848697291023337e-06
-7.495424663824787e-07   2.395480122646996e-07   -3.848697291023337e-06
-7.495424663824787e-07   2.395480122646996e-07   -3.848697291023337e-06
-7.477352360251141e-07   4.2873377468005875e-07   -6.753615842421466e-06
-7.477352360251141e-07   4.2873377468005875e-07   -6.753615842421466e-06
-7.477352360251141e-07   4.2873377468005875e-07   -6.753615842421466e-06
-7.477352360251141e-07   4.2873377468005875e-07   -6.753615842421466e-06
-2.482225752151352e-06   4.209389840893345e-07   -3.8581214411899485e-06
-2.482225752151352e-06   4.209389840893345e-07   -3.8581214411899485e-06
-2.482225752151352e-06   4.209389840893345e-07   -3.8581214411899485e-06
-2.482225752151352e-06   4.209389840893345e-07   -3.8581214411899485e-06
-1.6157283752624972e-06   3.2195744524812406e-07   -5.242894812699983e-06
-1.6157283752624972e-06   3.2195744524812406e-07   -5.242894812699983e-06
-1.6157283752624972e-06   3.2195744524812406e-07   -5.242894812699983e-06
-1.6157283752624972e-06   3.2195744524812406e-07   -5.242894812699983e-06
-2.482225752151352e-06   4.287337746800623e-07   -6.748938968067013e-06
-2.482225752151352e-06   4.287337746800623e-07   -6.748938968067013e-06
-2.482225752151352e-06   4.287337746800623e-07   -6.748938968067013e-06
-2.482225752151352e-06   4.287337746800623e-07   -6.748938968067013e-06
-7.477352360251141e-07   4.209389840893345e-07   -3.862798315544378e-06
-7.477352360251141e-07   4.209389840893345e-07   -3.862798315544378e-06
-7.477352360251141e-07   4.209389840893345e-07   -3.862798315544378e-06
-7.477352360251141e-07   4.209389840893345e-07   -3.862798315544378e-06
-7.491653369270329e-07   6.342192978064573e-07   -6.855180964133152e-06
-7.491653369270329e-07   6.342192978064573e-07   -6.855180964133152e-06
-7.491653369270329e-07   6.342192978064573e-07   -6.855180964133152e-06
-7.491653369270329e-07   6.342192978064573e-07   -6.855180964133152e-06
-2.48517587195866e-06   6.055004624649929e-07   -3.944598771208879e-06
-2.48517587195866e-06   6.055004624649929e-07   -3.944598771208879e-06
-2.48517587195866e-06   6.055004624649929e-07   -3.944598771208879e-06
-2.48517587195866e-06   6.055004624649929e-07   -3.944598771208879e-06
-1.6301715074991882e-06   4.831525477436854e-07   -5.296197296475228e-06
-1.6301715074991882e-06   4.831525477436854e-07   -5.296197296475228e-06
-1.6301715074991882e-06   4.831525477436854e-07   -5.296197296475228e-06
-1.6301715074991882e-06   4.831525477436854e-07   -5.296197296475228e-06
-7.473800888264663e-07   -3.9826987666092483e-07   -6.026312525317684e-06
-7.473800888264663e-07   -3.9826987666092483e-07   -6.026312525317684e-06
-7.473800888264663e-07   -3.9826987666092483e-07   -6.026312525317684e-06
-7.473800888264663e-07   -3.9826987666092483e-07   -6.026312525317684e-06
9.511132355268714e-07   -1.735401364468675e-07   -3.0606524739336887e-06
9.511132355268714e-07   -1.735401364468675e-07   -3.0606524739336887e-06
9.511132355268714e-07   -1.735401364468675e-07   -3.0606524739336887e-06
9.511132355268714e-07   -1.735401364468675e-07   -3.0606524739336887e-06
9.645989664606766e-07   -2.11782471299941e-07   -5.8814598876951254e-06
9.645989664606766e-07   -2.11782471299941e-07   -5.8814598876951254e-06
9.645989664606766e-07   -2.11782471299941e-07   -5.8814598876951254e-06
9.645989664606766e-07   -2.11782471299941e-07   -5.8814598876951254e-06
-7.495424663824774e-07   -1.5966924812345481e-09   -3.1506689669144322e-06
-7.495424663824774e-07   -1.5966924812345481e-09   -3.1506689669144322e-06
-7.495424663824774e-07   -1.5966924812345481e-09   -3.1506689669144322e-06
-7.495424663824774e-07   -1.5966924812345481e-09   -3.1506689669144322e-06
1.0717670351190636e-07   -1.8033582233608692e-07   -4.471290772158818e-06
1.0717670351190636e-07   -1.8033582233608692e-07   -4.471290772158818e-06
1.0717670351190636e-07   -1.8033582233608692e-07   -4.471290772158818e-06
1.0717670351190636e-07   -1.8033582233608692e-07   -4.471290772158818e-06
-7.495424663824787e-07   -2.1178247129993826e-07   -6.007571354986352e-06
-7.495424663824787e-07   -2.1178247129993826e-07   -6.007571354986352e-06
-7.495424663824787e-07   -2.1178247129993826e-07   -6.007571354986352e-06
-7.495424663824787e-07   -2.1178247129993826e-07   -6.007571354986352e-06
9.645989664606766e-07   -1.5966924812345481e-09   -3.024557499623211e-06
9.645989664606766e-07   -1.5966924812345481e-09   -3.024557499623211e-06
9.645989664606766e-07   -1.5966924812345481e-09   -3.024557499623211e-06
9.645989664606766e-07   -1.5966924812345481e-09   -3.024557499623211e-06
9.990610582823824e-07   -3.012106765641349e-08   -6.000091974798149e-06
9.990610582823824e-07   -3.012106765641349e-08   -6.000091974798149e-06
9.990610582823824e-07   -3.012106765641349e-08   -6.000091974798149e-06
9.990610582823824e-07   -3.012106765641349e-08   -6.000091974798149e-06
-7.477352360251127e-07   1.6228275080585827e-07   -3.204207108696356e-06
-7.477352360251127e-07   1.6228275080585827e-07   -3.204207108696356e-06
-7.477352360251127e-07   1.6228275080585827e-07   -3.204207108696356e-06
-7.477352360251127e-07   1.6228275080585827e-07   -3.204207108696356e-06
9.675646404393873e-08   -3.693330847130325e-08   -4.492163639911809e-06
9.675646404393873e-08   -3.693330847130325e-08   -4.492163639911809e-06
9.675646404393873e-08   -3.693330847130325e-08   -4.492163639911809e-06
9.675646404393873e-08   -3.693330847130325e-08   -4.492163639911809e-06
-7.477352360251141e-07   -3.0121067656412617e-08   -6.11553426587551e-06
-7.477352360251141e-07   -3.0121067656412617e-08   -6.11553426587551e-06
-7.477352360251141e-07   -3.0121067656412617e-08   -6.11553426587551e-06
-7.477352360251141e-07   -3.0121067656412617e-08   -6.11553426587551e-06
9.990610582823841e-07   1.6228275080585827e-07   -3.088764817618981e-06
9.990610582823841e-07   1.6228275080585827e-07   -3.088764817618981e-06
9.990610582823841e-07   1.6228275080585827e-07   -3.088764817618981e-06
9.990610582823841e-07   1.6228275080585827e-07   -3.088764817618981e-06
1.0166088336445039e-06   1.8062003339867612e-07   -6.176397911162824e-06
1.0166088336445039e-06   1.8062003339867612e-07   -6.176397911162824e-06
1.0166088336445039e-06   1.8062003339867612e-07   -6.176397911162824e-06
1.0166088336445039e-06   1.8062003339867612e-07   -6.176397911162824e-06
-7.491653369270329e-07   3.4839270147159196e-07   -3.3341045610540016e-06
-7.491653369270329e-07   3.4839270147159196e-07   -3.3341045610540016e-06
-7.491653369270329e-07   3.4839270147159196e-07   -3.3341045610540016e-06
-7.491653369270329e-07   3.4839270147159196e-07   -3.3341045610540016e-06
1.0197219852388542e-07   1.1470922370338552e-07   -4.612457033477952e-06
1.0197219852388542e-07   1.1470922370338552e-07   -4.612457033477952e-06
1.0197219852388542e-07   1.1470922370338552e-07   -4.612457033477952e-06
1.0197219852388542e-07   1.1470922370338552e-07   -4.612457033477952e-06
9.511132355268697e-07   -7.10497041576822e-07   -3.2863929015559035e-06
9.511132355268697e-07   -7.10497041576822e-07   -3.2863929015559035e-06
9.511132355268697e-07   -7.10497041576822e-07   -3.2863929015559035e-06
9.511132355268697e-07   -7.10497041576822e-07   -3.2863929015559035e-06
2.419695480126714e-06   -3.0939411526215404e-07   -5.980940714340159e-07
2.419695480126714e-06   -3.0939411526215404e-07   -5.980940714340159e-07
2.419695480126714e-06   -3.0939411526215404e-07   -5.980940714340159e-07
2.419695480126714e-06   -3.0939411526215404e-07   -5.980940714340159e-07
2.6083511201851013e-06   -6.001093226140592e-07   -3.418733245718917e-06
2.6083511201851013e-06   -6.001093226140592e-07   -3.418733245718917e-06
2.6083511201851013e-06   -6.001093226140592e-07   -3.418733245718917e-06
2.6083511201851013e-06   -6.001093226140592e-07   -3.418733245718917e-06
9.64598966460676e-07   -1.9078591238540557e-07   -9.247403689820641e-07
9.64598966460676e-07   -1.9078591238540557e-07   -9.247403689820641e-07
9.64598966460676e-07   -1.9078591238540557e-07   -9.247403689820641e-07
9.64598966460676e-07   -1.9078591238540557e-07   -9.247403689820641e-07
1.6619146874124887e-06   -4.383159954437989e-07   -1.938415187400052e-06
1.6619146874124887e-06   -4.383159954437989e-07   -1.938415187400052e-06
1.6619146874124887e-06   -4.383159954437989e-07   -1.938415187400052e-06
1.6619146874124887e-06   -4.383159954437989e-07   -1.938415187400052e-06
9.645989664606749e-07   -6.001093226140589e-07   -3.6643272918560833e-06
9.645989664606749e-07   -6.001093226140589e-07   -3.6643272918560833e-06
9.645989664606749e-07   -6.001093226140589e-07   -3.6643272918560833e-06
9.645989664606749e-07   -6.001093226140589e-07   -3.6643272918560833e-06
2.608351120185098e-06   -1.9078591238540557e-07   -6.791463228448841e-07
2.608351120185098e-06   -1.9078591238540557e-07   -6.791463228448841e-07
2.608351120185098e-06   -1.9078591238540557e-07   -6.791463228448841e-07
2.608351120185098e-06   -1.9078591238540557e-07   -6.791463228448841e-07
2.755291763476409e-06   -5.087932624076139e-07   -3.7380916435999527e-06
2.755291763476409e-06   -5.087932624076139e-07   -3.7380916435999527e-06
2.755291763476409e-06   -5.087932624076139e-07   -3.7380916435999527e-06
2.755291763476409e-06   -5.087932624076139e-07   -3.7380916435999527e-06
9.99061058282384e-07   -1.1081621067775087e-07   -1.0498266993145e-06
9.99061058282384e-07   -1.1081621067775087e-07   -1.0498266993145e-06
9.99061058282384e-07   -1.1081621067775087e-07   -1.0498266993145e-06
9.99061058282384e-07   -1.1081621067775087e-07   -1.0498266993145e-06
1.7737669843588946e-06   -3.7653719504838427e-07   -2.181570652152954e-06
1.7737669843588946e-06   -3.7653719504838427e-07   -2.181570652152954e-06
1.7737669843588946e-06   -3.7653719504838427e-07   -2.181570652152954e-06
1.7737669843588946e-06   -3.7653719504838427e-07   -2.181570652152954e-06
9.990610582823824e-07   -5.087932624076164e-07   -3.976877874637869e-06
9.990610582823824e-07   -5.087932624076164e-07   -3.976877874637869e-06
9.990610582823824e-07   -5.087932624076164e-07   -3.976877874637869e-06
9.990610582823824e-07   -5.087932624076164e-07   -3.976877874637869e-06
2.7552917634764022e-06   -1.1081621067775087e-07   -8.110404682765598e-07
2.7552917634764022e-06   -1.1081621067775087e-07   -8.110404682765598e-07
2.7552917634764022e-06   -1.1081621067775087e-07   -8.110404682765598e-07
2.7552917634764022e-06   -1.1081621067775087e-07   -8.110404682765598e-07
2.9530183465205413e-06   -3.1643867554463525e-07   -4.359765226704014e-06
2.9530183465205413e-06   -3.1643867554463525e-07   -4.359765226704014e-06
2.9530183465205413e-06   -3.1643867554463525e-07   -4.359765226704014e-06
2.9530183465205413e-06   -3.1643867554463525e-07   -4.359765226704014e-06
1.0166088336445068e-06   4.2766155727589424e-08   -1.347938937340583e-06
1.0166088336445068e-06   4.2766155727589424e-08   -1.347938937340583e-06
1.0166088336445068e-06   4.2766155727589424e-08   -1.347938937340583e-06
1.0166088336445068e-06   4.2766155727589424e-08   -1.347938937340583e-06
1.81694380777623e-06   -2.8975572173888713e-07   -2.4823174344136014e-06
1.81694380777623e-06   -2.8975572173888713e-07   -2.4823174344136014e-06
1.81694380777623e-06   -2.8975572173888713e-07   -2.4823174344136014e-06
1.81694380777623e-06   -2.8975572173888713e-07   -2.4823174344136014e-06
-3.619519328601282e-06   5.932483656148518e-07   -3.4612308063085675e-06
-3.619519328601282e-06   5.932483656148518e-07   -3.4612308063085675e-06
-3.619519328601282e-06   5.932483656148518e-07   -3.4612308063085675e-06
-3.619519328601282e-06   5.932483656148518e-07   -3.4612308063085675e-06
-2.7334028679298756e-06   2.3154583966622294e-07   -2.2013915540920618e-06
-2.7334028679298756e-06   2.3154583966622294e-07   -2.2013915540920618e-06
-2.7334028679298756e-06   2.3154583966622294e-07   -2.2013915540920618e-06
-2.7334028679298756e-06   2.3154583966622294e-07   -2.2013915540920618e-06
-2.6965750955169295e-06   7.60998339457042e-07   -3.0538236144613668e-06
-2.6965750955169295e-06   7.60998339457042e-07   -3.0538236144613668e-06
-2.6965750955169295e-06   7.60998339457042e-07   -3.0538236144613668e-06
-2.6965750955169295e-06   7.60998339457042e-07   -3.0538236144613668e-06
-3.415340994449021e-06   3.689552348211953e-07   -1.6206545867929878e-06
-3.415340994449021e-06   3.689552348211953e-07   -1.6206545867929878e-06
-3.415340994449021e-06   3.689552348211953e-07   -1.6206545867929878e-06
-3.415340994449021e-06   3.689552348211953e-07   -1.6206545867929878e-06
-2.984367924051436e-06   5.341868790538495e-07   -2.4380820239953833e-06
-2.984367924051436e-06   5.341868790538495e-07   -2.4380820239953833e-06
-2.984367924051436e-06   5.341868790538495e-07   -2.4380820239953833e-06
-2.984367924051436e-06   5.341868790538495e-07   -2.4380820239953833e-06
-3.41534099444902e-06   7.609983394570442e-07   -2.8185977516798587e-06
-3.41534099444902e-06   7.609983394570442e-07   -2.8185977516798587e-06
-3.41534099444902e-06   7.609983394570442e-07   -2.8185977516798587e-06
-3.41534099444902e-06   7.609983394570442e-07   -2.8185977516798587e-06
-2.696575095516933e-06   3.689552348211953e-07   -1.8558804495745128e-06
-2.696575095516933e-06   3.689552348211953e-07   -1.8558804495745128e-06
-2.696575095516933e-06   3.689552348211953e-07   -1.8558804495745128e-06
-2.696575095516933e-06   3.689552348211953e-07   -1.8558804495745128e-06
-2.6429763621639927e-06   8.407293137248351e-07   -2.725475364024726e-06
-2.6429763621639927e-06   8.407293137248351e-07   -2.725475364024726e-06
-2.6429763621639927e-06   8.407293137248351e-07   -2.725475364024726e-06
-2.6429763621639927e-06   8.407293137248351e-07   -2.725475364024726e-06
-3.255500885479399e-06   4.402803149412783e-07   -1.4643317592288922e-06
-3.255500885479399e-06   4.402803149412783e-07   -1.4643317592288922e-06
-3.255500885479399e-06   4.402803149412783e-07   -1.4643317592288922e-06
-3.255500885479399e-06   4.402803149412783e-07   -1.4643317592288922e-06
-2.9321896501997045e-06   6.091074048957619e-07   -2.1044800720010855e-06
-2.9321896501997045e-06   6.091074048957619e-07   -2.1044800720010855e-06
-2.9321896501997045e-06   6.091074048957619e-07   -2.1044800720010855e-06
-2.9321896501997045e-06   6.091074048957619e-07   -2.1044800720010855e-06
-3.2555008854793894e-06   8.40729313724841e-07   -2.485205964754584e-06
-3.2555008854793894e-06   8.40729313724841e-07   -2.485205964754584e-06
-3.2555008854793894e-06   8.40729313724841e-07   -2.485205964754584e-06
-3.2555008854793894e-06   8.40729313724841e-07   -2.485205964754584e-06
-2.642976362163996e-06   4.402803149412783e-07   -1.7046011584990378e-06
-2.642976362163996e-06   4.402803149412783e-07   -1.7046011584990378e-06
-2.642976362163996e-06   4.402803149412783e-07   -1.7046011584990378e-06
-2.642976362163996e-06   4.402803149412783e-07   -1.7046011584990378e-06
-2.6091786907103523e-06   9.434053337359572e-07   -2.308350725573169e-06
-2.6091786907103523e-06   9.434053337359572e-07   -2.308350725573169e-06
-2.6091786907103523e-06   9.434053337359572e-07   -2.308350725573169e-06
-2.6091786907103523e-06   9.434053337359572e-07   -2.308350725573169e-06
-3.052705784219182e-06   5.541964106970548e-07   -1.3356135492351265e-06
-3.052705784219182e-06   5.541964106970548e-07   -1.3356135492351265e-06
-3.052705784219182e-06   5.541964106970548e-07   -1.3356135492351265e-06
-3.052705784219182e-06   5.541964106970548e-07   -1.3356135492351265e-06
-2.7971941697157822e-06   6.640421942174048e-07   -1.8273737101863398e-06
-2.7971941697157822e-06   6.640421942174048e-07   -1.8273737101863398e-06
-2.7971941697157822e-06   6.640421942174048e-07   -1.8273737101863398e-06
-2.7971941697157822e-06   6.640421942174048e-07   -1.8273737101863398e-06
-2.7334028679298756e-06   3.141996720396452e-07   -5.143563116172861e-06
-2.7334028679298756e-06   3.141996720396452e-07   -5.143563116172861e-06
-2.7334028679298756e-06   3.141996720396452e-07   -5.143563116172861e-06
-2.7334028679298756e-06   3.141996720396452e-07   -5.143563116172861e-06
-2.0059652973578144e-06   1.431801519770782e-07   -4.0337788772569955e-06
-2.0059652973578144e-06   1.431801519770782e-07   -4.0337788772569955e-06
-2.0059652973578144e-06   1.431801519770782e-07   -4.0337788772569955e-06
-2.0059652973578144e-06   1.431801519770782e-07   -4.0337788772569955e-06
-1.984176785089729e-06   4.923775996599084e-07   -5.123063019542355e-06
-1.984176785089729e-06   4.923775996599084e-07   -5.123063019542355e-06
-1.984176785089729e-06   4.923775996599084e-07   -5.123063019542355e-06
-1.984176785089729e-06   4.923775996599084e-07   -5.123063019542355e-06
-2.696575095516937e-06   3.0177892651817094e-07   -3.82137329827861e-06
-2.696575095516937e-06   3.0177892651817094e-07   -3.82137329827861e-06
-2.696575095516937e-06   3.0177892651817094e-07   -3.82137329827861e-06
-2.696575095516937e-06   3.0177892651817094e-07   -3.82137329827861e-06
-2.3319813605723757e-06   3.459040887711438e-07   -4.455504620538095e-06
-2.3319813605723757e-06   3.459040887711438e-07   -4.455504620538095e-06
-2.3319813605723757e-06   3.459040887711438e-07   -4.455504620538095e-06
-2.3319813605723757e-06   3.459040887711438e-07   -4.455504620538095e-06
-2.6965750955169227e-06   4.923775996599153e-07   -5.008703815657288e-06
-2.6965750955169227e-06   4.923775996599153e-07   -5.008703815657288e-06
-2.6965750955169227e-06   4.923775996599153e-07   -5.008703815657288e-06
-2.6965750955169227e-06   4.923775996599153e-07   -5.008703815657288e-06
-1.9841767850897325e-06   3.0177892651817094e-07   -3.93573250216367e-06
-1.9841767850897325e-06   3.0177892651817094e-07   -3.93573250216367e-06
-1.9841767850897325e-06   3.0177892651817094e-07   -3.93573250216367e-06
-1.9841767850897325e-06   3.0177892651817094e-07   -3.93573250216367e-06
-1.9597955057597957e-06   6.560784287481576e-07   -5.039812782663537e-06
-1.9597955057597957e-06   6.560784287481576e-07   -5.039812782663537e-06
-1.9597955057597957e-06   6.560784287481576e-07   -5.039812782663537e-06
-1.9597955057597957e-06   6.560784287481576e-07   -5.039812782663537e-06
-2.6429763621640008e-06   4.5084572082739176e-07   -3.7780383972373856e-06
-2.6429763621640008e-06   4.5084572082739176e-07   -3.7780383972373856e-06
-2.6429763621640008e-06   4.5084572082739176e-07   -3.7780383972373856e-06
-2.6429763621640008e-06   4.5084572082739176e-07   -3.7780383972373856e-06
-2.302111550338672e-06   4.7587679086636293e-07   -4.3611650589696265e-06
-2.302111550338672e-06   4.7587679086636293e-07   -4.3611650589696265e-06
-2.302111550338672e-06   4.7587679086636293e-07   -4.3611650589696265e-06
-2.302111550338672e-06   4.7587679086636293e-07   -4.3611650589696265e-06
-2.6429763621639927e-06   6.560784287481569e-07   -4.916673157911051e-06
-2.6429763621639927e-06   6.560784287481569e-07   -4.916673157911051e-06
-2.6429763621639927e-06   6.560784287481569e-07   -4.916673157911051e-06
-2.6429763621639927e-06   6.560784287481569e-07   -4.916673157911051e-06
-1.9597955057597923e-06   4.5084572082736466e-07   -3.901178021989838e-06
-1.9597955057597923e-06   4.5084572082736466e-07   -3.901178021989838e-06
-1.9597955057597923e-06   4.5084572082736466e-07   -3.901178021989838e-06
-1.9597955057597923e-06   4.5084572082736466e-07   -3.901178021989838e-06
-1.939018692966181e-06   8.354964465570147e-07   -5.088913454458628e-06
-1.939018692966181e-06   8.354964465570147e-07   -5.088913454458628e-06
-1.939018692966181e-06   8.354964465570147e-07   -5.088913454458628e-06
-1.939018692966181e-06   8.354964465570147e-07   -5.088913454458628e-06
-2.6091786907103607e-06   6.180456443854608e-07   -3.841509643582049e-06
-2.6091786907103607e-06   6.180456443854608e-07   -3.841509643582049e-06
-2.6091786907103607e-06   6.180456443854608e-07   -3.841509643582049e-06
-2.6091786907103607e-06   6.180456443854608e-07   -3.841509643582049e-06
-2.293520245294847e-06   6.09261406445637e-07   -4.3623365098440005e-06
-2.293520245294847e-06   6.09261406445637e-07   -4.3623365098440005e-06
-2.293520245294847e-06   6.09261406445637e-07   -4.3623365098440005e-06
-2.293520245294847e-06   6.09261406445637e-07   -4.3623365098440005e-06
-2.0059652973578076e-06   5.8760851005497444e-08   -5.836075285297883e-06
-2.0059652973578076e-06   5.8760851005497444e-08   -5.836075285297883e-06
-2.0059652973578076e-06   5.8760851005497444e-08   -5.836075285297883e-06
-2.0059652973578076e-06   5.8760851005497444e-08   -5.836075285297883e-06
-1.2907700302662139e-06   8.885260745241622e-08   -4.626028119610406e-06
-1.2907700302662139e-06   8.885260745241622e-08   -4.626028119610406e-06
-1.2907700302662139e-06   8.885260745241622e-08   -4.626028119610406e-06
-1.2907700302662139e-06   8.885260745241622e-08   -4.626028119610406e-06
-1.270091783193309e-06   2.3954801226471313e-07   -5.758124956549822e-06
-1.270091783193309e-06   2.3954801226471313e-07   -5.758124956549822e-06
-1.270091783193309e-06   2.3954801226471313e-07   -5.758124956549822e-06
-1.270091783193309e-06   2.3954801226471313e-07   -5.758124956549822e-06
-1.9841767850897283e-06   2.5217848092687995e-07   -4.575561567919712e-06
-1.9841767850897283e-06   2.5217848092687995e-07   -4.575561567919712e-06
-1.9841767850897283e-06   2.5217848092687995e-07   -4.575561567919712e-06
-1.9841767850897283e-06   2.5217848092687995e-07   -4.575561567919712e-06
-1.6270420026733208e-06   1.8359487891883813e-07   -5.129636044075691e-06
-1.6270420026733208e-06   1.8359487891883813e-07   -5.129636044075691e-06
-1.6270420026733208e-06   1.8359487891883813e-07   -5.129636044075691e-06
-1.6270420026733208e-06   1.8359487891883813e-07   -5.129636044075691e-06
-1.9841767850897257e-06   2.3954801226469487e-07   -5.765703237747098e-06
-1.9841767850897257e-06   2.3954801226469487e-07   -5.765703237747098e-06
-1.9841767850897257e-06   2.3954801226469487e-07   -5.765703237747098e-06
-1.9841767850897257e-06   2.3954801226469487e-07   -5.765703237747098e-06
-1.270091783193307e-06   2.5217848092687995e-07   -4.567983286722429e-06
-1.270091783193307e-06   2.5217848092687995e-07   -4.567983286722429e-06
-1.270091783193307e-06   2.5217848092687995e-07   -4.567983286722429e-06
-1.270091783193307e-06   2.5217848092687995e-07   -4.567983286722429e-06
-1.2458178697465292e-06   4.209389840893345e-07   -5.7712978405709145e-06
-1.2458178697465292e-06   4.209389840893345e-07   -5.7712978405709145e-06
-1.2458178697465292e-06   4.209389840893345e-07   -5.7712978405709145e-06
-1.2458178697465292e-06   4.209389840893345e-07   -5.7712978405709145e-06
-1.9597955057597927e-06   4.168532306698101e-07   -4.578883661830387e-06
-1.9597955057597927e-06   4.168532306698101e-07   -4.578883661830387e-06
-1.9597955057597927e-06   4.168532306698101e-07   -4.578883661830387e-06
-1.9597955057597927e-06   4.168532306698101e-07   -4.578883661830387e-06
-1.6148415934137097e-06   3.2514873470049417e-07   -5.0987841514922684e-06
-1.6148415934137097e-06   3.2514873470049417e-07   -5.0987841514922684e-06
-1.6148415934137097e-06   3.2514873470049417e-07   -5.0987841514922684e-06
-1.6148415934137097e-06   3.2514873470049417e-07   -5.0987841514922684e-06
-1.959795505759789e-06   4.2093898408932987e-07   -5.768846388519184e-06
-1.959795505759789e-06   4.2093898408932987e-07   -5.768846388519184e-06
-1.959795505759789e-06   4.2093898408932987e-07   -5.768846388519184e-06
-1.959795505759789e-06   4.2093898408932987e-07   -5.768846388519184e-06
-1.245817869746525e-06   4.168532306698101e-07   -4.581335113882108e-06
-1.245817869746525e-06   4.168532306698101e-07   -4.581335113882108e-06
-1.245817869746525e-06   4.168532306698101e-07   -4.581335113882108e-06
-1.245817869746525e-06   4.168532306698101e-07   -4.581335113882108e-06
-1.224300533173625e-06   6.055004624649929e-07   -5.868093196418944e-06
-1.224300533173625e-06   6.055004624649929e-07   -5.868093196418944e-06
-1.224300533173625e-06   6.055004624649929e-07   -5.868093196418944e-06
-1.224300533173625e-06   6.055004624649929e-07   -5.868093196418944e-06
-1.939018692966187e-06   5.841082121657972e-07   -4.664060913251817e-06
-1.939018692966187e-06   5.841082121657972e-07   -4.664060913251817e-06
-1.939018692966187e-06   5.841082121657972e-07   -4.664060913251817e-06
-1.939018692966187e-06   5.841082121657972e-07   -4.664060913251817e-06
-1.6057639729740103e-06   4.686139208809792e-07   -5.150188871801223e-06
-1.6057639729740103e-06   4.686139208809792e-07   -5.150188871801223e-06
-1.6057639729740103e-06   4.686139208809792e-07   -5.150188871801223e-06
-1.6057639729740103e-06   4.686139208809792e-07   -5.150188871801223e-06
-1.2907700302662092e-06   -1.735401364468648e-07   -5.1046745117790424e-06
-1.2907700302662092e-06   -1.735401364468648e-07   -5.1046745117790424e-06
-1.2907700302662092e-06   -1.735401364468648e-07   -5.1046745117790424e-06
-1.2907700302662092e-06   -1.735401364468648e-07   -5.1046745117790424e-06
-6.095356661847915e-07   5.019334271114573e-08   -3.8350438174818895e-06
-6.095356661847915e-07   5.019334271114573e-08   -3.8350438174818895e-06
-6.095356661847915e-07   5.019334271114573e-08   -3.8350438174818895e-06
-6.095356661847915e-07   5.019334271114573e-08   -3.8350438174818895e-06
-5.762190759783692e-07   -1.5966924812345481e-09   -4.933267416829933e-06
-5.762190759783692e-07   -1.5966924812345481e-09   -4.933267416829933e-06
-5.762190759783692e-07   -1.5966924812345481e-09   -4.933267416829933e-06
-5.762190759783692e-07   -1.5966924812345481e-09   -4.933267416829933e-06
-1.2700917831933068e-06   2.0978533353709018e-07   -3.90364212041597e-06
-1.2700917831933068e-06   2.0978533353709018e-07   -3.90364212041597e-06
-1.2700917831933068e-06   2.0978533353709018e-07   -3.90364212041597e-06
-1.2700917831933068e-06   2.0978533353709018e-07   -3.90364212041597e-06
-9.271032341825793e-07   3.75171676053848e-08   -4.371928802541567e-06
-9.271032341825793e-07   3.75171676053848e-08   -4.371928802541567e-06
-9.271032341825793e-07   3.75171676053848e-08   -4.371928802541567e-06
-9.271032341825793e-07   3.75171676053848e-08   -4.371928802541567e-06
-1.2700917831933046e-06   -1.596692481231135e-09   -5.060096632440896e-06
-1.2700917831933046e-06   -1.596692481231135e-09   -5.060096632440896e-06
-1.2700917831933046e-06   -1.596692481231135e-09   -5.060096632440896e-06
-1.2700917831933046e-06   -1.596692481231135e-09   -5.060096632440896e-06
-5.762190759783692e-07   2.0978533353709018e-07   -3.776812904805006e-06
-5.762190759783692e-07   2.0978533353709018e-07   -3.776812904805006e-06
-5.762190759783692e-07   2.0978533353709018e-07   -3.776812904805006e-06
-5.762190759783692e-07   2.0978533353709018e-07   -3.776812904805006e-06
-5.228233285336776e-07   1.6228275080585827e-07   -4.994793194602705e-06
-5.228233285336776e-07   1.6228275080585827e-07   -4.994793194602705e-06
-5.228233285336776e-07   1.6228275080585827e-07   -4.994793194602705e-06
-5.228233285336776e-07   1.6228275080585827e-07   -4.994793194602705e-06
-1.2458178697465271e-06   3.5880514933947874e-07   -3.907715731701422e-06
-1.2458178697465271e-06   3.5880514933947874e-07   -3.907715731701422e-06
-1.2458178697465271e-06   3.5880514933947874e-07   -3.907715731701422e-06
-1.2458178697465271e-06   3.5880514933947874e-07   -3.907715731701422e-06
-9.081329570373344e-07   1.671942306214955e-07   -4.355557368319313e-06
-9.081329570373344e-07   1.671942306214955e-07   -4.355557368319313e-06
-9.081329570373344e-07   1.671942306214955e-07   -4.355557368319313e-06
-9.081329570373344e-07   1.671942306214955e-07   -4.355557368319313e-06
-1.245817869746525e-06   1.6228275080585766e-07   -5.11270663372285e-06
-1.245817869746525e-06   1.6228275080585766e-07   -5.11270663372285e-06
-1.245817869746525e-06   1.6228275080585766e-07   -5.11270663372285e-06
-1.245817869746525e-06   1.6228275080585766e-07   -5.11270663372285e-06
-5.228233285336793e-07   3.5880514933945163e-07   -3.7898022925812746e-06
-5.228233285336793e-07   3.5880514933945163e-07   -3.7898022925812746e-06
-5.228233285336793e-07   3.5880514933945163e-07   -3.7898022925812746e-06
-5.228233285336793e-07   3.5880514933945163e-07   -3.7898022925812746e-06
-4.862095874192566e-07   3.4839270147159196e-07   -5.134067768084637e-06
-4.862095874192566e-07   3.4839270147159196e-07   -5.134067768084637e-06
-4.862095874192566e-07   3.4839270147159196e-07   -5.134067768084637e-06
-4.862095874192566e-07   3.4839270147159196e-07   -5.134067768084637e-06
-1.224300533173625e-06   5.255592297625134e-07   -4.01021610880189e-06
-1.224300533173625e-06   5.255592297625134e-07   -4.01021610880189e-06
-1.224300533173625e-06   5.255592297625134e-07   -4.01021610880189e-06
-1.224300533173625e-06   5.255592297625134e-07   -4.01021610880189e-06
-8.889893907366806e-07   3.013580645977703e-07   -4.434547313764624e-06
-8.889893907366806e-07   3.013580645977703e-07   -4.434547313764624e-06
-8.889893907366806e-07   3.013580645977703e-07   -4.434547313764624e-06
-8.889893907366806e-07   3.013580645977703e-07   -4.434547313764624e-06
-6.095356661847881e-07   -3.093941152621531e-07   -2.7485377775733762e-06
-6.095356661847881e-07   -3.093941152621531e-07   -2.7485377775733762e-06
-6.095356661847881e-07   -3.093941152621531e-07   -2.7485377775733762e-06
-6.095356661847881e-07   -3.093941152621531e-07   -2.7485377775733762e-06
-1.5595380242194247e-07   8.324898043303767e-08   -1.7569821472181965e-06
-1.5595380242194247e-07   8.324898043303767e-08   -1.7569821472181965e-06
-1.5595380242194247e-07   8.324898043303767e-08   -1.7569821472181965e-06
-1.5595380242194247e-07   8.324898043303767e-08   -1.7569821472181965e-06
4.5330202149549055e-08   -1.9078591238541913e-07   -2.592310057343615e-06
4.5330202149549055e-08   -1.9078591238541913e-07   -2.592310057343615e-06
4.5330202149549055e-08   -1.9078591238541913e-07   -2.592310057343615e-06
4.5330202149549055e-08   -1.9078591238541913e-07   -2.592310057343615e-06
-5.762190759783687e-07   2.111144690231971e-07   -1.797534822642204e-06
-5.762190759783687e-07   2.111144690231971e-07   -1.797534822642204e-06
-5.762190759783687e-07   2.111144690231971e-07   -1.797534822642204e-06
-5.762190759783687e-07   2.111144690231971e-07   -1.797534822642204e-06
-3.1233526789882974e-07   -3.592098062906281e-08   -2.0891198996501583e-06
-3.1233526789882974e-07   -3.592098062906281e-08   -2.0891198996501583e-06
-3.1233526789882974e-07   -3.592098062906281e-08   -2.0891198996501583e-06
-3.1233526789882974e-07   -3.592098062906281e-08   -2.0891198996501583e-06
-5.762190759783658e-07   -1.907859123854115e-07   -2.8334502861887523e-06
-5.762190759783658e-07   -1.907859123854115e-07   -2.8334502861887523e-06
-5.762190759783658e-07   -1.907859123854115e-07   -2.8334502861887523e-06
-5.762190759783658e-07   -1.907859123854115e-07   -2.8334502861887523e-06
4.5330202149549055e-08   2.111144690231971e-07   -1.55639459379706e-06
4.5330202149549055e-08   2.111144690231971e-07   -1.55639459379706e-06
4.5330202149549055e-08   2.111144690231971e-07   -1.55639459379706e-06
4.5330202149549055e-08   2.111144690231971e-07   -1.55639459379706e-06
2.04853088272546e-07   -1.1081621067775087e-07   -2.720086145397735e-06
2.04853088272546e-07   -1.1081621067775087e-07   -2.720086145397735e-06
2.04853088272546e-07   -1.1081621067775087e-07   -2.720086145397735e-06
2.04853088272546e-07   -1.1081621067775087e-07   -2.720086145397735e-06
-5.228233285336778e-07   2.821320074897053e-07   -1.7430610482878206e-06
-5.228233285336778e-07   2.821320074897053e-07   -1.7430610482878206e-06
-5.228233285336778e-07   2.821320074897053e-07   -1.7430610482878206e-06
-5.228233285336778e-07   2.821320074897053e-07   -1.7430610482878206e-06
-2.156220987277593e-07   2.6833236002171126e-08   -2.1018838350718064e-06
-2.156220987277593e-07   2.6833236002171126e-08   -2.1018838350718064e-06
-2.156220987277593e-07   2.6833236002171126e-08   -2.1018838350718064e-06
-2.156220987277593e-07   2.6833236002171126e-08   -2.1018838350718064e-06
-5.228233285336776e-07   -1.1081621067774662e-07   -2.9558550762982073e-06
-5.228233285336776e-07   -1.1081621067774662e-07   -2.9558550762982073e-06
-5.228233285336776e-07   -1.1081621067774662e-07   -2.9558550762982073e-06
-5.228233285336776e-07   -1.1081621067774662e-07   -2.9558550762982073e-06
2.0485308827254938e-07   2.821320074897053e-07   -1.507292117387338e-06
2.0485308827254938e-07   2.821320074897053e-07   -1.507292117387338e-06
2.0485308827254938e-07   2.821320074897053e-07   -1.507292117387338e-06
2.0485308827254938e-07   2.821320074897053e-07   -1.507292117387338e-06
4.097411931529643e-07   4.2766155727589424e-08   -3.0318855396653307e-06
4.097411931529643e-07   4.2766155727589424e-08   -3.0318855396653307e-06
4.097411931529643e-07   4.2766155727589424e-08   -3.0318855396653307e-06
4.097411931529643e-07   4.2766155727589424e-08   -3.0318855396653307e-06
-4.862095874192577e-07   4.038998316437158e-07   -1.7553144442612303e-06
-4.862095874192577e-07   4.038998316437158e-07   -1.7553144442612303e-06
-4.862095874192577e-07   4.038998316437158e-07   -1.7553144442612303e-06
-4.862095874192577e-07   4.038998316437158e-07   -1.7553144442612303e-06
-1.2554755847458654e-07   9.430094967524455e-08   -2.1706584966546595e-06
-1.2554755847458654e-07   9.430094967524455e-08   -2.1706584966546595e-06
-1.2554755847458654e-07   9.430094967524455e-08   -2.1706584966546595e-06
-1.2554755847458654e-07   9.430094967524455e-08   -2.1706584966546595e-06
-1.1505938015823075e-06   2.315458396662106e-07   -2.2226608003205834e-06
-1.1505938015823075e-06   2.315458396662106e-07   -2.2226608003205834e-06
-1.1505938015823075e-06   2.315458396662106e-07   -2.2226608003205834e-06
-1.1505938015823075e-06   2.315458396662106e-07   -2.2226608003205834e-06
-1.2723781436911517e-06   -1.2387133554794274e-07   -2.6388850089638296e-06
-1.2723781436911517e-06   -1.2387133554794274e-07   -2.6388850089638296e-06
-1.2723781436911517e-06   -1.2387133554794274e-07   -2.6388850089638296e-06
-1.2723781436911517e-06   -1.2387133554794274e-07   -2.6388850089638296e-06
-1.2148356494152747e-06   3.689552348211953e-07   -2.0909652539455412e-06
-1.2148356494152747e-06   3.689552348211953e-07   -2.0909652539455412e-06
-1.2148356494152747e-06   3.689552348211953e-07   -2.0909652539455412e-06
-1.2148356494152747e-06   3.689552348211953e-07   -2.0909652539455412e-06
-9.308733556358515e-07   -1.4802952702324106e-08   -2.3339808310637676e-06
-9.308733556358515e-07   -1.4802952702324106e-08   -2.3339808310637676e-06
-9.308733556358515e-07   -1.4802952702324106e-08   -2.3339808310637676e-06
-9.308733556358515e-07   -1.4802952702324106e-08   -2.3339808310637676e-06
-1.0927107183607762e-06   1.5998569495055746e-07   -2.169125081780734e-06
-1.0927107183607762e-06   1.5998569495055746e-07   -2.169125081780734e-06
-1.0927107183607762e-06   1.5998569495055746e-07   -2.169125081780734e-06
-1.0927107183607762e-06   1.5998569495055746e-07   -2.169125081780734e-06
-9.308733556358506e-07   3.6895523482120227e-07   -1.8607103414313998e-06
-9.308733556358506e-07   3.6895523482120227e-07   -1.8607103414313998e-06
-9.308733556358506e-07   3.6895523482120227e-07   -1.8607103414313998e-06
-9.308733556358506e-07   3.6895523482120227e-07   -1.8607103414313998e-06
-1.2148356494152814e-06   -1.4802952702324106e-08   -2.564235743577916e-06
-1.2148356494152814e-06   -1.4802952702324106e-08   -2.564235743577916e-06
-1.2148356494152814e-06   -1.4802952702324106e-08   -2.564235743577916e-06
-1.2148356494152814e-06   -1.4802952702324106e-08   -2.564235743577916e-06
-1.1409647892013184e-06   4.4028031494125117e-07   -1.9394571958186485e-06
-1.1409647892013184e-06   4.4028031494125117e-07   -1.9394571958186485e-06
-1.1409647892013184e-06   4.4028031494125117e-07   -1.9394571958186485e-06
-1.1409647892013184e-06   4.4028031494125117e-07   -1.9394571958186485e-06
-7.527746935362176e-07   4.908457412329775e-08   -2.3517232441030127e-06
-7.527746935362176e-07   4.908457412329775e-08   -2.3517232441030127e-06
-7.527746935362176e-07   4.908457412329775e-08   -2.3517232441030127e-06
-7.527746935362176e-07   4.908457412329775e-08   -2.3517232441030127e-06
-9.920707321201246e-07   2.1719445095162563e-07   -2.0537624392269154e-06
-9.920707321201246e-07   2.1719445095162563e-07   -2.0537624392269154e-06
-9.920707321201246e-07   2.1719445095162563e-07   -2.0537624392269154e-06
-9.920707321201246e-07   2.1719445095162563e-07   -2.0537624392269154e-06
-7.527746935362178e-07   4.402803149412647e-07   -1.7047397513278575e-06
-7.527746935362178e-07   4.402803149412647e-07   -1.7047397513278575e-06
-7.527746935362178e-07   4.402803149412647e-07   -1.7047397513278575e-06
-7.527746935362178e-07   4.402803149412647e-07   -1.7047397513278575e-06
-1.1409647892013218e-06   4.908457412329775e-08   -2.58644068859379e-06
-1.1409647892013218e-06   4.908457412329775e-08   -2.58644068859379e-06
-1.1409647892013218e-06   4.908457412329775e-08   -2.58644068859379e-06
-1.1409647892013218e-06   4.908457412329775e-08   -2.58644068859379e-06
-1.0863297748065557e-06   5.541964106970548e-07   -1.8028638766287813e-06
-1.0863297748065557e-06   5.541964106970548e-07   -1.8028638766287813e-06
-1.0863297748065557e-06   5.541964106970548e-07   -1.8028638766287813e-06
-1.0863297748065557e-06   5.541964106970548e-07   -1.8028638766287813e-06
-5.328752040212996e-07   1.7574493700562655e-07   -2.4982172770560363e-06
-5.328752040212996e-07   1.7574493700562655e-07   -2.4982172770560363e-06
-5.328752040212996e-07   1.7574493700562655e-07   -2.4982172770560363e-06
-5.328752040212996e-07   1.7574493700562655e-07   -2.4982172770560363e-06
-8.689053306955819e-07   2.747824154134687e-07   -1.9975895529768326e-06
-8.689053306955819e-07   2.747824154134687e-07   -1.9975895529768326e-06
-8.689053306955819e-07   2.747824154134687e-07   -1.9975895529768326e-06
-8.689053306955819e-07   2.747824154134687e-07   -1.9975895529768326e-06
-1.2723781436911483e-06   1.4318015197705095e-07   -4.1656867165764376e-06
-1.2723781436911483e-06   1.4318015197705095e-07   -4.1656867165764376e-06
-1.2723781436911483e-06   1.4318015197705095e-07   -4.1656867165764376e-06
-1.2723781436911483e-06   1.4318015197705095e-07   -4.1656867165764376e-06
-1.5483874812142706e-06   -1.9685046967666707e-08   -4.723421398481826e-06
-1.5483874812142706e-06   -1.9685046967666707e-08   -4.723421398481826e-06
-1.5483874812142706e-06   -1.9685046967666707e-08   -4.723421398481826e-06
-1.5483874812142706e-06   -1.9685046967666707e-08   -4.723421398481826e-06
-1.5042668400817143e-06   3.0177892651817094e-07   -4.165911475432631e-06
-1.5042668400817143e-06   3.0177892651817094e-07   -4.165911475432631e-06
-1.5042668400817143e-06   3.0177892651817094e-07   -4.165911475432631e-06
-1.5042668400817143e-06   3.0177892651817094e-07   -4.165911475432631e-06
-1.214835649415282e-06   1.1935663854652483e-07   -4.538843420427015e-06
-1.214835649415282e-06   1.1935663854652483e-07   -4.538843420427015e-06
-1.214835649415282e-06   1.1935663854652483e-07   -4.538843420427015e-06
-1.214835649415282e-06   1.1935663854652483e-07   -4.538843420427015e-06
-1.3690336560214385e-06   1.6871214057571915e-07   -4.311460043967696e-06
-1.3690336560214385e-06   1.6871214057571915e-07   -4.311460043967696e-06
-1.3690336560214385e-06   1.6871214057571915e-07   -4.311460043967696e-06
-1.3690336560214385e-06   1.6871214057571915e-07   -4.311460043967696e-06
-1.214835649415278e-06   3.0177892651817517e-07   -4.056458102649608e-06
-1.214835649415278e-06   3.0177892651817517e-07   -4.056458102649608e-06
-1.214835649415278e-06   3.0177892651817517e-07   -4.056458102649608e-06
-1.214835649415278e-06   3.0177892651817517e-07   -4.056458102649608e-06
-1.5042668400817126e-06   1.1935663854652483e-07   -4.648296793210017e-06
-1.5042668400817126e-06   1.1935663854652483e-07   -4.648296793210017e-06
-1.5042668400817126e-06   1.1935663854652483e-07   -4.648296793210017e-06
-1.5042668400817126e-06   1.1935663854652483e-07   -4.648296793210017e-06
-1.4581700197629171e-06   4.5084572082739176e-07   -4.130602026020618e-06
-1.4581700197629171e-06   4.5084572082739176e-07   -4.130602026020618e-06
-1.4581700197629171e-06   4.5084572082739176e-07   -4.130602026020618e-06
-1.4581700197629171e-06   4.5084572082739176e-07   -4.130602026020618e-06
-1.140964789201323e-06   2.546664017213365e-07   -4.541569818826295e-06
-1.140964789201323e-06   2.546664017213365e-07   -4.541569818826295e-06
-1.140964789201323e-06   2.546664017213365e-07   -4.541569818826295e-06
-1.140964789201323e-06   2.546664017213365e-07   -4.541569818826295e-06
-1.3250378113009043e-06   2.826784339519429e-07   -4.251588667998696e-06
-1.3250378113009043e-06   2.826784339519429e-07   -4.251588667998696e-06
-1.3250378113009043e-06   2.826784339519429e-07   -4.251588667998696e-06
-1.3250378113009043e-06   2.826784339519429e-07   -4.251588667998696e-06
-1.1409647892013184e-06   4.508457208273967e-07   -4.012894434556966e-06
-1.1409647892013184e-06   4.508457208273967e-07   -4.012894434556966e-06
-1.1409647892013184e-06   4.508457208273967e-07   -4.012894434556966e-06
-1.1409647892013184e-06   4.508457208273967e-07   -4.012894434556966e-06
-1.4581700197629137e-06   2.546664017213094e-07   -4.6592774102898865e-06
-1.4581700197629137e-06   2.546664017213094e-07   -4.6592774102898865e-06
-1.4581700197629137e-06   2.546664017213094e-07   -4.6592774102898865e-06
-1.4581700197629137e-06   2.546664017213094e-07   -4.6592774102898865e-06
-1.4155841938405542e-06   6.180456443854608e-07   -4.199666434225166e-06
-1.4155841938405542e-06   6.180456443854608e-07   -4.199666434225166e-06
-1.4155841938405542e-06   6.180456443854608e-07   -4.199666434225166e-06
-1.4155841938405542e-06   6.180456443854608e-07   -4.199666434225166e-06
-1.0863297748065578e-06   4.106592825974594e-07   -4.623991982209042e-06
-1.0863297748065578e-06   4.106592825974594e-07   -4.623991982209042e-06
-1.0863297748065578e-06   4.106592825974594e-07   -4.623991982209042e-06
-1.0863297748065578e-06   4.106592825974594e-07   -4.623991982209042e-06
-1.2873076385807102e-06   4.03894424715718e-07   -4.284969961189657e-06
-1.2873076385807102e-06   4.03894424715718e-07   -4.284969961189657e-06
-1.2873076385807102e-06   4.03894424715718e-07   -4.284969961189657e-06
-1.2873076385807102e-06   4.03894424715718e-07   -4.284969961189657e-06
-1.5483874812142672e-06   8.885260745243207e-08   -4.873710132164869e-06
-1.5483874812142672e-06   8.885260745243207e-08   -4.873710132164869e-06
-1.5483874812142672e-06   8.885260745243207e-08   -4.873710132164869e-06
-1.5483874812142672e-06   8.885260745243207e-08   -4.873710132164869e-06
-1.8278056117172332e-06   1.2523416205407556e-07   -5.317578083575478e-06
-1.8278056117172332e-06   1.2523416205407556e-07   -5.317578083575478e-06
-1.8278056117172332e-06   1.2523416205407556e-07   -5.317578083575478e-06
-1.8278056117172332e-06   1.2523416205407556e-07   -5.317578083575478e-06
-1.7850058914744119e-06   2.5217848092687995e-07   -4.794562675610974e-06
-1.7850058914744119e-06   2.5217848092687995e-07   -4.794562675610974e-06
-1.7850058914744119e-06   2.5217848092687995e-07   -4.794562675610974e-06
-1.7850058914744119e-06   2.5217848092687995e-07   -4.794562675610974e-06
-1.504266840081711e-06   2.7080825688971695e-07   -5.273638960176495e-06
-1.504266840081711e-06   2.7080825688971695e-07   -5.273638960176495e-06
-1.504266840081711e-06   2.7080825688971695e-07   -5.273638960176495e-06
-1.504266840081711e-06   2.7080825688971695e-07   -5.273638960176495e-06
-1.6562652813396874e-06   2.0749563297154717e-07   -4.982320650395717e-06
-1.6562652813396874e-06   2.0749563297154717e-07   -4.982320650395717e-06
-1.6562652813396874e-06   2.0749563297154717e-07   -4.982320650395717e-06
-1.6562652813396874e-06   2.0749563297154717e-07   -4.982320650395717e-06
-1.5042668400817075e-06   2.521784809268653e-07   -4.805740541188679e-06
-1.5042668400817075e-06   2.521784809268653e-07   -4.805740541188679e-06
-1.5042668400817075e-06   2.521784809268653e-07   -4.805740541188679e-06
-1.5042668400817075e-06   2.521784809268653e-07   -4.805740541188679e-06
-1.7850058914744119e-06   2.7080825688971695e-07   -5.262461094598814e-06
-1.7850058914744119e-06   2.7080825688971695e-07   -5.262461094598814e-06
-1.7850058914744119e-06   2.7080825688971695e-07   -5.262461094598814e-06
-1.7850058914744119e-06   2.7080825688971695e-07   -5.262461094598814e-06
-1.7391442997726091e-06   4.168532306698101e-07   -4.806847320314723e-06
-1.7391442997726091e-06   4.168532306698101e-07   -4.806847320314723e-06
-1.7391442997726091e-06   4.168532306698101e-07   -4.806847320314723e-06
-1.7391442997726091e-06   4.168532306698101e-07   -4.806847320314723e-06
-1.4581700197629163e-06   4.1928713991390746e-07   -5.27659813254395e-06
-1.4581700197629163e-06   4.1928713991390746e-07   -5.27659813254395e-06
-1.4581700197629163e-06   4.1928713991390746e-07   -5.27659813254395e-06
-1.4581700197629163e-06   4.1928713991390746e-07   -5.27659813254395e-06
-1.6216035188643219e-06   3.3331006468533767e-07   -4.9526227222379e-06
-1.6216035188643219e-06   3.3331006468533767e-07   -4.9526227222379e-06
-1.6216035188643219e-06   3.3331006468533767e-07   -4.9526227222379e-06
-1.6216035188643219e-06   3.3331006468533767e-07   -4.9526227222379e-06
-1.4581700197629137e-06   4.168532306698173e-07   -4.808307665861157e-06
-1.4581700197629137e-06   4.168532306698173e-07   -4.808307665861157e-06
-1.4581700197629137e-06   4.168532306698173e-07   -4.808307665861157e-06
-1.4581700197629137e-06   4.168532306698173e-07   -4.808307665861157e-06
-1.739144299772606e-06   4.1928713991390746e-07   -5.275137786997503e-06
-1.739144299772606e-06   4.1928713991390746e-07   -5.275137786997503e-06
-1.739144299772606e-06   4.1928713991390746e-07   -5.275137786997503e-06
-1.739144299772606e-06   4.1928713991390746e-07   -5.275137786997503e-06
-1.6961113937927878e-06   5.841082121657972e-07   -4.900233638694353e-06
-1.6961113937927878e-06   5.841082121657972e-07   -4.900233638694353e-06
-1.6961113937927878e-06   5.841082121657972e-07   -4.900233638694353e-06
-1.6961113937927878e-06   5.841082121657972e-07   -4.900233638694353e-06
-1.4155841938405572e-06   5.699641853285705e-07   -5.3592925558457335e-06
-1.4155841938405572e-06   5.699641853285705e-07   -5.3592925558457335e-06
-1.4155841938405572e-06   5.699641853285705e-07   -5.3592925558457335e-06
-1.4155841938405572e-06   5.699641853285705e-07   -5.3592925558457335e-06
-1.590486398395505e-06   4.6094710966150965e-07   -5.002378636187173e-06
-1.590486398395505e-06   4.6094710966150965e-07   -5.002378636187173e-06
-1.590486398395505e-06   4.6094710966150965e-07   -5.002378636187173e-06
-1.590486398395505e-06   4.6094710966150965e-07   -5.002378636187173e-06
-1.82780561171723e-06   5.0193342711121675e-08   -4.195136984770149e-06
-1.82780561171723e-06   5.0193342711121675e-08   -4.195136984770149e-06
-1.82780561171723e-06   5.0193342711121675e-08   -4.195136984770149e-06
-1.82780561171723e-06   5.0193342711121675e-08   -4.195136984770149e-06
-2.130771184808524e-06   2.7436543267877773e-07   -4.565576352608388e-06
-2.130771184808524e-06   2.7436543267877773e-07   -4.565576352608388e-06
-2.130771184808524e-06   2.7436543267877773e-07   -4.565576352608388e-06
-2.130771184808524e-06   2.7436543267877773e-07   -4.565576352608388e-06
-2.0773275299281184e-06   2.0978533353709018e-07   -4.003242925550805e-06
-2.0773275299281184e-06   2.0978533353709018e-07   -4.003242925550805e-06
-2.0773275299281184e-06   2.0978533353709018e-07   -4.003242925550805e-06
-2.0773275299281184e-06   2.0978533353709018e-07   -4.003242925550805e-06
-1.7850058914744117e-06   4.2141630645999603e-07   -4.617424240060694e-06
-1.7850058914744117e-06   4.2141630645999603e-07   -4.617424240060694e-06
-1.7850058914744117e-06   4.2141630645999603e-07   -4.617424240060694e-06
-1.7850058914744117e-06   4.2141630645999603e-07   -4.617424240060694e-06
-1.9398560803162078e-06   2.545941360666674e-07   -4.259247289755092e-06
-1.9398560803162078e-06   2.545941360666674e-07   -4.259247289755092e-06
-1.9398560803162078e-06   2.545941360666674e-07   -4.259247289755092e-06
-1.9398560803162078e-06   2.545941360666674e-07   -4.259247289755092e-06
-1.7850058914744085e-06   2.097853335371038e-07   -4.13022150930454e-06
-1.7850058914744085e-06   2.097853335371038e-07   -4.13022150930454e-06
-1.7850058914744085e-06   2.097853335371038e-07   -4.13022150930454e-06
-1.7850058914744085e-06   2.097853335371038e-07   -4.13022150930454e-06
-2.0773275299281184e-06   4.2141630646002314e-07   -4.490445656306976e-06
-2.0773275299281184e-06   4.2141630646002314e-07   -4.490445656306976e-06
-2.0773275299281184e-06   4.2141630646002314e-07   -4.490445656306976e-06
-2.0773275299281184e-06   4.2141630646002314e-07   -4.490445656306976e-06
-2.004457065585053e-06   3.5880514933945163e-07   -4.014983586364407e-06
-2.004457065585053e-06   3.5880514933945163e-07   -4.014983586364407e-06
-2.004457065585053e-06   3.5880514933945163e-07   -4.014983586364407e-06
-2.004457065585053e-06   3.5880514933945163e-07   -4.014983586364407e-06
-1.739144299772606e-06   5.5587906895547e-07   -4.575415881154761e-06
-1.739144299772606e-06   5.5587906895547e-07   -4.575415881154761e-06
-1.739144299772606e-06   5.5587906895547e-07   -4.575415881154761e-06
-1.739144299772606e-06   5.5587906895547e-07   -4.575415881154761e-06
-1.891845962704619e-06   3.7231152215188136e-07   -4.210772581519302e-06
-1.891845962704619e-06   3.7231152215188136e-07   -4.210772581519302e-06
-1.891845962704619e-06   3.7231152215188136e-07   -4.210772581519302e-06
-1.891845962704619e-06   3.7231152215188136e-07   -4.210772581519302e-06
-1.7391442997726032e-06   3.588051493394649e-07   -4.133227938134021e-06
-1.7391442997726032e-06   3.588051493394649e-07   -4.133227938134021e-06
-1.7391442997726032e-06   3.588051493394649e-07   -4.133227938134021e-06
-1.7391442997726032e-06   3.588051493394649e-07   -4.133227938134021e-06
-2.0044570655850563e-06   5.558790689554971e-07   -4.4571715293851525e-06
-2.0044570655850563e-06   5.558790689554971e-07   -4.4571715293851525e-06
-2.0044570655850563e-06   5.558790689554971e-07   -4.4571715293851525e-06
-2.0044570655850563e-06   5.558790689554971e-07   -4.4571715293851525e-06
-1.9481747975032936e-06   5.255592297625405e-07   -4.126073326275547e-06
-1.9481747975032936e-06   5.255592297625405e-07   -4.126073326275547e-06
-1.9481747975032936e-06   5.255592297625405e-07   -4.126073326275547e-06
-1.9481747975032936e-06   5.255592297625405e-07   -4.126073326275547e-06
-1.6961113937927876e-06   7.046928260781636e-07   -4.653659156915765e-06
-1.6961113937927876e-06   7.046928260781636e-07   -4.653659156915765e-06
-1.6961113937927876e-06   7.046928260781636e-07   -4.653659156915765e-06
-1.6961113937927876e-06   7.046928260781636e-07   -4.653659156915765e-06
-1.859087008520979e-06   4.909984213304379e-07   -4.2538164895201035e-06
-1.859087008520979e-06   4.909984213304379e-07   -4.2538164895201035e-06
-1.859087008520979e-06   4.909984213304379e-07   -4.2538164895201035e-06
-1.859087008520979e-06   4.909984213304379e-07   -4.2538164895201035e-06
-2.130771184808519e-06   8.324898043303142e-08   -2.218157917942989e-06
-2.130771184808519e-06   8.324898043303142e-08   -2.218157917942989e-06
-2.130771184808519e-06   8.324898043303142e-08   -2.218157917942989e-06
-2.130771184808519e-06   8.324898043303142e-08   -2.218157917942989e-06
-2.65154167496483e-06   4.684156762864921e-07   -2.8550087173580924e-06
-2.65154167496483e-06   4.684156762864921e-07   -2.8550087173580924e-06
-2.65154167496483e-06   4.684156762864921e-07   -2.8550087173580924e-06
-2.65154167496483e-06   4.684156762864921e-07   -2.8550087173580924e-06
-2.4372778404491143e-06   2.111144690231971e-07   -1.7886031990135284e-06
-2.4372778404491143e-06   2.111144690231971e-07   -1.7886031990135284e-06
-2.4372778404491143e-06   2.111144690231971e-07   -1.7886031990135284e-06
-2.4372778404491143e-06   2.111144690231971e-07   -1.7886031990135284e-06
-2.077327529928114e-06   6.033838763140446e-07   -2.6238820275896515e-06
-2.077327529928114e-06   6.033838763140446e-07   -2.6238820275896515e-06
-2.077327529928114e-06   6.033838763140446e-07   -2.6238820275896515e-06
-2.077327529928114e-06   6.033838763140446e-07   -2.6238820275896515e-06
-2.23027334132749e-06   3.558351813322475e-07   -2.2204431249350127e-06
-2.23027334132749e-06   3.558351813322475e-07   -2.2204431249350127e-06
-2.23027334132749e-06   3.558351813322475e-07   -2.2204431249350127e-06
-2.23027334132749e-06   3.558351813322475e-07   -2.2204431249350127e-06
-2.07732752992811e-06   2.1111446902318295e-07   -2.0239648433880098e-06
-2.07732752992811e-06   2.1111446902318295e-07   -2.0239648433880098e-06
-2.07732752992811e-06   2.1111446902318295e-07   -2.0239648433880098e-06
-2.07732752992811e-06   2.1111446902318295e-07   -2.0239648433880098e-06
-2.4372778404491143e-06   6.033838763140446e-07   -2.388520383215175e-06
-2.4372778404491143e-06   6.033838763140446e-07   -2.388520383215175e-06
-2.4372778404491143e-06   6.033838763140446e-07   -2.388520383215175e-06
-2.4372778404491143e-06   6.033838763140446e-07   -2.388520383215175e-06
-2.2630068466191157e-06   2.821320074897053e-07   -1.7385028371821057e-06
-2.2630068466191157e-06   2.821320074897053e-07   -1.7385028371821057e-06
-2.2630068466191157e-06   2.821320074897053e-07   -1.7385028371821057e-06
-2.2630068466191157e-06   2.821320074897053e-07   -1.7385028371821057e-06
-2.004457065585053e-06   6.65031182304495e-07   -2.3991586437943922e-06
-2.004457065585053e-06   6.65031182304495e-07   -2.3991586437943922e-06
-2.004457065585053e-06   6.65031182304495e-07   -2.3991586437943922e-06
-2.004457065585053e-06   6.65031182304495e-07   -2.3991586437943922e-06
-2.14704272380931e-06   4.202736199159765e-07   -2.014661342654212e-06
-2.14704272380931e-06   4.202736199159765e-07   -2.014661342654212e-06
-2.14704272380931e-06   4.202736199159765e-07   -2.014661342654212e-06
-2.14704272380931e-06   4.202736199159765e-07   -2.014661342654212e-06
-2.004457065585048e-06   2.82132007489734e-07   -1.9682423420709633e-06
-2.004457065585048e-06   2.82132007489734e-07   -1.9682423420709633e-06
-2.004457065585048e-06   2.82132007489734e-07   -1.9682423420709633e-06
-2.004457065585048e-06   2.82132007489734e-07   -1.9682423420709633e-06
-2.2630068466191225e-06   6.65031182304495e-07   -2.169419138905521e-06
-2.2630068466191225e-06   6.65031182304495e-07   -2.169419138905521e-06
-2.2630068466191225e-06   6.65031182304495e-07   -2.169419138905521e-06
-2.2630068466191225e-06   6.65031182304495e-07   -2.169419138905521e-06
-2.0457414459146017e-06   4.038998316436887e-07   -1.7662303855263265e-06
-2.0457414459146017e-06   4.038998316436887e-07   -1.7662303855263265e-06
-2.0457414459146017e-06   4.038998316436887e-07   -1.7662303855263265e-06
-2.0457414459146017e-06   4.038998316436887e-07   -1.7662303855263265e-06
-1.9481747975032915e-06   7.559684869489381e-07   -2.1400826593949435e-06
-1.9481747975032915e-06   7.559684869489381e-07   -2.1400826593949435e-06
-1.9481747975032915e-06   7.559684869489381e-07   -2.1400826593949435e-06
-1.9481747975032915e-06   7.559684869489381e-07   -2.1400826593949435e-06
-2.0099685646510576e-06   4.693295191908085e-07   -1.8651096668271127e-06
-2.0099685646510576e-06   4.693295191908085e-07   -1.8651096668271127e-06
-2.0099685646510576e-06   4.693295191908085e-07   -1.8651096668271127e-06
-2.0099685646510576e-06   4.693295191908085e-07   -1.8651096668271127e-06
1.274549684165625e-06   -1.2387133554793496e-07   -1.0263964628191852e-06
1.274549684165625e-06   -1.2387133554793496e-07   -1.0263964628191852e-06
1.274549684165625e-06   -1.2387133554793496e-07   -1.0263964628191852e-06
1.274549684165625e-06   -1.2387133554793496e-07   -1.0263964628191852e-06
1.5037454932531844e-07   -4.7580514152479247e-07   -3.1111819711391572e-06
1.5037454932531844e-07   -4.7580514152479247e-07   -3.1111819711391572e-06
1.5037454932531844e-07   -4.7580514152479247e-07   -3.1111819711391572e-06
1.5037454932531844e-07   -4.7580514152479247e-07   -3.1111819711391572e-06
2.2778981507216273e-07   -1.4802952702351211e-08   -1.157255362650814e-06
2.2778981507216273e-07   -1.4802952702351211e-08   -1.157255362650814e-06
2.2778981507216273e-07   -1.4802952702351211e-08   -1.157255362650814e-06
2.2778981507216273e-07   -1.4802952702351211e-08   -1.157255362650814e-06
1.5110558939372932e-06   -3.93629598845072e-07   -3.0687361730737187e-06
1.5110558939372932e-06   -3.93629598845072e-07   -3.0687361730737187e-06
1.5110558939372932e-06   -3.93629598845072e-07   -3.0687361730737187e-06
1.5110558939372932e-06   -3.93629598845072e-07   -3.0687361730737187e-06
7.600847809216169e-07   -2.0315020315904474e-07   -1.931405288792536e-06
7.600847809216169e-07   -2.0315020315904474e-07   -1.931405288792536e-06
7.600847809216169e-07   -2.0315020315904474e-07   -1.931405288792536e-06
7.600847809216169e-07   -2.0315020315904474e-07   -1.931405288792536e-06
1.5110558939372917e-06   -1.4802952702347438e-08   -9.299593749651625e-07
1.5110558939372917e-06   -1.4802952702347438e-08   -9.299593749651625e-07
1.5110558939372917e-06   -1.4802952702347438e-08   -9.299593749651625e-07
1.5110558939372917e-06   -1.4802952702347438e-08   -9.299593749651625e-07
2.2778981507216273e-07   -3.93629598845072e-07   -3.29603216075937e-06
2.2778981507216273e-07   -3.93629598845072e-07   -3.29603216075937e-06
2.2778981507216273e-07   -3.93629598845072e-07   -3.29603216075937e-06
2.2778981507216273e-07   -3.93629598845072e-07   -3.29603216075937e-06
3.2018635827171015e-07   4.908457412329775e-08   -1.1738891130340216e-06
3.2018635827171015e-07   4.908457412329775e-08   -1.1738891130340216e-06
3.2018635827171015e-07   4.908457412329775e-08   -1.1738891130340216e-06
3.2018635827171015e-07   4.908457412329775e-08   -1.1738891130340216e-06
1.7071749919672214e-06   -3.3630269899816894e-07   -3.25430447198699e-06
1.7071749919672214e-06   -3.3630269899816894e-07   -3.25430447198699e-06
1.7071749919672214e-06   -3.3630269899816894e-07   -3.25430447198699e-06
1.7071749919672214e-06   -3.3630269899816894e-07   -3.25430447198699e-06
9.073555654601259e-07   -1.631740803348283e-07   -2.0251492656732487e-06
9.073555654601259e-07   -1.631740803348283e-07   -2.0251492656732487e-06
9.073555654601259e-07   -1.631740803348283e-07   -2.0251492656732487e-06
9.073555654601259e-07   -1.631740803348283e-07   -2.0251492656732487e-06
1.7071749919672218e-06   4.908457412329927e-08   -9.426567491611362e-07
1.7071749919672218e-06   4.908457412329927e-08   -9.426567491611362e-07
1.7071749919672218e-06   4.908457412329927e-08   -9.426567491611362e-07
1.7071749919672218e-06   4.908457412329927e-08   -9.426567491611362e-07
3.2018635827171354e-07   -3.3630269899811473e-07   -3.4855368358598484e-06
3.2018635827171354e-07   -3.3630269899811473e-07   -3.4855368358598484e-06
3.2018635827171354e-07   -3.3630269899811473e-07   -3.4855368358598484e-06
3.2018635827171354e-07   -3.3630269899811473e-07   -3.4855368358598484e-06
3.9332642510912213e-07   1.7574493700562655e-07   -1.3068644026744834e-06
3.9332642510912213e-07   1.7574493700562655e-07   -1.3068644026744834e-06
3.9332642510912213e-07   1.7574493700562655e-07   -1.3068644026744834e-06
3.9332642510912213e-07   1.7574493700562655e-07   -1.3068644026744834e-06
1.9430909831134445e-06   -1.943343291883762e-07   -3.667757772965257e-06
1.9430909831134445e-06   -1.943343291883762e-07   -3.667757772965257e-06
1.9430909831134445e-06   -1.943343291883762e-07   -3.667757772965257e-06
1.9430909831134445e-06   -1.943343291883762e-07   -3.667757772965257e-06
1.018265374453896e-06   -1.0224347212923752e-07   -2.181636272768202e-06
1.018265374453896e-06   -1.0224347212923752e-07   -2.181636272768202e-06
1.018265374453896e-06   -1.0224347212923752e-07   -2.181636272768202e-06
1.018265374453896e-06   -1.0224347212923752e-07   -2.181636272768202e-06
1.5037454932531844e-07   -1.96850469676716e-08   -3.2243740165564767e-06
1.5037454932531844e-07   -1.96850469676716e-08   -3.2243740165564767e-06
1.5037454932531844e-07   -1.96850469676716e-08   -3.2243740165564767e-06
1.5037454932531844e-07   -1.96850469676716e-08   -3.2243740165564767e-06
-1.1144489928739675e-06   -1.777517242469999e-07   -5.42725325992284e-06
-1.1144489928739675e-06   -1.777517242469999e-07   -5.42725325992284e-06
-1.1144489928739675e-06   -1.777517242469999e-07   -5.42725325992284e-06
-1.1144489928739675e-06   -1.777517242469999e-07   -5.42725325992284e-06
-1.048736093548803e-06   1.1935663854649773e-07   -3.240865111483782e-06
-1.048736093548803e-06   1.1935663854649773e-07   -3.240865111483782e-06
-1.048736093548803e-06   1.1935663854649773e-07   -3.240865111483782e-06
-1.048736093548803e-06   1.1935663854649773e-07   -3.240865111483782e-06
2.2778981507216352e-07   -6.231348142663557e-08   -5.259406220534856e-06
2.2778981507216352e-07   -6.231348142663557e-08   -5.259406220534856e-06
2.2778981507216352e-07   -6.231348142663557e-08   -5.259406220534856e-06
2.2778981507216352e-07   -6.231348142663557e-08   -5.259406220534856e-06
-4.366028628184043e-07   1.1545797573488548e-09   -4.190165927427653e-06
-4.366028628184043e-07   1.1545797573488548e-09   -4.190165927427653e-06
-4.366028628184043e-07   1.1545797573488548e-09   -4.190165927427653e-06
-4.366028628184043e-07   1.1545797573488548e-09   -4.190165927427653e-06
2.2778981507216612e-07   1.1935663854652152e-07   -3.1318630394998993e-06
2.2778981507216612e-07   1.1935663854652152e-07   -3.1318630394998993e-06
2.2778981507216612e-07   1.1935663854652152e-07   -3.1318630394998993e-06
2.2778981507216612e-07   1.1935663854652152e-07   -3.1318630394998993e-06
-1.048736093548803e-06   -6.231348142663557e-08   -5.3684082925187655e-06
-1.048736093548803e-06   -6.231348142663557e-08   -5.3684082925187655e-06
-1.048736093548803e-06   -6.231348142663557e-08   -5.3684082925187655e-06
-1.048736093548803e-06   -6.231348142663557e-08   -5.3684082925187655e-06
-9.825561747126336e-07   2.546664017213094e-07   -3.2470507676132896e-06
-9.825561747126336e-07   2.546664017213094e-07   -3.2470507676132896e-06
-9.825561747126336e-07   2.546664017213094e-07   -3.2470507676132896e-06
-9.825561747126336e-07   2.546664017213094e-07   -3.2470507676132896e-06
3.2018635827171185e-07   5.794552780999515e-08   -5.300255798240425e-06
3.2018635827171185e-07   5.794552780999515e-08   -5.300255798240425e-06
3.2018635827171185e-07   5.794552780999515e-08   -5.300255798240425e-06
3.2018635827171185e-07   5.794552780999515e-08   -5.300255798240425e-06
-3.7980517647962117e-07   9.774951520433238e-08   -4.157485632758116e-06
-3.7980517647962117e-07   9.774951520433238e-08   -4.157485632758116e-06
-3.7980517647962117e-07   9.774951520433238e-08   -4.157485632758116e-06
-3.7980517647962117e-07   9.774951520433238e-08   -4.157485632758116e-06
3.2018635827171015e-07   2.546664017213311e-07   -3.1290182432665065e-06
3.2018635827171015e-07   2.546664017213311e-07   -3.1290182432665065e-06
3.2018635827171015e-07   2.546664017213311e-07   -3.1290182432665065e-06
3.2018635827171015e-07   2.546664017213311e-07   -3.1290182432665065e-06
-9.825561747126336e-07   5.794552781004936e-08   -5.418288322587195e-06
-9.825561747126336e-07   5.794552781004936e-08   -5.418288322587195e-06
-9.825561747126336e-07   5.794552781004936e-08   -5.418288322587195e-06
-9.825561747126336e-07   5.794552781004936e-08   -5.418288322587195e-06
-9.20094265529801e-07   4.106592825974594e-07   -3.330922108402964e-06
-9.20094265529801e-07   4.106592825974594e-07   -3.330922108402964e-06
-9.20094265529801e-07   4.106592825974594e-07   -3.330922108402964e-06
-9.20094265529801e-07   4.106592825974594e-07   -3.330922108402964e-06
3.933264251091224e-07   2.0173614128027794e-07   -5.394602708010849e-06
3.933264251091224e-07   2.0173614128027794e-07   -5.394602708010849e-06
3.933264251091224e-07   2.0173614128027794e-07   -5.394602708010849e-06
3.933264251091224e-07   2.0173614128027794e-07   -5.394602708010849e-06
-3.1501169492501685e-07   2.062366803678409e-07   -4.2167394980731435e-06
-3.1501169492501685e-07   2.062366803678409e-07   -4.2167394980731435e-06
-3.1501169492501685e-07   2.062366803678409e-07   -4.2167394980731435e-06
-3.1501169492501685e-07   2.062366803678409e-07   -4.2167394980731435e-06
-1.1144489928739708e-06   1.2523416205407442e-07   -3.935199640778717e-06
-1.1144489928739708e-06   1.2523416205407442e-07   -3.935199640778717e-06
-1.1144489928739708e-06   1.2523416205407442e-07   -3.935199640778717e-06
-1.1144489928739708e-06   1.2523416205407442e-07   -3.935199640778717e-06
-2.3642455470319597e-06   1.572259233852298e-07   -5.998998840910013e-06
-2.3642455470319597e-06   1.572259233852298e-07   -5.998998840910013e-06
-2.3642455470319597e-06   1.572259233852298e-07   -5.998998840910013e-06
-2.3642455470319597e-06   1.572259233852298e-07   -5.998998840910013e-06
-2.298558166278165e-06   2.7080825688968985e-07   -3.860003225306395e-06
-2.298558166278165e-06   2.7080825688968985e-07   -3.860003225306395e-06
-2.298558166278165e-06   2.7080825688968985e-07   -3.860003225306395e-06
-2.298558166278165e-06   2.7080825688968985e-07   -3.860003225306395e-06
-1.0487360935488055e-06   2.811483454629002e-07   -5.949244066332588e-06
-1.0487360935488055e-06   2.811483454629002e-07   -5.949244066332588e-06
-1.0487360935488055e-06   2.811483454629002e-07   -5.949244066332588e-06
-1.0487360935488055e-06   2.811483454629002e-07   -5.949244066332588e-06
-1.696732635016282e-06   2.3354337636607428e-07   -4.840686849095372e-06
-1.696732635016282e-06   2.3354337636607428e-07   -4.840686849095372e-06
-1.696732635016282e-06   2.3354337636607428e-07   -4.840686849095372e-06
-1.696732635016282e-06   2.3354337636607428e-07   -4.840686849095372e-06
-1.0487360935488064e-06   2.7080825688969953e-07   -3.866207278450324e-06
-1.0487360935488064e-06   2.7080825688969953e-07   -3.866207278450324e-06
-1.0487360935488064e-06   2.7080825688969953e-07   -3.866207278450324e-06
-1.0487360935488064e-06   2.7080825688969953e-07   -3.866207278450324e-06
-2.2985581662781614e-06   2.811483454629002e-07   -5.9430400131886926e-06
-2.2985581662781614e-06   2.811483454629002e-07   -5.9430400131886926e-06
-2.2985581662781614e-06   2.811483454629002e-07   -5.9430400131886926e-06
-2.2985581662781614e-06   2.811483454629002e-07   -5.9430400131886926e-06
-2.2311154168573677e-06   4.1928713991388035e-07   -3.869023441561585e-06
-2.2311154168573677e-06   4.1928713991388035e-07   -3.869023441561585e-06
-2.2311154168573677e-06   4.1928713991388035e-07   -3.869023441561585e-06
-2.2311154168573677e-06   4.1928713991388035e-07   -3.869023441561585e-06
-9.825561747126363e-07   4.115338870901565e-07   -5.945303560108563e-06
-9.825561747126363e-07   4.115338870901565e-07   -5.945303560108563e-06
-9.825561747126363e-07   4.115338870901565e-07   -5.945303560108563e-06
-9.825561747126363e-07   4.115338870901565e-07   -5.945303560108563e-06
-1.6399413184487427e-06   3.4274412704689153e-07   -4.808387797855846e-06
-1.6399413184487427e-06   3.4274412704689153e-07   -4.808387797855846e-06
-1.6399413184487427e-06   3.4274412704689153e-07   -4.808387797855846e-06
-1.6399413184487427e-06   3.4274412704689153e-07   -4.808387797855846e-06
-9.82556174712637e-07   4.1928713991389353e-07   -3.86437148986734e-06
-9.82556174712637e-07   4.1928713991389353e-07   -3.86437148986734e-06
-9.82556174712637e-07   4.1928713991389353e-07   -3.86437148986734e-06
-9.82556174712637e-07   4.1928713991389353e-07   -3.86437148986734e-06
-2.231115416857364e-06   4.115338870901565e-07   -5.949955511802812e-06
-2.231115416857364e-06   4.115338870901565e-07   -5.949955511802812e-06
-2.231115416857364e-06   4.115338870901565e-07   -5.949955511802812e-06
-2.231115416857364e-06   4.115338870901565e-07   -5.949955511802812e-06
-2.166938113699119e-06   5.699641853285705e-07   -3.957210755924231e-06
-2.166938113699119e-06   5.699641853285705e-07   -3.957210755924231e-06
-2.166938113699119e-06   5.699641853285705e-07   -3.957210755924231e-06
-2.166938113699119e-06   5.699641853285705e-07   -3.957210755924231e-06
-9.200942655298036e-07   5.442643670662702e-07   -6.019863945249025e-06
-9.200942655298036e-07   5.442643670662702e-07   -6.019863945249025e-06
-9.200942655298036e-07   5.442643670662702e-07   -6.019863945249025e-06
-9.200942655298036e-07   5.442643670662702e-07   -6.019863945249025e-06
-1.587869295794803e-06   4.5371002865420246e-07   -4.852572958426782e-06
-1.587869295794803e-06   4.5371002865420246e-07   -4.852572958426782e-06
-1.587869295794803e-06   4.5371002865420246e-07   -4.852572958426782e-06
-1.587869295794803e-06   4.5371002865420246e-07   -4.852572958426782e-06
-2.364245547031963e-06   2.743654326787842e-07   -3.298506106993521e-06
-2.364245547031963e-06   2.743654326787842e-07   -3.298506106993521e-06
-2.364245547031963e-06   2.743654326787842e-07   -3.298506106993521e-06
-2.364245547031963e-06   2.743654326787842e-07   -3.298506106993521e-06
-3.614820789539767e-06   4.86887046122382e-07   -5.255285209773729e-06
-3.614820789539767e-06   4.86887046122382e-07   -5.255285209773729e-06
-3.614820789539767e-06   4.86887046122382e-07   -5.255285209773729e-06
-3.614820789539767e-06   4.86887046122382e-07   -5.255285209773729e-06
-3.5385364756838092e-06   4.2141630645999603e-07   -3.096233248038599e-06
-3.5385364756838092e-06   4.2141630645999603e-07   -3.096233248038599e-06
-3.5385364756838092e-06   4.2141630645999603e-07   -3.096233248038599e-06
-3.5385364756838092e-06   4.2141630645999603e-07   -3.096233248038599e-06
-2.298558166278161e-06   6.193048443427912e-07   -5.281596886444382e-06
-2.298558166278161e-06   6.193048443427912e-07   -5.281596886444382e-06
-2.298558166278161e-06   6.193048443427912e-07   -5.281596886444382e-06
-2.298558166278161e-06   6.193048443427912e-07   -5.281596886444382e-06
-2.933358553532622e-06   4.6636142473941247e-07   -4.1318301892582325e-06
-2.933358553532622e-06   4.6636142473941247e-07   -4.1318301892582325e-06
-2.933358553532622e-06   4.6636142473941247e-07   -4.1318301892582325e-06
-2.933358553532622e-06   4.6636142473941247e-07   -4.1318301892582325e-06
-2.298558166278165e-06   4.214163064600189e-07   -3.214966370768306e-06
-2.298558166278165e-06   4.214163064600189e-07   -3.214966370768306e-06
-2.298558166278165e-06   4.214163064600189e-07   -3.214966370768306e-06
-2.298558166278165e-06   4.214163064600189e-07   -3.214966370768306e-06
-3.538536475683815e-06   6.193048443428454e-07   -5.162863763714731e-06
-3.538536475683815e-06   6.193048443428454e-07   -5.162863763714731e-06
-3.538536475683815e-06   6.193048443428454e-07   -5.162863763714731e-06
-3.538536475683815e-06   6.193048443428454e-07   -5.162863763714731e-06
-3.443755260778507e-06   5.558790689554971e-07   -3.0602570081102837e-06
-3.443755260778507e-06   5.558790689554971e-07   -3.0602570081102837e-06
-3.443755260778507e-06   5.558790689554971e-07   -3.0602570081102837e-06
-3.443755260778507e-06   5.558790689554971e-07   -3.0602570081102837e-06
-2.2311154168573677e-06   7.376199483030916e-07   -5.190367942254069e-06
-2.2311154168573677e-06   7.376199483030916e-07   -5.190367942254069e-06
-2.2311154168573677e-06   7.376199483030916e-07   -5.190367942254069e-06
-2.2311154168573677e-06   7.376199483030916e-07   -5.190367942254069e-06
-2.8547667613825952e-06   5.720445117400586e-07   -4.051603772774282e-06
-2.8547667613825952e-06   5.720445117400586e-07   -4.051603772774282e-06
-2.8547667613825952e-06   5.720445117400586e-07   -4.051603772774282e-06
-2.8547667613825952e-06   5.720445117400586e-07   -4.051603772774282e-06
-2.2311154168573677e-06   5.558790689554893e-07   -3.169301535718835e-06
-2.2311154168573677e-06   5.558790689554893e-07   -3.169301535718835e-06
-2.2311154168573677e-06   5.558790689554893e-07   -3.169301535718835e-06
-2.2311154168573677e-06   5.558790689554893e-07   -3.169301535718835e-06
-3.443755260778507e-06   7.376199483030916e-07   -5.081323414645529e-06
-3.443755260778507e-06   7.376199483030916e-07   -5.081323414645529e-06
-3.443755260778507e-06   7.376199483030916e-07   -5.081323414645529e-06
-3.443755260778507e-06   7.376199483030916e-07   -5.081323414645529e-06
-3.3656772672993343e-06   7.046928260781365e-07   -3.14516493346898e-06
-3.3656772672993343e-06   7.046928260781365e-07   -3.14516493346898e-06
-3.3656772672993343e-06   7.046928260781365e-07   -3.14516493346898e-06
-3.3656772672993343e-06   7.046928260781365e-07   -3.14516493346898e-06
-2.1669381136991186e-06   8.67902838449662e-07   -5.240989530225626e-06
-2.1669381136991186e-06   8.67902838449662e-07   -5.240989530225626e-06
-2.1669381136991186e-06   8.67902838449662e-07   -5.240989530225626e-06
-2.1669381136991186e-06   8.67902838449662e-07   -5.240989530225626e-06
-2.80719912091041e-06   6.74851946147405e-07   -4.058057316158748e-06
-2.80719912091041e-06   6.74851946147405e-07   -4.058057316158748e-06
-2.80719912091041e-06   6.74851946147405e-07   -4.058057316158748e-06
-2.80719912091041e-06   6.74851946147405e-07   -4.058057316158748e-06
-3.614820789539767e-06   4.6841567628650815e-07   -1.6915255211891547e-06
-3.614820789539767e-06   4.6841567628650815e-07   -1.6915255211891547e-06
-3.614820789539767e-06   4.6841567628650815e-07   -1.6915255211891547e-06
-3.614820789539767e-06   4.6841567628650815e-07   -1.6915255211891547e-06
-5.057165393949095e-06   8.400625067534341e-07   -3.872445096924547e-06
-5.057165393949095e-06   8.400625067534341e-07   -3.872445096924547e-06
-5.057165393949095e-06   8.400625067534341e-07   -3.872445096924547e-06
-5.057165393949095e-06   8.400625067534341e-07   -3.872445096924547e-06
-4.826009629929203e-06   6.033838763140446e-07   -1.0041517279335137e-06
-4.826009629929203e-06   6.033838763140446e-07   -1.0041517279335137e-06
-4.826009629929203e-06   6.033838763140446e-07   -1.0041517279335137e-06
-4.826009629929203e-06   6.033838763140446e-07   -1.0041517279335137e-06
-3.5385364756838092e-06   9.792470286271193e-07   -3.3754582097303216e-06
-3.5385364756838092e-06   9.792470286271193e-07   -3.3754582097303216e-06
-3.5385364756838092e-06   9.792470286271193e-07   -3.3754582097303216e-06
-3.5385364756838092e-06   9.792470286271193e-07   -3.3754582097303216e-06
-4.0862539486155045e-06   7.360411009050291e-07   -2.3166721982109353e-06
-4.0862539486155045e-06   7.360411009050291e-07   -2.3166721982109353e-06
-4.0862539486155045e-06   7.360411009050291e-07   -2.3166721982109353e-06
-4.0862539486155045e-06   7.360411009050291e-07   -2.3166721982109353e-06
-3.5385364756838126e-06   6.033838763140411e-07   -1.2296696193212934e-06
-3.5385364756838126e-06   6.033838763140411e-07   -1.2296696193212934e-06
-3.5385364756838126e-06   6.033838763140411e-07   -1.2296696193212934e-06
-3.5385364756838126e-06   6.033838763140411e-07   -1.2296696193212934e-06
-4.826009629929186e-06   9.79247028627065e-07   -3.1499403183424843e-06
-4.826009629929186e-06   9.79247028627065e-07   -3.1499403183424843e-06
-4.826009629929186e-06   9.79247028627065e-07   -3.1499403183424843e-06
-4.826009629929186e-06   9.79247028627065e-07   -3.1499403183424843e-06
-4.635099792388324e-06   6.65031182304495e-07   -7.834551492597622e-07
-4.635099792388324e-06   6.65031182304495e-07   -7.834551492597622e-07
-4.635099792388324e-06   6.65031182304495e-07   -7.834551492597622e-07
-4.635099792388324e-06   6.65031182304495e-07   -7.834551492597622e-07
-3.443755260778502e-06   1.029679471070791e-06   -2.987818341869216e-06
-3.443755260778502e-06   1.029679471070791e-06   -2.987818341869216e-06
-3.443755260778502e-06   1.029679471070791e-06   -2.987818341869216e-06
-3.443755260778502e-06   1.029679471070791e-06   -2.987818341869216e-06
-4.0129934048282895e-06   8.009842287833187e-07   -1.9018709564137752e-06
-4.0129934048282895e-06   8.009842287833187e-07   -1.9018709564137752e-06
-4.0129934048282895e-06   8.009842287833187e-07   -1.9018709564137752e-06
-4.0129934048282895e-06   8.009842287833187e-07   -1.9018709564137752e-06
-3.443755260778507e-06   6.650311823044862e-07   -1.0022441225195235e-06
-3.443755260778507e-06   6.650311823044862e-07   -1.0022441225195235e-06
-3.443755260778507e-06   6.650311823044862e-07   -1.0022441225195235e-06
-3.443755260778507e-06   6.650311823044862e-07   -1.0022441225195235e-06
-4.63509979238831e-06   1.029679471070764e-06   -2.769029368609446e-06
-4.63509979238831e-06   1.029679471070764e-06   -2.769029368609446e-06
-4.63509979238831e-06   1.029679471070764e-06   -2.769029368609446e-06
-4.63509979238831e-06   1.029679471070764e-06   -2.769029368609446e-06
-4.404857430677244e-06   7.559684869489381e-07   -5.394454522478448e-07
-4.404857430677244e-06   7.559684869489381e-07   -5.394454522478448e-07
-4.404857430677244e-06   7.559684869489381e-07   -5.394454522478448e-07
-4.404857430677244e-06   7.559684869489381e-07   -5.394454522478448e-07
-3.36567726729933e-06   1.0886737227651312e-06   -2.4710355327007176e-06
-3.36567726729933e-06   1.0886737227651312e-06   -2.4710355327007176e-06
-3.36567726729933e-06   1.0886737227651312e-06   -2.4710355327007176e-06
-3.36567726729933e-06   1.0886737227651312e-06   -2.4710355327007176e-06
-3.828684088317726e-06   8.305480114916312e-07   -1.5444820709060285e-06
-3.828684088317726e-06   8.305480114916312e-07   -1.5444820709060285e-06
-3.828684088317726e-06   8.305480114916312e-07   -1.5444820709060285e-06
-3.828684088317726e-06   8.305480114916312e-07   -1.5444820709060285e-06
3.6809661666374163e-06   -4.758051415248348e-07   1.4244345177395843e-07
3.6809661666374163e-06   -4.758051415248348e-07   1.4244345177395843e-07
3.6809661666374163e-06   -4.758051415248348e-07   1.4244345177395843e-07
3.6809661666374163e-06   -4.758051415248348e-07   1.4244345177395843e-07
1.5390743851355667e-06   -8.356897013669018e-07   -3.6433069199677315e-06
1.5390743851355667e-06   -8.356897013669018e-07   -3.6433069199677315e-06
1.5390743851355667e-06   -8.356897013669018e-07   -3.6433069199677315e-06
1.5390743851355667e-06   -8.356897013669018e-07   -3.6433069199677315e-06
1.632408858861288e-06   -3.936295988450178e-07   -2.408732325492966e-07
1.632408858861288e-06   -3.936295988450178e-07   -2.408732325492966e-07
1.632408858861288e-06   -3.936295988450178e-07   -2.408732325492966e-07
1.632408858861288e-06   -3.936295988450178e-07   -2.408732325492966e-07
3.93248855519222e-06   -7.797913287911368e-07   -3.842642355133218e-06
3.93248855519222e-06   -7.797913287911368e-07   -3.842642355133218e-06
3.93248855519222e-06   -7.797913287911368e-07   -3.842642355133218e-06
3.93248855519222e-06   -7.797913287911368e-07   -3.842642355133218e-06
2.5860570720396575e-06   -5.579522718162939e-07   -1.731693317397201e-06
2.5860570720396575e-06   -5.579522718162939e-07   -1.731693317397201e-06
2.5860570720396575e-06   -5.579522718162939e-07   -1.731693317397201e-06
2.5860570720396575e-06   -5.579522718162939e-07   -1.731693317397201e-06
3.932488555192228e-06   -3.936295988450351e-07   -9.176194581663128e-09
3.932488555192228e-06   -3.936295988450351e-07   -9.176194581663128e-09
3.932488555192228e-06   -3.936295988450351e-07   -9.176194581663128e-09
3.932488555192228e-06   -3.936295988450351e-07   -9.176194581663128e-09
1.6324088588612847e-06   -7.797913287911368e-07   -4.074339393100865e-06
1.6324088588612847e-06   -7.797913287911368e-07   -4.074339393100865e-06
1.6324088588612847e-06   -7.797913287911368e-07   -4.074339393100865e-06
1.6324088588612847e-06   -7.797913287911368e-07   -4.074339393100865e-06
1.7366523589959973e-06   -3.3630269899811473e-07   -4.1353247331999115e-07
1.7366523589959973e-06   -3.3630269899811473e-07   -4.1353247331999115e-07
1.7366523589959973e-06   -3.3630269899811473e-07   -4.1353247331999115e-07
1.7366523589959973e-06   -3.3630269899811473e-07   -4.1353247331999115e-07
4.140348967819369e-06   -7.285047235424443e-07   -4.184372273299033e-06
4.140348967819369e-06   -7.285047235424443e-07   -4.184372273299033e-06
4.140348967819369e-06   -7.285047235424443e-07   -4.184372273299033e-06
4.140348967819369e-06   -7.285047235424443e-07   -4.184372273299033e-06
2.7744436190345395e-06   -5.349107199269405e-07   -2.024019760826933e-06
2.7744436190345395e-06   -5.349107199269405e-07   -2.024019760826933e-06
2.7744436190345395e-06   -5.349107199269405e-07   -2.024019760826933e-06
2.7744436190345395e-06   -5.349107199269405e-07   -2.024019760826933e-06
4.140348967819381e-06   -3.36302698998118e-07   -1.782112585934205e-07
4.140348967819381e-06   -3.36302698998118e-07   -1.782112585934205e-07
4.140348967819381e-06   -3.36302698998118e-07   -1.782112585934205e-07
4.140348967819381e-06   -3.36302698998118e-07   -1.782112585934205e-07
1.7366523589959939e-06   -7.285047235424443e-07   -4.419693488025631e-06
1.7366523589959939e-06   -7.285047235424443e-07   -4.419693488025631e-06
1.7366523589959939e-06   -7.285047235424443e-07   -4.419693488025631e-06
1.7366523589959939e-06   -7.285047235424443e-07   -4.419693488025631e-06
1.8201224578163104e-06   -1.943343291883762e-07   -8.013779824932404e-07
1.8201224578163104e-06   -1.943343291883762e-07   -8.013779824932404e-07
1.8201224578163104e-06   -1.943343291883762e-07   -8.013779824932404e-07
1.8201224578163104e-06   -1.943343291883762e-07   -8.013779824932404e-07
4.382186116122683e-06   -5.699643350548034e-07   -4.8461060761506445e-06
4.382186116122683e-06   -5.699643350548034e-07   -4.8461060761506445e-06
4.382186116122683e-06   -5.699643350548034e-07   -4.8461060761506445e-06
4.382186116122683e-06   -5.699643350548034e-07   -4.8461060761506445e-06
2.8668624165791563e-06   -4.6969829445807614e-07   -2.3807262012696652e-06
2.8668624165791563e-06   -4.6969829445807614e-07   -2.3807262012696652e-06
2.8668624165791563e-06   -4.6969829445807614e-07   -2.3807262012696652e-06
2.8668624165791563e-06   -4.6969829445807614e-07   -2.3807262012696652e-06
1.5390743851355701e-06   -1.777517242469485e-07   -2.2947185665474527e-06
1.5390743851355701e-06   -1.777517242469485e-07   -2.2947185665474527e-06
1.5390743851355701e-06   -1.777517242469485e-07   -2.2947185665474527e-06
1.5390743851355701e-06   -1.777517242469485e-07   -2.2947185665474527e-06
-6.964748442633678e-07   -3.744856870963151e-07   -6.138674326588601e-06
-6.964748442633678e-07   -3.744856870963151e-07   -6.138674326588601e-06
-6.964748442633678e-07   -3.744856870963151e-07   -6.138674326588601e-06
-6.964748442633678e-07   -3.744856870963151e-07   -6.138674326588601e-06
-6.115579045349157e-07   -6.231348142668978e-08   -2.3418391164681197e-06
-6.115579045349157e-07   -6.231348142668978e-08   -2.3418391164681197e-06
-6.115579045349157e-07   -6.231348142668978e-08   -2.3418391164681197e-06
-6.115579045349157e-07   -6.231348142668978e-08   -2.3418391164681197e-06
1.6324088588612895e-06   -2.9163318833219827e-07   -5.9441918979851556e-06
1.6324088588612895e-06   -2.9163318833219827e-07   -5.9441918979851556e-06
1.6324088588612895e-06   -2.9163318833219827e-07   -5.9441918979851556e-06
1.6324088588612895e-06   -2.9163318833219827e-07   -5.9441918979851556e-06
4.7048496638282414e-07   -1.77985077999879e-07   -4.075840943387087e-06
4.7048496638282414e-07   -1.77985077999879e-07   -4.075840943387087e-06
4.7048496638282414e-07   -1.77985077999879e-07   -4.075840943387087e-06
4.7048496638282414e-07   -1.77985077999879e-07   -4.075840943387087e-06
1.6324088588612847e-06   -6.231348142666382e-08   -2.2042472923248092e-06
1.6324088588612847e-06   -6.231348142666382e-08   -2.2042472923248092e-06
1.6324088588612847e-06   -6.231348142666382e-08   -2.2042472923248092e-06
1.6324088588612847e-06   -6.231348142666382e-08   -2.2042472923248092e-06
-6.115579045349157e-07   -2.9163318833214406e-07   -6.0817837221284525e-06
-6.115579045349157e-07   -2.9163318833214406e-07   -6.0817837221284525e-06
-6.115579045349157e-07   -2.9163318833214406e-07   -6.0817837221284525e-06
-6.115579045349157e-07   -2.9163318833214406e-07   -6.0817837221284525e-06
-5.305494772953901e-07   5.794552781004936e-08   -2.37752460669315e-06
-5.305494772953901e-07   5.794552781004936e-08   -2.37752460669315e-06
-5.305494772953901e-07   5.794552781004936e-08   -2.37752460669315e-06
-5.305494772953901e-07   5.794552781004936e-08   -2.37752460669315e-06
1.736652358995993e-06   -1.908430905109889e-07   -6.00692116285282e-06
1.736652358995993e-06   -1.908430905109889e-07   -6.00692116285282e-06
1.736652358995993e-06   -1.908430905109889e-07   -6.00692116285282e-06
1.736652358995993e-06   -1.908430905109889e-07   -6.00692116285282e-06
5.353993819418754e-07   -1.0344199200115409e-07   -4.057273526868478e-06
5.353993819418754e-07   -1.0344199200115409e-07   -4.057273526868478e-06
5.353993819418754e-07   -1.0344199200115409e-07   -4.057273526868478e-06
5.353993819418754e-07   -1.0344199200115409e-07   -4.057273526868478e-06
1.7366523589959973e-06   5.794552781001723e-08   -2.2282514357005543e-06
1.7366523589959973e-06   5.794552781001723e-08   -2.2282514357005543e-06
1.7366523589959973e-06   5.794552781001723e-08   -2.2282514357005543e-06
1.7366523589959973e-06   5.794552781001723e-08   -2.2282514357005543e-06
-5.305494772953901e-07   -1.908430905110431e-07   -6.15619433384547e-06
-5.305494772953901e-07   -1.908430905110431e-07   -6.15619433384547e-06
-5.305494772953901e-07   -1.908430905110431e-07   -6.15619433384547e-06
-5.305494772953901e-07   -1.908430905110431e-07   -6.15619433384547e-06
-4.551555201538177e-07   2.0173614128027794e-07   -2.4649608038336383e-06
-4.551555201538177e-07   2.0173614128027794e-07   -2.4649608038336383e-06
-4.551555201538177e-07   2.0173614128027794e-07   -2.4649608038336383e-06
-4.551555201538177e-07   2.0173614128027794e-07   -2.4649608038336383e-06
1.8201224578163047e-06   -6.290626873844008e-08   -6.098305321105931e-06
1.8201224578163047e-06   -6.290626873844008e-08   -6.098305321105931e-06
1.8201224578163047e-06   -6.290626873844008e-08   -6.098305321105931e-06
1.8201224578163047e-06   -6.290626873844008e-08   -6.098305321105931e-06
6.203515992978264e-07   -1.0759138556861239e-08   -4.1299755016842055e-06
6.203515992978264e-07   -1.0759138556861239e-08   -4.1299755016842055e-06
6.203515992978264e-07   -1.0759138556861239e-08   -4.1299755016842055e-06
6.203515992978264e-07   -1.0759138556861239e-08   -4.1299755016842055e-06
-6.964748442633678e-07   1.5722592338519828e-07   -3.003699582042888e-06
-6.964748442633678e-07   1.5722592338519828e-07   -3.003699582042888e-06
-6.964748442633678e-07   1.5722592338519828e-07   -3.003699582042888e-06
-6.964748442633678e-07   1.5722592338519828e-07   -3.003699582042888e-06
-2.8925175688467543e-06   1.0149163271274851e-07   -6.6972113640853396e-06
-2.8925175688467543e-06   1.0149163271274851e-07   -6.6972113640853396e-06
-2.8925175688467543e-06   1.0149163271274851e-07   -6.6972113640853396e-06
-2.8925175688467543e-06   1.0149163271274851e-07   -6.6972113640853396e-06
-2.8013678895993375e-06   2.811483454629002e-07   -2.973878316008113e-06
-2.8013678895993375e-06   2.811483454629002e-07   -2.973878316008113e-06
-2.8013678895993375e-06   2.811483454629002e-07   -2.973878316008113e-06
-2.8013678895993375e-06   2.811483454629002e-07   -2.973878316008113e-06
-6.11557904534915e-07   1.958093025859189e-07   -6.572358198722657e-06
-6.11557904534915e-07   1.958093025859189e-07   -6.572358198722657e-06
-6.11557904534915e-07   1.958093025859189e-07   -6.572358198722657e-06
-6.11557904534915e-07   1.958093025859189e-07   -6.572358198722657e-06
-1.7391631816572507e-06   2.169321192471707e-07   -4.705689760182161e-06
-1.7391631816572507e-06   2.169321192471707e-07   -4.705689760182161e-06
-1.7391631816572507e-06   2.169321192471707e-07   -4.705689760182161e-06
-1.7391631816572507e-06   2.169321192471707e-07   -4.705689760182161e-06
-6.115579045349157e-07   2.8114834546291566e-07   -2.922674890281935e-06
-6.115579045349157e-07   2.8114834546291566e-07   -2.922674890281935e-06
-6.115579045349157e-07   2.8114834546291566e-07   -2.922674890281935e-06
-6.115579045349157e-07   2.8114834546291566e-07   -2.922674890281935e-06
-2.8013678895993375e-06   1.958093025859189e-07   -6.623561624448832e-06
-2.8013678895993375e-06   1.958093025859189e-07   -6.623561624448832e-06
-2.8013678895993375e-06   1.958093025859189e-07   -6.623561624448832e-06
-2.8013678895993375e-06   1.958093025859189e-07   -6.623561624448832e-06
-2.7130107728497153e-06   4.115338870901565e-07   -2.9695479126946715e-06
-2.7130107728497153e-06   4.115338870901565e-07   -2.9695479126946715e-06
-2.7130107728497153e-06   4.115338870901565e-07   -2.9695479126946715e-06
-2.7130107728497153e-06   4.115338870901565e-07   -2.9695479126946715e-06
-5.305494772953882e-07   3.0318710628988044e-07   -6.541975336805068e-06
-5.305494772953882e-07   3.0318710628988044e-07   -6.541975336805068e-06
-5.305494772953882e-07   3.0318710628988044e-07   -6.541975336805068e-06
-5.305494772953882e-07   3.0318710628988044e-07   -6.541975336805068e-06
-1.6616684866456576e-06   3.055695641362836e-07   -4.658206462595804e-06
-1.6616684866456576e-06   3.055695641362836e-07   -4.658206462595804e-06
-1.6616684866456576e-06   3.055695641362836e-07   -4.658206462595804e-06
-1.6616684866456576e-06   3.055695641362836e-07   -4.658206462595804e-06
-5.305494772953867e-07   4.11533887090161e-07   -2.9045398442145492e-06
-5.305494772953867e-07   4.11533887090161e-07   -2.9045398442145492e-06
-5.305494772953867e-07   4.11533887090161e-07   -2.9045398442145492e-06
-5.305494772953867e-07   4.11533887090161e-07   -2.9045398442145492e-06
-2.7130107728497153e-06   3.0318710628988044e-07   -6.606983405285221e-06
-2.7130107728497153e-06   3.0318710628988044e-07   -6.606983405285221e-06
-2.7130107728497153e-06   3.0318710628988044e-07   -6.606983405285221e-06
-2.7130107728497153e-06   3.0318710628988044e-07   -6.606983405285221e-06
-2.6314397715324096e-06   5.442643670662702e-07   -3.0431411678257653e-06
-2.6314397715324096e-06   5.442643670662702e-07   -3.0431411678257653e-06
-2.6314397715324096e-06   5.442643670662702e-07   -3.0431411678257653e-06
-2.6314397715324096e-06   5.442643670662702e-07   -3.0431411678257653e-06
-4.55155520153819e-07   4.1380934782584387e-07   -6.592008575245837e-06
-4.55155520153819e-07   4.1380934782584387e-07   -6.592008575245837e-06
-4.55155520153819e-07   4.1380934782584387e-07   -6.592008575245837e-06
-4.55155520153819e-07   4.1380934782584387e-07   -6.592008575245837e-06
-1.5932590790151159e-06   3.964659535164944e-07   -4.684763273891507e-06
-1.5932590790151159e-06   3.964659535164944e-07   -4.684763273891507e-06
-1.5932590790151159e-06   3.964659535164944e-07   -4.684763273891507e-06
-1.5932590790151159e-06   3.964659535164944e-07   -4.684763273891507e-06
-2.8925175688467602e-06   4.868870461223764e-07   -2.4209394933761826e-06
-2.8925175688467602e-06   4.868870461223764e-07   -2.4209394933761826e-06
-2.8925175688467602e-06   4.868870461223764e-07   -2.4209394933761826e-06
-2.8925175688467602e-06   4.868870461223764e-07   -2.4209394933761826e-06
-5.067093527554454e-06   5.951678050569492e-07   -5.980264302528262e-06
-5.067093527554454e-06   5.951678050569492e-07   -5.980264302528262e-06
-5.067093527554454e-06   5.951678050569492e-07   -5.980264302528262e-06
-5.067093527554454e-06   5.951678050569492e-07   -5.980264302528262e-06
-4.9560158544560855e-06   6.193048443428454e-07   -2.2564399967249407e-06
-4.9560158544560855e-06   6.193048443428454e-07   -2.2564399967249407e-06
-4.9560158544560855e-06   6.193048443428454e-07   -2.2564399967249407e-06
-4.9560158544560855e-06   6.193048443428454e-07   -2.2564399967249407e-06
-2.801367889599343e-06   7.126301652409959e-07   -5.9035151306917285e-06
-2.801367889599343e-06   7.126301652409959e-07   -5.9035151306917285e-06
-2.801367889599343e-06   7.126301652409959e-07   -5.9035151306917285e-06
-2.801367889599343e-06   7.126301652409959e-07   -5.9035151306917285e-06
-3.900935787275084e-06   6.253707358410353e-07   -4.018546310258861e-06
-3.900935787275084e-06   6.253707358410353e-07   -4.018546310258861e-06
-3.900935787275084e-06   6.253707358410353e-07   -4.018546310258861e-06
-3.900935787275084e-06   6.253707358410353e-07   -4.018546310258861e-06
-2.8013678895993434e-06   6.193048443428363e-07   -2.312435189263831e-06
-2.8013678895993434e-06   6.193048443428363e-07   -2.312435189263831e-06
-2.8013678895993434e-06   6.193048443428363e-07   -2.312435189263831e-06
-2.8013678895993434e-06   6.193048443428363e-07   -2.312435189263831e-06
-4.9560158544560855e-06   7.126301652409959e-07   -5.847519938152848e-06
-4.9560158544560855e-06   7.126301652409959e-07   -5.847519938152848e-06
-4.9560158544560855e-06   7.126301652409959e-07   -5.847519938152848e-06
-4.9560158544560855e-06   7.126301652409959e-07   -5.847519938152848e-06
-4.830425959270283e-06   7.376199483030916e-07   -2.164469547692857e-06
-4.830425959270283e-06   7.376199483030916e-07   -2.164469547692857e-06
-4.830425959270283e-06   7.376199483030916e-07   -2.164469547692857e-06
-4.830425959270283e-06   7.376199483030916e-07   -2.164469547692857e-06
-2.7130107728497204e-06   8.134379407248702e-07   -5.738985653846873e-06
-2.7130107728497204e-06   8.134379407248702e-07   -5.738985653846873e-06
-2.7130107728497204e-06   8.134379407248702e-07   -5.738985653846873e-06
-2.7130107728497204e-06   8.134379407248702e-07   -5.738985653846873e-06
-3.7858377395468174e-06   7.182693618321308e-07   -3.8938395620160445e-06
-3.7858377395468174e-06   7.182693618321308e-07   -3.8938395620160445e-06
-3.7858377395468174e-06   7.182693618321308e-07   -3.8938395620160445e-06
-3.7858377395468174e-06   7.182693618321308e-07   -3.8938395620160445e-06
-2.7130107728497212e-06   7.376199483030754e-07   -2.2099603431459402e-06
-2.7130107728497212e-06   7.376199483030754e-07   -2.2099603431459402e-06
-2.7130107728497212e-06   7.376199483030754e-07   -2.2099603431459402e-06
-2.7130107728497212e-06   7.376199483030754e-07   -2.2099603431459402e-06
-4.830425959270283e-06   8.134379407248159e-07   -5.69349485839382e-06
-4.830425959270283e-06   8.134379407248159e-07   -5.69349485839382e-06
-4.830425959270283e-06   8.134379407248159e-07   -5.69349485839382e-06
-4.830425959270283e-06   8.134379407248159e-07   -5.69349485839382e-06
-4.725006608026097e-06   8.67902838449662e-07   -2.215708519736904e-06
-4.725006608026097e-06   8.67902838449662e-07   -2.215708519736904e-06
-4.725006608026097e-06   8.67902838449662e-07   -2.215708519736904e-06
-4.725006608026097e-06   8.67902838449662e-07   -2.215708519736904e-06
-2.6314397715324147e-06   9.231334086298509e-07   -5.7381249226677726e-06
-2.6314397715324147e-06   9.231334086298509e-07   -5.7381249226677726e-06
-2.6314397715324147e-06   9.231334086298509e-07   -5.7381249226677726e-06
-2.6314397715324147e-06   9.231334086298509e-07   -5.7381249226677726e-06
-3.7208611241095097e-06   8.031168953049174e-07   -3.850412760377755e-06
-3.7208611241095097e-06   8.031168953049174e-07   -3.850412760377755e-06
-3.7208611241095097e-06   8.031168953049174e-07   -3.850412760377755e-06
-3.7208611241095097e-06   8.031168953049174e-07   -3.850412760377755e-06
-5.067093527554454e-06   8.400625067534277e-07   -1.196119023446474e-06
-5.067093527554454e-06   8.400625067534277e-07   -1.196119023446474e-06
-5.067093527554454e-06   8.400625067534277e-07   -1.196119023446474e-06
-5.067093527554454e-06   8.400625067534277e-07   -1.196119023446474e-06
-7.38390968900959e-06   1.1428200592919946e-06   -4.875824761015204e-06
-7.38390968900959e-06   1.1428200592919946e-06   -4.875824761015204e-06
-7.38390968900959e-06   1.1428200592919946e-06   -4.875824761015204e-06
-7.38390968900959e-06   1.1428200592919946e-06   -4.875824761015204e-06
-7.1100737230877894e-06   9.792470286271193e-07   -2.770422604325099e-07
-7.1100737230877894e-06   9.792470286271193e-07   -2.770422604325099e-07
-7.1100737230877894e-06   9.792470286271193e-07   -2.770422604325099e-07
-7.1100737230877894e-06   9.792470286271193e-07   -2.770422604325099e-07
-4.956015854456077e-06   1.2992339991405011e-06   -4.05913089046004e-06
-4.956015854456077e-06   1.2992339991405011e-06   -4.05913089046004e-06
-4.956015854456077e-06   1.2992339991405011e-06   -4.05913089046004e-06
-4.956015854456077e-06   1.2992339991405011e-06   -4.05913089046004e-06
-5.87698663912016e-06   1.0877826640881463e-06   -2.3973087816551617e-06
-5.87698663912016e-06   1.0877826640881463e-06   -2.3973087816551617e-06
-5.87698663912016e-06   1.0877826640881463e-06   -2.3973087816551617e-06
-5.87698663912016e-06   1.0877826640881463e-06   -2.3973087816551617e-06
-4.9560158544560804e-06   9.79247028627086e-07   -4.6903444274052817e-07
-4.9560158544560804e-06   9.79247028627086e-07   -4.6903444274052817e-07
-4.9560158544560804e-06   9.79247028627086e-07   -4.6903444274052817e-07
-4.9560158544560804e-06   9.79247028627086e-07   -4.6903444274052817e-07
-7.110073723087778e-06   1.299233999140447e-06   -3.8671387081520424e-06
-7.110073723087778e-06   1.299233999140447e-06   -3.8671387081520424e-06
-7.110073723087778e-06   1.299233999140447e-06   -3.8671387081520424e-06
-7.110073723087778e-06   1.299233999140447e-06   -3.8671387081520424e-06
-6.885112022818394e-06   1.029679471070764e-06   1.1608214949278511e-07
-6.885112022818394e-06   1.029679471070764e-06   1.1608214949278511e-07
-6.885112022818394e-06   1.029679471070764e-06   1.1608214949278511e-07
-6.885112022818394e-06   1.029679471070764e-06   1.1608214949278511e-07
-4.830425959270283e-06   1.3414238450863334e-06   -3.4954412474967453e-06
-4.830425959270283e-06   1.3414238450863334e-06   -3.4954412474967453e-06
-4.830425959270283e-06   1.3414238450863334e-06   -3.4954412474967453e-06
-4.830425959270283e-06   1.3414238450863334e-06   -3.4954412474967453e-06
-5.798674898111677e-06   1.1534797419168134e-06   -1.768926554192621e-06
-5.798674898111677e-06   1.1534797419168134e-06   -1.768926554192621e-06
-5.798674898111677e-06   1.1534797419168134e-06   -1.768926554192621e-06
-5.798674898111677e-06   1.1534797419168134e-06   -1.768926554192621e-06
-4.830425959270283e-06   1.0296794710707597e-06   -7.096447491656199e-08
-4.830425959270283e-06   1.0296794710707597e-06   -7.096447491656199e-08
-4.830425959270283e-06   1.0296794710707597e-06   -7.096447491656199e-08
-4.830425959270283e-06   1.0296794710707597e-06   -7.096447491656199e-08
-6.885112022818369e-06   1.3414238450863334e-06   -3.308394623087425e-06
-6.885112022818369e-06   1.3414238450863334e-06   -3.308394623087425e-06
-6.885112022818369e-06   1.3414238450863334e-06   -3.308394623087425e-06
-6.885112022818369e-06   1.3414238450863334e-06   -3.308394623087425e-06
-6.63768720441264e-06   1.0886737227651312e-06   6.26403806552612e-07
-6.63768720441264e-06   1.0886737227651312e-06   6.26403806552612e-07
-6.63768720441264e-06   1.0886737227651312e-06   6.26403806552612e-07
-6.63768720441264e-06   1.0886737227651312e-06   6.26403806552612e-07
-4.725006608026093e-06   1.372147616411092e-06   -2.731481523612541e-06
-4.725006608026093e-06   1.372147616411092e-06   -2.731481523612541e-06
-4.725006608026093e-06   1.372147616411092e-06   -2.731481523612541e-06
-4.725006608026093e-06   1.372147616411092e-06   -2.731481523612541e-06
-5.56235214031536e-06   1.1633600494586065e-06   -1.2106330962923709e-06
-5.56235214031536e-06   1.1633600494586065e-06   -1.2106330962923709e-06
-5.56235214031536e-06   1.1633600494586065e-06   -1.2106330962923709e-06
-5.56235214031536e-06   1.1633600494586065e-06   -1.2106330962923709e-06
6.063588091952834e-06   -8.356897013669429e-07   1.3707400285032886e-06
6.063588091952834e-06   -8.356897013669429e-07   1.3707400285032886e-06
6.063588091952834e-06   -8.356897013669429e-07   1.3707400285032886e-06
6.063588091952834e-06   -8.356897013669429e-07   1.3707400285032886e-06
2.8843904755842818e-06   -1.2119043422987859e-06   -4.153651450003411e-06
2.8843904755842818e-06   -1.2119043422987859e-06   -4.153651450003411e-06
2.8843904755842818e-06   -1.2119043422987859e-06   -4.153651450003411e-06
2.8843904755842818e-06   -1.2119043422987859e-06   -4.153651450003411e-06
2.9867844100865557e-06   -7.797913287911368e-07   7.497713871580365e-07
2.9867844100865557e-06   -7.797913287911368e-07   7.497713871580365e-07
2.9867844100865557e-06   -7.797913287911368e-07   7.497713871580365e-07
2.9867844100865557e-06   -7.797913287911368e-07   7.497713871580365e-07
6.316252698908245e-06   -1.1866079190987126e-06   -4.555252473360272e-06
6.316252698908245e-06   -1.1866079190987126e-06   -4.555252473360272e-06
6.316252698908245e-06   -1.1866079190987126e-06   -4.555252473360272e-06
6.316252698908245e-06   -1.1866079190987126e-06   -4.555252473360272e-06
4.375461852895451e-06   -9.093132769661099e-07   -1.486977848618503e-06
4.375461852895451e-06   -9.093132769661099e-07   -1.486977848618503e-06
4.375461852895451e-06   -9.093132769661099e-07   -1.486977848618503e-06
4.375461852895451e-06   -9.093132769661099e-07   -1.486977848618503e-06
6.316252698908258e-06   -7.797913287911455e-07   9.938613413425657e-07
6.316252698908258e-06   -7.797913287911455e-07   9.938613413425657e-07
6.316252698908258e-06   -7.797913287911455e-07   9.938613413425657e-07
6.316252698908258e-06   -7.797913287911455e-07   9.938613413425657e-07
2.986784410086549e-06   -1.1866079190987126e-06   -4.799342427544808e-06
2.986784410086549e-06   -1.1866079190987126e-06   -4.799342427544808e-06
2.986784410086549e-06   -1.1866079190987126e-06   -4.799342427544808e-06
2.986784410086549e-06   -1.1866079190987126e-06   -4.799342427544808e-06
3.0890506104876707e-06   -7.285047235424443e-07   4.389324976717562e-07
3.0890506104876707e-06   -7.285047235424443e-07   4.389324976717562e-07
3.0890506104876707e-06   -7.285047235424443e-07   4.389324976717562e-07
3.0890506104876707e-06   -7.285047235424443e-07   4.389324976717562e-07
6.507901205058493e-06   -1.1444002341658654e-06   -5.009614520238893e-06
6.507901205058493e-06   -1.1444002341658654e-06   -5.009614520238893e-06
6.507901205058493e-06   -1.1444002341658654e-06   -5.009614520238893e-06
6.507901205058493e-06   -1.1444002341658654e-06   -5.009614520238893e-06
4.590716360392168e-06   -9.056573561542027e-07   -1.9575521726020637e-06
4.590716360392168e-06   -9.056573561542027e-07   -1.9575521726020637e-06
4.590716360392168e-06   -9.056573561542027e-07   -1.9575521726020637e-06
4.590716360392168e-06   -9.056573561542027e-07   -1.9575521726020637e-06
6.507901205058493e-06   -7.285047235424387e-07   6.884698040458088e-07
6.507901205058493e-06   -7.285047235424387e-07   6.884698040458088e-07
6.507901205058493e-06   -7.285047235424387e-07   6.884698040458088e-07
6.507901205058493e-06   -7.285047235424387e-07   6.884698040458088e-07
3.0890506104876707e-06   -1.1444002341658654e-06   -5.259151826612966e-06
3.0890506104876707e-06   -1.1444002341658654e-06   -5.259151826612966e-06
3.0890506104876707e-06   -1.1444002341658654e-06   -5.259151826612966e-06
3.0890506104876707e-06   -1.1444002341658654e-06   -5.259151826612966e-06
3.1559383888017722e-06   -5.699643350548034e-07   -1.7525168840011964e-07
3.1559383888017722e-06   -5.699643350548034e-07   -1.7525168840011964e-07
3.1559383888017722e-06   -5.699643350548034e-07   -1.7525168840011964e-07
3.1559383888017722e-06   -5.699643350548034e-07   -1.7525168840011964e-07
6.711403774932607e-06   -9.834421164536095e-07   -5.852940663112207e-06
6.711403774932607e-06   -9.834421164536095e-07   -5.852940663112207e-06
6.711403774932607e-06   -9.834421164536095e-07   -5.852940663112207e-06
6.711403774932607e-06   -9.834421164536095e-07   -5.852940663112207e-06
4.63936297594996e-06   -8.341223813920339e-07   -2.4891311725115084e-06
4.63936297594996e-06   -8.341223813920339e-07   -2.4891311725115084e-06
4.63936297594996e-06   -8.341223813920339e-07   -2.4891311725115084e-06
4.63936297594996e-06   -8.341223813920339e-07   -2.4891311725115084e-06
2.884390475584285e-06   -3.744856870962914e-07   -1.2323157849670682e-06
2.884390475584285e-06   -3.744856870962914e-07   -1.2323157849670682e-06
2.884390475584285e-06   -3.744856870962914e-07   -1.2323157849670682e-06
2.884390475584285e-06   -3.744856870962914e-07   -1.2323157849670682e-06
-2.424233666193622e-07   -7.445221613421645e-07   -6.665694073187343e-06
-2.424233666193622e-07   -7.445221613421645e-07   -6.665694073187343e-06
-2.424233666193622e-07   -7.445221613421645e-07   -6.665694073187343e-06
-2.424233666193622e-07   -7.445221613421645e-07   -6.665694073187343e-06
-1.3879711912454654e-07   -2.9163318833214406e-07   -1.3670154510791934e-06
-1.3879711912454654e-07   -2.9163318833214406e-07   -1.3670154510791934e-06
-1.3879711912454654e-07   -2.9163318833214406e-07   -1.3670154510791934e-06
-1.3879711912454654e-07   -2.9163318833214406e-07   -1.3670154510791934e-06
2.9867844100865557e-06   -7.031904105871014e-07   -6.329383666411412e-06
2.9867844100865557e-06   -7.031904105871014e-07   -6.329383666411412e-06
2.9867844100865557e-06   -7.031904105871014e-07   -6.329383666411412e-06
2.9867844100865557e-06   -7.031904105871014e-07   -6.329383666411412e-06
1.3753146373137347e-06   -4.5230349026288393e-07   -3.794132863984603e-06
1.3753146373137347e-06   -4.5230349026288393e-07   -3.794132863984603e-06
1.3753146373137347e-06   -4.5230349026288393e-07   -3.794132863984603e-06
1.3753146373137347e-06   -4.5230349026288393e-07   -3.794132863984603e-06
2.986784410086549e-06   -2.916331883321637e-07   -1.1200811177262406e-06
2.986784410086549e-06   -2.916331883321637e-07   -1.1200811177262406e-06
2.986784410086549e-06   -2.916331883321637e-07   -1.1200811177262406e-06
2.986784410086549e-06   -2.916331883321637e-07   -1.1200811177262406e-06
-1.3879711912454654e-07   -7.031904105871014e-07   -6.576317999764378e-06
-1.3879711912454654e-07   -7.031904105871014e-07   -6.576317999764378e-06
-1.3879711912454654e-07   -7.031904105871014e-07   -6.576317999764378e-06
-1.3879711912454654e-07   -7.031904105871014e-07   -6.576317999764378e-06
-4.7871292089276895e-08   -1.908430905110431e-07   -1.4120380479843927e-06
-4.7871292089276895e-08   -1.908430905110431e-07   -1.4120380479843927e-06
-4.7871292089276895e-08   -1.908430905110431e-07   -1.4120380479843927e-06
-4.7871292089276895e-08   -1.908430905110431e-07   -1.4120380479843927e-06
3.089050610487669e-06   -6.304145418925653e-07   -6.376498348117067e-06
3.089050610487669e-06   -6.304145418925653e-07   -6.376498348117067e-06
3.089050610487669e-06   -6.304145418925653e-07   -6.376498348117067e-06
3.089050610487669e-06   -6.304145418925653e-07   -6.376498348117067e-06
1.4423087137099702e-06   -4.0912489994600603e-07   -3.764702305322086e-06
1.4423087137099702e-06   -4.0912489994600603e-07   -3.764702305322086e-06
1.4423087137099702e-06   -4.0912489994600603e-07   -3.764702305322086e-06
1.4423087137099702e-06   -4.0912489994600603e-07   -3.764702305322086e-06
3.0890506104876707e-06   -1.908430905110267e-07   -1.148295177155474e-06
3.0890506104876707e-06   -1.908430905110267e-07   -1.148295177155474e-06
3.0890506104876707e-06   -1.908430905110267e-07   -1.148295177155474e-06
3.0890506104876707e-06   -1.908430905110267e-07   -1.148295177155474e-06
-4.7871292089276895e-08   -6.304145418925653e-07   -6.640241218945999e-06
-4.7871292089276895e-08   -6.304145418925653e-07   -6.640241218945999e-06
-4.7871292089276895e-08   -6.304145418925653e-07   -6.640241218945999e-06
-4.7871292089276895e-08   -6.304145418925653e-07   -6.640241218945999e-06
1.557147288828024e-08   -6.290626873844008e-08   -1.480257088180923e-06
1.557147288828024e-08   -6.290626873844008e-08   -1.480257088180923e-06
1.557147288828024e-08   -6.290626873844008e-08   -1.480257088180923e-06
1.557147288828024e-08   -6.290626873844008e-08   -1.480257088180923e-06
3.155938388801779e-06   -5.265465326474684e-07   -6.436017789691382e-06
3.155938388801779e-06   -5.265465326474684e-07   -6.436017789691382e-06
3.155938388801779e-06   -5.265465326474684e-07   -6.436017789691382e-06
3.155938388801779e-06   -5.265465326474684e-07   -6.436017789691382e-06
1.5278761507253377e-06   -3.3563490836098237e-07   -3.837127700802607e-06
1.5278761507253377e-06   -3.3563490836098237e-07   -3.837127700802607e-06
1.5278761507253377e-06   -3.3563490836098237e-07   -3.837127700802607e-06
1.5278761507253377e-06   -3.3563490836098237e-07   -3.837127700802607e-06
-2.424233666193622e-07   1.0149163271278312e-07   -1.979434132607863e-06
-2.424233666193622e-07   1.0149163271278312e-07   -1.979434132607863e-06
-2.424233666193622e-07   1.0149163271278312e-07   -1.979434132607863e-06
-2.424233666193622e-07   1.0149163271278312e-07   -1.979434132607863e-06
-3.3232447816541156e-06   -3.2755113917319785e-07   -7.371562154130694e-06
-3.3232447816541156e-06   -3.2755113917319785e-07   -7.371562154130694e-06
-3.3232447816541156e-06   -3.2755113917319785e-07   -7.371562154130694e-06
-3.3232447816541156e-06   -3.2755113917319785e-07   -7.371562154130694e-06
-3.198361978213021e-06   1.958093025859189e-07   -2.141317438375843e-06
-3.198361978213021e-06   1.958093025859189e-07   -2.141317438375843e-06
-3.198361978213021e-06   1.958093025859189e-07   -2.141317438375843e-06
-3.198361978213021e-06   1.958093025859189e-07   -2.141317438375843e-06
-1.3879711912454545e-07   -2.770698819180937e-07   -6.956864692820864e-06
-1.3879711912454545e-07   -2.770698819180937e-07   -6.956864692820864e-06
-1.3879711912454545e-07   -2.770698819180937e-07   -6.956864692820864e-06
-1.3879711912454545e-07   -2.770698819180937e-07   -6.956864692820864e-06
-1.7075181173826066e-06   -2.201494002834802e-08   -4.4953626608579485e-06
-1.7075181173826066e-06   -2.201494002834802e-08   -4.4953626608579485e-06
-1.7075181173826066e-06   -2.201494002834802e-08   -4.4953626608579485e-06
-1.7075181173826066e-06   -2.201494002834802e-08   -4.4953626608579485e-06
-1.3879711912454654e-07   1.95809302585921e-07   -1.8575899276733812e-06
-1.3879711912454654e-07   1.95809302585921e-07   -1.8575899276733812e-06
-1.3879711912454654e-07   1.95809302585921e-07   -1.8575899276733812e-06
-1.3879711912454654e-07   1.95809302585921e-07   -1.8575899276733812e-06
-3.198361978213021e-06   -2.770698819180937e-07   -7.240592203523299e-06
-3.198361978213021e-06   -2.770698819180937e-07   -7.240592203523299e-06
-3.198361978213021e-06   -2.770698819180937e-07   -7.240592203523299e-06
-3.198361978213021e-06   -2.770698819180937e-07   -7.240592203523299e-06
-3.083855123355388e-06   3.0318710628988044e-07   -2.102427533537464e-06
-3.083855123355388e-06   3.0318710628988044e-07   -2.102427533537464e-06
-3.083855123355388e-06   3.0318710628988044e-07   -2.102427533537464e-06
-3.083855123355388e-06   3.0318710628988044e-07   -2.102427533537464e-06
-4.7871292089277014e-08   -2.0449369803255584e-07   -6.857792103054198e-06
-4.7871292089277014e-08   -2.0449369803255584e-07   -6.857792103054198e-06
-4.7871292089277014e-08   -2.0449369803255584e-07   -6.857792103054198e-06
-4.7871292089277014e-08   -2.0449369803255584e-07   -6.857792103054198e-06
-1.6070359244382603e-06   3.35496528798291e-08   -4.402010393019964e-06
-1.6070359244382603e-06   3.35496528798291e-08   -4.402010393019964e-06
-1.6070359244382603e-06   3.35496528798291e-08   -4.402010393019964e-06
-1.6070359244382603e-06   3.35496528798291e-08   -4.402010393019964e-06
-4.7871292089276895e-08   3.031871062899042e-07   -1.7978190509440075e-06
-4.7871292089276895e-08   3.031871062899042e-07   -1.7978190509440075e-06
-4.7871292089276895e-08   3.031871062899042e-07   -1.7978190509440075e-06
-4.7871292089276895e-08   3.031871062899042e-07   -1.7978190509440075e-06
-3.083855123355388e-06   -2.0449369803255584e-07   -7.162400585647644e-06
-3.083855123355388e-06   -2.0449369803255584e-07   -7.162400585647644e-06
-3.083855123355388e-06   -2.0449369803255584e-07   -7.162400585647644e-06
-3.083855123355388e-06   -2.0449369803255584e-07   -7.162400585647644e-06
-3.0071571652790196e-06   4.1380934782584387e-07   -2.144353470071611e-06
-3.0071571652790196e-06   4.1380934782584387e-07   -2.144353470071611e-06
-3.0071571652790196e-06   4.1380934782584387e-07   -2.144353470071611e-06
-3.0071571652790196e-06   4.1380934782584387e-07   -2.144353470071611e-06
1.5571472888281158e-08   -1.3482160844419805e-07   -6.8530559599217485e-06
1.5571472888281158e-08   -1.3482160844419805e-07   -6.8530559599217485e-06
1.5571472888281158e-08   -1.3482160844419805e-07   -6.8530559599217485e-06
1.5571472888281158e-08   -1.3482160844419805e-07   -6.8530559599217485e-06
-1.5366901611974985e-06   9.52082458773886e-08   -4.403971149038467e-06
-1.5366901611974985e-06   9.52082458773886e-08   -4.403971149038467e-06
-1.5366901611974985e-06   9.52082458773886e-08   -4.403971149038467e-06
-1.5366901611974985e-06   9.52082458773886e-08   -4.403971149038467e-06
-3.3232447816541156e-06   5.951678050569191e-07   -1.584881189543104e-06
-3.3232447816541156e-06   5.951678050569191e-07   -1.584881189543104e-06
-3.3232447816541156e-06   5.951678050569191e-07   -1.584881189543104e-06
-3.3232447816541156e-06   5.951678050569191e-07   -1.584881189543104e-06
-6.455410345545595e-06   2.1911973619673925e-07   -7.030785970678371e-06
-6.455410345545595e-06   2.1911973619673925e-07   -7.030785970678371e-06
-6.455410345545595e-06   2.1911973619673925e-07   -7.030785970678371e-06
-6.455410345545595e-06   2.1911973619673925e-07   -7.030785970678371e-06
-6.276952372588781e-06   7.126301652409959e-07   -1.6664336952450752e-06
-6.276952372588781e-06   7.126301652409959e-07   -1.6664336952450752e-06
-6.276952372588781e-06   7.126301652409959e-07   -1.6664336952450752e-06
-6.276952372588781e-06   7.126301652409959e-07   -1.6664336952450752e-06
-3.1983619782130213e-06   3.0402558086372374e-07   -6.552254935245028e-06
-3.1983619782130213e-06   3.0402558086372374e-07   -6.552254935245028e-06
-3.1983619782130213e-06   3.0402558086372374e-07   -6.552254935245028e-06
-3.1983619782130213e-06   3.0402558086372374e-07   -6.552254935245028e-06
-4.766803655819634e-06   4.934526712256008e-07   -4.051841726784446e-06
-4.766803655819634e-06   4.934526712256008e-07   -4.051841726784446e-06
-4.766803655819634e-06   4.934526712256008e-07   -4.051841726784446e-06
-4.766803655819634e-06   4.934526712256008e-07   -4.051841726784446e-06
-3.198361978213021e-06   7.12630165240991e-07   -1.4212709446187498e-06
-3.198361978213021e-06   7.12630165240991e-07   -1.4212709446187498e-06
-3.198361978213021e-06   7.12630165240991e-07   -1.4212709446187498e-06
-3.198361978213021e-06   7.12630165240991e-07   -1.4212709446187498e-06
-6.276952372588792e-06   3.0402558086377795e-07   -6.79741768587136e-06
-6.276952372588792e-06   3.0402558086377795e-07   -6.79741768587136e-06
-6.276952372588792e-06   3.0402558086377795e-07   -6.79741768587136e-06
-6.276952372588792e-06   3.0402558086377795e-07   -6.79741768587136e-06
-6.101601259836247e-06   8.134379407248702e-07   -1.4937091745466499e-06
-6.101601259836247e-06   8.134379407248702e-07   -1.4937091745466499e-06
-6.101601259836247e-06   8.134379407248702e-07   -1.4937091745466499e-06
-6.101601259836247e-06   8.134379407248702e-07   -1.4937091745466499e-06
-3.0838551233553915e-06   3.8130561997895855e-07   -6.264006676233899e-06
-3.0838551233553915e-06   3.8130561997895855e-07   -6.264006676233899e-06
-3.0838551233553915e-06   3.8130561997895855e-07   -6.264006676233899e-06
-3.0838551233553915e-06   3.8130561997895855e-07   -6.264006676233899e-06
-4.601306044918549e-06   5.674589333038858e-07   -3.846613794956881e-06
-4.601306044918549e-06   5.674589333038858e-07   -3.846613794956881e-06
-4.601306044918549e-06   5.674589333038858e-07   -3.846613794956881e-06
-4.601306044918549e-06   5.674589333038858e-07   -3.846613794956881e-06
-3.083855123355388e-06   8.134379407248834e-07   -1.234429782099092e-06
-3.083855123355388e-06   8.134379407248834e-07   -1.234429782099092e-06
-3.083855123355388e-06   8.134379407248834e-07   -1.234429782099092e-06
-3.083855123355388e-06   8.134379407248834e-07   -1.234429782099092e-06
-6.101601259836258e-06   3.8130561997895855e-07   -6.523286068681444e-06
-6.101601259836258e-06   3.8130561997895855e-07   -6.523286068681444e-06
-6.101601259836258e-06   3.8130561997895855e-07   -6.523286068681444e-06
-6.101601259836258e-06   3.8130561997895855e-07   -6.523286068681444e-06
-5.972709148312324e-06   9.231334086297967e-07   -1.499203798403765e-06
-5.972709148312324e-06   9.231334086297967e-07   -1.499203798403765e-06
-5.972709148312324e-06   9.231334086297967e-07   -1.499203798403765e-06
-5.972709148312324e-06   9.231334086297967e-07   -1.499203798403765e-06
-3.007157165279024e-06   4.447884212056526e-07   -6.15478344433812e-06
-3.007157165279024e-06   4.447884212056526e-07   -6.15478344433812e-06
-3.007157165279024e-06   4.447884212056526e-07   -6.15478344433812e-06
-3.007157165279024e-06   4.447884212056526e-07   -6.15478344433812e-06
-4.518210394542017e-06   6.196636019460602e-07   -3.741286504010734e-06
-4.518210394542017e-06   6.196636019460602e-07   -3.741286504010734e-06
-4.518210394542017e-06   6.196636019460602e-07   -3.741286504010734e-06
-4.518210394542017e-06   6.196636019460602e-07   -3.741286504010734e-06
-6.455410345545595e-06   1.1428200592920327e-06   -8.87725020869357e-07
-6.455410345545595e-06   1.1428200592920327e-06   -8.87725020869357e-07
-6.455410345545595e-06   1.1428200592920327e-06   -8.87725020869357e-07
-6.455410345545595e-06   1.1428200592920327e-06   -8.87725020869357e-07
-9.752303978146171e-06   1.1052964520656921e-06   -6.405061906206172e-06
-9.752303978146171e-06   1.1052964520656921e-06   -6.405061906206172e-06
-9.752303978146171e-06   1.1052964520656921e-06   -6.405061906206172e-06
-9.752303978146171e-06   1.1052964520656921e-06   -6.405061906206172e-06
-9.377592213800806e-06   1.299233999140447e-06   1.603096288418243e-07
-9.377592213800806e-06   1.299233999140447e-06   1.603096288418243e-07
-9.377592213800806e-06   1.299233999140447e-06   1.603096288418243e-07
-9.377592213800806e-06   1.299233999140447e-06   1.603096288418243e-07
-6.27695237258877e-06   1.3631577931307146e-06   -5.045777716239019e-06
-6.27695237258877e-06   1.3631577931307146e-06   -5.045777716239019e-06
-6.27695237258877e-06   1.3631577931307146e-06   -5.045777716239019e-06
-6.27695237258877e-06   1.3631577931307146e-06   -5.045777716239019e-06
-7.623525147060514e-06   1.280566646718142e-06   -2.7519350709386025e-06
-7.623525147060514e-06   1.280566646718142e-06   -2.7519350709386025e-06
-7.623525147060514e-06   1.280566646718142e-06   -2.7519350709386025e-06
-7.623525147060514e-06   1.280566646718142e-06   -2.7519350709386025e-06
-6.276952372588786e-06   1.2992339991404857e-06   1.2195535244768538e-07
-6.276952372588786e-06   1.2992339991404857e-06   1.2195535244768538e-07
-6.276952372588786e-06   1.2992339991404857e-06   1.2195535244768538e-07
-6.276952372588786e-06   1.2992339991404857e-06   1.2195535244768538e-07
-9.377592213800789e-06   1.3631577931307146e-06   -5.007423439844889e-06
-9.377592213800789e-06   1.3631577931307146e-06   -5.007423439844889e-06
-9.377592213800789e-06   1.3631577931307146e-06   -5.007423439844889e-06
-9.377592213800789e-06   1.3631577931307146e-06   -5.007423439844889e-06
-9.070232803402523e-06   1.3414238450863876e-06   7.531366841061833e-07
-9.070232803402523e-06   1.3414238450863876e-06   7.531366841061833e-07
-9.070232803402523e-06   1.3414238450863876e-06   7.531366841061833e-07
-9.070232803402523e-06   1.3414238450863876e-06   7.531366841061833e-07
-6.101601259836247e-06   1.4227442580126964e-06   -4.243374802926733e-06
-6.101601259836247e-06   1.4227442580126964e-06   -4.243374802926733e-06
-6.101601259836247e-06   1.4227442580126964e-06   -4.243374802926733e-06
-6.101601259836247e-06   1.4227442580126964e-06   -4.243374802926733e-06
-7.5020176449282824e-06   1.3697163010861334e-06   -1.8775307202840032e-06
-7.5020176449282824e-06   1.3697163010861334e-06   -1.8775307202840032e-06
-7.5020176449282824e-06   1.3697163010861334e-06   -1.8775307202840032e-06
-7.5020176449282824e-06   1.3697163010861334e-06   -1.8775307202840032e-06
-6.101601259836258e-06   1.3414238450863397e-06   7.043444363503981e-07
-6.101601259836258e-06   1.3414238450863397e-06   7.043444363503981e-07
-6.101601259836258e-06   1.3414238450863397e-06   7.043444363503981e-07
-6.101601259836258e-06   1.3414238450863397e-06   7.043444363503981e-07
-9.070232803402539e-06   1.4227442580126964e-06   -4.19458255517094e-06
-9.070232803402539e-06   1.4227442580126964e-06   -4.19458255517094e-06
-9.070232803402539e-06   1.4227442580126964e-06   -4.19458255517094e-06
-9.070232803402539e-06   1.4227442580126964e-06   -4.19458255517094e-06
-8.745144751109806e-06   1.372147616411092e-06   1.5595778062347599e-06
-8.745144751109806e-06   1.372147616411092e-06   1.5595778062347599e-06
-8.745144751109806e-06   1.372147616411092e-06   1.5595778062347599e-06
-8.745144751109806e-06   1.372147616411092e-06   1.5595778062347599e-06
-5.972709148312328e-06   1.514275195896764e-06   -3.1464247461190884e-06
-5.972709148312328e-06   1.514275195896764e-06   -3.1464247461190884e-06
-5.972709148312328e-06   1.514275195896764e-06   -3.1464247461190884e-06
-5.972709148312328e-06   1.514275195896764e-06   -3.1464247461190884e-06
-7.180665830366154e-06   1.395293608133204e-06   -1.0617746567046926e-06
-7.180665830366154e-06   1.395293608133204e-06   -1.0617746567046926e-06
-7.180665830366154e-06   1.395293608133204e-06   -1.0617746567046926e-06
-7.180665830366154e-06   1.395293608133204e-06   -1.0617746567046926e-06
8.19311890727595e-06   -1.2119043422987859e-06   2.9282689363491795e-06
8.19311890727595e-06   -1.2119043422987859e-06   2.9282689363491795e-06
8.19311890727595e-06   -1.2119043422987859e-06   2.9282689363491795e-06
8.19311890727595e-06   -1.2119043422987859e-06   2.9282689363491795e-06
4.077868940375097e-06   -1.512716794478165e-06   -4.110968479793228e-06
4.077868940375097e-06   -1.512716794478165e-06   -4.110968479793228e-06
4.077868940375097e-06   -1.512716794478165e-06   -4.110968479793228e-06
4.077868940375097e-06   -1.512716794478165e-06   -4.110968479793228e-06
4.164041627523388e-06   -1.1866079190987126e-06   2.133154567953978e-06
4.164041627523388e-06   -1.1866079190987126e-06   2.133154567953978e-06
4.164041627523388e-06   -1.1866079190987126e-06   2.133154567953978e-06
4.164041627523388e-06   -1.1866079190987126e-06   2.133154567953978e-06
8.379826754190933e-06   -1.5506965923078268e-06   -4.674700772566457e-06
8.379826754190933e-06   -1.5506965923078268e-06   -4.674700772566457e-06
8.379826754190933e-06   -1.5506965923078268e-06   -4.674700772566457e-06
8.379826754190933e-06   -1.5506965923078268e-06   -4.674700772566457e-06
5.953720533048857e-06   -1.2372410644980228e-06   -8.192637206822211e-07
5.953720533048857e-06   -1.2372410644980228e-06   -8.192637206822211e-07
5.953720533048857e-06   -1.2372410644980228e-06   -8.192637206822211e-07
5.953720533048857e-06   -1.2372410644980228e-06   -8.192637206822211e-07
8.379826754190931e-06   -1.186607919098709e-06   2.3516077718794734e-06
8.379826754190931e-06   -1.186607919098709e-06   2.3516077718794734e-06
8.379826754190931e-06   -1.186607919098709e-06   2.3516077718794734e-06
8.379826754190931e-06   -1.186607919098709e-06   2.3516077718794734e-06
4.164041627523388e-06   -1.5506965923078268e-06   -4.893153976491939e-06
4.164041627523388e-06   -1.5506965923078268e-06   -4.893153976491939e-06
4.164041627523388e-06   -1.5506965923078268e-06   -4.893153976491939e-06
4.164041627523388e-06   -1.5506965923078268e-06   -4.893153976491939e-06
4.236562745070884e-06   -1.1444002341658654e-06   1.7004146537690174e-06
4.236562745070884e-06   -1.1444002341658654e-06   1.7004146537690174e-06
4.236562745070884e-06   -1.1444002341658654e-06   1.7004146537690174e-06
4.236562745070884e-06   -1.1444002341658654e-06   1.7004146537690174e-06
8.494814710923715e-06   -1.534021324210385e-06   -5.162899301958994e-06
8.494814710923715e-06   -1.534021324210385e-06   -5.162899301958994e-06
8.494814710923715e-06   -1.534021324210385e-06   -5.162899301958994e-06
8.494814710923715e-06   -1.534021324210385e-06   -5.162899301958994e-06
6.151568302450562e-06   -1.2730915440011524e-06   -1.414046489295944e-06
6.151568302450562e-06   -1.2730915440011524e-06   -1.414046489295944e-06
6.151568302450562e-06   -1.2730915440011524e-06   -1.414046489295944e-06
6.151568302450562e-06   -1.2730915440011524e-06   -1.414046489295944e-06
8.494814710923715e-06   -1.1444002341658834e-06   1.934187307795751e-06
8.494814710923715e-06   -1.1444002341658834e-06   1.934187307795751e-06
8.494814710923715e-06   -1.1444002341658834e-06   1.934187307795751e-06
8.494814710923715e-06   -1.1444002341658834e-06   1.934187307795751e-06
4.236562745070884e-06   -1.534021324210385e-06   -5.39667195598566e-06
4.236562745070884e-06   -1.534021324210385e-06   -5.39667195598566e-06
4.236562745070884e-06   -1.534021324210385e-06   -5.39667195598566e-06
4.236562745070884e-06   -1.534021324210385e-06   -5.39667195598566e-06
4.31035186388124e-06   -9.834421164536095e-07   8.761482791880238e-07
4.31035186388124e-06   -9.834421164536095e-07   8.761482791880238e-07
4.31035186388124e-06   -9.834421164536095e-07   8.761482791880238e-07
4.31035186388124e-06   -9.834421164536095e-07   8.761482791880238e-07
8.608199659740866e-06   -1.4410482882851292e-06   -6.0123676774790825e-06
8.608199659740866e-06   -1.4410482882851292e-06   -6.0123676774790825e-06
8.608199659740866e-06   -1.4410482882851292e-06   -6.0123676774790825e-06
8.608199659740866e-06   -1.4410482882851292e-06   -6.0123676774790825e-06
6.1417190706422915e-06   -1.2209975414823244e-06   -2.033597143729862e-06
6.1417190706422915e-06   -1.2209975414823244e-06   -2.033597143729862e-06
6.1417190706422915e-06   -1.2209975414823244e-06   -2.033597143729862e-06
6.1417190706422915e-06   -1.2209975414823244e-06   -2.033597143729862e-06
4.077868940375097e-06   -7.445221613421497e-07   4.577607264051131e-07
4.077868940375097e-06   -7.445221613421497e-07   4.577607264051131e-07
4.077868940375097e-06   -7.445221613421497e-07   4.577607264051131e-07
4.077868940375097e-06   -7.445221613421497e-07   4.577607264051131e-07
3.7537832911849005e-07   -1.4195104753586063e-06   -6.118049947432446e-06
3.7537832911849005e-07   -1.4195104753586063e-06   -6.118049947432446e-06
3.7537832911849005e-07   -1.4195104753586063e-06   -6.118049947432446e-06
3.7537832911849005e-07   -1.4195104753586063e-06   -6.118049947432446e-06
4.745265605805209e-07   -7.031904105871014e-07   1.808155659895408e-07
4.745265605805209e-07   -7.031904105871014e-07   1.808155659895408e-07
4.745265605805209e-07   -7.031904105871014e-07   1.808155659895408e-07
4.745265605805209e-07   -7.031904105871014e-07   1.808155659895408e-07
4.164041627523393e-06   -1.4070200157501609e-06   -5.546078449150758e-06
4.164041627523393e-06   -1.4070200157501609e-06   -5.546078449150758e-06
4.164041627523393e-06   -1.4070200157501609e-06   -5.546078449150758e-06
4.164041627523393e-06   -1.4070200157501609e-06   -5.546078449150758e-06
2.279331866057946e-06   -9.633497962557467e-07   -2.6710976450716365e-06
2.279331866057946e-06   -9.633497962557467e-07   -2.6710976450716365e-06
2.279331866057946e-06   -9.633497962557467e-07   -2.6710976450716365e-06
2.279331866057946e-06   -9.633497962557467e-07   -2.6710976450716365e-06
4.164041627523385e-06   -7.031904105871083e-07   6.031133290873873e-07
4.164041627523385e-06   -7.031904105871083e-07   6.031133290873873e-07
4.164041627523385e-06   -7.031904105871083e-07   6.031133290873873e-07
4.164041627523385e-06   -7.031904105871083e-07   6.031133290873873e-07
4.745265605805209e-07   -1.4070200157501609e-06   -5.96837621224855e-06
4.745265605805209e-07   -1.4070200157501609e-06   -5.96837621224855e-06
4.745265605805209e-07   -1.4070200157501609e-06   -5.96837621224855e-06
4.745265605805209e-07   -1.4070200157501609e-06   -5.96837621224855e-06
5.638625043754001e-07   -6.304145418925653e-07   1.3264711113116444e-07
5.638625043754001e-07   -6.304145418925653e-07   1.3264711113116444e-07
5.638625043754001e-07   -6.304145418925653e-07   1.3264711113116444e-07
5.638625043754001e-07   -6.304145418925653e-07   1.3264711113116444e-07
4.236562745070883e-06   -1.3811162437821298e-06   -5.538098935560889e-06
4.236562745070883e-06   -1.3811162437821298e-06   -5.538098935560889e-06
4.236562745070883e-06   -1.3811162437821298e-06   -5.538098935560889e-06
4.236562745070883e-06   -1.3811162437821298e-06   -5.538098935560889e-06
2.3311340339778094e-06   -9.676964579488677e-07   -2.61043628857227e-06
2.3311340339778094e-06   -9.676964579488677e-07   -2.61043628857227e-06
2.3311340339778094e-06   -9.676964579488677e-07   -2.61043628857227e-06
2.3311340339778094e-06   -9.676964579488677e-07   -2.61043628857227e-06
4.236562745070884e-06   -6.304145418925721e-07   5.830681322649303e-07
4.236562745070884e-06   -6.304145418925721e-07   5.830681322649303e-07
4.236562745070884e-06   -6.304145418925721e-07   5.830681322649303e-07
4.236562745070884e-06   -6.304145418925721e-07   5.830681322649303e-07
5.638625043754001e-07   -1.3811162437821298e-06   -5.988519956694655e-06
5.638625043754001e-07   -1.3811162437821298e-06   -5.988519956694655e-06
5.638625043754001e-07   -1.3811162437821298e-06   -5.988519956694655e-06
5.638625043754001e-07   -1.3811162437821298e-06   -5.988519956694655e-06
6.982802271063671e-07   -5.265465326474684e-07   5.673788337369327e-08
6.982802271063671e-07   -5.265465326474684e-07   5.673788337369327e-08
6.982802271063671e-07   -5.265465326474684e-07   5.673788337369327e-08
6.982802271063671e-07   -5.265465326474684e-07   5.673788337369327e-08
4.310351863881244e-06   -1.3339130961049746e-06   -5.4789615731766375e-06
4.310351863881244e-06   -1.3339130961049746e-06   -5.4789615731766375e-06
4.310351863881244e-06   -1.3339130961049746e-06   -5.4789615731766375e-06
4.310351863881244e-06   -1.3339130961049746e-06   -5.4789615731766375e-06
2.441264088457714e-06   -9.44429640149097e-07   -2.5975053543775893e-06
2.441264088457714e-06   -9.44429640149097e-07   -2.5975053543775893e-06
2.441264088457714e-06   -9.44429640149097e-07   -2.5975053543775893e-06
2.441264088457714e-06   -9.44429640149097e-07   -2.5975053543775893e-06
3.7537832911849005e-07   -3.275511391731974e-07   -3.9567467981653005e-07
3.7537832911849005e-07   -3.275511391731974e-07   -3.9567467981653005e-07
3.7537832911849005e-07   -3.275511391731974e-07   -3.9567467981653005e-07
3.7537832911849005e-07   -3.275511391731974e-07   -3.9567467981653005e-07
-3.284306366007229e-06   -1.608487086423064e-06   -7.263710740042668e-06
-3.284306366007229e-06   -1.608487086423064e-06   -7.263710740042668e-06
-3.284306366007229e-06   -1.608487086423064e-06   -7.263710740042668e-06
-3.284306366007229e-06   -1.608487086423064e-06   -7.263710740042668e-06
-3.1286839790751596e-06   -2.770698819180937e-07   -1.015134536228962e-06
-3.1286839790751596e-06   -2.770698819180937e-07   -1.015134536228962e-06
-3.1286839790751596e-06   -2.770698819180937e-07   -1.015134536228962e-06
-3.1286839790751596e-06   -2.770698819180937e-07   -1.015134536228962e-06
4.745265605805207e-07   -1.6360755638548247e-06   -6.205082026493053e-06
4.745265605805207e-07   -1.6360755638548247e-06   -6.205082026493053e-06
4.745265605805207e-07   -1.6360755638548247e-06   -6.205082026493053e-06
4.745265605805207e-07   -1.6360755638548247e-06   -6.205082026493053e-06
-1.3531499919716114e-06   -8.838127047969312e-07   -3.610312154340924e-06
-1.3531499919716114e-06   -8.838127047969312e-07   -3.610312154340924e-06
-1.3531499919716114e-06   -8.838127047969312e-07   -3.610312154340924e-06
-1.3531499919716114e-06   -8.838127047969312e-07   -3.610312154340924e-06
4.745265605805209e-07   -2.770698819181149e-07   -1.9973112706691805e-07
4.745265605805209e-07   -2.770698819181149e-07   -1.9973112706691805e-07
4.745265605805209e-07   -2.770698819181149e-07   -1.9973112706691805e-07
4.745265605805209e-07   -2.770698819181149e-07   -1.9973112706691805e-07
-3.1286839790751647e-06   -1.6360755638548247e-06   -7.0204854356551035e-06
-3.1286839790751647e-06   -1.6360755638548247e-06   -7.0204854356551035e-06
-3.1286839790751647e-06   -1.6360755638548247e-06   -7.0204854356551035e-06
-3.1286839790751647e-06   -1.6360755638548247e-06   -7.0204854356551035e-06
-2.9932271497186004e-06   -2.0449369803261005e-07   -9.33481576528871e-07
-2.9932271497186004e-06   -2.0449369803261005e-07   -9.33481576528871e-07
-2.9932271497186004e-06   -2.0449369803261005e-07   -9.33481576528871e-07
-2.9932271497186004e-06   -2.0449369803261005e-07   -9.33481576528871e-07
5.638625043753988e-07   -1.618790037285643e-06   -6.013386529800363e-06
5.638625043753988e-07   -1.618790037285643e-06   -6.013386529800363e-06
5.638625043753988e-07   -1.618790037285643e-06   -6.013386529800363e-06
5.638625043753988e-07   -1.618790037285643e-06   -6.013386529800363e-06
-1.2432695838561543e-06   -8.969091387294272e-07   -3.434628255214831e-06
-1.2432695838561543e-06   -8.969091387294272e-07   -3.434628255214831e-06
-1.2432695838561543e-06   -8.969091387294272e-07   -3.434628255214831e-06
-1.2432695838561543e-06   -8.969091387294272e-07   -3.434628255214831e-06
5.638625043754001e-07   -2.0449369803258067e-07   -8.490377297702407e-08
5.638625043754001e-07   -2.0449369803258067e-07   -8.490377297702407e-08
5.638625043754001e-07   -2.0449369803258067e-07   -8.490377297702407e-08
5.638625043754001e-07   -2.0449369803258067e-07   -8.490377297702407e-08
-2.9932271497186106e-06   -1.618790037285643e-06   -6.861964333352227e-06
-2.9932271497186106e-06   -1.618790037285643e-06   -6.861964333352227e-06
-2.9932271497186106e-06   -1.618790037285643e-06   -6.861964333352227e-06
-2.9932271497186106e-06   -1.618790037285643e-06   -6.861964333352227e-06
-2.758666883801541e-06   -1.3482160844419805e-07   -9.316701935784986e-07
-2.758666883801541e-06   -1.3482160844419805e-07   -9.316701935784986e-07
-2.758666883801541e-06   -1.3482160844419805e-07   -9.316701935784986e-07
-2.758666883801541e-06   -1.3482160844419805e-07   -9.316701935784986e-07
6.982802271063681e-07   -1.5507450502228078e-06   -5.843694646691176e-06
6.982802271063681e-07   -1.5507450502228078e-06   -5.843694646691176e-06
6.982802271063681e-07   -1.5507450502228078e-06   -5.843694646691176e-06
6.982802271063681e-07   -1.5507450502228078e-06   -5.843694646691176e-06
-1.0999505256770187e-06   -8.682176260619797e-07   -3.2561598465486873e-06
-1.0999505256770187e-06   -8.682176260619797e-07   -3.2561598465486873e-06
-1.0999505256770187e-06   -8.682176260619797e-07   -3.2561598465486873e-06
-1.0999505256770187e-06   -8.682176260619797e-07   -3.2561598465486873e-06
-3.284306366007224e-06   2.1911973619673964e-07   -5.978312233979953e-07
-3.284306366007224e-06   2.1911973619673964e-07   -5.978312233979953e-07
-3.284306366007224e-06   2.1911973619673964e-07   -5.978312233979953e-07
-3.284306366007224e-06   2.1911973619673964e-07   -5.978312233979953e-07
-7.325490504992858e-06   -1.9040460282143895e-06   -8.607037580354052e-06
-7.325490504992858e-06   -1.9040460282143895e-06   -8.607037580354052e-06
-7.325490504992858e-06   -1.9040460282143895e-06   -8.607037580354052e-06
-7.325490504992858e-06   -1.9040460282143895e-06   -8.607037580354052e-06
-7.131630440276708e-06   3.0402558086372374e-07   -1.8097078929091087e-06
-7.131630440276708e-06   3.0402558086372374e-07   -1.8097078929091087e-06
-7.131630440276708e-06   3.0402558086372374e-07   -1.8097078929091087e-06
-7.131630440276708e-06   3.0402558086372374e-07   -1.8097078929091087e-06
-3.128683979075159e-06   -2.167492127400322e-06   -6.998374703286604e-06
-3.128683979075159e-06   -2.167492127400322e-06   -6.998374703286604e-06
-3.128683979075159e-06   -2.167492127400322e-06   -6.998374703286604e-06
-3.128683979075159e-06   -2.167492127400322e-06   -6.998374703286604e-06
-5.147885897082297e-06   -9.152204162281167e-07   -4.384401199978029e-06
-5.147885897082297e-06   -9.152204162281167e-07   -4.384401199978029e-06
-5.147885897082297e-06   -9.152204162281167e-07   -4.384401199978029e-06
-5.147885897082297e-06   -9.152204162281167e-07   -4.384401199978029e-06
-3.1286839790751596e-06   3.0402558086372406e-07   -3.267972679506974e-07
-3.1286839790751596e-06   3.0402558086372406e-07   -3.267972679506974e-07
-3.1286839790751596e-06   3.0402558086372406e-07   -3.267972679506974e-07
-3.1286839790751596e-06   3.0402558086372406e-07   -3.267972679506974e-07
-7.1316304402767205e-06   -2.167492127400322e-06   -8.481285328245042e-06
-7.1316304402767205e-06   -2.167492127400322e-06   -8.481285328245042e-06
-7.1316304402767205e-06   -2.167492127400322e-06   -8.481285328245042e-06
-7.1316304402767205e-06   -2.167492127400322e-06   -8.481285328245042e-06
-6.9466903706114616e-06   3.8130561997895855e-07   -1.5657732277836163e-06
-6.9466903706114616e-06   3.8130561997895855e-07   -1.5657732277836163e-06
-6.9466903706114616e-06   3.8130561997895855e-07   -1.5657732277836163e-06
-6.9466903706114616e-06   3.8130561997895855e-07   -1.5657732277836163e-06
-2.993227149718605e-06   -2.169836981135223e-06   -6.6241930352698565e-06
-2.993227149718605e-06   -2.169836981135223e-06   -6.6241930352698565e-06
-2.993227149718605e-06   -2.169836981135223e-06   -6.6241930352698565e-06
-2.993227149718605e-06   -2.169836981135223e-06   -6.6241930352698565e-06
-4.958589471789774e-06   -9.095302079215137e-07   -4.104773229079484e-06
-4.958589471789774e-06   -9.095302079215137e-07   -4.104773229079484e-06
-4.958589471789774e-06   -9.095302079215137e-07   -4.104773229079484e-06
-4.958589471789774e-06   -9.095302079215137e-07   -4.104773229079484e-06
-2.9932271497186055e-06   3.8130561997894436e-07   -3.508766711511277e-08
-2.9932271497186055e-06   3.8130561997894436e-07   -3.508766711511277e-08
-2.9932271497186055e-06   3.8130561997894436e-07   -3.508766711511277e-08
-2.9932271497186055e-06   3.8130561997894436e-07   -3.508766711511277e-08
-6.946690370611473e-06   -2.169836981135223e-06   -8.15487859593837e-06
-6.946690370611473e-06   -2.169836981135223e-06   -8.15487859593837e-06
-6.946690370611473e-06   -2.169836981135223e-06   -8.15487859593837e-06
-6.946690370611473e-06   -2.169836981135223e-06   -8.15487859593837e-06
-6.637370820869558e-06   4.447884212057068e-07   -1.3243532280629588e-06
-6.637370820869558e-06   4.447884212057068e-07   -1.3243532280629588e-06
-6.637370820869558e-06   4.447884212057068e-07   -1.3243532280629588e-06
-6.637370820869558e-06   4.447884212057068e-07   -1.3243532280629588e-06
-2.7586668838015513e-06   -1.922101785177847e-06   -6.368725666012866e-06
-2.7586668838015513e-06   -1.922101785177847e-06   -6.368725666012866e-06
-2.7586668838015513e-06   -1.922101785177847e-06   -6.368725666012866e-06
-2.7586668838015513e-06   -1.922101785177847e-06   -6.368725666012866e-06
-4.779130167278465e-06   -7.618098857965034e-07   -3.697461999846808e-06
-4.779130167278465e-06   -7.618098857965034e-07   -3.697461999846808e-06
-4.779130167278465e-06   -7.618098857965034e-07   -3.697461999846808e-06
-4.779130167278465e-06   -7.618098857965034e-07   -3.697461999846808e-06
-7.325490504992858e-06   1.1052964520657277e-06   -1.2234924532366753e-06
-7.325490504992858e-06   1.1052964520657277e-06   -1.2234924532366753e-06
-7.325490504992858e-06   1.1052964520657277e-06   -1.2234924532366753e-06
-7.325490504992858e-06   1.1052964520657277e-06   -1.2234924532366753e-06
-1.2387208762958379e-05   0.0   -1.0322867421085346e-05
-1.2387208762958379e-05   0.0   -1.0322867421085346e-05
-1.2387208762958379e-05   0.0   -1.0322867421085346e-05
-1.2387208762958379e-05   0.0   -1.0322867421085346e-05
-1.2110883604841687e-05   1.3631577931307146e-06   -8.759625991552054e-07
-1.2110883604841687e-05   1.3631577931307146e-06   -8.759625991552054e-07
-1.2110883604841687e-05   1.3631577931307146e-06   -8.759625991552054e-07
-1.2110883604841687e-05   1.3631577931307146e-06   -8.759625991552054e-07
-7.131630440276707e-06   0.0   -8.356823197551757e-06
-7.131630440276707e-06   0.0   -8.356823197551757e-06
-7.131630440276707e-06   0.0   -8.356823197551757e-06
-7.131630440276707e-06   0.0   -8.356823197551757e-06
-9.327084026610296e-06   4.374380334800894e-07   -4.960196707083817e-06
-9.327084026610296e-06   4.374380334800894e-07   -4.960196707083817e-06
-9.327084026610296e-06   4.374380334800894e-07   -4.960196707083817e-06
-9.327084026610296e-06   4.374380334800894e-07   -4.960196707083817e-06
-7.131630440276715e-06   1.363157793130729e-06   -5.806792327680372e-08
-7.131630440276715e-06   1.363157793130729e-06   -5.806792327680372e-08
-7.131630440276715e-06   1.363157793130729e-06   -5.806792327680372e-08
-7.131630440276715e-06   1.363157793130729e-06   -5.806792327680372e-08
-1.2110883604841667e-05   0.0   -9.174717873430138e-06
-1.2110883604841667e-05   0.0   -9.174717873430138e-06
-1.2110883604841667e-05   0.0   -9.174717873430138e-06
-1.2110883604841667e-05   0.0   -9.174717873430138e-06
-1.1872425845010094e-05   1.4227442580126422e-06   -1.3950851683654252e-07
-1.1872425845010094e-05   1.4227442580126422e-06   -1.3950851683654252e-07
-1.1872425845010094e-05   1.4227442580126422e-06   -1.3950851683654252e-07
-1.1872425845010094e-05   1.4227442580126422e-06   -1.3950851683654252e-07
-6.946690370611473e-06   0.0   -7.495421086026662e-06
-6.946690370611473e-06   0.0   -7.495421086026662e-06
-6.946690370611473e-06   0.0   -7.495421086026662e-06
-6.946690370611473e-06   0.0   -7.495421086026662e-06
-9.264449050753153e-06   6.651419423545253e-07   -4.031575117869792e-06
-9.264449050753153e-06   6.651419423545253e-07   -4.031575117869792e-06
-9.264449050753153e-06   6.651419423545253e-07   -4.031575117869792e-06
-9.264449050753153e-06   6.651419423545253e-07   -4.031575117869792e-06
-6.946690370611473e-06   1.4227442580126928e-06   7.141380379710753e-07
-6.946690370611473e-06   1.4227442580126928e-06   7.141380379710753e-07
-6.946690370611473e-06   1.4227442580126928e-06   7.141380379710753e-07
-6.946690370611473e-06   1.4227442580126928e-06   7.141380379710753e-07
-1.1872425845010073e-05   0.0   -8.349067640834256e-06
-1.1872425845010073e-05   0.0   -8.349067640834256e-06
-1.1872425845010073e-05   0.0   -8.349067640834256e-06
-1.1872425845010073e-05   0.0   -8.349067640834256e-06
-1.1391855755313511e-05   1.514275195896764e-06   1.0624473450724953e-06
-1.1391855755313511e-05   1.514275195896764e-06   1.0624473450724953e-06
-1.1391855755313511e-05   1.514275195896764e-06   1.0624473450724953e-06
-1.1391855755313511e-05   1.514275195896764e-06   1.0624473450724953e-06
-6.637370820869562e-06   0.0   -5.953129094796033e-06
-6.637370820869562e-06   0.0   -5.953129094796033e-06
-6.637370820869562e-06   0.0   -5.953129094796033e-06
-6.637370820869562e-06   0.0   -5.953129094796033e-06
-8.828467917471221e-06   8.1208652317463e-07   -2.7885525143647783e-06
-8.828467917471221e-06   8.1208652317463e-07   -2.7885525143647783e-06
-8.828467917471221e-06   8.1208652317463e-07   -2.7885525143647783e-06
-8.828467917471221e-06   8.1208652317463e-07   -2.7885525143647783e-06
9.060968009607623e-06   -1.512716794478161e-06   5.3294273231819286e-06
9.060968009607623e-06   -1.512716794478161e-06   5.3294273231819286e-06
9.060968009607623e-06   -1.512716794478161e-06   5.3294273231819286e-06
9.060968009607623e-06   -1.512716794478161e-06   5.3294273231819286e-06
4.649787394960806e-06   -1.2053136020136602e-06   -1.838098452417434e-06
4.649787394960806e-06   -1.2053136020136602e-06   -1.838098452417434e-06
4.649787394960806e-06   -1.2053136020136602e-06   -1.838098452417434e-06
4.649787394960806e-06   -1.2053136020136602e-06   -1.838098452417434e-06
4.543286135188545e-06   -1.5506965923078268e-06   4.660623087816558e-06
4.543286135188545e-06   -1.5506965923078268e-06   4.660623087816558e-06
4.543286135188545e-06   -1.5506965923078268e-06   4.660623087816558e-06
4.543286135188545e-06   -1.5506965923078268e-06   4.660623087816558e-06
8.978572636545395e-06   -1.3177853823206215e-06   -2.8712678071038383e-06
8.978572636545395e-06   -1.3177853823206215e-06   -2.8712678071038383e-06
8.978572636545395e-06   -1.3177853823206215e-06   -2.8712678071038383e-06
8.978572636545395e-06   -1.3177853823206215e-06   -2.8712678071038383e-06
6.526999758163927e-06   -1.3248010166581436e-06   1.2188963708011192e-06
6.526999758163927e-06   -1.3248010166581436e-06   1.2188963708011192e-06
6.526999758163927e-06   -1.3248010166581436e-06   1.2188963708011192e-06
6.526999758163927e-06   -1.3248010166581436e-06   1.2188963708011192e-06
8.978572636545395e-06   -1.550696592307841e-06   4.5208763618242184e-06
8.978572636545395e-06   -1.550696592307841e-06   4.5208763618242184e-06
8.978572636545395e-06   -1.550696592307841e-06   4.5208763618242184e-06
8.978572636545395e-06   -1.550696592307841e-06   4.5208763618242184e-06
4.543286135188545e-06   -1.3177853823206215e-06   -2.7315210811115125e-06
4.543286135188545e-06   -1.3177853823206215e-06   -2.7315210811115125e-06
4.543286135188545e-06   -1.3177853823206215e-06   -2.7315210811115125e-06
4.543286135188545e-06   -1.3177853823206215e-06   -2.7315210811115125e-06
4.4459607673002875e-06   -1.534021324210385e-06   4.161072996890626e-06
4.4459607673002875e-06   -1.534021324210385e-06   4.161072996890626e-06
4.4459607673002875e-06   -1.534021324210385e-06   4.161072996890626e-06
4.4459607673002875e-06   -1.534021324210385e-06   4.161072996890626e-06
8.879506581200732e-06   -1.3251328087749824e-06   -3.3535031355380135e-06
8.879506581200732e-06   -1.3251328087749824e-06   -3.3535031355380135e-06
8.879506581200732e-06   -1.3251328087749824e-06   -3.3535031355380135e-06
8.879506581200732e-06   -1.3251328087749824e-06   -3.3535031355380135e-06
6.534406835149852e-06   -1.3481399102232465e-06   5.688007020824288e-07
6.534406835149852e-06   -1.3481399102232465e-06   5.688007020824288e-07
6.534406835149852e-06   -1.3481399102232465e-06   5.688007020824288e-07
6.534406835149852e-06   -1.3481399102232465e-06   5.688007020824288e-07
8.879506581200749e-06   -1.534021324210364e-06   4.035739887629352e-06
8.879506581200749e-06   -1.534021324210364e-06   4.035739887629352e-06
8.879506581200749e-06   -1.534021324210364e-06   4.035739887629352e-06
8.879506581200749e-06   -1.534021324210364e-06   4.035739887629352e-06
4.4459607673002875e-06   -1.3251328087749824e-06   -3.228170026276807e-06
4.4459607673002875e-06   -1.3251328087749824e-06   -3.228170026276807e-06
4.4459607673002875e-06   -1.3251328087749824e-06   -3.228170026276807e-06
4.4459607673002875e-06   -1.3251328087749824e-06   -3.228170026276807e-06
4.326690905273548e-06   -1.4410482882851292e-06   3.3482279243022574e-06
4.326690905273548e-06   -1.4410482882851292e-06   3.3482279243022574e-06
4.326690905273548e-06   -1.4410482882851292e-06   3.3482279243022574e-06
4.326690905273548e-06   -1.4410482882851292e-06   3.3482279243022574e-06
8.72394091237786e-06   -1.2872737830111171e-06   -4.072786790702723e-06
8.72394091237786e-06   -1.2872737830111171e-06   -4.072786790702723e-06
8.72394091237786e-06   -1.2872737830111171e-06   -4.072786790702723e-06
8.72394091237786e-06   -1.2872737830111171e-06   -4.072786790702723e-06
6.322436611473563e-06   -1.280844409677097e-06   -7.413724652929275e-08
6.322436611473563e-06   -1.280844409677097e-06   -7.413724652929275e-08
6.322436611473563e-06   -1.280844409677097e-06   -7.413724652929275e-08
6.322436611473563e-06   -1.280844409677097e-06   -7.413724652929275e-08
4.649787394960806e-06   -1.41951047535858e-06   3.911780759431252e-06
4.649787394960806e-06   -1.41951047535858e-06   3.911780759431252e-06
4.649787394960806e-06   -1.41951047535858e-06   3.911780759431252e-06
4.649787394960806e-06   -1.41951047535858e-06   3.911780759431252e-06
8.452105816074524e-07   -6.998128690768467e-07   -1.997362032388607e-06
8.452105816074524e-07   -6.998128690768467e-07   -1.997362032388607e-06
8.452105816074524e-07   -6.998128690768467e-07   -1.997362032388607e-06
8.452105816074524e-07   -6.998128690768467e-07   -1.997362032388607e-06
6.768910777086616e-07   -1.4070200157501609e-06   4.40846259836054e-06
6.768910777086616e-07   -1.4070200157501609e-06   4.40846259836054e-06
6.768910777086616e-07   -1.4070200157501609e-06   4.40846259836054e-06
6.768910777086616e-07   -1.4070200157501609e-06   4.40846259836054e-06
4.5432861351885465e-06   -7.390800437454838e-07   -2.4362931473087466e-06
4.5432861351885465e-06   -7.390800437454838e-07   -2.4362931473087466e-06
4.5432861351885465e-06   -7.390800437454838e-07   -2.4362931473087466e-06
4.5432861351885465e-06   -7.390800437454838e-07   -2.4362931473087466e-06
2.672961124071741e-06   -1.026091179049391e-06   8.531218857349612e-07
2.672961124071741e-06   -1.026091179049391e-06   8.531218857349612e-07
2.672961124071741e-06   -1.026091179049391e-06   8.531218857349612e-07
2.672961124071741e-06   -1.026091179049391e-06   8.531218857349612e-07
4.543286135188545e-06   -1.4070200157501528e-06   4.007698615157739e-06
4.543286135188545e-06   -1.4070200157501528e-06   4.007698615157739e-06
4.543286135188545e-06   -1.4070200157501528e-06   4.007698615157739e-06
4.543286135188545e-06   -1.4070200157501528e-06   4.007698615157739e-06
6.76891077708665e-07   -7.390800437454838e-07   -2.035529164105929e-06
6.76891077708665e-07   -7.390800437454838e-07   -2.035529164105929e-06
6.76891077708665e-07   -7.390800437454838e-07   -2.035529164105929e-06
6.76891077708665e-07   -7.390800437454838e-07   -2.035529164105929e-06
5.552608698150285e-07   -1.3811162437821298e-06   4.396793037753159e-06
5.552608698150285e-07   -1.3811162437821298e-06   4.396793037753159e-06
5.552608698150285e-07   -1.3811162437821298e-06   4.396793037753159e-06
5.552608698150285e-07   -1.3811162437821298e-06   4.396793037753159e-06
4.445960767300286e-06   -7.525378763859232e-07   -2.4648538118266755e-06
4.445960767300286e-06   -7.525378763859232e-07   -2.4648538118266755e-06
4.445960767300286e-06   -7.525378763859232e-07   -2.4648538118266755e-06
4.445960767300286e-06   -7.525378763859232e-07   -2.4648538118266755e-06
2.5248628836538903e-06   -1.0020155030257853e-06   8.866625702346678e-07
2.5248628836538903e-06   -1.0020155030257853e-06   8.866625702346678e-07
2.5248628836538903e-06   -1.0020155030257853e-06   8.866625702346678e-07
2.5248628836538903e-06   -1.0020155030257853e-06   8.866625702346678e-07
4.445960767300294e-06   -1.381116243782125e-06   4.019646017315397e-06
4.445960767300294e-06   -1.381116243782125e-06   4.019646017315397e-06
4.445960767300294e-06   -1.381116243782125e-06   4.019646017315397e-06
4.445960767300294e-06   -1.381116243782125e-06   4.019646017315397e-06
5.552608698150285e-07   -7.525378763859232e-07   -2.087706791388934e-06
5.552608698150285e-07   -7.525378763859232e-07   -2.087706791388934e-06
5.552608698150285e-07   -7.525378763859232e-07   -2.087706791388934e-06
5.552608698150285e-07   -7.525378763859232e-07   -2.087706791388934e-06
4.206181239775256e-07   -1.3339130961049204e-06   4.519479902529691e-06
4.206181239775256e-07   -1.3339130961049204e-06   4.519479902529691e-06
4.206181239775256e-07   -1.3339130961049204e-06   4.519479902529691e-06
4.206181239775256e-07   -1.3339130961049204e-06   4.519479902529691e-06
4.326690905273553e-06   -7.284428113947809e-07   -2.3539235704564264e-06
4.326690905273553e-06   -7.284428113947809e-07   -2.3539235704564264e-06
4.326690905273553e-06   -7.284428113947809e-07   -2.3539235704564264e-06
4.326690905273553e-06   -7.284428113947809e-07   -2.3539235704564264e-06
2.4374463499683023e-06   -9.525333887354967e-07   9.292717014567645e-07
2.4374463499683023e-06   -9.525333887354967e-07   9.292717014567645e-07
2.4374463499683023e-06   -9.525333887354967e-07   9.292717014567645e-07
2.4374463499683023e-06   -9.525333887354967e-07   9.292717014567645e-07
8.452105816074591e-07   -1.6084870864230795e-06   3.966500098940038e-06
8.452105816074591e-07   -1.6084870864230795e-06   3.966500098940038e-06
8.452105816074591e-07   -1.6084870864230795e-06   3.966500098940038e-06
8.452105816074591e-07   -1.6084870864230795e-06   3.966500098940038e-06
-2.819964596617209e-06   -2.2410075583656573e-07   -1.3114933997491595e-06
-2.819964596617209e-06   -2.2410075583656573e-07   -1.3114933997491595e-06
-2.819964596617209e-06   -2.2410075583656573e-07   -1.3114933997491595e-06
-2.819964596617209e-06   -2.2410075583656573e-07   -1.3114933997491595e-06
-3.08060373102947e-06   -1.6360755638548247e-06   5.012756881956238e-06
-3.08060373102947e-06   -1.6360755638548247e-06   5.012756881956238e-06
-3.08060373102947e-06   -1.6360755638548247e-06   5.012756881956238e-06
-3.08060373102947e-06   -1.6360755638548247e-06   5.012756881956238e-06
6.768910777086647e-07   -2.3440873412114557e-07   -2.0907345637808672e-06
6.768910777086647e-07   -2.3440873412114557e-07   -2.0907345637808672e-06
6.768910777086647e-07   -2.3440873412114557e-07   -2.0907345637808672e-06
6.768910777086647e-07   -2.3440873412114557e-07   -2.0907345637808672e-06
-1.0659566639692652e-06   -8.941226469080733e-07   1.2098400200211849e-06
-1.0659566639692652e-06   -8.941226469080733e-07   1.2098400200211849e-06
-1.0659566639692652e-06   -8.941226469080733e-07   1.2098400200211849e-06
-1.0659566639692652e-06   -8.941226469080733e-07   1.2098400200211849e-06
6.768910777086616e-07   -1.636075563854816e-06   4.17175678411603e-06
6.768910777086616e-07   -1.636075563854816e-06   4.17175678411603e-06
6.768910777086616e-07   -1.636075563854816e-06   4.17175678411603e-06
6.768910777086616e-07   -1.636075563854816e-06   4.17175678411603e-06
-3.0806037310294648e-06   -2.3440873412114557e-07   -1.249734465940636e-06
-3.0806037310294648e-06   -2.3440873412114557e-07   -1.249734465940636e-06
-3.0806037310294648e-06   -2.3440873412114557e-07   -1.249734465940636e-06
-3.0806037310294648e-06   -2.3440873412114557e-07   -1.249734465940636e-06
-3.2425619367813075e-06   -1.618790037285643e-06   5.194331716115627e-06
-3.2425619367813075e-06   -1.618790037285643e-06   5.194331716115627e-06
-3.2425619367813075e-06   -1.618790037285643e-06   5.194331716115627e-06
-3.2425619367813075e-06   -1.618790037285643e-06   5.194331716115627e-06
5.552608698150277e-07   -2.481146181719431e-07   -1.957778213013123e-06
5.552608698150277e-07   -2.481146181719431e-07   -1.957778213013123e-06
5.552608698150277e-07   -2.481146181719431e-07   -1.957778213013123e-06
5.552608698150277e-07   -2.481146181719431e-07   -1.957778213013123e-06
-1.2436942760425937e-06   -8.840124502753352e-07   1.4220190626782794e-06
-1.2436942760425937e-06   -8.840124502753352e-07   1.4220190626782794e-06
-1.2436942760425937e-06   -8.840124502753352e-07   1.4220190626782794e-06
-1.2436942760425937e-06   -8.840124502753352e-07   1.4220190626782794e-06
5.552608698150285e-07   -1.6187900372856572e-06   4.371926464647434e-06
5.552608698150285e-07   -1.6187900372856572e-06   4.371926464647434e-06
5.552608698150285e-07   -1.6187900372856572e-06   4.371926464647434e-06
5.552608698150285e-07   -1.6187900372856572e-06   4.371926464647434e-06
-3.2425619367813007e-06   -2.481146181719431e-07   -1.13537296154493e-06
-3.2425619367813007e-06   -2.481146181719431e-07   -1.13537296154493e-06
-3.2425619367813007e-06   -2.481146181719431e-07   -1.13537296154493e-06
-3.2425619367813007e-06   -2.481146181719431e-07   -1.13537296154493e-06
-3.4298929660572248e-06   -1.5507450502228078e-06   5.4250677182756855e-06
-3.4298929660572248e-06   -1.5507450502228078e-06   5.4250677182756855e-06
-3.4298929660572248e-06   -1.5507450502228078e-06   5.4250677182756855e-06
-3.4298929660572248e-06   -1.5507450502228078e-06   5.4250677182756855e-06
4.206181239775266e-07   -2.4091013157946043e-07   -1.7783517163015865e-06
4.206181239775266e-07   -2.4091013157946043e-07   -1.7783517163015865e-06
4.206181239775266e-07   -2.4091013157946043e-07   -1.7783517163015865e-06
4.206181239775266e-07   -2.4091013157946043e-07   -1.7783517163015865e-06
-1.389793112491994e-06   -8.391579869226808e-07   1.5979490576868513e-06
-1.389793112491994e-06   -8.391579869226808e-07   1.5979490576868513e-06
-1.389793112491994e-06   -8.391579869226808e-07   1.5979490576868513e-06
-1.389793112491994e-06   -8.391579869226808e-07   1.5979490576868513e-06
-2.8199645966172143e-06   -1.9040460282143857e-06   4.7277045156272305e-06
-2.8199645966172143e-06   -1.9040460282143857e-06   4.7277045156272305e-06
-2.8199645966172143e-06   -1.9040460282143857e-06   4.7277045156272305e-06
-2.8199645966172143e-06   -1.9040460282143857e-06   4.7277045156272305e-06
-6.914857369100781e-06   4.415089378570318e-07   -6.897837922025614e-07
-6.914857369100781e-06   4.415089378570318e-07   -6.897837922025614e-07
-6.914857369100781e-06   4.415089378570318e-07   -6.897837922025614e-07
-6.914857369100781e-06   4.415089378570318e-07   -6.897837922025614e-07
-7.237945325822767e-06   -2.167492127400322e-06   6.5953825477015515e-06
-7.237945325822767e-06   -2.167492127400322e-06   6.5953825477015515e-06
-7.237945325822767e-06   -2.167492127400322e-06   6.5953825477015515e-06
-7.237945325822767e-06   -2.167492127400322e-06   6.5953825477015515e-06
-3.0806037310294635e-06   4.333660948943499e-07   -1.894035043664069e-06
-3.0806037310294635e-06   4.333660948943499e-07   -1.894035043664069e-06
-3.0806037310294635e-06   4.333660948943499e-07   -1.894035043664069e-06
-3.0806037310294635e-06   4.333660948943499e-07   -1.894035043664069e-06
-4.949753616268285e-06   -6.993744537223709e-07   1.9008590942372962e-06
-4.949753616268285e-06   -6.993744537223709e-07   1.9008590942372962e-06
-4.949753616268285e-06   -6.993744537223709e-07   1.9008590942372962e-06
-4.949753616268285e-06   -6.993744537223709e-07   1.9008590942372962e-06
-3.0806037310294648e-06   -2.167492127400305e-06   5.0348676143247375e-06
-3.0806037310294648e-06   -2.167492127400305e-06   5.0348676143247375e-06
-3.0806037310294648e-06   -2.167492127400305e-06   5.0348676143247375e-06
-3.0806037310294648e-06   -2.167492127400305e-06   5.0348676143247375e-06
-7.237945325822753e-06   4.333660948943499e-07   -3.3352011028726166e-07
-7.237945325822753e-06   4.333660948943499e-07   -3.3352011028726166e-07
-7.237945325822753e-06   4.333660948943499e-07   -3.3352011028726166e-07
-7.237945325822753e-06   4.333660948943499e-07   -3.3352011028726166e-07
-7.432904205234957e-06   -2.169836981135223e-06   6.977434224005193e-06
-7.432904205234957e-06   -2.169836981135223e-06   6.977434224005193e-06
-7.432904205234957e-06   -2.169836981135223e-06   6.977434224005193e-06
-7.432904205234957e-06   -2.169836981135223e-06   6.977434224005193e-06
-3.2425619367813024e-06   4.0571503521011224e-07   -1.5518007665581063e-06
-3.2425619367813024e-06   4.0571503521011224e-07   -1.5518007665581063e-06
-3.2425619367813024e-06   4.0571503521011224e-07   -1.5518007665581063e-06
-3.2425619367813024e-06   4.0571503521011224e-07   -1.5518007665581063e-06
-5.152914644924323e-06   -8.383016106670188e-07   2.3785304012065844e-06
-5.152914644924323e-06   -8.383016106670188e-07   2.3785304012065844e-06
-5.152914644924323e-06   -8.383016106670188e-07   2.3785304012065844e-06
-5.152914644924323e-06   -8.383016106670188e-07   2.3785304012065844e-06
-3.2425619367813007e-06   -2.169836981135206e-06   5.4321030141979865e-06
-3.2425619367813007e-06   -2.169836981135206e-06   5.4321030141979865e-06
-3.2425619367813007e-06   -2.169836981135206e-06   5.4321030141979865e-06
-3.2425619367813007e-06   -2.169836981135206e-06   5.4321030141979865e-06
-7.432904205234945e-06   4.0571503521011224e-07   -6.469556750889581e-09
-7.432904205234945e-06   4.0571503521011224e-07   -6.469556750889581e-09
-7.432904205234945e-06   4.0571503521011224e-07   -6.469556750889581e-09
-7.432904205234945e-06   4.0571503521011224e-07   -6.469556750889581e-09
-7.645233413255611e-06   -1.922101785177847e-06   7.126511508339278e-06
-7.645233413255611e-06   -1.922101785177847e-06   7.126511508339278e-06
-7.645233413255611e-06   -1.922101785177847e-06   7.126511508339278e-06
-7.645233413255611e-06   -1.922101785177847e-06   7.126511508339278e-06
-3.4298929660572235e-06   3.7276612201901736e-07   -1.2759766479761494e-06
-3.4298929660572235e-06   3.7276612201901736e-07   -1.2759766479761494e-06
-3.4298929660572235e-06   3.7276612201901736e-07   -1.2759766479761494e-06
-3.4298929660572235e-06   3.7276612201901736e-07   -1.2759766479761494e-06
-5.370349215090409e-06   -8.38263582283354e-07   2.6847349229939213e-06
-5.370349215090409e-06   -8.38263582283354e-07   2.6847349229939213e-06
-5.370349215090409e-06   -8.38263582283354e-07   2.6847349229939213e-06
-5.370349215090409e-06   -8.38263582283354e-07   2.6847349229939213e-06
-6.914857369100756e-06   -9.107298248878221e-21   5.082385525778134e-06
-6.914857369100756e-06   -9.107298248878221e-21   5.082385525778134e-06
-6.914857369100756e-06   -9.107298248878221e-21   5.082385525778134e-06
-6.914857369100756e-06   -9.107298248878221e-21   5.082385525778134e-06
-1.1944347197639336e-05   1.59306535512944e-06   -2.3442583087084784e-06
-1.1944347197639336e-05   1.59306535512944e-06   -2.3442583087084784e-06
-1.1944347197639336e-05   1.59306535512944e-06   -2.3442583087084784e-06
-1.1944347197639336e-05   1.59306535512944e-06   -2.3442583087084784e-06
-1.2371269832291823e-05   0.0   7.655748785597783e-06
-1.2371269832291823e-05   0.0   7.655748785597783e-06
-1.2371269832291823e-05   0.0   7.655748785597783e-06
-1.2371269832291823e-05   0.0   7.655748785597783e-06
-7.237945325822753e-06   1.5598401786716333e-06   -1.8356961657203317e-06
-7.237945325822753e-06   1.5598401786716333e-06   -1.8356961657203317e-06
-7.237945325822753e-06   1.5598401786716333e-06   -1.8356961657203317e-06
-7.237945325822753e-06   1.5598401786716333e-06   -1.8356961657203317e-06
-9.210728025689049e-06   9.43537230385118e-07   1.8220567696954006e-06
-9.210728025689049e-06   9.43537230385118e-07   1.8220567696954006e-06
-9.210728025689049e-06   9.43537230385118e-07   1.8220567696954006e-06
-9.210728025689049e-06   9.43537230385118e-07   1.8220567696954006e-06
-7.2379453258227466e-06   1.6913553890773872e-20   6.719844678394803e-06
-7.2379453258227466e-06   1.6913553890773872e-20   6.719844678394803e-06
-7.2379453258227466e-06   1.6913553890773872e-20   6.719844678394803e-06
-7.2379453258227466e-06   1.6913553890773872e-20   6.719844678394803e-06
-1.2371269832291845e-05   1.5598401786716333e-06   -8.997920585173313e-07
-1.2371269832291845e-05   1.5598401786716333e-06   -8.997920585173313e-07
-1.2371269832291845e-05   1.5598401786716333e-06   -8.997920585173313e-07
-1.2371269832291845e-05   1.5598401786716333e-06   -8.997920585173313e-07
-1.2583989353460908e-05   0.0   8.553758010100527e-06
-1.2583989353460908e-05   0.0   8.553758010100527e-06
-1.2583989353460908e-05   0.0   8.553758010100527e-06
-1.2583989353460908e-05   0.0   8.553758010100527e-06
-7.4329042052349436e-06   1.528110460306039e-06   -9.482501797930995e-07
-7.4329042052349436e-06   1.528110460306039e-06   -9.482501797930995e-07
-7.4329042052349436e-06   1.528110460306039e-06   -9.482501797930995e-07
-7.4329042052349436e-06   1.528110460306039e-06   -9.482501797930995e-07
-9.646629402668416e-06   7.939890626064102e-07   3.1817646545492827e-06
-9.646629402668416e-06   7.939890626064102e-07   3.1817646545492827e-06
-9.646629402668416e-06   7.939890626064102e-07   3.1817646545492827e-06
-9.646629402668416e-06   7.939890626064102e-07   3.1817646545492827e-06
-7.432904205234945e-06   1.6913553890773872e-20   7.636891733916898e-06
-7.432904205234945e-06   1.6913553890773872e-20   7.636891733916898e-06
-7.432904205234945e-06   1.6913553890773872e-20   7.636891733916898e-06
-7.432904205234945e-06   1.6913553890773872e-20   7.636891733916898e-06
-1.2583989353460932e-05   1.528110460306039e-06   -3.138390360942324e-08
-1.2583989353460932e-05   1.528110460306039e-06   -3.138390360942324e-08
-1.2583989353460932e-05   1.528110460306039e-06   -3.138390360942324e-08
-1.2583989353460932e-05   1.528110460306039e-06   -3.138390360942324e-08
-1.281208697811377e-05   0.0   9.746642872811257e-06
-1.281208697811377e-05   0.0   9.746642872811257e-06
-1.281208697811377e-05   0.0   9.746642872811257e-06
-1.281208697811377e-05   0.0   9.746642872811257e-06
-7.645233413255602e-06   1.3073344490417368e-06   3.508195952892246e-07
-7.645233413255602e-06   1.3073344490417368e-06   3.508195952892246e-07
-7.645233413255602e-06   1.3073344490417368e-06   3.508195952892246e-07
-7.645233413255602e-06   1.3073344490417368e-06   3.508195952892246e-07
-9.696065176205768e-06   5.73597017221436e-07   4.209114992631634e-06
-9.696065176205768e-06   5.73597017221436e-07   4.209114992631634e-06
-9.696065176205768e-06   5.73597017221436e-07   4.209114992631634e-06
-9.696065176205768e-06   5.73597017221436e-07   4.209114992631634e-06
8.14248805203805e-06   -1.2053136020136882e-06   5.629245596551122e-06
8.14248805203805e-06   -1.2053136020136882e-06   5.629245596551122e-06
8.14248805203805e-06   -1.2053136020136882e-06   5.629245596551122e-06
8.14248805203805e-06   -1.2053136020136882e-06   5.629245596551122e-06
4.082083243753559e-06   -9.416026021794358e-07   -9.79869150689156e-07
4.082083243753559e-06   -9.416026021794358e-07   -9.79869150689156e-07
4.082083243753559e-06   -9.416026021794358e-07   -9.79869150689156e-07
4.082083243753559e-06   -9.416026021794358e-07   -9.79869150689156e-07
3.9844487028829135e-06   -1.3177853823206215e-06   4.880022112253212e-06
3.9844487028829135e-06   -1.3177853823206215e-06   4.880022112253212e-06
3.9844487028829135e-06   -1.3177853823206215e-06   4.880022112253212e-06
3.9844487028829135e-06   -1.3177853823206215e-06   4.880022112253212e-06
7.972592386992649e-06   -1.0584849881171737e-06   -1.922464264451747e-06
7.972592386992649e-06   -1.0584849881171737e-06   -1.922464264451747e-06
7.972592386992649e-06   -1.0584849881171737e-06   -1.922464264451747e-06
7.972592386992649e-06   -1.0584849881171737e-06   -1.922464264451747e-06
5.776288119871313e-06   -1.0881794580010315e-06   1.7558595293474729e-06
5.776288119871313e-06   -1.0881794580010315e-06   1.7558595293474729e-06
5.776288119871313e-06   -1.0881794580010315e-06   1.7558595293474729e-06
5.776288119871313e-06   -1.0881794580010315e-06   1.7558595293474729e-06
7.972592386992637e-06   -1.3177853823206139e-06   4.724441875731159e-06
7.972592386992637e-06   -1.3177853823206139e-06   4.724441875731159e-06
7.972592386992637e-06   -1.3177853823206139e-06   4.724441875731159e-06
7.972592386992637e-06   -1.3177853823206139e-06   4.724441875731159e-06
3.984448702882924e-06   -1.0584849881171737e-06   -1.766884027929659e-06
3.984448702882924e-06   -1.0584849881171737e-06   -1.766884027929659e-06
3.984448702882924e-06   -1.0584849881171737e-06   -1.766884027929659e-06
3.984448702882924e-06   -1.0584849881171737e-06   -1.766884027929659e-06
3.858837618349034e-06   -1.3251328087749824e-06   4.359845380797351e-06
3.858837618349034e-06   -1.3251328087749824e-06   4.359845380797351e-06
3.858837618349034e-06   -1.3251328087749824e-06   4.359845380797351e-06
3.858837618349034e-06   -1.3251328087749824e-06   4.359845380797351e-06
7.798700023266423e-06   -1.0737603330364213e-06   -2.357415446174781e-06
7.798700023266423e-06   -1.0737603330364213e-06   -2.357415446174781e-06
7.798700023266423e-06   -1.0737603330364213e-06   -2.357415446174781e-06
7.798700023266423e-06   -1.0737603330364213e-06   -2.357415446174781e-06
5.738725479626044e-06   -1.133651943979329e-06   1.1118104264582622e-06
5.738725479626044e-06   -1.133651943979329e-06   1.1118104264582622e-06
5.738725479626044e-06   -1.133651943979329e-06   1.1118104264582622e-06
5.738725479626044e-06   -1.133651943979329e-06   1.1118104264582622e-06
7.798700023266423e-06   -1.325132808774989e-06   4.209021895354209e-06
7.798700023266423e-06   -1.325132808774989e-06   4.209021895354209e-06
7.798700023266423e-06   -1.325132808774989e-06   4.209021895354209e-06
7.798700023266423e-06   -1.325132808774989e-06   4.209021895354209e-06
3.858837618349034e-06   -1.0737603330364213e-06   -2.206591960731612e-06
3.858837618349034e-06   -1.0737603330364213e-06   -2.206591960731612e-06
3.858837618349034e-06   -1.0737603330364213e-06   -2.206591960731612e-06
3.858837618349034e-06   -1.0737603330364213e-06   -2.206591960731612e-06
3.7262847116512408e-06   -1.2872737830111171e-06   3.5803865590283473e-06
3.7262847116512408e-06   -1.2872737830111171e-06   3.5803865590283473e-06
3.7262847116512408e-06   -1.2872737830111171e-06   3.5803865590283473e-06
3.7262847116512408e-06   -1.2872737830111171e-06   3.5803865590283473e-06
7.580388818549339e-06   -1.0576462648158595e-06   -2.980896796718951e-06
7.580388818549339e-06   -1.0576462648158595e-06   -2.980896796718951e-06
7.580388818549339e-06   -1.0576462648158595e-06   -2.980896796718951e-06
7.580388818549339e-06   -1.0576462648158595e-06   -2.980896796718951e-06
5.499978139093323e-06   -1.1008598862602588e-06   5.123825085744679e-07
5.499978139093323e-06   -1.1008598862602588e-06   5.123825085744679e-07
5.499978139093323e-06   -1.1008598862602588e-06   5.123825085744679e-07
5.499978139093323e-06   -1.1008598862602588e-06   5.123825085744679e-07
4.082083243753559e-06   -6.998128690767809e-07   5.196390052711412e-06
4.082083243753559e-06   -6.998128690767809e-07   5.196390052711412e-06
4.082083243753559e-06   -6.998128690767809e-07   5.196390052711412e-06
4.082083243753559e-06   -6.998128690767809e-07   5.196390052711412e-06
3.602746471204047e-07   -3.208832297744166e-07   -7.792664914290899e-07
3.602746471204047e-07   -3.208832297744166e-07   -7.792664914290899e-07
3.602746471204047e-07   -3.208832297744166e-07   -7.792664914290899e-07
3.602746471204047e-07   -3.208832297744166e-07   -7.792664914290899e-07
2.62261583990988e-07   -7.390800437454838e-07   5.389708980948994e-06
2.62261583990988e-07   -7.390800437454838e-07   5.389708980948994e-06
2.62261583990988e-07   -7.390800437454838e-07   5.389708980948994e-06
2.62261583990988e-07   -7.390800437454838e-07   5.389708980948994e-06
3.984448702882924e-06   -3.8164848559051187e-07   -1.028395152097222e-06
3.984448702882924e-06   -3.8164848559051187e-07   -1.028395152097222e-06
3.984448702882924e-06   -3.8164848559051187e-07   -1.028395152097222e-06
3.984448702882924e-06   -3.8164848559051187e-07   -1.028395152097222e-06
2.1508851795460094e-06   -4.99216143084655e-07   2.098084647960783e-06
2.1508851795460094e-06   -4.99216143084655e-07   2.098084647960783e-06
2.1508851795460094e-06   -4.99216143084655e-07   2.098084647960783e-06
2.1508851795460094e-06   -4.99216143084655e-07   2.098084647960783e-06
3.984448702882917e-06   -7.390800437454939e-07   5.1752500460559945e-06
3.984448702882917e-06   -7.390800437454939e-07   5.1752500460559945e-06
3.984448702882917e-06   -7.390800437454939e-07   5.1752500460559945e-06
3.984448702882917e-06   -7.390800437454939e-07   5.1752500460559945e-06
2.62261583990988e-07   -3.8164848559051187e-07   -8.139362172042463e-07
2.62261583990988e-07   -3.8164848559051187e-07   -8.139362172042463e-07
2.62261583990988e-07   -3.8164848559051187e-07   -8.139362172042463e-07
2.62261583990988e-07   -3.8164848559051187e-07   -8.139362172042463e-07
1.3824692640487156e-07   -7.525378763859232e-07   5.3234752073589805e-06
1.3824692640487156e-07   -7.525378763859232e-07   5.3234752073589805e-06
1.3824692640487156e-07   -7.525378763859232e-07   5.3234752073589805e-06
1.3824692640487156e-07   -7.525378763859232e-07   5.3234752073589805e-06
3.858837618349035e-06   -4.186818562000507e-07   -1.0778228913261384e-06
3.858837618349035e-06   -4.186818562000507e-07   -1.0778228913261384e-06
3.858837618349035e-06   -4.186818562000507e-07   -1.0778228913261384e-06
3.858837618349035e-06   -4.186818562000507e-07   -1.0778228913261384e-06
2.024784775793312e-06   -5.207239955060182e-07   2.040157129850405e-06
2.024784775793312e-06   -5.207239955060182e-07   2.040157129850405e-06
2.024784775793312e-06   -5.207239955060182e-07   2.040157129850405e-06
2.024784775793312e-06   -5.207239955060182e-07   2.040157129850405e-06
3.858837618349031e-06   -7.525378763858783e-07   5.123161595247462e-06
3.858837618349031e-06   -7.525378763858783e-07   5.123161595247462e-06
3.858837618349031e-06   -7.525378763858783e-07   5.123161595247462e-06
3.858837618349031e-06   -7.525378763858783e-07   5.123161595247462e-06
1.3824692640487156e-07   -4.186818562000507e-07   -8.775092792146237e-07
1.3824692640487156e-07   -4.186818562000507e-07   -8.775092792146237e-07
1.3824692640487156e-07   -4.186818562000507e-07   -8.775092792146237e-07
1.3824692640487156e-07   -4.186818562000507e-07   -8.775092792146237e-07
1.374725304661875e-09   -7.284428113948352e-07   5.385780831994091e-06
1.374725304661875e-09   -7.284428113948352e-07   5.385780831994091e-06
1.374725304661875e-09   -7.284428113948352e-07   5.385780831994091e-06
1.374725304661875e-09   -7.284428113948352e-07   5.385780831994091e-06
3.726284711651237e-06   -4.304498849216822e-07   -1.0011982344674317e-06
3.726284711651237e-06   -4.304498849216822e-07   -1.0011982344674317e-06
3.726284711651237e-06   -4.304498849216822e-07   -1.0011982344674317e-06
3.726284711651237e-06   -4.304498849216822e-07   -1.0011982344674317e-06
1.9265766342508586e-06   -5.118367088902923e-07   2.047147322247818e-06
1.9265766342508586e-06   -5.118367088902923e-07   2.047147322247818e-06
1.9265766342508586e-06   -5.118367088902923e-07   2.047147322247818e-06
1.9265766342508586e-06   -5.118367088902923e-07   2.047147322247818e-06
3.602746471204047e-07   -2.2410075583659918e-07   5.278984670580424e-06
3.602746471204047e-07   -2.2410075583659918e-07   5.278984670580424e-06
3.602746471204047e-07   -2.2410075583659918e-07   5.278984670580424e-06
3.602746471204047e-07   -2.2410075583659918e-07   5.278984670580424e-06
-3.2537653963204854e-06   3.098272698124813e-07   -4.2405858643166684e-07
-3.2537653963204854e-06   3.098272698124813e-07   -4.2405858643166684e-07
-3.2537653963204854e-06   3.098272698124813e-07   -4.2405858643166684e-07
-3.2537653963204854e-06   3.098272698124813e-07   -4.2405858643166684e-07
-3.3646160703565543e-06   -2.3440873412114557e-07   5.635365382104492e-06
-3.3646160703565543e-06   -2.3440873412114557e-07   5.635365382104492e-06
-3.3646160703565543e-06   -2.3440873412114557e-07   5.635365382104492e-06
-3.3646160703565543e-06   -2.3440873412114557e-07   5.635365382104492e-06
2.622615839909874e-07   2.6702760059620903e-07   -7.102925093051534e-07
2.622615839909874e-07   2.6702760059620903e-07   -7.102925093051534e-07
2.622615839909874e-07   2.6702760059620903e-07   -7.102925093051534e-07
2.622615839909874e-07   2.6702760059620903e-07   -7.102925093051534e-07
-1.496590616133066e-06   5.222891605506262e-08   2.350007034959613e-06
-1.496590616133066e-06   5.222891605506262e-08   2.350007034959613e-06
-1.496590616133066e-06   5.222891605506262e-08   2.350007034959613e-06
-1.496590616133066e-06   5.222891605506262e-08   2.350007034959613e-06
2.62261583990988e-07   -2.3440873412115205e-07   5.334503581274079e-06
2.62261583990988e-07   -2.3440873412115205e-07   5.334503581274079e-06
2.62261583990988e-07   -2.3440873412115205e-07   5.334503581274079e-06
2.62261583990988e-07   -2.3440873412115205e-07   5.334503581274079e-06
-3.3646160703565543e-06   2.6702760059620903e-07   -4.0943070847473386e-07
-3.3646160703565543e-06   2.6702760059620903e-07   -4.0943070847473386e-07
-3.3646160703565543e-06   2.6702760059620903e-07   -4.0943070847473386e-07
-3.3646160703565543e-06   2.6702760059620903e-07   -4.0943070847473386e-07
-3.510738194740824e-06   -2.481146181719431e-07   5.738602295271415e-06
-3.510738194740824e-06   -2.481146181719431e-07   5.738602295271415e-06
-3.510738194740824e-06   -2.481146181719431e-07   5.738602295271415e-06
-3.510738194740824e-06   -2.481146181719431e-07   5.738602295271415e-06
1.3824692640487156e-07   2.27216231055735e-07   -6.282380828413697e-07
1.3824692640487156e-07   2.27216231055735e-07   -6.282380828413697e-07
1.3824692640487156e-07   2.27216231055735e-07   -6.282380828413697e-07
1.3824692640487156e-07   2.27216231055735e-07   -6.282380828413697e-07
-1.605261150810295e-06   4.277293394949408e-08   2.3882746907809804e-06
-1.605261150810295e-06   4.277293394949408e-08   2.3882746907809804e-06
-1.605261150810295e-06   4.277293394949408e-08   2.3882746907809804e-06
-1.605261150810295e-06   4.277293394949408e-08   2.3882746907809804e-06
1.3824692640487156e-07   -2.481146181719636e-07   5.453403785734819e-06
1.3824692640487156e-07   -2.481146181719636e-07   5.453403785734819e-06
1.3824692640487156e-07   -2.481146181719636e-07   5.453403785734819e-06
1.3824692640487156e-07   -2.481146181719636e-07   5.453403785734819e-06
-3.510738194740824e-06   2.27216231055735e-07   -3.4303957330473643e-07
-3.510738194740824e-06   2.27216231055735e-07   -3.4303957330473643e-07
-3.510738194740824e-06   2.27216231055735e-07   -3.4303957330473643e-07
-3.510738194740824e-06   2.27216231055735e-07   -3.4303957330473643e-07
-3.6663576381038395e-06   -2.4091013157946043e-07   5.862293435251987e-06
-3.6663576381038395e-06   -2.4091013157946043e-07   5.862293435251987e-06
-3.6663576381038395e-06   -2.4091013157946043e-07   5.862293435251987e-06
-3.6663576381038395e-06   -2.4091013157946043e-07   5.862293435251987e-06
1.3747253046614324e-09   1.994614016358003e-07   -5.148167570246523e-07
1.3747253046614324e-09   1.994614016358003e-07   -5.148167570246523e-07
1.3747253046614324e-09   1.994614016358003e-07   -5.148167570246523e-07
1.3747253046614324e-09   1.994614016358003e-07   -5.148167570246523e-07
-1.7428765619395856e-06   3.739901663899793e-08   2.489506152713925e-06
-1.7428765619395856e-06   3.739901663899793e-08   2.489506152713925e-06
-1.7428765619395856e-06   3.739901663899793e-08   2.489506152713925e-06
-1.7428765619395856e-06   3.739901663899793e-08   2.489506152713925e-06
-3.253765396320472e-06   4.4150893785700093e-07   4.813718113873619e-06
-3.253765396320472e-06   4.4150893785700093e-07   4.813718113873619e-06
-3.253765396320472e-06   4.4150893785700093e-07   4.813718113873619e-06
-3.253765396320472e-06   4.4150893785700093e-07   4.813718113873619e-06
-6.823069189189831e-06   9.771699007694932e-07   -8.137249631611789e-07
-6.823069189189831e-06   9.771699007694932e-07   -8.137249631611789e-07
-6.823069189189831e-06   9.771699007694932e-07   -8.137249631611789e-07
-6.823069189189831e-06   9.771699007694932e-07   -8.137249631611789e-07
-6.9792244569951746e-06   4.333660948943499e-07   5.29284032118227e-06
-6.9792244569951746e-06   4.333660948943499e-07   5.29284032118227e-06
-6.9792244569951746e-06   4.333660948943499e-07   5.29284032118227e-06
-6.9792244569951746e-06   4.333660948943499e-07   5.29284032118227e-06
-3.36461607035655e-06   9.36325289563019e-07   -1.0332825066833046e-06
-3.36461607035655e-06   9.36325289563019e-07   -1.0332825066833046e-06
-3.36461607035655e-06   9.36325289563019e-07   -1.0332825066833046e-06
-3.36461607035655e-06   9.36325289563019e-07   -1.0332825066833046e-06
-5.068517992860979e-06   7.034367619194472e-07   1.9462871474102447e-06
-5.068517992860979e-06   7.034367619194472e-07   1.9462871474102447e-06
-5.068517992860979e-06   7.034367619194472e-07   1.9462871474102447e-06
-5.068517992860979e-06   7.034367619194472e-07   1.9462871474102447e-06
-3.3646160703565543e-06   4.333660948943544e-07   4.991064804381052e-06
-3.3646160703565543e-06   4.333660948943544e-07   4.991064804381052e-06
-3.3646160703565543e-06   4.333660948943544e-07   4.991064804381052e-06
-3.3646160703565543e-06   4.333660948943544e-07   4.991064804381052e-06
-6.979224456995161e-06   9.36325289563019e-07   -7.315069898820869e-07
-6.979224456995161e-06   9.36325289563019e-07   -7.315069898820869e-07
-6.979224456995161e-06   9.36325289563019e-07   -7.315069898820869e-07
-6.979224456995161e-06   9.36325289563019e-07   -7.315069898820869e-07
-7.172410148534617e-06   4.0571503521011224e-07   5.6167383255503105e-06
-7.172410148534617e-06   4.0571503521011224e-07   5.6167383255503105e-06
-7.172410148534617e-06   4.0571503521011224e-07   5.6167383255503105e-06
-7.172410148534617e-06   4.0571503521011224e-07   5.6167383255503105e-06
-3.510738194740825e-06   8.96654760696846e-07   -7.806120993980256e-07
-3.510738194740825e-06   8.96654760696846e-07   -7.806120993980256e-07
-3.510738194740825e-06   8.96654760696846e-07   -7.806120993980256e-07
-3.510738194740825e-06   8.96654760696846e-07   -7.806120993980256e-07
-5.181174123067884e-06   6.983268705329591e-07   2.122444515245343e-06
-5.181174123067884e-06   6.983268705329591e-07   2.122444515245343e-06
-5.181174123067884e-06   6.983268705329591e-07   2.122444515245343e-06
-5.181174123067884e-06   6.983268705329591e-07   2.122444515245343e-06
-3.510738194740824e-06   4.057150352100952e-07   5.322174490258276e-06
-3.510738194740824e-06   4.057150352100952e-07   5.322174490258276e-06
-3.510738194740824e-06   4.057150352100952e-07   5.322174490258276e-06
-3.510738194740824e-06   4.057150352100952e-07   5.322174490258276e-06
-7.172410148534603e-06   8.96654760696846e-07   -4.860482641060179e-07
-7.172410148534603e-06   8.96654760696846e-07   -4.860482641060179e-07
-7.172410148534603e-06   8.96654760696846e-07   -4.860482641060179e-07
-7.172410148534603e-06   8.96654760696846e-07   -4.860482641060179e-07
-7.374773858918678e-06   3.7276612201901736e-07   5.8598054362015795e-06
-7.374773858918678e-06   3.7276612201901736e-07   5.8598054362015795e-06
-7.374773858918678e-06   3.7276612201901736e-07   5.8598054362015795e-06
-7.374773858918678e-06   3.7276612201901736e-07   5.8598054362015795e-06
-3.666357638103829e-06   8.411625950359197e-07   -6.019261489666371e-07
-3.666357638103829e-06   8.411625950359197e-07   -6.019261489666371e-07
-3.666357638103829e-06   8.411625950359197e-07   -6.019261489666371e-07
-3.666357638103829e-06   8.411625950359197e-07   -6.019261489666371e-07
-5.3817066562740745e-06   6.676847820238766e-07   2.36107556912439e-06
-5.3817066562740745e-06   6.676847820238766e-07   2.36107556912439e-06
-5.3817066562740745e-06   6.676847820238766e-07   2.36107556912439e-06
-5.3817066562740745e-06   6.676847820238766e-07   2.36107556912439e-06
-6.823069189189831e-06   1.5930653551295116e-06   2.5248009620374497e-06
-6.823069189189831e-06   1.5930653551295116e-06   2.5248009620374497e-06
-6.823069189189831e-06   1.5930653551295116e-06   2.5248009620374497e-06
-6.823069189189831e-06   1.5930653551295116e-06   2.5248009620374497e-06
-1.0276939063213154e-05   1.589283657494982e-06   -3.233917846582105e-06
-1.0276939063213154e-05   1.589283657494982e-06   -3.233917846582105e-06
-1.0276939063213154e-05   1.589283657494982e-06   -3.233917846582105e-06
-1.0276939063213154e-05   1.589283657494982e-06   -3.233917846582105e-06
-1.056029740905778e-05   1.5598401786716875e-06   3.832369610118661e-06
-1.056029740905778e-05   1.5598401786716875e-06   3.832369610118661e-06
-1.056029740905778e-05   1.5598401786716875e-06   3.832369610118661e-06
-1.056029740905778e-05   1.5598401786716875e-06   3.832369610118661e-06
-6.979224456995163e-06   1.629349085954107e-06   -2.177790654355182e-06
-6.979224456995163e-06   1.629349085954107e-06   -2.177790654355182e-06
-6.979224456995163e-06   1.629349085954107e-06   -2.177790654355182e-06
-6.979224456995163e-06   1.629349085954107e-06   -2.177790654355182e-06
-8.311265063081814e-06   1.6093759846292992e-06   5.426088325075578e-08
-8.311265063081814e-06   1.6093759846292992e-06   5.426088325075578e-08
-8.311265063081814e-06   1.6093759846292992e-06   5.426088325075578e-08
-8.311265063081814e-06   1.6093759846292992e-06   5.426088325075578e-08
-6.979224456995158e-06   1.5598401786716566e-06   3.7906642657491933e-06
-6.979224456995158e-06   1.5598401786716566e-06   3.7906642657491933e-06
-6.979224456995158e-06   1.5598401786716566e-06   3.7906642657491933e-06
-6.979224456995158e-06   1.5598401786716566e-06   3.7906642657491933e-06
-1.056029740905778e-05   1.629349085954107e-06   -2.136085309985714e-06
-1.056029740905778e-05   1.629349085954107e-06   -2.136085309985714e-06
-1.056029740905778e-05   1.629349085954107e-06   -2.136085309985714e-06
-1.056029740905778e-05   1.629349085954107e-06   -2.136085309985714e-06
-1.0837957306654739e-05   1.5281104603060932e-06   4.730544038125765e-06
-1.0837957306654739e-05   1.5281104603060932e-06   4.730544038125765e-06
-1.0837957306654739e-05   1.5281104603060932e-06   4.730544038125765e-06
-1.0837957306654739e-05   1.5281104603060932e-06   4.730544038125765e-06
-7.172410148534602e-06   1.62075435300213e-06   -1.434287561025495e-06
-7.172410148534602e-06   1.62075435300213e-06   -1.434287561025495e-06
-7.172410148534602e-06   1.62075435300213e-06   -1.434287561025495e-06
-7.172410148534602e-06   1.62075435300213e-06   -1.434287561025495e-06
-8.653133265729976e-06   1.6176039739832751e-06   1.0354745283782201e-06
-8.653133265729976e-06   1.6176039739832751e-06   1.0354745283782201e-06
-8.653133265729976e-06   1.6176039739832751e-06   1.0354745283782201e-06
-8.653133265729976e-06   1.6176039739832751e-06   1.0354745283782201e-06
-7.172410148534603e-06   1.5281104603060502e-06   4.674957702508094e-06
-7.172410148534603e-06   1.5281104603060502e-06   4.674957702508094e-06
-7.172410148534603e-06   1.5281104603060502e-06   4.674957702508094e-06
-7.172410148534603e-06   1.5281104603060502e-06   4.674957702508094e-06
-1.0837957306654756e-05   1.62075435300213e-06   -1.378701225407858e-06
-1.0837957306654756e-05   1.62075435300213e-06   -1.378701225407858e-06
-1.0837957306654756e-05   1.62075435300213e-06   -1.378701225407858e-06
-1.0837957306654756e-05   1.62075435300213e-06   -1.378701225407858e-06
-1.116702643945525e-05   1.307334449041791e-06   6.226230686288151e-06
-1.116702643945525e-05   1.307334449041791e-06   6.226230686288151e-06
-1.116702643945525e-05   1.307334449041791e-06   6.226230686288151e-06
-1.116702643945525e-05   1.307334449041791e-06   6.226230686288151e-06
-7.374773858918673e-06   1.5015840342740656e-06   -2.1074003241222119e-07
-7.374773858918673e-06   1.5015840342740656e-06   -2.1074003241222119e-07
-7.374773858918673e-06   1.5015840342740656e-06   -2.1074003241222119e-07
-7.374773858918673e-06   1.5015840342740656e-06   -2.1074003241222119e-07
-8.751172086842448e-06   1.5478215879560515e-06   2.0555144819182154e-06
-8.751172086842448e-06   1.5478215879560515e-06   2.0555144819182154e-06
-8.751172086842448e-06   1.5478215879560515e-06   2.0555144819182154e-06
-8.751172086842448e-06   1.5478215879560515e-06   2.0555144819182154e-06
6.793915726178185e-06   -9.416026021794498e-07   5.0863318579142075e-06
6.793915726178185e-06   -9.416026021794498e-07   5.0863318579142075e-06
6.793915726178185e-06   -9.416026021794498e-07   5.0863318579142075e-06
6.793915726178185e-06   -9.416026021794498e-07   5.0863318579142075e-06
3.3342440135770586e-06   -7.155818515151391e-07   -5.441752126890572e-07
3.3342440135770586e-06   -7.155818515151391e-07   -5.441752126890572e-07
3.3342440135770586e-06   -7.155818515151391e-07   -5.441752126890572e-07
3.3342440135770586e-06   -7.155818515151391e-07   -5.441752126890572e-07
3.2212294926051292e-06   -1.0584849881171195e-06   4.399662239722217e-06
3.2212294926051292e-06   -1.0584849881171195e-06   4.399662239722217e-06
3.2212294926051292e-06   -1.0584849881171195e-06   4.399662239722217e-06
3.2212294926051292e-06   -1.0584849881171195e-06   4.399662239722217e-06
6.587473593723389e-06   -8.224425810961613e-07   -1.3523700396874918e-06
6.587473593723389e-06   -8.224425810961613e-07   -1.3523700396874918e-06
6.587473593723389e-06   -8.224425810961613e-07   -1.3523700396874918e-06
6.587473593723389e-06   -8.224425810961613e-07   -1.3523700396874918e-06
4.756522913889862e-06   -8.749082116922048e-07   1.7306938050593741e-06
4.756522913889862e-06   -8.749082116922048e-07   1.7306938050593741e-06
4.756522913889862e-06   -8.749082116922048e-07   1.7306938050593741e-06
4.756522913889862e-06   -8.749082116922048e-07   1.7306938050593741e-06
6.587473593723378e-06   -1.0584849881171418e-06   4.258036795509577e-06
6.587473593723378e-06   -1.0584849881171418e-06   4.258036795509577e-06
6.587473593723378e-06   -1.0584849881171418e-06   4.258036795509577e-06
6.587473593723378e-06   -1.0584849881171418e-06   4.258036795509577e-06
3.2212294926051394e-06   -8.224425810961613e-07   -1.2107445954748198e-06
3.2212294926051394e-06   -8.224425810961613e-07   -1.2107445954748198e-06
3.2212294926051394e-06   -8.224425810961613e-07   -1.2107445954748198e-06
3.2212294926051394e-06   -8.224425810961613e-07   -1.2107445954748198e-06
3.094795190192025e-06   -1.0737603330363671e-06   3.927517343353681e-06
3.094795190192025e-06   -1.0737603330363671e-06   3.927517343353681e-06
3.094795190192025e-06   -1.0737603330363671e-06   3.927517343353681e-06
3.094795190192025e-06   -1.0737603330363671e-06   3.927517343353681e-06
6.398752016665859e-06   -8.424830339368809e-07   -1.7178437468957619e-06
6.398752016665859e-06   -8.424830339368809e-07   -1.7178437468957619e-06
6.398752016665859e-06   -8.424830339368809e-07   -1.7178437468957619e-06
6.398752016665859e-06   -8.424830339368809e-07   -1.7178437468957619e-06
4.688285508509084e-06   -9.169753055716587e-07   1.1776291296797563e-06
4.688285508509084e-06   -9.169753055716587e-07   1.1776291296797563e-06
4.688285508509084e-06   -9.169753055716587e-07   1.1776291296797563e-06
4.688285508509084e-06   -9.169753055716587e-07   1.1776291296797563e-06
6.3987520166658366e-06   -1.0737603330363748e-06   3.788750963893946e-06
6.3987520166658366e-06   -1.0737603330363748e-06   3.788750963893946e-06
6.3987520166658366e-06   -1.0737603330363748e-06   3.788750963893946e-06
6.3987520166658366e-06   -1.0737603330363748e-06   3.788750963893946e-06
3.09479519019203e-06   -8.424830339368809e-07   -1.5790773674360318e-06
3.09479519019203e-06   -8.424830339368809e-07   -1.5790773674360318e-06
3.09479519019203e-06   -8.424830339368809e-07   -1.5790773674360318e-06
3.09479519019203e-06   -8.424830339368809e-07   -1.5790773674360318e-06
2.9723935444731424e-06   -1.0576462648158595e-06   3.2572636290742994e-06
2.9723935444731424e-06   -1.0576462648158595e-06   3.2572636290742994e-06
2.9723935444731424e-06   -1.0576462648158595e-06   3.2572636290742994e-06
2.9723935444731424e-06   -1.0576462648158595e-06   3.2572636290742994e-06
6.183329261126348e-06   -8.433098747118195e-07   -2.2228977327434317e-06
6.183329261126348e-06   -8.433098747118195e-07   -2.2228977327434317e-06
6.183329261126348e-06   -8.433098747118195e-07   -2.2228977327434317e-06
6.183329261126348e-06   -8.433098747118195e-07   -2.2228977327434317e-06
4.465937701213627e-06   -8.985119686204831e-07   6.725427901230522e-07
4.465937701213627e-06   -8.985119686204831e-07   6.725427901230522e-07
4.465937701213627e-06   -8.985119686204831e-07   6.725427901230522e-07
4.465937701213627e-06   -8.985119686204831e-07   6.725427901230522e-07
3.3342440135770586e-06   -3.2088322977440936e-07   5.195189183991437e-06
3.3342440135770586e-06   -3.2088322977440936e-07   5.195189183991437e-06
3.3342440135770586e-06   -3.2088322977440936e-07   5.195189183991437e-06
3.3342440135770586e-06   -3.2088322977440936e-07   5.195189183991437e-06
8.535846954481929e-08   -1.397403275023388e-07   -1.1093431469903748e-07
8.535846954481929e-08   -1.397403275023388e-07   -1.1093431469903748e-07
8.535846954481929e-08   -1.397403275023388e-07   -1.1093431469903748e-07
8.535846954481929e-08   -1.397403275023388e-07   -1.1093431469903748e-07
-2.4033952622975395e-08   -3.8164848559051187e-07   5.238927099506695e-06
-2.4033952622975395e-08   -3.8164848559051187e-07   5.238927099506695e-06
-2.4033952622975395e-08   -3.8164848559051187e-07   5.238927099506695e-06
-2.4033952622975395e-08   -3.8164848559051187e-07   5.238927099506695e-06
3.22122949260514e-06   -2.1368851233708862e-07   -2.7062129315885134e-07
3.22122949260514e-06   -2.1368851233708862e-07   -2.7062129315885134e-07
3.22122949260514e-06   -2.1368851233708862e-07   -2.7062129315885134e-07
3.22122949260514e-06   -2.1368851233708862e-07   -2.7062129315885134e-07
1.63362853502139e-06   -2.5516066293180097e-07   2.4002635931708746e-06
1.63362853502139e-06   -2.5516066293180097e-07   2.4002635931708746e-06
1.63362853502139e-06   -2.5516066293180097e-07   2.4002635931708746e-06
1.63362853502139e-06   -2.5516066293180097e-07   2.4002635931708746e-06
3.2212294926051377e-06   -3.8164848559051854e-07   5.1381511155546575e-06
3.2212294926051377e-06   -3.8164848559051854e-07   5.1381511155546575e-06
3.2212294926051377e-06   -3.8164848559051854e-07   5.1381511155546575e-06
3.2212294926051377e-06   -3.8164848559051854e-07   5.1381511155546575e-06
-2.4033952622972007e-08   -2.1368851233708862e-07   -1.698453092068052e-07
-2.4033952622972007e-08   -2.1368851233708862e-07   -1.698453092068052e-07
-2.4033952622972007e-08   -2.1368851233708862e-07   -1.698453092068052e-07
-2.4033952622972007e-08   -2.1368851233708862e-07   -1.698453092068052e-07
-1.3780724165719517e-07   -4.186818562000507e-07   5.14770622443803e-06
-1.3780724165719517e-07   -4.186818562000507e-07   5.14770622443803e-06
-1.3780724165719517e-07   -4.186818562000507e-07   5.14770622443803e-06
-1.3780724165719517e-07   -4.186818562000507e-07   5.14770622443803e-06
3.09479519019203e-06   -2.6631550340190137e-07   -3.3138430698954576e-07
3.09479519019203e-06   -2.6631550340190137e-07   -3.3138430698954576e-07
3.09479519019203e-06   -2.6631550340190137e-07   -3.3138430698954576e-07
3.09479519019203e-06   -2.6631550340190137e-07   -3.3138430698954576e-07
1.505946300097271e-06   -2.928558430016553e-07   2.332621380261638e-06
1.505946300097271e-06   -2.928558430016553e-07   2.332621380261638e-06
1.505946300097271e-06   -2.928558430016553e-07   2.332621380261638e-06
1.505946300097271e-06   -2.928558430016553e-07   2.332621380261638e-06
3.09479519019203e-06   -4.1868185620001857e-07   5.056286412759205e-06
3.09479519019203e-06   -4.1868185620001857e-07   5.056286412759205e-06
3.09479519019203e-06   -4.1868185620001857e-07   5.056286412759205e-06
3.09479519019203e-06   -4.1868185620001857e-07   5.056286412759205e-06
-1.3780724165719517e-07   -2.6631550340190137e-07   -2.3996449531068055e-07
-1.3780724165719517e-07   -2.6631550340190137e-07   -2.3996449531068055e-07
-1.3780724165719517e-07   -2.6631550340190137e-07   -2.3996449531068055e-07
-1.3780724165719517e-07   -2.6631550340190137e-07   -2.3996449531068055e-07
-2.562786133061209e-07   -4.304498849216822e-07   5.174420764163544e-06
-2.562786133061209e-07   -4.304498849216822e-07   5.174420764163544e-06
-2.562786133061209e-07   -4.304498849216822e-07   5.174420764163544e-06
-2.562786133061209e-07   -4.304498849216822e-07   5.174420764163544e-06
2.972393544473149e-06   -3.050580786635466e-07   -2.8193458255675654e-07
2.972393544473149e-06   -3.050580786635466e-07   -2.8193458255675654e-07
2.972393544473149e-06   -3.050580786635466e-07   -2.8193458255675654e-07
2.972393544473149e-06   -3.050580786635466e-07   -2.8193458255675654e-07
1.4135691036657486e-06   -3.103172866759387e-07   2.319261676929778e-06
1.4135691036657486e-06   -3.103172866759387e-07   2.319261676929778e-06
1.4135691036657486e-06   -3.103172866759387e-07   2.319261676929778e-06
1.4135691036657486e-06   -3.103172866759387e-07   2.319261676929778e-06
8.535846954481929e-08   3.098272698124455e-07   5.338726014962662e-06
8.535846954481929e-08   3.098272698124455e-07   5.338726014962662e-06
8.535846954481929e-08   3.098272698124455e-07   5.338726014962662e-06
8.535846954481929e-08   3.098272698124455e-07   5.338726014962662e-06
-3.074886013024197e-06   4.3115435255456497e-07   1.4444812699291503e-07
-3.074886013024197e-06   4.3115435255456497e-07   1.4444812699291503e-07
-3.074886013024197e-06   4.3115435255456497e-07   1.4444812699291503e-07
-3.074886013024197e-06   4.3115435255456497e-07   1.4444812699291503e-07
-3.189712901865375e-06   2.6702760059620903e-07   5.405722407838783e-06
-3.189712901865375e-06   2.6702760059620903e-07   5.405722407838783e-06
-3.189712901865375e-06   2.6702760059620903e-07   5.405722407838783e-06
-3.189712901865375e-06   2.6702760059620903e-07   5.405722407838783e-06
-2.4033952622973668e-08   3.722802679845499e-07   6.643922533511779e-08
-2.4033952622973668e-08   3.722802679845499e-07   6.643922533511779e-08
-2.4033952622973668e-08   3.722802679845499e-07   6.643922533511779e-08
-2.4033952622973668e-08   3.722802679845499e-07   6.643922533511779e-08
-1.5530159261285971e-06   3.465875125131129e-07   2.630158167794041e-06
-1.5530159261285971e-06   3.465875125131129e-07   2.630158167794041e-06
-1.5530159261285971e-06   3.465875125131129e-07   2.630158167794041e-06
-1.5530159261285971e-06   3.465875125131129e-07   2.630158167794041e-06
-2.4033952622975395e-08   2.670276005961869e-07   5.342570807405795e-06
-2.4033952622975395e-08   2.670276005961869e-07   5.342570807405795e-06
-2.4033952622975395e-08   2.670276005961869e-07   5.342570807405795e-06
-2.4033952622975395e-08   2.670276005961869e-07   5.342570807405795e-06
-3.189712901865375e-06   3.722802679845499e-07   1.2959082576810945e-07
-3.189712901865375e-06   3.722802679845499e-07   1.2959082576810945e-07
-3.189712901865375e-06   3.722802679845499e-07   1.2959082576810945e-07
-3.189712901865375e-06   3.722802679845499e-07   1.2959082576810945e-07
-3.3102621788638077e-06   2.27216231055735e-07   5.449788021825617e-06
-3.3102621788638077e-06   2.27216231055735e-07   5.449788021825617e-06
-3.3102621788638077e-06   2.27216231055735e-07   5.449788021825617e-06
-3.3102621788638077e-06   2.27216231055735e-07   5.449788021825617e-06
-1.3780724165719615e-07   3.152338994129398e-07   1.095525254669263e-07
-1.3780724165719615e-07   3.152338994129398e-07   1.095525254669263e-07
-1.3780724165719615e-07   3.152338994129398e-07   1.095525254669263e-07
-1.3780724165719615e-07   3.152338994129398e-07   1.095525254669263e-07
-1.6592246445778435e-06   3.144600912715701e-07   2.645712481886192e-06
-1.6592246445778435e-06   3.144600912715701e-07   2.645712481886192e-06
-1.6592246445778435e-06   3.144600912715701e-07   2.645712481886192e-06
-1.6592246445778435e-06   3.144600912715701e-07   2.645712481886192e-06
-1.3780724165719517e-07   2.2721623105574756e-07   5.396977420811321e-06
-1.3780724165719517e-07   2.2721623105574756e-07   5.396977420811321e-06
-1.3780724165719517e-07   2.2721623105574756e-07   5.396977420811321e-06
-1.3780724165719517e-07   2.2721623105574756e-07   5.396977420811321e-06
-3.3102621788638077e-06   3.152338994129398e-07   1.6236312648130677e-07
-3.3102621788638077e-06   3.152338994129398e-07   1.6236312648130677e-07
-3.3102621788638077e-06   3.152338994129398e-07   1.6236312648130677e-07
-3.3102621788638077e-06   3.152338994129398e-07   1.6236312648130677e-07
-3.4342569914405976e-06   1.994614016358003e-07   5.521103462219888e-06
-3.4342569914405976e-06   1.994614016358003e-07   5.521103462219888e-06
-3.4342569914405976e-06   1.994614016358003e-07   5.521103462219888e-06
-3.4342569914405976e-06   1.994614016358003e-07   5.521103462219888e-06
-2.5627861330612037e-07   2.64623029131415e-07   1.8537585549833165e-07
-2.5627861330612037e-07   2.64623029131415e-07   1.8537585549833165e-07
-2.5627861330612037e-07   2.64623029131415e-07   1.8537585549833165e-07
-2.5627861330612037e-07   2.64623029131415e-07   1.8537585549833165e-07
-1.774226943770402e-06   2.839850375794552e-07   2.7036725345368136e-06
-1.774226943770402e-06   2.839850375794552e-07   2.7036725345368136e-06
-1.774226943770402e-06   2.839850375794552e-07   2.7036725345368136e-06
-1.774226943770402e-06   2.839850375794552e-07   2.7036725345368136e-06
-3.0748860130242073e-06   9.771699007694515e-07   4.700459310130951e-06
-3.0748860130242073e-06   9.771699007694515e-07   4.700459310130951e-06
-3.0748860130242073e-06   9.771699007694515e-07   4.700459310130951e-06
-3.0748860130242073e-06   9.771699007694515e-07   4.700459310130951e-06
-6.1627623370726015e-06   9.901736924495586e-07   -4.3819895494167163e-07
-6.1627623370726015e-06   9.901736924495586e-07   -4.3819895494167163e-07
-6.1627623370726015e-06   9.901736924495586e-07   -4.3819895494167163e-07
-6.1627623370726015e-06   9.901736924495586e-07   -4.3819895494167163e-07
-6.295721651331713e-06   9.36325289563019e-07   4.781869108837938e-06
-6.295721651331713e-06   9.36325289563019e-07   4.781869108837938e-06
-6.295721651331713e-06   9.36325289563019e-07   4.781869108837938e-06
-6.295721651331713e-06   9.36325289563019e-07   4.781869108837938e-06
-3.1897129018653804e-06   9.363227882425249e-07   -3.948106394802958e-07
-3.1897129018653804e-06   9.363227882425249e-07   -3.948106394802958e-07
-3.1897129018653804e-06   9.363227882425249e-07   -3.948106394802958e-07
-3.1897129018653804e-06   9.363227882425249e-07   -3.948106394802958e-07
-4.659979195265734e-06   9.542428804436807e-07   2.0448811275329323e-06
-4.659979195265734e-06   9.542428804436807e-07   2.0448811275329323e-06
-4.659979195265734e-06   9.542428804436807e-07   2.0448811275329323e-06
-4.659979195265734e-06   9.542428804436807e-07   2.0448811275329323e-06
-3.1897129018653816e-06   9.363252895630355e-07   4.7818706096302665e-06
-3.1897129018653816e-06   9.363252895630355e-07   4.7818706096302665e-06
-3.1897129018653816e-06   9.363252895630355e-07   4.7818706096302665e-06
-3.1897129018653816e-06   9.363252895630355e-07   4.7818706096302665e-06
-6.295721651331706e-06   9.363227882425249e-07   -3.94812140272618e-07
-6.295721651331706e-06   9.363227882425249e-07   -3.94812140272618e-07
-6.295721651331706e-06   9.363227882425249e-07   -3.94812140272618e-07
-6.295721651331706e-06   9.363227882425249e-07   -3.94812140272618e-07
-6.4417694604486366e-06   8.96654760696846e-07   5.005006709768683e-06
-6.4417694604486366e-06   8.96654760696846e-07   5.005006709768683e-06
-6.4417694604486366e-06   8.96654760696846e-07   5.005006709768683e-06
-6.4417694604486366e-06   8.96654760696846e-07   5.005006709768683e-06
-3.310262178863812e-06   8.846401174241142e-07   -2.0696330690903785e-07
-3.310262178863812e-06   8.846401174241142e-07   -2.0696330690903785e-07
-3.310262178863812e-06   8.846401174241142e-07   -2.0696330690903785e-07
-3.310262178863812e-06   8.846401174241142e-07   -2.0696330690903785e-07
-4.751933978356889e-06   9.251945452450213e-07   2.171490368886898e-06
-4.751933978356889e-06   9.251945452450213e-07   2.171490368886898e-06
-4.751933978356889e-06   9.251945452450213e-07   2.171490368886898e-06
-4.751933978356889e-06   9.251945452450213e-07   2.171490368886898e-06
-3.310262178863811e-06   8.966547606968422e-07   5.012215495732355e-06
-3.310262178863811e-06   8.966547606968422e-07   5.012215495732355e-06
-3.310262178863811e-06   8.966547606968422e-07   5.012215495732355e-06
-3.310262178863811e-06   8.966547606968422e-07   5.012215495732355e-06
-6.4417694604486366e-06   8.846401174241142e-07   -2.1417209287267558e-07
-6.4417694604486366e-06   8.846401174241142e-07   -2.1417209287267558e-07
-6.4417694604486366e-06   8.846401174241142e-07   -2.1417209287267558e-07
-6.4417694604486366e-06   8.846401174241142e-07   -2.1417209287267558e-07
-6.580174847056065e-06   8.411625950359197e-07   5.156877972885016e-06
-6.580174847056065e-06   8.411625950359197e-07   5.156877972885016e-06
-6.580174847056065e-06   8.411625950359197e-07   5.156877972885016e-06
-6.580174847056065e-06   8.411625950359197e-07   5.156877972885016e-06
-3.4342569914406005e-06   8.196739659297163e-07   -7.342527567703037e-08
-3.4342569914406005e-06   8.196739659297163e-07   -7.342527567703037e-08
-3.4342569914406005e-06   8.196739659297163e-07   -7.342527567703037e-08
-3.4342569914406005e-06   8.196739659297163e-07   -7.342527567703037e-08
-4.907541275914793e-06   8.848017503683392e-07   2.342971861116898e-06
-4.907541275914793e-06   8.848017503683392e-07   2.342971861116898e-06
-4.907541275914793e-06   8.848017503683392e-07   2.342971861116898e-06
-4.907541275914793e-06   8.848017503683392e-07   2.342971861116898e-06
-6.162762337072591e-06   1.5892836574949915e-06   2.290337720298782e-06
-6.162762337072591e-06   1.5892836574949915e-06   2.290337720298782e-06
-6.162762337072591e-06   1.5892836574949915e-06   2.290337720298782e-06
-6.162762337072591e-06   1.5892836574949915e-06   2.290337720298782e-06
-9.14491187743842e-06   1.4488507347970928e-06   -2.764171267263002e-06
-9.14491187743842e-06   1.4488507347970928e-06   -2.764171267263002e-06
-9.14491187743842e-06   1.4488507347970928e-06   -2.764171267263002e-06
-9.14491187743842e-06   1.4488507347970928e-06   -2.764171267263002e-06
-9.354859979568086e-06   1.629349085954107e-06   3.240996390054858e-06
-9.354859979568086e-06   1.629349085954107e-06   3.240996390054858e-06
-9.354859979568086e-06   1.629349085954107e-06   3.240996390054858e-06
-9.354859979568086e-06   1.629349085954107e-06   3.240996390054858e-06
-6.2957216513317155e-06   1.471700662104196e-06   -1.762978436029166e-06
-6.2957216513317155e-06   1.471700662104196e-06   -1.762978436029166e-06
-6.2957216513317155e-06   1.471700662104196e-06   -1.762978436029166e-06
-6.2957216513317155e-06   1.471700662104196e-06   -1.762978436029166e-06
-7.441994461297993e-06   1.521485549236981e-06   1.1760531496830091e-07
-7.441994461297993e-06   1.521485549236981e-06   1.1760531496830091e-07
-7.441994461297993e-06   1.521485549236981e-06   1.1760531496830091e-07
-7.441994461297993e-06   1.521485549236981e-06   1.1760531496830091e-07
-6.295721651331699e-06   1.6293490859541092e-06   3.3355854443648154e-06
-6.295721651331699e-06   1.6293490859541092e-06   3.3355854443648154e-06
-6.295721651331699e-06   1.6293490859541092e-06   3.3355854443648154e-06
-6.295721651331699e-06   1.6293490859541092e-06   3.3355854443648154e-06
-9.3548599795681e-06   1.471700662104196e-06   -1.8575674903390963e-06
-9.3548599795681e-06   1.471700662104196e-06   -1.8575674903390963e-06
-9.3548599795681e-06   1.471700662104196e-06   -1.8575674903390963e-06
-9.3548599795681e-06   1.471700662104196e-06   -1.8575674903390963e-06
-9.557909132019643e-06   1.62075435300213e-06   3.958875131532865e-06
-9.557909132019643e-06   1.62075435300213e-06   3.958875131532865e-06
-9.557909132019643e-06   1.62075435300213e-06   3.958875131532865e-06
-9.557909132019643e-06   1.62075435300213e-06   3.958875131532865e-06
-6.441769460448634e-06   1.4576005508082032e-06   -1.136798706435846e-06
-6.441769460448634e-06   1.4576005508082032e-06   -1.136798706435846e-06
-6.441769460448634e-06   1.4576005508082032e-06   -1.136798706435846e-06
-6.441769460448634e-06   1.4576005508082032e-06   -1.136798706435846e-06
-7.713594878609438e-06   1.5521805891564096e-06   9.261623008233657e-07
-7.713594878609438e-06   1.5521805891564096e-06   9.261623008233657e-07
-7.713594878609438e-06   1.5521805891564096e-06   9.261623008233657e-07
-7.713594878609438e-06   1.5521805891564096e-06   9.261623008233657e-07
-6.4417694604486366e-06   1.6207543530021446e-06   4.0567674128492266e-06
-6.4417694604486366e-06   1.6207543530021446e-06   4.0567674128492266e-06
-6.4417694604486366e-06   1.6207543530021446e-06   4.0567674128492266e-06
-6.4417694604486366e-06   1.6207543530021446e-06   4.0567674128492266e-06
-9.557909132019677e-06   1.4576005508082032e-06   -1.2346909877522007e-06
-9.557909132019677e-06   1.4576005508082032e-06   -1.2346909877522007e-06
-9.557909132019677e-06   1.4576005508082032e-06   -1.2346909877522007e-06
-9.557909132019677e-06   1.4576005508082032e-06   -1.2346909877522007e-06
-9.793079307877203e-06   1.5015840342740114e-06   5.176399029856513e-06
-9.793079307877203e-06   1.5015840342740114e-06   5.176399029856513e-06
-9.793079307877203e-06   1.5015840342740114e-06   5.176399029856513e-06
-9.793079307877203e-06   1.5015840342740114e-06   5.176399029856513e-06
-6.58017484705606e-06   1.350538741319465e-06   -8.78145624059646e-08
-6.58017484705606e-06   1.350538741319465e-06   -8.78145624059646e-08
-6.58017484705606e-06   1.350538741319465e-06   -8.78145624059646e-08
-6.58017484705606e-06   1.350538741319465e-06   -8.78145624059646e-08
-7.762230888218646e-06   1.5075469412990927e-06   1.788073919543884e-06
-7.762230888218646e-06   1.5075469412990927e-06   1.788073919543884e-06
-7.762230888218646e-06   1.5075469412990927e-06   1.788073919543884e-06
-7.762230888218646e-06   1.5075469412990927e-06   1.788073919543884e-06
5.338262463500231e-06   -7.155818515151662e-07   4.376530185369186e-06
5.338262463500231e-06   -7.155818515151662e-07   4.376530185369186e-06
5.338262463500231e-06   -7.155818515151662e-07   4.376530185369186e-06
5.338262463500231e-06   -7.155818515151662e-07   4.376530185369186e-06
2.496930681426441e-06   -4.952010831043652e-07   -2.2679432370729447e-07
2.496930681426441e-06   -4.952010831043652e-07   -2.2679432370729447e-07
2.496930681426441e-06   -4.952010831043652e-07   -2.2679432370729447e-07
2.496930681426441e-06   -4.952010831043652e-07   -2.2679432370729447e-07
2.3944633586325354e-06   -8.22442581096107e-07   3.8262812640683106e-06
2.3944633586325354e-06   -8.22442581096107e-07   3.8262812640683106e-06
2.3944633586325354e-06   -8.22442581096107e-07   3.8262812640683106e-06
2.3944633586325354e-06   -8.22442581096107e-07   3.8262812640683106e-06
5.1387558219381936e-06   -5.928866698233352e-07   -8.852730548714323e-07
5.1387558219381936e-06   -5.928866698233352e-07   -8.852730548714323e-07
5.1387558219381936e-06   -5.928866698233352e-07   -8.852730548714323e-07
5.1387558219381936e-06   -5.928866698233352e-07   -8.852730548714323e-07
3.6620270213060317e-06   -6.599532902776305e-07   1.616181585121397e-06
3.6620270213060317e-06   -6.599532902776305e-07   1.616181585121397e-06
3.6620270213060317e-06   -6.599532902776305e-07   1.616181585121397e-06
3.6620270213060317e-06   -6.599532902776305e-07   1.616181585121397e-06
5.138755821938185e-06   -8.224425810960937e-07   3.68854771730468e-06
5.138755821938185e-06   -8.224425810960937e-07   3.68854771730468e-06
5.138755821938185e-06   -8.224425810960937e-07   3.68854771730468e-06
5.138755821938185e-06   -8.224425810960937e-07   3.68854771730468e-06
2.3944633586325396e-06   -5.928866698233352e-07   -7.47539508107783e-07
2.3944633586325396e-06   -5.928866698233352e-07   -7.47539508107783e-07
2.3944633586325396e-06   -5.928866698233352e-07   -7.47539508107783e-07
2.3944633586325396e-06   -5.928866698233352e-07   -7.47539508107783e-07
2.280145652115463e-06   -8.424830339368809e-07   3.441500166538093e-06
2.280145652115463e-06   -8.424830339368809e-07   3.441500166538093e-06
2.280145652115463e-06   -8.424830339368809e-07   3.441500166538093e-06
2.280145652115463e-06   -8.424830339368809e-07   3.441500166538093e-06
4.96236212923986e-06   -6.177680589920689e-07   -1.1636896136360818e-06
4.96236212923986e-06   -6.177680589920689e-07   -1.1636896136360818e-06
4.96236212923986e-06   -6.177680589920689e-07   -1.1636896136360818e-06
4.96236212923986e-06   -6.177680589920689e-07   -1.1636896136360818e-06
3.5877454909004164e-06   -7.00265638359579e-07   1.1768366645502126e-06
3.5877454909004164e-06   -7.00265638359579e-07   1.1768366645502126e-06
3.5877454909004164e-06   -7.00265638359579e-07   1.1768366645502126e-06
3.5877454909004164e-06   -7.00265638359579e-07   1.1768366645502126e-06
4.962362129239851e-06   -8.424830339368546e-07   3.3066711815712166e-06
4.962362129239851e-06   -8.424830339368546e-07   3.3066711815712166e-06
4.962362129239851e-06   -8.424830339368546e-07   3.3066711815712166e-06
4.962362129239851e-06   -8.424830339368546e-07   3.3066711815712166e-06
2.2801456521154663e-06   -6.177680589920689e-07   -1.0288606286692461e-06
2.2801456521154663e-06   -6.177680589920689e-07   -1.0288606286692461e-06
2.2801456521154663e-06   -6.177680589920689e-07   -1.0288606286692461e-06
2.2801456521154663e-06   -6.177680589920689e-07   -1.0288606286692461e-06
2.173901325229246e-06   -8.433098747118195e-07   2.9089951849802474e-06
2.173901325229246e-06   -8.433098747118195e-07   2.9089951849802474e-06
2.173901325229246e-06   -8.433098747118195e-07   2.9089951849802474e-06
2.173901325229246e-06   -8.433098747118195e-07   2.9089951849802474e-06
4.7630172361727695e-06   -6.353835451246119e-07   -1.530953797677924e-06
4.7630172361727695e-06   -6.353835451246119e-07   -1.530953797677924e-06
4.7630172361727695e-06   -6.353835451246119e-07   -1.530953797677924e-06
4.7630172361727695e-06   -6.353835451246119e-07   -1.530953797677924e-06
3.3950072027889944e-06   -6.933916613569534e-07   7.838677943677407e-07
3.3950072027889944e-06   -6.933916613569534e-07   7.838677943677407e-07
3.3950072027889944e-06   -6.933916613569534e-07   7.838677943677407e-07
3.3950072027889944e-06   -6.933916613569534e-07   7.838677943677407e-07
2.496930681426434e-06   -1.397403275023012e-07   4.833313803042456e-06
2.496930681426434e-06   -1.397403275023012e-07   4.833313803042456e-06
2.496930681426434e-06   -1.397403275023012e-07   4.833313803042456e-06
2.496930681426434e-06   -1.397403275023012e-07   4.833313803042456e-06
-1.83249931639693e-07   -1.4267343327058722e-08   4.416299051040746e-07
-1.83249931639693e-07   -1.4267343327058722e-08   4.416299051040746e-07
-1.83249931639693e-07   -1.4267343327058722e-08   4.416299051040746e-07
-1.83249931639693e-07   -1.4267343327058722e-08   4.416299051040746e-07
-2.8026505624617823e-07   -2.1368851233714284e-07   4.836354397616619e-06
-2.8026505624617823e-07   -2.1368851233714284e-07   4.836354397616619e-06
-2.8026505624617823e-07   -2.1368851233714284e-07   4.836354397616619e-06
-2.8026505624617823e-07   -2.1368851233714284e-07   4.836354397616619e-06
2.3944633586325396e-06   -9.71054602833107e-08   3.0852387491976564e-07
2.3944633586325396e-06   -9.71054602833107e-08   3.0852387491976564e-07
2.3944633586325396e-06   -9.71054602833107e-08   3.0852387491976564e-07
2.3944633586325396e-06   -9.71054602833107e-08   3.0852387491976564e-07
1.088667366536542e-06   -1.1955435207013781e-07   2.4983198634852457e-06
1.088667366536542e-06   -1.1955435207013781e-07   2.4983198634852457e-06
1.088667366536542e-06   -1.1955435207013781e-07   2.4983198634852457e-06
1.088667366536542e-06   -1.1955435207013781e-07   2.4983198634852457e-06
2.3944633586325286e-06   -2.1368851233711936e-07   4.7664045663842875e-06
2.3944633586325286e-06   -2.1368851233711936e-07   4.7664045663842875e-06
2.3944633586325286e-06   -2.1368851233711936e-07   4.7664045663842875e-06
2.3944633586325286e-06   -2.1368851233711936e-07   4.7664045663842875e-06
-2.8026505624617823e-07   -9.71054602832565e-08   3.7847370615209236e-07
-2.8026505624617823e-07   -9.71054602832565e-08   3.7847370615209236e-07
-2.8026505624617823e-07   -9.71054602832565e-08   3.7847370615209236e-07
-2.8026505624617823e-07   -9.71054602832565e-08   3.7847370615209236e-07
-3.7962298445269854e-07   -2.6631550340190137e-07   4.752763531174956e-06
-3.7962298445269854e-07   -2.6631550340190137e-07   4.752763531174956e-06
-3.7962298445269854e-07   -2.6631550340190137e-07   4.752763531174956e-06
-3.7962298445269854e-07   -2.6631550340190137e-07   4.752763531174956e-06
2.2801456521154663e-06   -1.6036499641798943e-07   2.562454993709701e-07
2.2801456521154663e-06   -1.6036499641798943e-07   2.562454993709701e-07
2.2801456521154663e-06   -1.6036499641798943e-07   2.562454993709701e-07
2.2801456521154663e-06   -1.6036499641798943e-07   2.562454993709701e-07
9.779858684026665e-07   -1.696075408570371e-07   2.4320573322225806e-06
9.779858684026665e-07   -1.696075408570371e-07   2.4320573322225806e-06
9.779858684026665e-07   -1.696075408570371e-07   2.4320573322225806e-06
9.779858684026665e-07   -1.696075408570371e-07   2.4320573322225806e-06
2.280145652115463e-06   -2.6631550340188946e-07   4.689193226984565e-06
2.280145652115463e-06   -2.6631550340188946e-07   4.689193226984565e-06
2.280145652115463e-06   -2.6631550340188946e-07   4.689193226984565e-06
2.280145652115463e-06   -2.6631550340188946e-07   4.689193226984565e-06
-3.7962298445269854e-07   -1.6036499641798943e-07   3.198158035613505e-07
-3.7962298445269854e-07   -1.6036499641798943e-07   3.198158035613505e-07
-3.7962298445269854e-07   -1.6036499641798943e-07   3.198158035613505e-07
-3.7962298445269854e-07   -1.6036499641798943e-07   3.198158035613505e-07
-4.796905916259176e-07   -3.050580786635466e-07   4.774534002817475e-06
-4.796905916259176e-07   -3.050580786635466e-07   4.774534002817475e-06
-4.796905916259176e-07   -3.050580786635466e-07   4.774534002817475e-06
-4.796905916259176e-07   -3.050580786635466e-07   4.774534002817475e-06
2.173901325229248e-06   -2.1642890914191264e-07   2.987033063458801e-07
2.173901325229248e-06   -2.1642890914191264e-07   2.987033063458801e-07
2.173901325229248e-06   -2.1642890914191264e-07   2.987033063458801e-07
2.173901325229248e-06   -2.1642890914191264e-07   2.987033063458801e-07
8.965034825025452e-07   -2.042249007768891e-07   2.4203773058713715e-06
8.965034825025452e-07   -2.042249007768891e-07   2.4203773058713715e-06
8.965034825025452e-07   -2.042249007768891e-07   2.4203773058713715e-06
8.965034825025452e-07   -2.042249007768891e-07   2.4203773058713715e-06
-1.83249931639693e-07   4.311543525545816e-07   5.09118378559431e-06
-1.83249931639693e-07   4.311543525545816e-07   5.09118378559431e-06
-1.83249931639693e-07   4.311543525545816e-07   5.09118378559431e-06
-1.83249931639693e-07   4.311543525545816e-07   5.09118378559431e-06
-2.8069232583518707e-06   4.483534480605395e-07   7.28714365044248e-07
-2.8069232583518707e-06   4.483534480605395e-07   7.28714365044248e-07
-2.8069232583518707e-06   4.483534480605395e-07   7.28714365044248e-07
-2.8069232583518707e-06   4.483534480605395e-07   7.28714365044248e-07
-2.9051473002996603e-06   3.722802679845499e-07   5.075978752800949e-06
-2.9051473002996603e-06   3.722802679845499e-07   5.075978752800949e-06
-2.9051473002996603e-06   3.722802679845499e-07   5.075978752800949e-06
-2.9051473002996603e-06   3.722802679845499e-07   5.075978752800949e-06
-2.8026505624618125e-07   3.7784663572195147e-07   6.978351920694212e-07
-2.8026505624618125e-07   3.7784663572195147e-07   6.978351920694212e-07
-2.8026505624618125e-07   3.7784663572195147e-07   6.978351920694212e-07
-2.8026505624618125e-07   3.7784663572195147e-07   6.978351920694212e-07
-1.547754559274687e-06   3.9892406990016697e-07   2.7976712366099965e-06
-1.547754559274687e-06   3.9892406990016697e-07   2.7976712366099965e-06
-1.547754559274687e-06   3.9892406990016697e-07   2.7976712366099965e-06
-1.547754559274687e-06   3.9892406990016697e-07   2.7976712366099965e-06
-2.802650562461816e-07   3.7228026798457184e-07   5.072638932158573e-06
-2.802650562461816e-07   3.7228026798457184e-07   5.072638932158573e-06
-2.802650562461816e-07   3.7228026798457184e-07   5.072638932158573e-06
-2.802650562461816e-07   3.7228026798457184e-07   5.072638932158573e-06
-2.9051473002996603e-06   3.7784663572189726e-07   7.011750127118479e-07
-2.9051473002996603e-06   3.7784663572189726e-07   7.011750127118479e-07
-2.9051473002996603e-06   3.7784663572189726e-07   7.011750127118479e-07
-2.9051473002996603e-06   3.7784663572189726e-07   7.011750127118479e-07
-3.0054507584576076e-06   3.15233899412994e-07   5.098279463864333e-06
-3.0054507584576076e-06   3.15233899412994e-07   5.098279463864333e-06
-3.0054507584576076e-06   3.15233899412994e-07   5.098279463864333e-06
-3.0054507584576076e-06   3.15233899412994e-07   5.098279463864333e-06
-3.796229844527006e-07   3.0856541926595725e-07   7.259009286110522e-07
-3.796229844527006e-07   3.0856541926595725e-07   7.259009286110522e-07
-3.796229844527006e-07   3.0856541926595725e-07   7.259009286110522e-07
-3.796229844527006e-07   3.0856541926595725e-07   7.259009286110522e-07
-1.6383224801684544e-06   3.525257846107954e-07   2.7973572022637873e-06
-1.6383224801684544e-06   3.525257846107954e-07   2.7973572022637873e-06
-1.6383224801684544e-06   3.525257846107954e-07   2.7973572022637873e-06
-1.6383224801684544e-06   3.525257846107954e-07   2.7973572022637873e-06
-3.796229844527019e-07   3.152338994129607e-07   5.102280551952566e-06
-3.796229844527019e-07   3.152338994129607e-07   5.102280551952566e-06
-3.796229844527019e-07   3.152338994129607e-07   5.102280551952566e-06
-3.796229844527019e-07   3.152338994129607e-07   5.102280551952566e-06
-3.0054507584576178e-06   3.0856541926595725e-07   7.218998405228091e-07
-3.0054507584576178e-06   3.0856541926595725e-07   7.218998405228091e-07
-3.0054507584576178e-06   3.0856541926595725e-07   7.218998405228091e-07
-3.0054507584576178e-06   3.0856541926595725e-07   7.218998405228091e-07
-3.105372890029528e-06   2.64623029131415e-07   5.153635274536843e-06
-3.105372890029528e-06   2.64623029131415e-07   5.153635274536843e-06
-3.105372890029528e-06   2.64623029131415e-07   5.153635274536843e-06
-3.105372890029528e-06   2.64623029131415e-07   5.153635274536843e-06
-4.796905916259165e-07   2.4299955816330576e-07   7.904721931116996e-07
-4.796905916259165e-07   2.4299955816330576e-07   7.904721931116996e-07
-4.796905916259165e-07   2.4299955816330576e-07   7.904721931116996e-07
-4.796905916259165e-07   2.4299955816330576e-07   7.904721931116996e-07
-1.733454484926553e-06   3.076033655519746e-07   2.841316397512894e-06
-1.733454484926553e-06   3.076033655519746e-07   2.841316397512894e-06
-1.733454484926553e-06   3.076033655519746e-07   2.841316397512894e-06
-1.733454484926553e-06   3.076033655519746e-07   2.841316397512894e-06
-2.8069232583518673e-06   9.901736924495847e-07   4.5110538859552255e-06
-2.8069232583518673e-06   9.901736924495847e-07   4.5110538859552255e-06
-2.8069232583518673e-06   9.901736924495847e-07   4.5110538859552255e-06
-2.8069232583518673e-06   9.901736924495847e-07   4.5110538859552255e-06
-5.392091354550835e-06   8.96794473681788e-07   1.464128610296334e-07
-5.392091354550835e-06   8.96794473681788e-07   1.464128610296334e-07
-5.392091354550835e-06   8.96794473681788e-07   1.464128610296334e-07
-5.392091354550835e-06   8.96794473681788e-07   1.464128610296334e-07
-5.498364026211458e-06   9.363227882425249e-07   4.488530784837742e-06
-5.498364026211458e-06   9.363227882425249e-07   4.488530784837742e-06
-5.498364026211458e-06   9.363227882425249e-07   4.488530784837742e-06
-5.498364026211458e-06   9.363227882425249e-07   4.488530784837742e-06
-2.905147300299664e-06   8.312452837178357e-07   2.2954941103287745e-07
-2.905147300299664e-06   8.312452837178357e-07   2.2954941103287745e-07
-2.905147300299664e-06   8.312452837178357e-07   2.2954941103287745e-07
-2.905147300299664e-06   8.312452837178357e-07   2.2954941103287745e-07
-4.136385218078409e-06   8.993166999613465e-07   2.240769757584719e-06
-4.136385218078409e-06   8.993166999613465e-07   2.240769757584719e-06
-4.136385218078409e-06   8.993166999613465e-07   2.240769757584719e-06
-4.136385218078409e-06   8.993166999613465e-07   2.240769757584719e-06
-2.9051473002996603e-06   9.363227882425114e-07   4.55157728755255e-06
-2.9051473002996603e-06   9.363227882425114e-07   4.55157728755255e-06
-2.9051473002996603e-06   9.363227882425114e-07   4.55157728755255e-06
-2.9051473002996603e-06   9.363227882425114e-07   4.55157728755255e-06
-5.498364026211451e-06   8.312452837178357e-07   1.6650290831806932e-07
-5.498364026211451e-06   8.312452837178357e-07   1.6650290831806932e-07
-5.498364026211451e-06   8.312452837178357e-07   1.6650290831806932e-07
-5.498364026211451e-06   8.312452837178357e-07   1.6650290831806932e-07
-5.614421064801384e-06   8.846401174241142e-07   4.65916316627209e-06
-5.614421064801384e-06   8.846401174241142e-07   4.65916316627209e-06
-5.614421064801384e-06   8.846401174241142e-07   4.65916316627209e-06
-5.614421064801384e-06   8.846401174241142e-07   4.65916316627209e-06
-3.0054507584576178e-06   7.68323677087469e-07   3.8066918656775797e-07
-3.0054507584576178e-06   7.68323677087469e-07   3.8066918656775797e-07
-3.0054507584576178e-06   7.68323677087469e-07   3.8066918656775797e-07
-3.0054507584576178e-06   7.68323677087469e-07   3.8066918656775797e-07
-4.208726245809644e-06   8.58308749708428e-07   2.3321372885820233e-06
-4.208726245809644e-06   8.58308749708428e-07   2.3321372885820233e-06
-4.208726245809644e-06   8.58308749708428e-07   2.3321372885820233e-06
-4.208726245809644e-06   8.58308749708428e-07   2.3321372885820233e-06
-3.0054507584576178e-06   8.846401174240892e-07   4.72895303047405e-06
-3.0054507584576178e-06   8.846401174240892e-07   4.72895303047405e-06
-3.0054507584576178e-06   8.846401174240892e-07   4.72895303047405e-06
-3.0054507584576178e-06   8.846401174240892e-07   4.72895303047405e-06
-5.614421064801384e-06   7.68323677087469e-07   3.108793223657912e-07
-5.614421064801384e-06   7.68323677087469e-07   3.108793223657912e-07
-5.614421064801384e-06   7.68323677087469e-07   3.108793223657912e-07
-5.614421064801384e-06   7.68323677087469e-07   3.108793223657912e-07
-5.719433584201417e-06   8.196739659297163e-07   4.779945654757303e-06
-5.719433584201417e-06   8.196739659297163e-07   4.779945654757303e-06
-5.719433584201417e-06   8.196739659297163e-07   4.779945654757303e-06
-5.719433584201417e-06   8.196739659297163e-07   4.779945654757303e-06
-3.1053728900295353e-06   6.933547790850857e-07   4.989693432442505e-07
-3.1053728900295353e-06   6.933547790850857e-07   4.989693432442505e-07
-3.1053728900295353e-06   6.933547790850857e-07   4.989693432442505e-07
-3.1053728900295353e-06   6.933547790850857e-07   4.989693432442505e-07
-4.331970221299683e-06   8.100065896078884e-07   2.4733071423808594e-06
-4.331970221299683e-06   8.100065896078884e-07   2.4733071423808594e-06
-4.331970221299683e-06   8.100065896078884e-07   2.4733071423808594e-06
-4.331970221299683e-06   8.100065896078884e-07   2.4733071423808594e-06
-5.392091354550835e-06   1.4488507347971182e-06   2.213313795991972e-06
-5.392091354550835e-06   1.4488507347971182e-06   2.213313795991972e-06
-5.392091354550835e-06   1.4488507347971182e-06   2.213313795991972e-06
-5.392091354550835e-06   1.4488507347971182e-06   2.213313795991972e-06
-7.891714657847945e-06   1.2601583653405334e-06   -2.065940464510469e-06
-7.891714657847945e-06   1.2601583653405334e-06   -2.065940464510469e-06
-7.891714657847945e-06   1.2601583653405334e-06   -2.065940464510469e-06
-7.891714657847945e-06   1.2601583653405334e-06   -2.065940464510469e-06
-8.08490940590434e-06   1.471700662104196e-06   2.9939346425557226e-06
-8.08490940590434e-06   1.471700662104196e-06   2.9939346425557226e-06
-8.08490940590434e-06   1.471700662104196e-06   2.9939346425557226e-06
-8.08490940590434e-06   1.471700662104196e-06   2.9939346425557226e-06
-5.4983640262114596e-06   1.2609842512284778e-06   -1.190544477073664e-06
-5.4983640262114596e-06   1.2609842512284778e-06   -1.190544477073664e-06
-5.4983640262114596e-06   1.2609842512284778e-06   -1.190544477073664e-06
-5.4983640262114596e-06   1.2609842512284778e-06   -1.190544477073664e-06
-6.46017807714053e-06   1.3376755620119482e-06   3.6646415467139304e-07
-6.46017807714053e-06   1.3376755620119482e-06   3.6646415467139304e-07
-6.46017807714053e-06   1.3376755620119482e-06   3.6646415467139304e-07
-6.46017807714053e-06   1.3376755620119482e-06   3.6646415467139304e-07
-5.498364026211451e-06   1.4717006621041822e-06   3.1203644890811805e-06
-5.498364026211451e-06   1.4717006621041822e-06   3.1203644890811805e-06
-5.498364026211451e-06   1.4717006621041822e-06   3.1203644890811805e-06
-5.498364026211451e-06   1.4717006621041822e-06   3.1203644890811805e-06
-8.084909405904354e-06   1.2609842512284778e-06   -1.316974323599122e-06
-8.084909405904354e-06   1.2609842512284778e-06   -1.316974323599122e-06
-8.084909405904354e-06   1.2609842512284778e-06   -1.316974323599122e-06
-8.084909405904354e-06   1.2609842512284778e-06   -1.316974323599122e-06
-8.255837338626118e-06   1.4576005508082032e-06   3.6045706072914937e-06
-8.255837338626118e-06   1.4576005508082032e-06   3.6045706072914937e-06
-8.255837338626118e-06   1.4576005508082032e-06   3.6045706072914937e-06
-8.255837338626118e-06   1.4576005508082032e-06   3.6045706072914937e-06
-5.6144210648013865e-06   1.2376573084459152e-06   -6.658239036656913e-07
-5.6144210648013865e-06   1.2376573084459152e-06   -6.658239036656913e-07
-5.6144210648013865e-06   1.2376573084459152e-06   -6.658239036656913e-07
-5.6144210648013865e-06   1.2376573084459152e-06   -6.658239036656913e-07
-6.692380841019877e-06   1.3550450344124816e-06   1.0603430877854155e-06
-6.692380841019877e-06   1.3550450344124816e-06   1.0603430877854155e-06
-6.692380841019877e-06   1.3550450344124816e-06   1.0603430877854155e-06
-6.692380841019877e-06   1.3550450344124816e-06   1.0603430877854155e-06
-5.614421064801384e-06   1.457600550808214e-06   3.736536552708899e-06
-5.614421064801384e-06   1.457600550808214e-06   3.736536552708899e-06
-5.614421064801384e-06   1.457600550808214e-06   3.736536552708899e-06
-5.614421064801384e-06   1.457600550808214e-06   3.736536552708899e-06
-8.255837338626131e-06   1.2376573084459152e-06   -7.977898490830831e-07
-8.255837338626131e-06   1.2376573084459152e-06   -7.977898490830831e-07
-8.255837338626131e-06   1.2376573084459152e-06   -7.977898490830831e-07
-8.255837338626131e-06   1.2376573084459152e-06   -7.977898490830831e-07
-8.450278357393263e-06   1.350538741319465e-06   4.645565879283462e-06
-8.450278357393263e-06   1.350538741319465e-06   4.645565879283462e-06
-8.450278357393263e-06   1.350538741319465e-06   4.645565879283462e-06
-8.450278357393263e-06   1.350538741319465e-06   4.645565879283462e-06
-5.71943358420141e-06   1.1290659643050857e-06   2.270415901722611e-07
-5.71943358420141e-06   1.1290659643050857e-06   2.270415901722611e-07
-5.71943358420141e-06   1.1290659643050857e-06   2.270415901722611e-07
-5.71943358420141e-06   1.1290659643050857e-06   2.270415901722611e-07
-6.725538609778135e-06   1.3093410256559673e-06   1.7957182626562125e-06
-6.725538609778135e-06   1.3093410256559673e-06   1.7957182626562125e-06
-6.725538609778135e-06   1.3093410256559673e-06   1.7957182626562125e-06
-6.725538609778135e-06   1.3093410256559673e-06   1.7957182626562125e-06
3.849386463369639e-06   -4.952010831043194e-07   3.67991797206829e-06
3.849386463369639e-06   -4.952010831043194e-07   3.67991797206829e-06
3.849386463369639e-06   -4.952010831043194e-07   3.67991797206829e-06
3.849386463369639e-06   -4.952010831043194e-07   3.67991797206829e-06
1.608024954137012e-06   -2.6802768375526324e-07   8.061949629002674e-08
1.608024954137012e-06   -2.6802768375526324e-07   8.061949629002674e-08
1.608024954137012e-06   -2.6802768375526324e-07   8.061949629002674e-08
1.608024954137012e-06   -2.6802768375526324e-07   8.061949629002674e-08
1.5234344494055632e-06   -5.928866698233352e-07   3.288698689552015e-06
1.5234344494055632e-06   -5.928866698233352e-07   3.288698689552015e-06
1.5234344494055632e-06   -5.928866698233352e-07   3.288698689552015e-06
1.5234344494055632e-06   -5.928866698233352e-07   3.288698689552015e-06
3.6665220467398465e-06   -3.581118333929141e-07   -4.2397887453002653e-07
3.6665220467398465e-06   -3.581118333929141e-07   -4.2397887453002653e-07
3.6665220467398465e-06   -3.581118333929141e-07   -4.2397887453002653e-07
3.6665220467398465e-06   -3.581118333929141e-07   -4.2397887453002653e-07
2.530594226011317e-06   -4.372370830709447e-07   1.5167093098243892e-06
2.530594226011317e-06   -4.372370830709447e-07   1.5167093098243892e-06
2.530594226011317e-06   -4.372370830709447e-07   1.5167093098243892e-06
2.530594226011317e-06   -4.372370830709447e-07   1.5167093098243892e-06
3.666522046739852e-06   -5.928866698233335e-07   3.147833787693784e-06
3.666522046739852e-06   -5.928866698233335e-07   3.147833787693784e-06
3.666522046739852e-06   -5.928866698233335e-07   3.147833787693784e-06
3.666522046739852e-06   -5.928866698233335e-07   3.147833787693784e-06
1.5234344494055581e-06   -3.581118333929141e-07   -2.831139726718057e-07
1.5234344494055581e-06   -3.581118333929141e-07   -2.831139726718057e-07
1.5234344494055581e-06   -3.581118333929141e-07   -2.831139726718057e-07
1.5234344494055581e-06   -3.581118333929141e-07   -2.831139726718057e-07
1.4270425297882926e-06   -6.177680589920689e-07   3.000846088812393e-06
1.4270425297882926e-06   -6.177680589920689e-07   3.000846088812393e-06
1.4270425297882926e-06   -6.177680589920689e-07   3.000846088812393e-06
1.4270425297882926e-06   -6.177680589920689e-07   3.000846088812393e-06
3.5081254615264075e-06   -3.876715723297782e-07   -6.056833560818244e-07
3.5081254615264075e-06   -3.876715723297782e-07   -6.056833560818244e-07
3.5081254615264075e-06   -3.876715723297782e-07   -6.056833560818244e-07
3.5081254615264075e-06   -3.876715723297782e-07   -6.056833560818244e-07
2.456115035228296e-06   -4.7596363282045515e-07   1.2006425907094791e-06
2.456115035228296e-06   -4.7596363282045515e-07   1.2006425907094791e-06
2.456115035228296e-06   -4.7596363282045515e-07   1.2006425907094791e-06
2.456115035228296e-06   -4.7596363282045515e-07   1.2006425907094791e-06
3.5081254615264135e-06   -6.177680589920773e-07   2.8627881968150133e-06
3.5081254615264135e-06   -6.177680589920773e-07   2.8627881968150133e-06
3.5081254615264135e-06   -6.177680589920773e-07   2.8627881968150133e-06
3.5081254615264135e-06   -6.177680589920773e-07   2.8627881968150133e-06
1.42704252978829e-06   -3.876715723297782e-07   -4.6762546408444963e-07
1.42704252978829e-06   -3.876715723297782e-07   -4.6762546408444963e-07
1.42704252978829e-06   -3.876715723297782e-07   -4.6762546408444963e-07
1.42704252978829e-06   -3.876715723297782e-07   -4.6762546408444963e-07
1.3400516087303862e-06   -6.353835451246661e-07   2.616334520634002e-06
1.3400516087303862e-06   -6.353835451246661e-07   2.616334520634002e-06
1.3400516087303862e-06   -6.353835451246661e-07   2.616334520634002e-06
1.3400516087303862e-06   -6.353835451246661e-07   2.616334520634002e-06
3.326056508741662e-06   -4.220823216741665e-07   -8.216543801217578e-07
3.326056508741662e-06   -4.220823216741665e-07   -8.216543801217578e-07
3.326056508741662e-06   -4.220823216741665e-07   -8.216543801217578e-07
3.326056508741662e-06   -4.220823216741665e-07   -8.216543801217578e-07
2.2975142937732815e-06   -4.803587506673791e-07   9.275485022213887e-07
2.2975142937732815e-06   -4.803587506673791e-07   9.275485022213887e-07
2.2975142937732815e-06   -4.803587506673791e-07   9.275485022213887e-07
2.2975142937732815e-06   -4.803587506673791e-07   9.275485022213887e-07
1.608024954137018e-06   -1.426734332699856e-08   4.4093624499839305e-06
1.608024954137018e-06   -1.426734332699856e-08   4.4093624499839305e-06
1.608024954137018e-06   -1.426734332699856e-08   4.4093624499839305e-06
1.608024954137018e-06   -1.426734332699856e-08   4.4093624499839305e-06
-4.823936969083088e-07   1.0505161019333238e-07   9.96922737020624e-07
-4.823936969083088e-07   1.0505161019333238e-07   9.96922737020624e-07
-4.823936969083088e-07   1.0505161019333238e-07   9.96922737020624e-07
-4.823936969083088e-07   1.0505161019333238e-07   9.96922737020624e-07
-5.60725447251795e-07   -9.71054602832565e-08   4.412880141954785e-06
-5.60725447251795e-07   -9.71054602832565e-08   4.412880141954785e-06
-5.60725447251795e-07   -9.71054602832565e-08   4.412880141954785e-06
-5.60725447251795e-07   -9.71054602832565e-08   4.412880141954785e-06
1.5234344494055581e-06   1.6424655342094302e-08   8.711622448173327e-07
1.5234344494055581e-06   1.6424655342094302e-08   8.711622448173327e-07
1.5234344494055581e-06   1.6424655342094302e-08   8.711622448173327e-07
1.5234344494055581e-06   1.6424655342094302e-08   8.711622448173327e-07
5.067104064827311e-07   -5.701250274127694e-09   2.5789778597251674e-06
5.067104064827311e-07   -5.701250274127694e-09   2.5789778597251674e-06
5.067104064827311e-07   -5.701250274127694e-09   2.5789778597251674e-06
5.067104064827311e-07   -5.701250274127694e-09   2.5789778597251674e-06
1.5234344494055624e-06   -9.710546028328299e-08   4.3447620725795585e-06
1.5234344494055624e-06   -9.710546028328299e-08   4.3447620725795585e-06
1.5234344494055624e-06   -9.710546028328299e-08   4.3447620725795585e-06
1.5234344494055624e-06   -9.710546028328299e-08   4.3447620725795585e-06
-5.60725447251795e-07   1.6424655342121407e-08   9.392803141925518e-07
-5.60725447251795e-07   1.6424655342121407e-08   9.392803141925518e-07
-5.60725447251795e-07   1.6424655342121407e-08   9.392803141925518e-07
-5.60725447251795e-07   1.6424655342121407e-08   9.392803141925518e-07
-6.411254294926618e-07   -1.6036499641798943e-07   4.349670281094553e-06
-6.411254294926618e-07   -1.6036499641798943e-07   4.349670281094553e-06
-6.411254294926618e-07   -1.6036499641798943e-07   4.349670281094553e-06
-6.411254294926618e-07   -1.6036499641798943e-07   4.349670281094553e-06
1.4270425297882898e-06   -5.4168222681346074e-08   8.390056180510216e-07
1.4270425297882898e-06   -5.4168222681346074e-08   8.390056180510216e-07
1.4270425297882898e-06   -5.4168222681346074e-08   8.390056180510216e-07
1.4270425297882898e-06   -5.4168222681346074e-08   8.390056180510216e-07
4.1920008042447354e-07   -6.366052811025138e-08   2.5244384169148713e-06
4.1920008042447354e-07   -6.366052811025138e-08   2.5244384169148713e-06
4.1920008042447354e-07   -6.366052811025138e-08   2.5244384169148713e-06
4.1920008042447354e-07   -6.366052811025138e-08   2.5244384169148713e-06
1.427042529788295e-06   -1.6036499641797863e-07   4.285952216852626e-06
1.427042529788295e-06   -1.6036499641797863e-07   4.285952216852626e-06
1.427042529788295e-06   -1.6036499641797863e-07   4.285952216852626e-06
1.427042529788295e-06   -1.6036499641797863e-07   4.285952216852626e-06
-6.411254294926618e-07   -5.416822268137318e-08   9.027236822929912e-07
-6.411254294926618e-07   -5.416822268137318e-08   9.027236822929912e-07
-6.411254294926618e-07   -5.416822268137318e-08   9.027236822929912e-07
-6.411254294926618e-07   -5.416822268137318e-08   9.027236822929912e-07
-7.210867832370521e-07   -2.1642890914191264e-07   4.37831997897217e-06
-7.210867832370521e-07   -2.1642890914191264e-07   4.37831997897217e-06
-7.210867832370521e-07   -2.1642890914191264e-07   4.37831997897217e-06
-7.210867832370521e-07   -2.1642890914191264e-07   4.37831997897217e-06
1.3400516087303803e-06   -1.2128865569744273e-07   8.860051736264136e-07
1.3400516087303803e-06   -1.2128865569744273e-07   8.860051736264136e-07
1.3400516087303803e-06   -1.2128865569744273e-07   8.860051736264136e-07
1.3400516087303803e-06   -1.2128865569744273e-07   8.860051736264136e-07
3.52342185389891e-07   -1.0965801799787305e-07   2.525209163240727e-06
3.52342185389891e-07   -1.0965801799787305e-07   2.525209163240727e-06
3.52342185389891e-07   -1.0965801799787305e-07   2.525209163240727e-06
3.52342185389891e-07   -1.0965801799787305e-07   2.525209163240727e-06
-4.823936969083054e-07   4.4835344806053403e-07   4.757718824732792e-06
-4.823936969083054e-07   4.4835344806053403e-07   4.757718824732792e-06
-4.823936969083054e-07   4.4835344806053403e-07   4.757718824732792e-06
-4.823936969083054e-07   4.4835344806053403e-07   4.757718824732792e-06
-2.533519911339974e-06   4.477875397171057e-07   1.3388355890072676e-06
-2.533519911339974e-06   4.477875397171057e-07   1.3388355890072676e-06
-2.533519911339974e-06   4.477875397171057e-07   1.3388355890072676e-06
-2.533519911339974e-06   4.477875397171057e-07   1.3388355890072676e-06
-2.611479907923845e-06   3.7784663572189726e-07   4.727173757717603e-06
-2.611479907923845e-06   3.7784663572189726e-07   4.727173757717603e-06
-2.611479907923845e-06   3.7784663572189726e-07   4.727173757717603e-06
-2.611479907923845e-06   3.7784663572189726e-07   4.727173757717603e-06
-5.607254472517936e-07   3.6940018546439296e-07   1.3143175267520379e-06
-5.607254472517936e-07   3.6940018546439296e-07   1.3143175267520379e-06
-5.607254472517936e-07   3.6940018546439296e-07   1.3143175267520379e-06
-5.607254472517936e-07   3.6940018546439296e-07   1.3143175267520379e-06
-1.5510972043917397e-06   3.992024915333006e-07   2.9470557383440117e-06
-1.5510972043917397e-06   3.992024915333006e-07   2.9470557383440117e-06
-1.5510972043917397e-06   3.992024915333006e-07   2.9470557383440117e-06
-1.5510972043917397e-06   3.992024915333006e-07   2.9470557383440117e-06
-5.60725447251795e-07   3.778466357218877e-07   4.732241627872111e-06
-5.60725447251795e-07   3.778466357218877e-07   4.732241627872111e-06
-5.60725447251795e-07   3.778466357218877e-07   4.732241627872111e-06
-5.60725447251795e-07   3.778466357218877e-07   4.732241627872111e-06
-2.611479907923848e-06   3.6940018546439296e-07   1.3092496565975434e-06
-2.611479907923848e-06   3.6940018546439296e-07   1.3092496565975434e-06
-2.611479907923848e-06   3.6940018546439296e-07   1.3092496565975434e-06
-2.611479907923848e-06   3.6940018546439296e-07   1.3092496565975434e-06
-2.691039978928366e-06   3.0856541926595725e-07   4.745804113647016e-06
-2.691039978928366e-06   3.0856541926595725e-07   4.745804113647016e-06
-2.691039978928366e-06   3.0856541926595725e-07   4.745804113647016e-06
-2.691039978928366e-06   3.0856541926595725e-07   4.745804113647016e-06
-6.411254294926615e-07   2.9197993177057643e-07   1.339231157084744e-06
-6.411254294926615e-07   2.9197993177057643e-07   1.339231157084744e-06
-6.411254294926615e-07   2.9197993177057643e-07   1.339231157084744e-06
-6.411254294926615e-07   2.9197993177057643e-07   1.339231157084744e-06
-1.6218200508823555e-06   3.432229261739195e-07   2.9429763960923486e-06
-1.6218200508823555e-06   3.432229261739195e-07   2.9429763960923486e-06
-1.6218200508823555e-06   3.432229261739195e-07   2.9429763960923486e-06
-1.6218200508823555e-06   3.432229261739195e-07   2.9429763960923486e-06
-6.411254294926618e-07   3.0856541926595397e-07   4.755755406144271e-06
-6.411254294926618e-07   3.0856541926595397e-07   4.755755406144271e-06
-6.411254294926618e-07   3.0856541926595397e-07   4.755755406144271e-06
-6.411254294926618e-07   3.0856541926595397e-07   4.755755406144271e-06
-2.6910399789283694e-06   2.9197993177057643e-07   1.329279864587546e-06
-2.6910399789283694e-06   2.9197993177057643e-07   1.329279864587546e-06
-2.6910399789283694e-06   2.9197993177057643e-07   1.329279864587546e-06
-2.6910399789283694e-06   2.9197993177057643e-07   1.329279864587546e-06
-2.769399406265748e-06   2.4299955816330576e-07   4.80176432119753e-06
-2.769399406265748e-06   2.4299955816330576e-07   4.80176432119753e-06
-2.769399406265748e-06   2.4299955816330576e-07   4.80176432119753e-06
-2.769399406265748e-06   2.4299955816330576e-07   4.80176432119753e-06
-7.210867832370515e-07   2.1775448678419424e-07   1.4030569923105087e-06
-7.210867832370515e-07   2.1775448678419424e-07   1.4030569923105087e-06
-7.210867832370515e-07   2.1775448678419424e-07   1.4030569923105087e-06
-7.210867832370515e-07   2.1775448678419424e-07   1.4030569923105087e-06
-1.696146227763991e-06   2.888005009388456e-07   2.9855284580291737e-06
-1.696146227763991e-06   2.888005009388456e-07   2.9855284580291737e-06
-1.696146227763991e-06   2.888005009388456e-07   2.9855284580291737e-06
-1.696146227763991e-06   2.888005009388456e-07   2.9855284580291737e-06
-2.533519911339974e-06   8.967944736817994e-07   4.231105306972744e-06
-2.533519911339974e-06   8.967944736817994e-07   4.231105306972744e-06
-2.533519911339974e-06   8.967944736817994e-07   4.231105306972744e-06
-2.533519911339974e-06   8.967944736817994e-07   4.231105306972744e-06
-4.564458292641913e-06   7.828640637334665e-07   7.778497588338648e-07
-4.564458292641913e-06   7.828640637334665e-07   7.778497588338648e-07
-4.564458292641913e-06   7.828640637334665e-07   7.778497588338648e-07
-4.564458292641913e-06   7.828640637334665e-07   7.778497588338648e-07
-4.648892062646083e-06   8.312452837178357e-07   4.1814750703207215e-06
-4.648892062646083e-06   8.312452837178357e-07   4.1814750703207215e-06
-4.648892062646083e-06   8.312452837178357e-07   4.1814750703207215e-06
-4.648892062646083e-06   8.312452837178357e-07   4.1814750703207215e-06
-2.611479907923841e-06   7.077901408546194e-07   8.598612315016346e-07
-2.611479907923841e-06   7.077901408546194e-07   8.598612315016346e-07
-2.611479907923841e-06   7.077901408546194e-07   8.598612315016346e-07
-2.611479907923841e-06   7.077901408546194e-07   8.598612315016346e-07
-3.5789718776461823e-06   7.886777110820164e-07   2.4238153055691785e-06
-3.5789718776461823e-06   7.886777110820164e-07   2.4238153055691785e-06
-3.5789718776461823e-06   7.886777110820164e-07   2.4238153055691785e-06
-3.5789718776461823e-06   7.886777110820164e-07   2.4238153055691785e-06
-2.611479907923848e-06   8.312452837178347e-07   4.2555481560387e-06
-2.611479907923848e-06   8.312452837178347e-07   4.2555481560387e-06
-2.611479907923848e-06   8.312452837178347e-07   4.2555481560387e-06
-2.611479907923848e-06   8.312452837178347e-07   4.2555481560387e-06
-4.648892062646069e-06   7.077901408546194e-07   7.857881457837035e-07
-4.648892062646069e-06   7.077901408546194e-07   7.857881457837035e-07
-4.648892062646069e-06   7.077901408546194e-07   7.857881457837035e-07
-4.648892062646069e-06   7.077901408546194e-07   7.857881457837035e-07
-4.743171289869033e-06   7.68323677087469e-07   4.325616486935594e-06
-4.743171289869033e-06   7.68323677087469e-07   4.325616486935594e-06
-4.743171289869033e-06   7.68323677087469e-07   4.325616486935594e-06
-4.743171289869033e-06   7.68323677087469e-07   4.325616486935594e-06
-2.6910399789283614e-06   6.367287224934932e-07   9.843546081241987e-07
-2.6910399789283614e-06   6.367287224934932e-07   9.843546081241987e-07
-2.6910399789283614e-06   6.367287224934932e-07   9.843546081241987e-07
-2.6910399789283614e-06   6.367287224934932e-07   9.843546081241987e-07
-3.634144452371547e-06   7.382271269144088e-07   2.495296354543738e-06
-3.634144452371547e-06   7.382271269144088e-07   2.495296354543738e-06
-3.634144452371547e-06   7.382271269144088e-07   2.495296354543738e-06
-3.634144452371547e-06   7.382271269144088e-07   2.495296354543738e-06
-2.6910399789283694e-06   7.683236770874522e-07   4.404573459691985e-06
-2.6910399789283694e-06   7.683236770874522e-07   4.404573459691985e-06
-2.6910399789283694e-06   7.683236770874522e-07   4.404573459691985e-06
-2.6910399789283694e-06   7.683236770874522e-07   4.404573459691985e-06
-4.7431712898690195e-06   6.367287224935203e-07   9.053976353678213e-07
-4.7431712898690195e-06   6.367287224935203e-07   9.053976353678213e-07
-4.7431712898690195e-06   6.367287224935203e-07   9.053976353678213e-07
-4.7431712898690195e-06   6.367287224935203e-07   9.053976353678213e-07
-4.825805676127093e-06   6.933547790850857e-07   4.440653130260709e-06
-4.825805676127093e-06   6.933547790850857e-07   4.440653130260709e-06
-4.825805676127093e-06   6.933547790850857e-07   4.440653130260709e-06
-4.825805676127093e-06   6.933547790850857e-07   4.440653130260709e-06
-2.7693994062657433e-06   5.557174063346257e-07   1.09589177080875e-06
-2.7693994062657433e-06   5.557174063346257e-07   1.09589177080875e-06
-2.7693994062657433e-06   5.557174063346257e-07   1.09589177080875e-06
-2.7693994062657433e-06   5.557174063346257e-07   1.09589177080875e-06
-3.730496071411956e-06   6.833312976829383e-07   2.621151211243316e-06
-3.730496071411956e-06   6.833312976829383e-07   2.621151211243316e-06
-3.730496071411956e-06   6.833312976829383e-07   2.621151211243316e-06
-3.730496071411956e-06   6.833312976829383e-07   2.621151211243316e-06
-4.564458292641913e-06   1.260158365340561e-06   2.0636091571375845e-06
-4.564458292641913e-06   1.260158365340561e-06   2.0636091571375845e-06
-4.564458292641913e-06   1.260158365340561e-06   2.0636091571375845e-06
-4.564458292641913e-06   1.260158365340561e-06   2.0636091571375845e-06
-6.511209215471478e-06   1.0502074571683859e-06   -1.3069462591483124e-06
-6.511209215471478e-06   1.0502074571683859e-06   -1.3069462591483124e-06
-6.511209215471478e-06   1.0502074571683859e-06   -1.3069462591483124e-06
-6.511209215471478e-06   1.0502074571683859e-06   -1.3069462591483124e-06
-6.690816884537795e-06   1.2609842512284778e-06   2.6859561456911516e-06
-6.690816884537795e-06   1.2609842512284778e-06   2.6859561456911516e-06
-6.690816884537795e-06   1.2609842512284778e-06   2.6859561456911516e-06
-6.690816884537795e-06   1.2609842512284778e-06   2.6859561456911516e-06
-4.648892062646063e-06   1.0301983524987684e-06   -5.787803515571832e-07
-4.648892062646063e-06   1.0301983524987684e-06   -5.787803515571832e-07
-4.648892062646063e-06   1.0301983524987684e-06   -5.787803515571832e-07
-4.648892062646063e-06   1.0301983524987684e-06   -5.787803515571832e-07
-5.392776323700679e-06   1.1268013962760569e-06   6.030649239342377e-07
-5.392776323700679e-06   1.1268013962760569e-06   6.030649239342377e-07
-5.392776323700679e-06   1.1268013962760569e-06   6.030649239342377e-07
-5.392776323700679e-06   1.1268013962760569e-06   6.030649239342377e-07
-4.648892062646076e-06   1.2609842512284698e-06   2.824427684928961e-06
-4.648892062646076e-06   1.2609842512284698e-06   2.824427684928961e-06
-4.648892062646076e-06   1.2609842512284698e-06   2.824427684928961e-06
-4.648892062646076e-06   1.2609842512284698e-06   2.824427684928961e-06
-6.690816884537788e-06   1.0301983524987684e-06   -7.172518907950197e-07
-6.690816884537788e-06   1.0301983524987684e-06   -7.172518907950197e-07
-6.690816884537788e-06   1.0301983524987684e-06   -7.172518907950197e-07
-6.690816884537788e-06   1.0301983524987684e-06   -7.172518907950197e-07
-6.845479166478854e-06   1.2376573084459152e-06   3.206149398571513e-06
-6.845479166478854e-06   1.2376573084459152e-06   3.206149398571513e-06
-6.845479166478854e-06   1.2376573084459152e-06   3.206149398571513e-06
-6.845479166478854e-06   1.2376573084459152e-06   3.206149398571513e-06
-4.743171289869015e-06   9.997175378915525e-07   -1.5493320011223625e-07
-4.743171289869015e-06   9.997175378915525e-07   -1.5493320011223625e-07
-4.743171289869015e-06   9.997175378915525e-07   -1.5493320011223625e-07
-4.743171289869015e-06   9.997175378915525e-07   -1.5493320011223625e-07
-5.5899012202294615e-06   1.1305211125033662e-06   1.177801205721606e-06
-5.5899012202294615e-06   1.1305211125033662e-06   1.177801205721606e-06
-5.5899012202294615e-06   1.1305211125033662e-06   1.177801205721606e-06
-5.5899012202294615e-06   1.1305211125033662e-06   1.177801205721606e-06
-4.7431712898690195e-06   1.237657308445913e-06   3.348913260904098e-06
-4.7431712898690195e-06   1.237657308445913e-06   3.348913260904098e-06
-4.7431712898690195e-06   1.237657308445913e-06   3.348913260904098e-06
-4.7431712898690195e-06   1.237657308445913e-06   3.348913260904098e-06
-6.845479166478834e-06   9.997175378915525e-07   -2.976970624448484e-07
-6.845479166478834e-06   9.997175378915525e-07   -2.976970624448484e-07
-6.845479166478834e-06   9.997175378915525e-07   -2.976970624448484e-07
-6.845479166478834e-06   9.997175378915525e-07   -2.976970624448484e-07
-7.023105678479988e-06   1.1290659643050857e-06   4.102718808122015e-06
-7.023105678479988e-06   1.1290659643050857e-06   4.102718808122015e-06
-7.023105678479988e-06   1.1290659643050857e-06   4.102718808122015e-06
-7.023105678479988e-06   1.1290659643050857e-06   4.102718808122015e-06
-4.8258056761270705e-06   8.927358290159685e-07   5.823502187073218e-07
-4.8258056761270705e-06   8.927358290159685e-07   5.823502187073218e-07
-4.8258056761270705e-06   8.927358290159685e-07   5.823502187073218e-07
-4.8258056761270705e-06   8.927358290159685e-07   5.823502187073218e-07
-5.621041632538873e-06   1.0834861156246178e-06   1.7932933074282326e-06
-5.621041632538873e-06   1.0834861156246178e-06   1.7932933074282326e-06
-5.621041632538873e-06   1.0834861156246178e-06   1.7932933074282326e-06
-5.621041632538873e-06   1.0834861156246178e-06   1.7932933074282326e-06
2.322014608139838e-06   -2.6802768375527303e-07   2.99998014550022e-06
2.322014608139838e-06   -2.6802768375527303e-07   2.99998014550022e-06
2.322014608139838e-06   -2.6802768375527303e-07   2.99998014550022e-06
2.322014608139838e-06   -2.6802768375527303e-07   2.99998014550022e-06
6.787219946614208e-07   -3.506292549061924e-08   4.0093797799500776e-07
6.787219946614208e-07   -3.506292549061924e-08   4.0093797799500776e-07
6.787219946614208e-07   -3.506292549061924e-08   4.0093797799500776e-07
6.787219946614208e-07   -3.506292549061924e-08   4.0093797799500776e-07
6.124981551370548e-07   -3.581118333929141e-07   2.7724751125090207e-06
6.124981551370548e-07   -3.581118333929141e-07   2.7724751125090207e-06
6.124981551370548e-07   -3.581118333929141e-07   2.7724751125090207e-06
6.124981551370548e-07   -3.581118333929141e-07   2.7724751125090207e-06
2.156208371112156e-06   -1.1756351072178084e-07   5.529575894785548e-08
2.156208371112156e-06   -1.1756351072178084e-07   5.529575894785548e-08
2.156208371112156e-06   -1.1756351072178084e-07   5.529575894785548e-08
2.156208371112156e-06   -1.1756351072178084e-07   5.529575894785548e-08
1.3605771072113322e-06   -2.0632596821348556e-07   1.4346053399443322e-06
1.3605771072113322e-06   -2.0632596821348556e-07   1.4346053399443322e-06
1.3605771072113322e-06   -2.0632596821348556e-07   1.4346053399443322e-06
1.3605771072113322e-06   -2.0632596821348556e-07   1.4346053399443322e-06
2.1562083711121596e-06   -3.5811183339292546e-07   2.6281461189063245e-06
2.1562083711121596e-06   -3.5811183339292546e-07   2.6281461189063245e-06
2.1562083711121596e-06   -3.5811183339292546e-07   2.6281461189063245e-06
2.1562083711121596e-06   -3.5811183339292546e-07   2.6281461189063245e-06
6.12498155137054e-07   -1.1756351072178084e-07   1.996247525505449e-07
6.12498155137054e-07   -1.1756351072178084e-07   1.996247525505449e-07
6.12498155137054e-07   -1.1756351072178084e-07   1.996247525505449e-07
6.12498155137054e-07   -1.1756351072178084e-07   1.996247525505449e-07
5.340159401941502e-07   -3.876715723298053e-07   2.585684185467521e-06
5.340159401941502e-07   -3.876715723298053e-07   2.585684185467521e-06
5.340159401941502e-07   -3.876715723298053e-07   2.585684185467521e-06
5.340159401941502e-07   -3.876715723298053e-07   2.585684185467521e-06
2.014320052642474e-06   -1.510723676087511e-07   -2.3448858112285706e-08
2.014320052642474e-06   -1.510723676087511e-07   -2.3448858112285706e-08
2.014320052642474e-06   -1.510723676087511e-07   -2.3448858112285706e-08
2.014320052642474e-06   -1.510723676087511e-07   -2.3448858112285706e-08
1.285447235415463e-06   -2.425407578445513e-07   1.2462202047408727e-06
1.285447235415463e-06   -2.425407578445513e-07   1.2462202047408727e-06
1.285447235415463e-06   -2.425407578445513e-07   1.2462202047408727e-06
1.285447235415463e-06   -2.425407578445513e-07   1.2462202047408727e-06
2.0143200526424777e-06   -3.876715723298024e-07   2.4437246626348883e-06
2.0143200526424777e-06   -3.876715723298024e-07   2.4437246626348883e-06
2.0143200526424777e-06   -3.876715723298024e-07   2.4437246626348883e-06
2.0143200526424777e-06   -3.876715723298024e-07   2.4437246626348883e-06
5.340159401941485e-07   -1.510723676087511e-07   1.1851066472032311e-07
5.340159401941485e-07   -1.510723676087511e-07   1.1851066472032311e-07
5.340159401941485e-07   -1.510723676087511e-07   1.1851066472032311e-07
5.340159401941485e-07   -1.510723676087511e-07   1.1851066472032311e-07
4.6533849962339297e-07   -4.220823216741665e-07   2.357180410218087e-06
4.6533849962339297e-07   -4.220823216741665e-07   2.357180410218087e-06
4.6533849962339297e-07   -4.220823216741665e-07   2.357180410218087e-06
4.6533849962339297e-07   -4.220823216741665e-07   2.357180410218087e-06
1.8460136750346141e-06   -2.0298777389217643e-07   -7.540161080314803e-08
1.8460136750346141e-06   -2.0298777389217643e-07   -7.540161080314803e-08
1.8460136750346141e-06   -2.0298777389217643e-07   -7.540161080314803e-08
1.8460136750346141e-06   -2.0298777389217643e-07   -7.540161080314803e-08
1.1607940506412367e-06   -2.574548643168473e-07   1.0993113507739659e-06
1.1607940506412367e-06   -2.574548643168473e-07   1.0993113507739659e-06
1.1607940506412367e-06   -2.574548643168473e-07   1.0993113507739659e-06
1.1607940506412367e-06   -2.574548643168473e-07   1.0993113507739659e-06
6.787219946614225e-07   1.0505161019334381e-07   3.984470869077407e-06
6.787219946614225e-07   1.0505161019334381e-07   3.984470869077407e-06
6.787219946614225e-07   1.0505161019334381e-07   3.984470869077407e-06
6.787219946614225e-07   1.0505161019334381e-07   3.984470869077407e-06
-8.06330849155532e-07   2.1476238042634848e-07   1.5752092581889808e-06
-8.06330849155532e-07   2.1476238042634848e-07   1.5752092581889808e-06
-8.06330849155532e-07   2.1476238042634848e-07   1.5752092581889808e-06
-8.06330849155532e-07   2.1476238042634848e-07   1.5752092581889808e-06
-8.652197781813406e-07   1.6424655342121407e-08   3.991464928940409e-06
-8.652197781813406e-07   1.6424655342121407e-08   3.991464928940409e-06
-8.652197781813406e-07   1.6424655342121407e-08   3.991464928940409e-06
-8.652197781813406e-07   1.6424655342121407e-08   3.991464928940409e-06
6.124981551370541e-07   1.2428065357920773e-07   1.4638881078008415e-06
6.124981551370541e-07   1.2428065357920773e-07   1.4638881078008415e-06
6.124981551370541e-07   1.2428065357920773e-07   1.4638881078008415e-06
6.124981551370541e-07   1.2428065357920773e-07   1.4638881078008415e-06
-1.0705886152585463e-07   1.0492754311456471e-07   2.6747616685179247e-06
-1.0705886152585463e-07   1.0492754311456471e-07   2.6747616685179247e-06
-1.0705886152585463e-07   1.0492754311456471e-07   2.6747616685179247e-06
-1.0705886152585463e-07   1.0492754311456471e-07   2.6747616685179247e-06
6.124981551370548e-07   1.642465534209194e-08   3.926751329998097e-06
6.124981551370548e-07   1.642465534209194e-08   3.926751329998097e-06
6.124981551370548e-07   1.642465534209194e-08   3.926751329998097e-06
6.124981551370548e-07   1.642465534209194e-08   3.926751329998097e-06
-8.652197781813406e-07   1.2428065357923484e-07   1.528601706743109e-06
-8.652197781813406e-07   1.2428065357923484e-07   1.528601706743109e-06
-8.652197781813406e-07   1.2428065357923484e-07   1.528601706743109e-06
-8.652197781813406e-07   1.2428065357923484e-07   1.528601706743109e-06
-9.261277276782038e-07   -5.4168222681346074e-08   3.954594693242211e-06
-9.261277276782038e-07   -5.4168222681346074e-08   3.954594693242211e-06
-9.261277276782038e-07   -5.4168222681346074e-08   3.954594693242211e-06
-9.261277276782038e-07   -5.4168222681346074e-08   3.954594693242211e-06
5.340159401941482e-07   4.963082005066772e-08   1.4587424878157797e-06
5.340159401941482e-07   4.963082005066772e-08   1.4587424878157797e-06
5.340159401941482e-07   4.963082005066772e-08   1.4587424878157797e-06
5.340159401941482e-07   4.963082005066772e-08   1.4587424878157797e-06
-1.70773247114351e-07   4.3104521377609244e-08   2.6373069125338076e-06
-1.70773247114351e-07   4.3104521377609244e-08   2.6373069125338076e-06
-1.70773247114351e-07   4.3104521377609244e-08   2.6373069125338076e-06
-1.70773247114351e-07   4.3104521377609244e-08   2.6373069125338076e-06
5.340159401941502e-07   -5.4168222681354795e-08   3.892315267603008e-06
5.340159401941502e-07   -5.4168222681354795e-08   3.892315267603008e-06
5.340159401941502e-07   -5.4168222681354795e-08   3.892315267603008e-06
5.340159401941502e-07   -5.4168222681354795e-08   3.892315267603008e-06
-9.261277276782072e-07   4.963082005066772e-08   1.5210219134549927e-06
-9.261277276782072e-07   4.963082005066772e-08   1.5210219134549927e-06
-9.261277276782072e-07   4.963082005066772e-08   1.5210219134549927e-06
-9.261277276782072e-07   4.963082005066772e-08   1.5210219134549927e-06
-9.864689215359567e-07   -1.2128865569744273e-07   3.995131735762806e-06
-9.864689215359567e-07   -1.2128865569744273e-07   3.995131735762806e-06
-9.864689215359567e-07   -1.2128865569744273e-07   3.995131735762806e-06
-9.864689215359567e-07   -1.2128865569744273e-07   3.995131735762806e-06
4.653384996233911e-07   -2.4167812586091148e-08   1.5171801946304352e-06
4.653384996233911e-07   -2.4167812586091148e-08   1.5171801946304352e-06
4.653384996233911e-07   -2.4167812586091148e-08   1.5171801946304352e-06
4.653384996233911e-07   -2.4167812586091148e-08   1.5171801946304352e-06
-2.2334739489987284e-07   -1.0045537309107122e-08   2.6565166536696753e-06
-2.2334739489987284e-07   -1.0045537309107122e-08   2.6565166536696753e-06
-2.2334739489987284e-07   -1.0045537309107122e-08   2.6565166536696753e-06
-2.2334739489987284e-07   -1.0045537309107122e-08   2.6565166536696753e-06
-8.06330849155532e-07   4.4778753971710744e-07   4.3925497282099285e-06
-8.06330849155532e-07   4.4778753971710744e-07   4.3925497282099285e-06
-8.06330849155532e-07   4.4778753971710744e-07   4.3925497282099285e-06
-8.06330849155532e-07   4.4778753971710744e-07   4.3925497282099285e-06
-2.258249715900577e-06   4.285890335870056e-07   1.961165846623466e-06
-2.258249715900577e-06   4.285890335870056e-07   1.961165846623466e-06
-2.258249715900577e-06   4.285890335870056e-07   1.961165846623466e-06
-2.258249715900577e-06   4.285890335870056e-07   1.961165846623466e-06
-2.315389395948863e-06   3.6940018546439296e-07   4.35321087754583e-06
-2.315389395948863e-06   3.6940018546439296e-07   4.35321087754583e-06
-2.315389395948863e-06   3.6940018546439296e-07   4.35321087754583e-06
-2.315389395948863e-06   3.6940018546439296e-07   4.35321087754583e-06
-8.652197781813365e-07   3.472480788742989e-07   1.9495527785540345e-06
-8.652197781813365e-07   3.472480788742989e-07   1.9495527785540345e-06
-8.652197781813365e-07   3.472480788742989e-07   1.9495527785540345e-06
-8.652197781813365e-07   3.472480788742989e-07   1.9495527785540345e-06
-1.5648346476480522e-06   3.868518345260185e-07   3.0918153076076694e-06
-1.5648346476480522e-06   3.868518345260185e-07   3.0918153076076694e-06
-1.5648346476480522e-06   3.868518345260185e-07   3.0918153076076694e-06
-1.5648346476480522e-06   3.868518345260185e-07   3.0918153076076694e-06
-8.652197781813406e-07   3.6940018546439947e-07   4.366502141499908e-06
-8.652197781813406e-07   3.6940018546439947e-07   4.366502141499908e-06
-8.652197781813406e-07   3.6940018546439947e-07   4.366502141499908e-06
-8.652197781813406e-07   3.6940018546439947e-07   4.366502141499908e-06
-2.315389395948863e-06   3.472480788742989e-07   1.9362615146000038e-06
-2.315389395948863e-06   3.472480788742989e-07   1.9362615146000038e-06
-2.315389395948863e-06   3.472480788742989e-07   1.9362615146000038e-06
-2.315389395948863e-06   3.472480788742989e-07   1.9362615146000038e-06
-2.3741565599417394e-06   2.9197993177057643e-07   4.3757450970092495e-06
-2.3741565599417394e-06   2.9197993177057643e-07   4.3757450970092495e-06
-2.3741565599417394e-06   2.9197993177057643e-07   4.3757450970092495e-06
-2.3741565599417394e-06   2.9197993177057643e-07   4.3757450970092495e-06
-9.261277276782037e-07   2.663848133960061e-07   1.9777207809280984e-06
-9.261277276782037e-07   2.663848133960061e-07   1.9777207809280984e-06
-9.261277276782037e-07   2.663848133960061e-07   1.9777207809280984e-06
-9.261277276782037e-07   2.663848133960061e-07   1.9777207809280984e-06
-1.6152055512356417e-06   3.2594080535890504e-07   3.090450225012768e-06
-1.6152055512356417e-06   3.2594080535890504e-07   3.090450225012768e-06
-1.6152055512356417e-06   3.2594080535890504e-07   3.090450225012768e-06
-1.6152055512356417e-06   3.2594080535890504e-07   3.090450225012768e-06
-9.261277276782072e-07   2.9197993177056447e-07   4.391102168034008e-06
-9.261277276782072e-07   2.9197993177056447e-07   4.391102168034008e-06
-9.261277276782072e-07   2.9197993177056447e-07   4.391102168034008e-06
-9.261277276782072e-07   2.9197993177056447e-07   4.391102168034008e-06
-2.3741565599417394e-06   2.663848133960061e-07   1.9623637099033738e-06
-2.3741565599417394e-06   2.663848133960061e-07   1.9623637099033738e-06
-2.3741565599417394e-06   2.663848133960061e-07   1.9623637099033738e-06
-2.3741565599417394e-06   2.663848133960061e-07   1.9623637099033738e-06
-2.4318382225338613e-06   2.1775448678419424e-07   4.438145746888137e-06
-2.4318382225338613e-06   2.1775448678419424e-07   4.438145746888137e-06
-2.4318382225338613e-06   2.1775448678419424e-07   4.438145746888137e-06
-2.4318382225338613e-06   2.1775448678419424e-07   4.438145746888137e-06
-9.86468921535953e-07   1.8949839429742497e-07   2.046150567383716e-06
-9.86468921535953e-07   1.8949839429742497e-07   2.046150567383716e-06
-9.86468921535953e-07   1.8949839429742497e-07   2.046150567383716e-06
-9.86468921535953e-07   1.8949839429742497e-07   2.046150567383716e-06
-1.6690658217873157e-06   2.6652254354829464e-07   3.137597578252114e-06
-1.6690658217873157e-06   2.6652254354829464e-07   3.137597578252114e-06
-1.6690658217873157e-06   2.6652254354829464e-07   3.137597578252114e-06
-1.6690658217873157e-06   2.6652254354829464e-07   3.137597578252114e-06
-2.258249715900577e-06   7.828640637334797e-07   3.888403040327472e-06
-2.258249715900577e-06   7.828640637334797e-07   3.888403040327472e-06
-2.258249715900577e-06   7.828640637334797e-07   3.888403040327472e-06
-2.258249715900577e-06   7.828640637334797e-07   3.888403040327472e-06
-3.695001622706321e-06   6.50966368551738e-07   1.4146779118755172e-06
-3.695001622706321e-06   6.50966368551738e-07   1.4146779118755172e-06
-3.695001622706321e-06   6.50966368551738e-07   1.4146779118755172e-06
-3.695001622706321e-06   6.50966368551738e-07   1.4146779118755172e-06
-3.7579847848701173e-06   7.077901408546194e-07   3.821080090924604e-06
-3.7579847848701173e-06   7.077901408546194e-07   3.821080090924604e-06
-3.7579847848701173e-06   7.077901408546194e-07   3.821080090924604e-06
-3.7579847848701173e-06   7.077901408546194e-07   3.821080090924604e-06
-2.3153893959488603e-06   5.698862049790436e-07   1.4994968042478737e-06
-2.3153893959488603e-06   5.698862049790436e-07   1.4994968042478737e-06
-2.3153893959488603e-06   5.698862049790436e-07   1.4994968042478737e-06
-2.3153893959488603e-06   5.698862049790436e-07   1.4994968042478737e-06
-2.9991200277486455e-06   6.642323593565743e-07   2.5824401646211518e-06
-2.9991200277486455e-06   6.642323593565743e-07   2.5824401646211518e-06
-2.9991200277486455e-06   6.642323593565743e-07   2.5824401646211518e-06
-2.9991200277486455e-06   6.642323593565743e-07   2.5824401646211518e-06
-2.315389395948863e-06   7.077901408546257e-07   3.903822452449955e-06
-2.315389395948863e-06   7.077901408546257e-07   3.903822452449955e-06
-2.315389395948863e-06   7.077901408546257e-07   3.903822452449955e-06
-2.315389395948863e-06   7.077901408546257e-07   3.903822452449955e-06
-3.7579847848701105e-06   5.698862049790707e-07   1.4167544427225499e-06
-3.7579847848701105e-06   5.698862049790707e-07   1.4167544427225499e-06
-3.7579847848701105e-06   5.698862049790707e-07   1.4167544427225499e-06
-3.7579847848701105e-06   5.698862049790707e-07   1.4167544427225499e-06
-3.831732966943255e-06   6.367287224934932e-07   3.945671301090796e-06
-3.831732966943255e-06   6.367287224934932e-07   3.945671301090796e-06
-3.831732966943255e-06   6.367287224934932e-07   3.945671301090796e-06
-3.831732966943255e-06   6.367287224934932e-07   3.945671301090796e-06
-2.3741565599417365e-06   4.948144900682714e-07   1.6015258288767519e-06
-2.3741565599417365e-06   4.948144900682714e-07   1.6015258288767519e-06
-2.3741565599417365e-06   4.948144900682714e-07   1.6015258288767519e-06
-2.3741565599417365e-06   4.948144900682714e-07   1.6015258288767519e-06
-3.0377396130303845e-06   6.076291154979128e-07   2.6398088087667057e-06
-3.0377396130303845e-06   6.076291154979128e-07   2.6398088087667057e-06
-3.0377396130303845e-06   6.076291154979128e-07   2.6398088087667057e-06
-3.0377396130303845e-06   6.076291154979128e-07   2.6398088087667057e-06
-2.3741565599417394e-06   6.367287224934886e-07   4.030819840545902e-06
-2.3741565599417394e-06   6.367287224934886e-07   4.030819840545902e-06
-2.3741565599417394e-06   6.367287224934886e-07   4.030819840545902e-06
-2.3741565599417394e-06   6.367287224934886e-07   4.030819840545902e-06
-3.831732966943248e-06   4.948144900682985e-07   1.5163772894216323e-06
-3.831732966943248e-06   4.948144900682985e-07   1.5163772894216323e-06
-3.831732966943248e-06   4.948144900682985e-07   1.5163772894216323e-06
-3.831732966943248e-06   4.948144900682985e-07   1.5163772894216323e-06
-3.893956092370501e-06   5.557174063346257e-07   4.06058991117946e-06
-3.893956092370501e-06   5.557174063346257e-07   4.06058991117946e-06
-3.893956092370501e-06   5.557174063346257e-07   4.06058991117946e-06
-3.893956092370501e-06   5.557174063346257e-07   4.06058991117946e-06
-2.4318382225338553e-06   4.1315464461067256e-07   1.7092644518194787e-06
-2.4318382225338553e-06   4.1315464461067256e-07   1.7092644518194787e-06
-2.4318382225338553e-06   4.1315464461067256e-07   1.7092644518194787e-06
-2.4318382225338553e-06   4.1315464461067256e-07   1.7092644518194787e-06
-3.1082670495006885e-06   5.493945770102774e-07   2.7549018706577523e-06
-3.1082670495006885e-06   5.493945770102774e-07   2.7549018706577523e-06
-3.1082670495006885e-06   5.493945770102774e-07   2.7549018706577523e-06
-3.1082670495006885e-06   5.493945770102774e-07   2.7549018706577523e-06
-3.6950016227063276e-06   1.0502074571683922e-06   1.8504389501395463e-06
-3.6950016227063276e-06   1.0502074571683922e-06   1.8504389501395463e-06
-3.6950016227063276e-06   1.0502074571683922e-06   1.8504389501395463e-06
-3.6950016227063276e-06   1.0502074571683922e-06   1.8504389501395463e-06
-5.0341204669984165e-06   8.231511731688745e-07   -5.176595607469628e-07
-5.0341204669984165e-06   8.231511731688745e-07   -5.176595607469628e-07
-5.0341204669984165e-06   8.231511731688745e-07   -5.176595607469628e-07
-5.0341204669984165e-06   8.231511731688745e-07   -5.176595607469628e-07
-5.197466862898226e-06   1.0301983524987684e-06   2.308690657692081e-06
-5.197466862898226e-06   1.0301983524987684e-06   2.308690657692081e-06
-5.197466862898226e-06   1.0301983524987684e-06   2.308690657692081e-06
-5.197466862898226e-06   1.0301983524987684e-06   2.308690657692081e-06
-3.757984784870107e-06   7.838301260127117e-07   5.7374796870191805e-08
-3.757984784870107e-06   7.838301260127117e-07   5.7374796870191805e-08
-3.757984784870107e-06   7.838301260127117e-07   5.7374796870191805e-08
-3.757984784870107e-06   7.838301260127117e-07   5.7374796870191805e-08
-4.2589599274441835e-06   9.018728962439579e-07   8.21507705688415e-07
-4.2589599274441835e-06   9.018728962439579e-07   8.21507705688415e-07
-4.2589599274441835e-06   9.018728962439579e-07   8.21507705688415e-07
-4.2589599274441835e-06   9.018728962439579e-07   8.21507705688415e-07
-3.7579847848701037e-06   1.030198352498767e-06   2.456511593583677e-06
-3.7579847848701037e-06   1.030198352498767e-06   2.456511593583677e-06
-3.7579847848701037e-06   1.030198352498767e-06   2.456511593583677e-06
-3.7579847848701037e-06   1.030198352498767e-06   2.456511593583677e-06
-5.197466862898233e-06   7.838301260127117e-07   -9.044613902142463e-08
-5.197466862898233e-06   7.838301260127117e-07   -9.044613902142463e-08
-5.197466862898233e-06   7.838301260127117e-07   -9.044613902142463e-08
-5.197466862898233e-06   7.838301260127117e-07   -9.044613902142463e-08
-5.336183876965077e-06   9.997175378915525e-07   2.734431197893314e-06
-5.336183876965077e-06   9.997175378915525e-07   2.734431197893314e-06
-5.336183876965077e-06   9.997175378915525e-07   2.734431197893314e-06
-5.336183876965077e-06   9.997175378915525e-07   2.734431197893314e-06
-3.831732966943245e-06   7.482020916958765e-07   3.7792228224098887e-07
-3.831732966943245e-06   7.482020916958765e-07   3.7792228224098887e-07
-3.831732966943245e-06   7.482020916958765e-07   3.7792228224098887e-07
-3.831732966943245e-06   7.482020916958765e-07   3.7792228224098887e-07
-4.419991463943659e-06   8.935218738589262e-07   1.271161241277256e-06
-4.419991463943659e-06   8.935218738589262e-07   1.271161241277256e-06
-4.419991463943659e-06   8.935218738589262e-07   1.271161241277256e-06
-4.419991463943659e-06   8.935218738589262e-07   1.271161241277256e-06
-3.831732966943248e-06   9.997175378915637e-07   2.885340465610725e-06
-3.831732966943248e-06   9.997175378915637e-07   2.885340465610725e-06
-3.831732966943248e-06   9.997175378915637e-07   2.885340465610725e-06
-3.831732966943248e-06   9.997175378915637e-07   2.885340465610725e-06
-5.336183876965091e-06   7.482020916958765e-07   2.2701301452359817e-07
-5.336183876965091e-06   7.482020916958765e-07   2.2701301452359817e-07
-5.336183876965091e-06   7.482020916958765e-07   2.2701301452359817e-07
-5.336183876965091e-06   7.482020916958765e-07   2.2701301452359817e-07
-5.500071619434082e-06   8.927358290159685e-07   3.4820574750489357e-06
-5.500071619434082e-06   8.927358290159685e-07   3.4820574750489357e-06
-5.500071619434082e-06   8.927358290159685e-07   3.4820574750489357e-06
-5.500071619434082e-06   8.927358290159685e-07   3.4820574750489357e-06
-3.893956092370482e-06   6.467803162169764e-07   9.527715709556865e-07
-3.893956092370482e-06   6.467803162169764e-07   9.527715709556865e-07
-3.893956092370482e-06   6.467803162169764e-07   9.527715709556865e-07
-3.893956092370482e-06   6.467803162169764e-07   9.527715709556865e-07
-4.451301504424579e-06   8.473775558630933e-07   1.7613222472580785e-06
-4.451301504424579e-06   8.473775558630933e-07   1.7613222472580785e-06
-4.451301504424579e-06   8.473775558630933e-07   1.7613222472580785e-06
-4.451301504424579e-06   8.473775558630933e-07   1.7613222472580785e-06
7.388443027157983e-07   -3.506292549063578e-08   2.3355824769421646e-06
7.388443027157983e-07   -3.506292549063578e-08   2.3355824769421646e-06
7.388443027157983e-07   -3.506292549063578e-08   2.3355824769421646e-06
7.388443027157983e-07   -3.506292549063578e-08   2.3355824769421646e-06
-2.8336952891700984e-07   1.9543469444543147e-07   7.70191329515783e-07
-2.8336952891700984e-07   1.9543469444543147e-07   7.70191329515783e-07
-2.8336952891700984e-07   1.9543469444543147e-07   7.70191329515783e-07
-2.8336952891700984e-07   1.9543469444543147e-07   7.70191329515783e-07
-3.344548850268184e-07   -1.1756351072178084e-07   2.2687389378029543e-06
-3.344548850268184e-07   -1.1756351072178084e-07   2.2687389378029543e-06
-3.344548850268184e-07   -1.1756351072178084e-07   2.2687389378029543e-06
-3.344548850268184e-07   -1.1756351072178084e-07   2.2687389378029543e-06
5.868042785298824e-07   1.1818656115054893e-07   5.918569554183852e-07
5.868042785298824e-07   1.1818656115054893e-07   5.918569554183852e-07
5.868042785298824e-07   1.1818656115054893e-07   5.918569554183852e-07
5.868042785298824e-07   1.1818656115054893e-07   5.918569554183852e-07
1.4530663316903084e-07   2.6006265042930604e-08   1.3829945420176988e-06
1.4530663316903084e-07   2.6006265042930604e-08   1.3829945420176988e-06
1.4530663316903084e-07   2.6006265042930604e-08   1.3829945420176988e-06
1.4530663316903084e-07   2.6006265042930604e-08   1.3829945420176988e-06
5.868042785298832e-07   -1.1756351072178674e-07   2.1272888946795564e-06
5.868042785298832e-07   -1.1756351072178674e-07   2.1272888946795564e-06
5.868042785298832e-07   -1.1756351072178674e-07   2.1272888946795564e-06
5.868042785298832e-07   -1.1756351072178674e-07   2.1272888946795564e-06
-3.344548850268184e-07   1.1818656115054893e-07   7.333069985417898e-07
-3.344548850268184e-07   1.1818656115054893e-07   7.333069985417898e-07
-3.344548850268184e-07   1.1818656115054893e-07   7.333069985417898e-07
-3.344548850268184e-07   1.1818656115054893e-07   7.333069985417898e-07
-3.9826350067163213e-07   -1.510723676087511e-07   2.187240409118812e-06
-3.9826350067163213e-07   -1.510723676087511e-07   2.187240409118812e-06
-3.9826350067163213e-07   -1.510723676087511e-07   2.187240409118812e-06
-3.9826350067163213e-07   -1.510723676087511e-07   2.187240409118812e-06
4.53037717906793e-07   7.859157257028939e-08   6.306066807140302e-07
4.53037717906793e-07   7.859157257028939e-08   6.306066807140302e-07
4.53037717906793e-07   7.859157257028939e-08   6.306066807140302e-07
4.53037717906793e-07   7.859157257028939e-08   6.306066807140302e-07
6.630852045482254e-08   -6.686486926182856e-09   1.3263221788318373e-06
6.630852045482254e-08   -6.686486926182856e-09   1.3263221788318373e-06
6.630852045482254e-08   -6.686486926182856e-09   1.3263221788318373e-06
6.630852045482254e-08   -6.686486926182856e-09   1.3263221788318373e-06
4.530377179067946e-07   -1.510723676087648e-07   2.049442045011374e-06
4.530377179067946e-07   -1.510723676087648e-07   2.049442045011374e-06
4.530377179067946e-07   -1.510723676087648e-07   2.049442045011374e-06
4.530377179067946e-07   -1.510723676087648e-07   2.049442045011374e-06
-3.9826350067163043e-07   7.859157257028939e-08   7.684050448214307e-07
-3.9826350067163043e-07   7.859157257028939e-08   7.684050448214307e-07
-3.9826350067163043e-07   7.859157257028939e-08   7.684050448214307e-07
-3.9826350067163043e-07   7.859157257028939e-08   7.684050448214307e-07
-4.52779576464732e-07   -2.0298777389217643e-07   2.125640213115822e-06
-4.52779576464732e-07   -2.0298777389217643e-07   2.125640213115822e-06
-4.52779576464732e-07   -2.0298777389217643e-07   2.125640213115822e-06
-4.52779576464732e-07   -2.0298777389217643e-07   2.125640213115822e-06
2.837717886592054e-07   -2.5537152909893904e-09   7.777941694152375e-07
2.837717886592054e-07   -2.5537152909893904e-09   7.777941694152375e-07
2.837717886592054e-07   -2.5537152909893904e-09   7.777941694152375e-07
2.837717886592054e-07   -2.5537152909893904e-09   7.777941694152375e-07
-2.9091686252116107e-08   -3.2362827960237886e-08   1.3171187618689697e-06
-2.9091686252116107e-08   -3.2362827960237886e-08   1.3171187618689697e-06
-2.9091686252116107e-08   -3.2362827960237886e-08   1.3171187618689697e-06
-2.9091686252116107e-08   -3.2362827960237886e-08   1.3171187618689697e-06
-2.8336952891700984e-07   2.1476238042636436e-07   3.5823258669579638e-06
-2.8336952891700984e-07   2.1476238042636436e-07   3.5823258669579638e-06
-2.8336952891700984e-07   2.1476238042636436e-07   3.5823258669579638e-06
-2.8336952891700984e-07   2.1476238042636436e-07   3.5823258669579638e-06
-1.1331820174544983e-06   2.6582075988022444e-07   2.1966067470677807e-06
-1.1331820174544983e-06   2.6582075988022444e-07   2.1966067470677807e-06
-1.1331820174544983e-06   2.6582075988022444e-07   2.1966067470677807e-06
-1.1331820174544983e-06   2.6582075988022444e-07   2.1966067470677807e-06
-1.173181726938172e-06   1.2428065357920773e-07   3.567114291851077e-06
-1.173181726938172e-06   1.2428065357920773e-07   3.567114291851077e-06
-1.173181726938172e-06   1.2428065357920773e-07   3.567114291851077e-06
-1.173181726938172e-06   1.2428065357920773e-07   3.567114291851077e-06
-3.344548850268182e-07   1.8113398490891917e-07   2.1351242232010106e-06
-3.344548850268182e-07   1.8113398490891917e-07   2.1351242232010106e-06
-3.344548850268182e-07   1.8113398490891917e-07   2.1351242232010106e-06
-3.344548850268182e-07   1.8113398490891917e-07   2.1351242232010106e-06
-7.384181424442074e-07   1.8501885584875266e-07   2.806065396332741e-06
-7.384181424442074e-07   1.8501885584875266e-07   2.806065396332741e-06
-7.384181424442074e-07   1.8501885584875266e-07   2.806065396332741e-06
-7.384181424442074e-07   1.8501885584875266e-07   2.806065396332741e-06
-3.344548850268167e-07   1.2428065357920482e-07   3.533002293053234e-06
-3.344548850268167e-07   1.2428065357920482e-07   3.533002293053234e-06
-3.344548850268167e-07   1.2428065357920482e-07   3.533002293053234e-06
-3.344548850268167e-07   1.2428065357920482e-07   3.533002293053234e-06
-1.173181726938172e-06   1.8113398490891917e-07   2.1692362219988157e-06
-1.173181726938172e-06   1.8113398490891917e-07   2.1692362219988157e-06
-1.173181726938172e-06   1.8113398490891917e-07   2.1692362219988157e-06
-1.173181726938172e-06   1.8113398490891917e-07   2.1692362219988157e-06
-1.2146504891820526e-06   4.963082005064062e-08   3.561050640168913e-06
-1.2146504891820526e-06   4.963082005064062e-08   3.561050640168913e-06
-1.2146504891820526e-06   4.963082005064062e-08   3.561050640168913e-06
-1.2146504891820526e-06   4.963082005064062e-08   3.561050640168913e-06
-3.982635006716308e-07   1.0559483330845011e-07   2.1668272513635355e-06
-3.982635006716308e-07   1.0559483330845011e-07   2.1668272513635355e-06
-3.982635006716308e-07   1.0559483330845011e-07   2.1668272513635355e-06
-3.982635006716308e-07   1.0559483330845011e-07   2.1668272513635355e-06
-7.797240152251897e-07   1.2469415974674714e-07   2.791135179756536e-06
-7.797240152251897e-07   1.2469415974674714e-07   2.791135179756536e-06
-7.797240152251897e-07   1.2469415974674714e-07   2.791135179756536e-06
-7.797240152251897e-07   1.2469415974674714e-07   2.791135179756536e-06
-3.9826350067163043e-07   4.9630820050650094e-08   3.527472232214211e-06
-3.9826350067163043e-07   4.9630820050650094e-08   3.527472232214211e-06
-3.9826350067163043e-07   4.9630820050650094e-08   3.527472232214211e-06
-3.9826350067163043e-07   4.9630820050650094e-08   3.527472232214211e-06
-1.2146504891820526e-06   1.0559483330845011e-07   2.200405659318229e-06
-1.2146504891820526e-06   1.0559483330845011e-07   2.200405659318229e-06
-1.2146504891820526e-06   1.0559483330845011e-07   2.200405659318229e-06
-1.2146504891820526e-06   1.0559483330845011e-07   2.200405659318229e-06
-1.2558866308480834e-06   -2.4167812586091148e-08   3.617198944990015e-06
-1.2558866308480834e-06   -2.4167812586091148e-08   3.617198944990015e-06
-1.2558866308480834e-06   -2.4167812586091148e-08   3.617198944990015e-06
-1.2558866308480834e-06   -2.4167812586091148e-08   3.617198944990015e-06
-4.527795764647316e-07   2.65549459303033e-08   2.248253532574616e-06
-4.527795764647316e-07   2.65549459303033e-08   2.248253532574616e-06
-4.527795764647316e-07   2.65549459303033e-08   2.248253532574616e-06
-4.527795764647316e-07   2.65549459303033e-08   2.248253532574616e-06
-8.200278466323255e-07   6.792815569119114e-08   2.8355100569974e-06
-8.200278466323255e-07   6.792815569119114e-08   2.8355100569974e-06
-8.200278466323255e-07   6.792815569119114e-08   2.8355100569974e-06
-8.200278466323255e-07   6.792815569119114e-08   2.8355100569974e-06
-1.1331820174544983e-06   4.2858903358700076e-07   4.010436586742829e-06
-1.1331820174544983e-06   4.2858903358700076e-07   4.010436586742829e-06
-1.1331820174544983e-06   4.2858903358700076e-07   4.010436586742829e-06
-1.1331820174544983e-06   4.2858903358700076e-07   4.010436586742829e-06
-1.9653649722261327e-06   3.361872314592369e-07   2.5680239141801046e-06
-1.9653649722261327e-06   3.361872314592369e-07   2.5680239141801046e-06
-1.9653649722261327e-06   3.361872314592369e-07   2.5680239141801046e-06
-1.9653649722261327e-06   3.361872314592369e-07   2.5680239141801046e-06
-2.0001914456987456e-06   3.472480788742989e-07   3.935594406385409e-06
-2.0001914456987456e-06   3.472480788742989e-07   3.935594406385409e-06
-2.0001914456987456e-06   3.472480788742989e-07   3.935594406385409e-06
-2.0001914456987456e-06   3.472480788742989e-07   3.935594406385409e-06
-1.1731817269381729e-06   2.5979648341325264e-07   2.6097158323944027e-06
-1.1731817269381729e-06   2.5979648341325264e-07   2.6097158323944027e-06
-1.1731817269381729e-06   2.5979648341325264e-07   2.6097158323944027e-06
-1.1731817269381729e-06   2.5979648341325264e-07   2.6097158323944027e-06
-1.5697866321837189e-06   3.3416090761917926e-07   3.2261053532801017e-06
-1.5697866321837189e-06   3.3416090761917926e-07   3.2261053532801017e-06
-1.5697866321837189e-06   3.3416090761917926e-07   3.2261053532801017e-06
-1.5697866321837189e-06   3.3416090761917926e-07   3.2261053532801017e-06
-1.173181726938172e-06   3.472480788743018e-07   3.988065363662023e-06
-1.173181726938172e-06   3.472480788743018e-07   3.988065363662023e-06
-1.173181726938172e-06   3.472480788743018e-07   3.988065363662023e-06
-1.173181726938172e-06   3.472480788743018e-07   3.988065363662023e-06
-2.0001914456987456e-06   2.5979648341325264e-07   2.557244875117792e-06
-2.0001914456987456e-06   2.5979648341325264e-07   2.557244875117792e-06
-2.0001914456987456e-06   2.5979648341325264e-07   2.557244875117792e-06
-2.0001914456987456e-06   2.5979648341325264e-07   2.557244875117792e-06
-2.037133339569415e-06   2.663848133960061e-07   3.967343504163574e-06
-2.037133339569415e-06   2.663848133960061e-07   3.967343504163574e-06
-2.037133339569415e-06   2.663848133960061e-07   3.967343504163574e-06
-2.037133339569415e-06   2.663848133960061e-07   3.967343504163574e-06
-1.2146504891820535e-06   1.8237480759855152e-07   2.646944756996459e-06
-1.2146504891820535e-06   1.8237480759855152e-07   2.646944756996459e-06
-1.2146504891820535e-06   1.8237480759855152e-07   2.646944756996459e-06
-1.2146504891820535e-06   1.8237480759855152e-07   2.646944756996459e-06
-1.599604522675901e-06   2.741232005034331e-07   3.2334857770766192e-06
-1.599604522675901e-06   2.741232005034331e-07   3.2334857770766192e-06
-1.599604522675901e-06   2.741232005034331e-07   3.2334857770766192e-06
-1.599604522675901e-06   2.741232005034331e-07   3.2334857770766192e-06
-1.2146504891820526e-06   2.6638481339601207e-07   4.017749507642039e-06
-1.2146504891820526e-06   2.6638481339601207e-07   4.017749507642039e-06
-1.2146504891820526e-06   2.6638481339601207e-07   4.017749507642039e-06
-1.2146504891820526e-06   2.6638481339601207e-07   4.017749507642039e-06
-2.037133339569415e-06   1.8237480759855152e-07   2.5965387535179877e-06
-2.037133339569415e-06   1.8237480759855152e-07   2.5965387535179877e-06
-2.037133339569415e-06   1.8237480759855152e-07   2.5965387535179877e-06
-2.037133339569415e-06   1.8237480759855152e-07   2.5965387535179877e-06
-2.0733358052578532e-06   1.8949839429739787e-07   4.0402102601859934e-06
-2.0733358052578532e-06   1.8949839429739787e-07   4.0402102601859934e-06
-2.0733358052578532e-06   1.8949839429739787e-07   4.0402102601859934e-06
-2.0733358052578532e-06   1.8949839429739787e-07   4.0402102601859934e-06
-1.2558866308480874e-06   1.1002080814659842e-07   2.7254815211935866e-06
-1.2558866308480874e-06   1.1002080814659842e-07   2.7254815211935866e-06
-1.2558866308480874e-06   1.1002080814659842e-07   2.7254815211935866e-06
-1.2558866308480874e-06   1.1002080814659842e-07   2.7254815211935866e-06
-1.6327462282684174e-06   2.1541745610131392e-07   3.2903428614546246e-06
-1.6327462282684174e-06   2.1541745610131392e-07   3.2903428614546246e-06
-1.6327462282684174e-06   2.1541745610131392e-07   3.2903428614546246e-06
-1.6327462282684174e-06   2.1541745610131392e-07   3.2903428614546246e-06
-1.9653649722261394e-06   6.509663685517407e-07   3.487646187827248e-06
-1.9653649722261394e-06   6.509663685517407e-07   3.487646187827248e-06
-1.9653649722261394e-06   6.509663685517407e-07   3.487646187827248e-06
-1.9653649722261394e-06   6.509663685517407e-07   3.487646187827248e-06
-2.7908053770226598e-06   4.6578500240799657e-07   2.0008033601467958e-06
-2.7908053770226598e-06   4.6578500240799657e-07   2.0008033601467958e-06
-2.7908053770226598e-06   4.6578500240799657e-07   2.0008033601467958e-06
-2.7908053770226598e-06   4.6578500240799657e-07   2.0008033601467958e-06
-2.8294042465845534e-06   5.698862049790436e-07   3.3882997420252292e-06
-2.8294042465845534e-06   5.698862049790436e-07   3.3882997420252292e-06
-2.8294042465845534e-06   5.698862049790436e-07   3.3882997420252292e-06
-2.8294042465845534e-06   5.698862049790436e-07   3.3882997420252292e-06
-2.0001914456987456e-06   3.8566961496559857e-07   2.116808361223619e-06
-2.0001914456987456e-06   3.8566961496559857e-07   2.116808361223619e-06
-2.0001914456987456e-06   3.8566961496559857e-07   2.116808361223619e-06
-2.0001914456987456e-06   3.8566961496559857e-07   2.116808361223619e-06
-2.3913091278264022e-06   5.107612442110932e-07   2.6936161872224176e-06
-2.3913091278264022e-06   5.107612442110932e-07   2.6936161872224176e-06
-2.3913091278264022e-06   5.107612442110932e-07   2.6936161872224176e-06
-2.3913091278264022e-06   5.107612442110932e-07   2.6936161872224176e-06
-2.0001914456987456e-06   5.698862049790536e-07   3.4988296960332854e-06
-2.0001914456987456e-06   5.698862049790536e-07   3.4988296960332854e-06
-2.0001914456987456e-06   5.698862049790536e-07   3.4988296960332854e-06
-2.0001914456987456e-06   5.698862049790536e-07   3.4988296960332854e-06
-2.82940424658454e-06   3.8566961496559857e-07   2.0062784072155427e-06
-2.82940424658454e-06   3.8566961496559857e-07   2.0062784072155427e-06
-2.82940424658454e-06   3.8566961496559857e-07   2.0062784072155427e-06
-2.82940424658454e-06   3.8566961496559857e-07   2.0062784072155427e-06
-2.8807513217272713e-06   4.948144900682985e-07   3.497625117581624e-06
-2.8807513217272713e-06   4.948144900682985e-07   3.497625117581624e-06
-2.8807513217272713e-06   4.948144900682985e-07   3.497625117581624e-06
-2.8807513217272713e-06   4.948144900682985e-07   3.497625117581624e-06
-2.0371333395694114e-06   3.1334698080931435e-07   2.2004756528738853e-06
-2.0371333395694114e-06   3.1334698080931435e-07   2.2004756528738853e-06
-2.0371333395694114e-06   3.1334698080931435e-07   2.2004756528738853e-06
-2.0371333395694114e-06   3.1334698080931435e-07   2.2004756528738853e-06
-2.412140324337462e-06   4.5264914499298274e-07   2.741905995643789e-06
-2.412140324337462e-06   4.5264914499298274e-07   2.741905995643789e-06
-2.412140324337462e-06   4.5264914499298274e-07   2.741905995643789e-06
-2.412140324337462e-06   4.5264914499298274e-07   2.741905995643789e-06
-2.037133339569415e-06   4.948144900682939e-07   3.6065056231369524e-06
-2.037133339569415e-06   4.948144900682939e-07   3.6065056231369524e-06
-2.037133339569415e-06   4.948144900682939e-07   3.6065056231369524e-06
-2.037133339569415e-06   4.948144900682939e-07   3.6065056231369524e-06
-2.8807513217272578e-06   3.1334698080931435e-07   2.091595147318503e-06
-2.8807513217272578e-06   3.1334698080931435e-07   2.091595147318503e-06
-2.8807513217272578e-06   3.1334698080931435e-07   2.091595147318503e-06
-2.8807513217272578e-06   3.1334698080931435e-07   2.091595147318503e-06
-2.921450929799693e-06   4.1315464461067256e-07   3.6155152942383484e-06
-2.921450929799693e-06   4.1315464461067256e-07   3.6155152942383484e-06
-2.921450929799693e-06   4.1315464461067256e-07   3.6155152942383484e-06
-2.921450929799693e-06   4.1315464461067256e-07   3.6155152942383484e-06
-2.073335805257845e-06   2.3855046815150966e-07   2.3067525925441124e-06
-2.073335805257845e-06   2.3855046815150966e-07   2.3067525925441124e-06
-2.073335805257845e-06   2.3855046815150966e-07   2.3067525925441124e-06
-2.073335805257845e-06   2.3855046815150966e-07   2.3067525925441124e-06
-2.455773589446688e-06   3.961633342632162e-07   2.84958117985847e-06
-2.455773589446688e-06   3.961633342632162e-07   2.84958117985847e-06
-2.455773589446688e-06   3.961633342632162e-07   2.84958117985847e-06
-2.455773589446688e-06   3.961633342632162e-07   2.84958117985847e-06
-2.7908053770226598e-06   8.231511731688913e-07   1.5804336659182072e-06
-2.7908053770226598e-06   8.231511731688913e-07   1.5804336659182072e-06
-2.7908053770226598e-06   8.231511731688913e-07   1.5804336659182072e-06
-2.7908053770226598e-06   8.231511731688913e-07   1.5804336659182072e-06
-3.4906541638617605e-06   5.699114746797907e-07   2.620752020929424e-07
-3.4906541638617605e-06   5.699114746797907e-07   2.620752020929424e-07
-3.4906541638617605e-06   5.699114746797907e-07   2.620752020929424e-07
-3.4906541638617605e-06   5.699114746797907e-07   2.620752020929424e-07
-3.630462662105517e-06   7.838301260127388e-07   1.868759448231058e-06
-3.630462662105517e-06   7.838301260127388e-07   1.868759448231058e-06
-3.630462662105517e-06   7.838301260127388e-07   1.868759448231058e-06
-3.630462662105517e-06   7.838301260127388e-07   1.868759448231058e-06
-2.82940424658455e-06   5.168957127764037e-07   6.938227369712312e-07
-2.82940424658455e-06   5.168957127764037e-07   6.938227369712312e-07
-2.82940424658455e-06   5.168957127764037e-07   6.938227369712312e-07
-2.82940424658455e-06   5.168957127764037e-07   6.938227369712312e-07
-3.073541321074022e-06   6.629490834901986e-07   1.0130858386920693e-06
-3.073541321074022e-06   6.629490834901986e-07   1.0130858386920693e-06
-3.073541321074022e-06   6.629490834901986e-07   1.0130858386920693e-06
-3.073541321074022e-06   6.629490834901986e-07   1.0130858386920693e-06
-2.8294042465845467e-06   7.838301260127357e-07   2.0289200961728373e-06
-2.8294042465845467e-06   7.838301260127357e-07   2.0289200961728373e-06
-2.8294042465845467e-06   7.838301260127357e-07   2.0289200961728373e-06
-2.8294042465845467e-06   7.838301260127357e-07   2.0289200961728373e-06
-3.6304626621055307e-06   5.168957127764037e-07   5.336620890294379e-07
-3.6304626621055307e-06   5.168957127764037e-07   5.336620890294379e-07
-3.6304626621055307e-06   5.168957127764037e-07   5.336620890294379e-07
-3.6304626621055307e-06   5.168957127764037e-07   5.336620890294379e-07
-3.748986958037871e-06   7.482020916958765e-07   2.1979622063002116e-06
-3.748986958037871e-06   7.482020916958765e-07   2.1979622063002116e-06
-3.748986958037871e-06   7.482020916958765e-07   2.1979622063002116e-06
-3.748986958037871e-06   7.482020916958765e-07   2.1979622063002116e-06
-2.880751321727266e-06   4.795222515279732e-07   9.121107165499493e-07
-2.880751321727266e-06   4.795222515279732e-07   9.121107165499493e-07
-2.880751321727266e-06   4.795222515279732e-07   9.121107165499493e-07
-2.880751321727266e-06   4.795222515279732e-07   9.121107165499493e-07
-3.194587151334128e-06   6.440832812463766e-07   1.3364338147304377e-06
-3.194587151334128e-06   6.440832812463766e-07   1.3364338147304377e-06
-3.194587151334128e-06   6.440832812463766e-07   1.3364338147304377e-06
-3.194587151334128e-06   6.440832812463766e-07   1.3364338147304377e-06
-2.8807513217272645e-06   7.482020916958721e-07   2.35917011040094e-06
-2.8807513217272645e-06   7.482020916958721e-07   2.35917011040094e-06
-2.8807513217272645e-06   7.482020916958721e-07   2.35917011040094e-06
-2.8807513217272645e-06   7.482020916958721e-07   2.35917011040094e-06
-3.748986958037871e-06   4.795222515280003e-07   7.509028124492094e-07
-3.748986958037871e-06   4.795222515280003e-07   7.509028124492094e-07
-3.748986958037871e-06   4.795222515280003e-07   7.509028124492094e-07
-3.748986958037871e-06   4.795222515280003e-07   7.509028124492094e-07
-3.896578082488526e-06   6.467803162169493e-07   2.789862469797271e-06
-3.896578082488526e-06   6.467803162169493e-07   2.789862469797271e-06
-3.896578082488526e-06   6.467803162169493e-07   2.789862469797271e-06
-3.896578082488526e-06   6.467803162169493e-07   2.789862469797271e-06
-2.921450929799686e-06   3.88950981864176e-07   1.31934814926085e-06
-2.921450929799686e-06   3.88950981864176e-07   1.31934814926085e-06
-2.921450929799686e-06   3.88950981864176e-07   1.31934814926085e-06
-2.921450929799686e-06   3.88950981864176e-07   1.31934814926085e-06
-3.224896221864691e-06   6.014890583332761e-07   1.6975674568209877e-06
-3.224896221864691e-06   6.014890583332761e-07   1.6975674568209877e-06
-3.224896221864691e-06   6.014890583332761e-07   1.6975674568209877e-06
-3.224896221864691e-06   6.014890583332761e-07   1.6975674568209877e-06
-9.616013811159834e-07   1.95434694445437e-07   1.7584289099883288e-06
-9.616013811159834e-07   1.95434694445437e-07   1.7584289099883288e-06
-9.616013811159834e-07   1.95434694445437e-07   1.7584289099883288e-06
-9.616013811159834e-07   1.95434694445437e-07   1.7584289099883288e-06
-1.2555977822569077e-06   4.0626657103320094e-07   1.394934034039451e-06
-1.2555977822569077e-06   4.0626657103320094e-07   1.394934034039451e-06
-1.2555977822569077e-06   4.0626657103320094e-07   1.394934034039451e-06
-1.2555977822569077e-06   4.0626657103320094e-07   1.394934034039451e-06
-1.2981483738399106e-06   1.1818656115054893e-07   1.8330865101739643e-06
-1.2981483738399106e-06   1.1818656115054893e-07   1.8330865101739643e-06
-1.2981483738399106e-06   1.1818656115054893e-07   1.8330865101739643e-06
-1.2981483738399106e-06   1.1818656115054893e-07   1.8330865101739643e-06
-1.1204883026650598e-06   3.099983433330788e-07   1.4218993222396965e-06
-1.1204883026650598e-06   3.099983433330788e-07   1.4218993222396965e-06
-1.1204883026650598e-06   3.099983433330788e-07   1.4218993222396965e-06
-1.1204883026650598e-06   3.099983433330788e-07   1.4218993222396965e-06
-1.1362856191153528e-06   2.3683291027882223e-07   1.49212744282274e-06
-1.1362856191153528e-06   2.3683291027882223e-07   1.49212744282274e-06
-1.1362856191153528e-06   2.3683291027882223e-07   1.49212744282274e-06
-1.1362856191153528e-06   2.3683291027882223e-07   1.49212744282274e-06
-1.1204883026650613e-06   1.1818656115053722e-07   1.7179994408644572e-06
-1.1204883026650613e-06   1.1818656115053722e-07   1.7179994408644572e-06
-1.1204883026650613e-06   1.1818656115053722e-07   1.7179994408644572e-06
-1.1204883026650613e-06   1.1818656115053722e-07   1.7179994408644572e-06
-1.2981483738399106e-06   3.099983433330788e-07   1.5369863915492172e-06
-1.2981483738399106e-06   3.099983433330788e-07   1.5369863915492172e-06
-1.2981483738399106e-06   3.099983433330788e-07   1.5369863915492172e-06
-1.2981483738399106e-06   3.099983433330788e-07   1.5369863915492172e-06
-1.352980566856925e-06   7.859157257028939e-08   1.8587430741726226e-06
-1.352980566856925e-06   7.859157257028939e-08   1.8587430741726226e-06
-1.352980566856925e-06   7.859157257028939e-08   1.8587430741726226e-06
-1.352980566856925e-06   7.859157257028939e-08   1.8587430741726226e-06
-1.2773895630047025e-06   2.4637215158642735e-07   1.632089720342569e-06
-1.2773895630047025e-06   2.4637215158642735e-07   1.632089720342569e-06
-1.2773895630047025e-06   2.4637215158642735e-07   1.632089720342569e-06
-1.2773895630047025e-06   2.4637215158642735e-07   1.632089720342569e-06
-1.2297173307461592e-06   1.9618347235377442e-07   1.5827492074512352e-06
-1.2297173307461592e-06   1.9618347235377442e-07   1.5827492074512352e-06
-1.2297173307461592e-06   1.9618347235377442e-07   1.5827492074512352e-06
-1.2297173307461592e-06   1.9618347235377442e-07   1.5827492074512352e-06
-1.277389563004703e-06   7.859157257025648e-08   1.7580747267628965e-06
-1.277389563004703e-06   7.859157257025648e-08   1.7580747267628965e-06
-1.277389563004703e-06   7.859157257025648e-08   1.7580747267628965e-06
-1.277389563004703e-06   7.859157257025648e-08   1.7580747267628965e-06
-1.352980566856925e-06   2.4637215158642735e-07   1.732758067752251e-06
-1.352980566856925e-06   2.4637215158642735e-07   1.732758067752251e-06
-1.352980566856925e-06   2.4637215158642735e-07   1.732758067752251e-06
-1.352980566856925e-06   2.4637215158642735e-07   1.732758067752251e-06
-1.391601287368165e-06   -2.5537152909893904e-09   1.986270064974118e-06
-1.391601287368165e-06   -2.5537152909893904e-09   1.986270064974118e-06
-1.391601287368165e-06   -2.5537152909893904e-09   1.986270064974118e-06
-1.391601287368165e-06   -2.5537152909893904e-09   1.986270064974118e-06
-1.445943773337258e-06   9.149520375276957e-08   2.0204115234963144e-06
-1.445943773337258e-06   9.149520375276957e-08   2.0204115234963144e-06
-1.445943773337258e-06   9.149520375276957e-08   2.0204115234963144e-06
-1.445943773337258e-06   9.149520375276957e-08   2.0204115234963144e-06
-1.3063412554323357e-06   1.4997568338743735e-07   1.7526523725405766e-06
-1.3063412554323357e-06   1.4997568338743735e-07   1.7526523725405766e-06
-1.3063412554323357e-06   1.4997568338743735e-07   1.7526523725405766e-06
-1.3063412554323357e-06   1.4997568338743735e-07   1.7526523725405766e-06
-1.2555977822569077e-06   2.658207598802208e-07   3.280708425820687e-06
-1.2555977822569077e-06   2.658207598802208e-07   3.280708425820687e-06
-1.2555977822569077e-06   2.658207598802208e-07   3.280708425820687e-06
-1.2555977822569077e-06   2.658207598802208e-07   3.280708425820687e-06
-1.397530694103778e-06   1.070485364414311e-07   2.9488902386792893e-06
-1.397530694103778e-06   1.070485364414311e-07   2.9488902386792893e-06
-1.397530694103778e-06   1.070485364414311e-07   2.9488902386792893e-06
-1.397530694103778e-06   1.070485364414311e-07   2.9488902386792893e-06
-1.4161964383923246e-06   1.8113398490891917e-07   3.153630035712825e-06
-1.4161964383923246e-06   1.8113398490891917e-07   3.153630035712825e-06
-1.4161964383923246e-06   1.8113398490891917e-07   3.153630035712825e-06
-1.4161964383923246e-06   1.8113398490891917e-07   3.153630035712825e-06
-1.2981483738399104e-06   4.5677819708296943e-08   3.0381569605791636e-06
-1.2981483738399104e-06   4.5677819708296943e-08   3.0381569605791636e-06
-1.2981483738399104e-06   4.5677819708296943e-08   3.0381569605791636e-06
-1.2981483738399104e-06   4.5677819708296943e-08   3.0381569605791636e-06
-1.3404968015281645e-06   1.303556339811809e-07   3.0579309848291806e-06
-1.3404968015281645e-06   1.303556339811809e-07   3.0579309848291806e-06
-1.3404968015281645e-06   1.303556339811809e-07   3.0579309848291806e-06
-1.3404968015281645e-06   1.303556339811809e-07   3.0579309848291806e-06
-1.2981483738399123e-06   1.81133984908886e-07   3.2349037348331606e-06
-1.2981483738399123e-06   1.81133984908886e-07   3.2349037348331606e-06
-1.2981483738399123e-06   1.81133984908886e-07   3.2349037348331606e-06
-1.2981483738399123e-06   1.81133984908886e-07   3.2349037348331606e-06
-1.4161964383923246e-06   4.5677819708296943e-08   2.956883261458795e-06
-1.4161964383923246e-06   4.5677819708296943e-08   2.956883261458795e-06
-1.4161964383923246e-06   4.5677819708296943e-08   2.956883261458795e-06
-1.4161964383923246e-06   4.5677819708296943e-08   2.956883261458795e-06
-1.4382492809852603e-06   1.0559483330845011e-07   3.1815932080537054e-06
-1.4382492809852603e-06   1.0559483330845011e-07   3.1815932080537054e-06
-1.4382492809852603e-06   1.0559483330845011e-07   3.1815932080537054e-06
-1.4382492809852603e-06   1.0559483330845011e-07   3.1815932080537054e-06
-1.3529805668569248e-06   -2.0358621126586088e-08   3.115050757167505e-06
-1.3529805668569248e-06   -2.0358621126586088e-08   3.115050757167505e-06
-1.3529805668569248e-06   -2.0358621126586088e-08   3.115050757167505e-06
-1.3529805668569248e-06   -2.0358621126586088e-08   3.115050757167505e-06
-1.362200228832872e-06   8.227619629327043e-08   3.068835970008876e-06
-1.362200228832872e-06   8.227619629327043e-08   3.068835970008876e-06
-1.362200228832872e-06   8.227619629327043e-08   3.068835970008876e-06
-1.362200228832872e-06   8.227619629327043e-08   3.068835970008876e-06
-1.352980566856925e-06   1.0559483330845527e-07   3.257165280714692e-06
-1.352980566856925e-06   1.0559483330845527e-07   3.257165280714692e-06
-1.352980566856925e-06   1.0559483330845527e-07   3.257165280714692e-06
-1.352980566856925e-06   1.0559483330845527e-07   3.257165280714692e-06
-1.4382492809852603e-06   -2.0358621126586088e-08   3.039478684506478e-06
-1.4382492809852603e-06   -2.0358621126586088e-08   3.039478684506478e-06
-1.4382492809852603e-06   -2.0358621126586088e-08   3.039478684506478e-06
-1.4382492809852603e-06   -2.0358621126586088e-08   3.039478684506478e-06
-1.4574212315906236e-06   2.65549459303033e-08   3.2581472122687982e-06
-1.4574212315906236e-06   2.65549459303033e-08   3.2581472122687982e-06
-1.4574212315906236e-06   2.65549459303033e-08   3.2581472122687982e-06
-1.4574212315906236e-06   2.65549459303033e-08   3.2581472122687982e-06
-1.3916012873681608e-06   -1.0398135524298114e-07   3.2267690859353164e-06
-1.3916012873681608e-06   -1.0398135524298114e-07   3.2267690859353164e-06
-1.3916012873681608e-06   -1.0398135524298114e-07   3.2267690859353164e-06
-1.3916012873681608e-06   -1.0398135524298114e-07   3.2267690859353164e-06
-1.39151371303271e-06   2.8873204272446078e-08   3.14691039300019e-06
-1.39151371303271e-06   2.8873204272446078e-08   3.14691039300019e-06
-1.39151371303271e-06   2.8873204272446078e-08   3.14691039300019e-06
-1.39151371303271e-06   2.8873204272446078e-08   3.14691039300019e-06
-1.397530694103778e-06   3.3618723145923856e-07   3.612303340146396e-06
-1.397530694103778e-06   3.3618723145923856e-07   3.612303340146396e-06
-1.397530694103778e-06   3.3618723145923856e-07   3.612303340146396e-06
-1.397530694103778e-06   3.3618723145923856e-07   3.612303340146396e-06
-1.6057230383093352e-06   3.2477321528374395e-08   3.0830901538452596e-06
-1.6057230383093352e-06   3.2477321528374395e-08   3.0830901538452596e-06
-1.6057230383093352e-06   3.2477321528374395e-08   3.0830901538452596e-06
-1.6057230383093352e-06   3.2477321528374395e-08   3.0830901538452596e-06
-1.617457352902127e-06   2.5979648341325264e-07   3.428518803532383e-06
-1.617457352902127e-06   2.5979648341325264e-07   3.428518803532383e-06
-1.617457352902127e-06   2.5979648341325264e-07   3.428518803532383e-06
-1.617457352902127e-06   2.5979648341325264e-07   3.428518803532383e-06
-1.4161964383923235e-06   -1.6188254213441193e-08   3.2586747885920704e-06
-1.4161964383923235e-06   -1.6188254213441193e-08   3.2586747885920704e-06
-1.4161964383923235e-06   -1.6188254213441193e-08   3.2586747885920704e-06
-1.4161964383923235e-06   -1.6188254213441193e-08   3.2586747885920704e-06
-1.508007306104516e-06   1.4626386192892395e-07   3.3142216317603033e-06
-1.508007306104516e-06   1.4626386192892395e-07   3.3142216317603033e-06
-1.508007306104516e-06   1.4626386192892395e-07   3.3142216317603033e-06
-1.508007306104516e-06   1.4626386192892395e-07   3.3142216317603033e-06
-1.4161964383923246e-06   2.5979648341326143e-07   3.594109646108402e-06
-1.4161964383923246e-06   2.5979648341326143e-07   3.594109646108402e-06
-1.4161964383923246e-06   2.5979648341326143e-07   3.594109646108402e-06
-1.4161964383923246e-06   2.5979648341326143e-07   3.594109646108402e-06
-1.6174573529021202e-06   -1.6188254213441193e-08   3.093083946016048e-06
-1.6174573529021202e-06   -1.6188254213441193e-08   3.093083946016048e-06
-1.6174573529021202e-06   -1.6188254213441193e-08   3.093083946016048e-06
-1.6174573529021202e-06   -1.6188254213441193e-08   3.093083946016048e-06
-1.6324883906960837e-06   1.8237480759855152e-07   3.4741730283278997e-06
-1.6324883906960837e-06   1.8237480759855152e-07   3.4741730283278997e-06
-1.6324883906960837e-06   1.8237480759855152e-07   3.4741730283278997e-06
-1.6324883906960837e-06   1.8237480759855152e-07   3.4741730283278997e-06
-1.4382492809852589e-06   -7.422398807485934e-08   3.3044004562139055e-06
-1.4382492809852589e-06   -7.422398807485934e-08   3.3044004562139055e-06
-1.4382492809852589e-06   -7.422398807485934e-08   3.3044004562139055e-06
-1.4382492809852589e-06   -7.422398807485934e-08   3.3044004562139055e-06
-1.5165259697797083e-06   9.94261174541071e-08   3.3306715408872736e-06
-1.5165259697797083e-06   9.94261174541071e-08   3.3306715408872736e-06
-1.5165259697797083e-06   9.94261174541071e-08   3.3306715408872736e-06
-1.5165259697797083e-06   9.94261174541071e-08   3.3306715408872736e-06
-1.4382492809852603e-06   1.823748075985515e-07   3.6281323057319083e-06
-1.4382492809852603e-06   1.823748075985515e-07   3.6281323057319083e-06
-1.4382492809852603e-06   1.823748075985515e-07   3.6281323057319083e-06
-1.4382492809852603e-06   1.823748075985515e-07   3.6281323057319083e-06
-1.6324883906960837e-06   -7.422398807485934e-08   3.1504411788098597e-06
-1.6324883906960837e-06   -7.422398807485934e-08   3.1504411788098597e-06
-1.6324883906960837e-06   -7.422398807485934e-08   3.1504411788098597e-06
-1.6324883906960837e-06   -7.422398807485934e-08   3.1504411788098597e-06
-1.6452554892577089e-06   1.1002080814659842e-07   3.5606233638718463e-06
-1.6452554892577089e-06   1.1002080814659842e-07   3.5606233638718463e-06
-1.6452554892577089e-06   1.1002080814659842e-07   3.5606233638718463e-06
-1.6452554892577089e-06   1.1002080814659842e-07   3.5606233638718463e-06
-1.457421231590623e-06   -1.3050949503023155e-07   3.3918844496660884e-06
-1.457421231590623e-06   -1.3050949503023155e-07   3.3918844496660884e-06
-1.457421231590623e-06   -1.3050949503023155e-07   3.3918844496660884e-06
-1.457421231590623e-06   -1.3050949503023155e-07   3.3918844496660884e-06
-1.5279886281811527e-06   5.1707698154733906e-08   3.400166461405852e-06
-1.5279886281811527e-06   5.1707698154733906e-08   3.400166461405852e-06
-1.5279886281811527e-06   5.1707698154733906e-08   3.400166461405852e-06
-1.5279886281811527e-06   5.1707698154733906e-08   3.400166461405852e-06
-1.6057230383093352e-06   4.6578500240799985e-07   2.9739656598408003e-06
-1.6057230383093352e-06   4.6578500240799985e-07   2.9739656598408003e-06
-1.6057230383093352e-06   4.6578500240799985e-07   2.9739656598408003e-06
-1.6057230383093352e-06   4.6578500240799985e-07   2.9739656598408003e-06
-1.8623747157809364e-06   1.5839913728993152e-07   2.361781344983967e-06
-1.8623747157809364e-06   1.5839913728993152e-07   2.361781344983967e-06
-1.8623747157809364e-06   1.5839913728993152e-07   2.361781344983967e-06
-1.8623747157809364e-06   1.5839913728993152e-07   2.361781344983967e-06
-1.8736279018136535e-06   3.8566961496557146e-07   2.812600145147946e-06
-1.8736279018136535e-06   3.8566961496557146e-07   2.812600145147946e-06
-1.8736279018136535e-06   3.8566961496557146e-07   2.812600145147946e-06
-1.8736279018136535e-06   3.8566961496557146e-07   2.812600145147946e-06
-1.6174573529021238e-06   9.319937414843053e-08   2.561131374785682e-06
-1.6174573529021238e-06   9.319937414843053e-08   2.561131374785682e-06
-1.6174573529021238e-06   9.319937414843053e-08   2.561131374785682e-06
-1.6174573529021238e-06   9.319937414843053e-08   2.561131374785682e-06
-1.7354861865271893e-06   2.79619147736324e-07   2.64599423334138e-06
-1.7354861865271893e-06   2.79619147736324e-07   2.64599423334138e-06
-1.7354861865271893e-06   2.79619147736324e-07   2.64599423334138e-06
-1.7354861865271893e-06   2.79619147736324e-07   2.64599423334138e-06
-1.617457352902127e-06   3.856696149655945e-07   2.988082289638217e-06
-1.617457352902127e-06   3.856696149655945e-07   2.988082289638217e-06
-1.617457352902127e-06   3.856696149655945e-07   2.988082289638217e-06
-1.617457352902127e-06   3.856696149655945e-07   2.988082289638217e-06
-1.8736279018136535e-06   9.319937414844408e-08   2.3856492302953834e-06
-1.8736279018136535e-06   9.319937414844408e-08   2.3856492302953834e-06
-1.8736279018136535e-06   9.319937414844408e-08   2.3856492302953834e-06
-1.8736279018136535e-06   9.319937414844408e-08   2.3856492302953834e-06
-1.9005922507442816e-06   3.1334698080931435e-07   2.912159614972893e-06
-1.9005922507442816e-06   3.1334698080931435e-07   2.912159614972893e-06
-1.9005922507442816e-06   3.1334698080931435e-07   2.912159614972893e-06
-1.9005922507442816e-06   3.1334698080931435e-07   2.912159614972893e-06
-1.6324883906960807e-06   3.676312629116046e-08   2.631270160936803e-06
-1.6324883906960807e-06   3.676312629116046e-08   2.631270160936803e-06
-1.6324883906960807e-06   3.676312629116046e-08   2.631270160936803e-06
-1.6324883906960807e-06   3.676312629116046e-08   2.631270160936803e-06
-1.7378963330836835e-06   2.275492113899179e-07   2.6924784138568776e-06
-1.7378963330836835e-06   2.275492113899179e-07   2.6924784138568776e-06
-1.7378963330836835e-06   2.275492113899179e-07   2.6924784138568776e-06
-1.7378963330836835e-06   2.275492113899179e-07   2.6924784138568776e-06
-1.6324883906960837e-06   3.1334698080932557e-07   3.07810992768375e-06
-1.6324883906960837e-06   3.1334698080932557e-07   3.07810992768375e-06
-1.6324883906960837e-06   3.1334698080932557e-07   3.07810992768375e-06
-1.6324883906960837e-06   3.1334698080932557e-07   3.07810992768375e-06
-1.9005922507442816e-06   3.676312629116046e-08   2.4653198482259074e-06
-1.9005922507442816e-06   3.676312629116046e-08   2.4653198482259074e-06
-1.9005922507442816e-06   3.676312629116046e-08   2.4653198482259074e-06
-1.9005922507442816e-06   3.676312629116046e-08   2.4653198482259074e-06
-1.9189083810414387e-06   2.3855046815150966e-07   3.0341351453209173e-06
-1.9189083810414387e-06   2.3855046815150966e-07   3.0341351453209173e-06
-1.9189083810414387e-06   2.3855046815150966e-07   3.0341351453209173e-06
-1.9189083810414387e-06   2.3855046815150966e-07   3.0341351453209173e-06
-1.64525548925771e-06   -2.0525934501736055e-08   2.733492833939961e-06
-1.64525548925771e-06   -2.0525934501736055e-08   2.733492833939961e-06
-1.64525548925771e-06   -2.0525934501736055e-08   2.733492833939961e-06
-1.64525548925771e-06   -2.0525934501736055e-08   2.733492833939961e-06
-1.75442841182289e-06   1.8021981127264673e-07   2.7950002574171103e-06
-1.75442841182289e-06   1.8021981127264673e-07   2.7950002574171103e-06
-1.75442841182289e-06   1.8021981127264673e-07   2.7950002574171103e-06
-1.75442841182289e-06   1.8021981127264673e-07   2.7950002574171103e-06
-1.8623747157809364e-06   5.699114746797956e-07   1.2027498018095552e-06
-1.8623747157809364e-06   5.699114746797956e-07   1.2027498018095552e-06
-1.8623747157809364e-06   5.699114746797956e-07   1.2027498018095552e-06
-1.8623747157809364e-06   5.699114746797956e-07   1.2027498018095552e-06
-1.955121077790037e-06   2.7479325116312465e-07   8.711015976843829e-07
-1.955121077790037e-06   2.7479325116312465e-07   8.711015976843829e-07
-1.955121077790037e-06   2.7479325116312465e-07   8.711015976843829e-07
-1.955121077790037e-06   2.7479325116312465e-07   8.711015976843829e-07
-2.0562304520256217e-06   5.168957127764037e-07   1.3261552660693502e-06
-2.0562304520256217e-06   5.168957127764037e-07   1.3261552660693502e-06
-2.0562304520256217e-06   5.168957127764037e-07   1.3261552660693502e-06
-2.0562304520256217e-06   5.168957127764037e-07   1.3261552660693502e-06
-1.8736279018136434e-06   2.2691369805262344e-07   1.1958068912169871e-06
-1.8736279018136434e-06   2.2691369805262344e-07   1.1958068912169871e-06
-1.8736279018136434e-06   2.2691369805262344e-07   1.1958068912169871e-06
-1.8736279018136434e-06   2.2691369805262344e-07   1.1958068912169871e-06
-1.872814699754144e-06   4.0599735797477955e-07   1.087001358497853e-06
-1.872814699754144e-06   4.0599735797477955e-07   1.087001358497853e-06
-1.872814699754144e-06   4.0599735797477955e-07   1.087001358497853e-06
-1.872814699754144e-06   4.0599735797477955e-07   1.087001358497853e-06
-1.87362790181364e-06   5.16895712776393e-07   1.5001444749035805e-06
-1.87362790181364e-06   5.16895712776393e-07   1.5001444749035805e-06
-1.87362790181364e-06   5.16895712776393e-07   1.5001444749035805e-06
-1.87362790181364e-06   5.16895712776393e-07   1.5001444749035805e-06
-2.0562304520256217e-06   2.2691369805262344e-07   1.0218176823827095e-06
-2.0562304520256217e-06   2.2691369805262344e-07   1.0218176823827095e-06
-2.0562304520256217e-06   2.2691369805262344e-07   1.0218176823827095e-06
-2.0562304520256217e-06   2.2691369805262344e-07   1.0218176823827095e-06
-2.1441322233302243e-06   4.795222515279732e-07   1.562588088098438e-06
-2.1441322233302243e-06   4.795222515279732e-07   1.562588088098438e-06
-2.1441322233302243e-06   4.795222515279732e-07   1.562588088098438e-06
-2.1441322233302243e-06   4.795222515279732e-07   1.562588088098438e-06
-1.9005922507442814e-06   1.9604375801814686e-07   1.3267752298944325e-06
-1.9005922507442814e-06   1.9604375801814686e-07   1.3267752298944325e-06
-1.9005922507442814e-06   1.9604375801814686e-07   1.3267752298944325e-06
-1.9005922507442814e-06   1.9604375801814686e-07   1.3267752298944325e-06
-1.9478602219896657e-06   3.8074576930832076e-07   1.2947339751960421e-06
-1.9478602219896657e-06   3.8074576930832076e-07   1.2947339751960421e-06
-1.9478602219896657e-06   3.8074576930832076e-07   1.2947339751960421e-06
-1.9478602219896657e-06   3.8074576930832076e-07   1.2947339751960421e-06
-1.9005922507442816e-06   4.795222515279904e-07   1.732675184204285e-06
-1.9005922507442816e-06   4.795222515279904e-07   1.732675184204285e-06
-1.9005922507442816e-06   4.795222515279904e-07   1.732675184204285e-06
-1.9005922507442816e-06   4.795222515279904e-07   1.732675184204285e-06
-2.1441322233302243e-06   1.9604375801814686e-07   1.156688133788538e-06
-2.1441322233302243e-06   1.9604375801814686e-07   1.156688133788538e-06
-2.1441322233302243e-06   1.9604375801814686e-07   1.156688133788538e-06
-2.1441322233302243e-06   1.9604375801814686e-07   1.156688133788538e-06
-2.267883801130964e-06   3.889509818642031e-07   1.9954539431187956e-06
-2.267883801130964e-06   3.889509818642031e-07   1.9954539431187956e-06
-2.267883801130964e-06   3.889509818642031e-07   1.9954539431187956e-06
-2.267883801130964e-06   3.889509818642031e-07   1.9954539431187956e-06
-1.9189083810414324e-06   1.2888554054023868e-07   1.569867507763905e-06
-1.9189083810414324e-06   1.2888554054023868e-07   1.569867507763905e-06
-1.9189083810414324e-06   1.2888554054023868e-07   1.569867507763905e-06
-1.9189083810414324e-06   1.2888554054023868e-07   1.569867507763905e-06
-1.973915303883536e-06   3.467669100854447e-07   1.530816890773335e-06
-1.973915303883536e-06   3.467669100854447e-07   1.530816890773335e-06
-1.973915303883536e-06   3.467669100854447e-07   1.530816890773335e-06
-1.973915303883536e-06   3.467669100854447e-07   1.530816890773335e-06
-3.0494691901476654e-06   4.0626657103320824e-07   1.5454684272572013e-06
-3.0494691901476654e-06   4.0626657103320824e-07   1.5454684272572013e-06
-3.0494691901476654e-06   4.0626657103320824e-07   1.5454684272572013e-06
-3.0494691901476654e-06   4.0626657103320824e-07   1.5454684272572013e-06
-2.153302131327056e-06   5.509457759126033e-07   3.1258877148858543e-06
-2.153302131327056e-06   5.509457759126033e-07   3.1258877148858543e-06
-2.153302131327056e-06   5.509457759126033e-07   3.1258877148858543e-06
-2.153302131327056e-06   5.509457759126033e-07   3.1258877148858543e-06
-2.158845659216202e-06   3.099983433330788e-07   1.6669203011645742e-06
-2.158845659216202e-06   3.099983433330788e-07   1.6669203011645742e-06
-2.158845659216202e-06   3.099983433330788e-07   1.6669203011645742e-06
-2.158845659216202e-06   3.099983433330788e-07   1.6669203011645742e-06
-3.411836312453584e-06   1.7619999223301291e-07   3.835517067220266e-06
-3.411836312453584e-06   1.7619999223301291e-07   3.835517067220266e-06
-3.411836312453584e-06   1.7619999223301291e-07   3.835517067220266e-06
-3.411836312453584e-06   1.7619999223301291e-07   3.835517067220266e-06
-2.5524000013363058e-06   3.155717317014238e-07   2.3195001716770727e-06
-2.5524000013363058e-06   3.155717317014238e-07   2.3195001716770727e-06
-2.5524000013363058e-06   3.155717317014238e-07   2.3195001716770727e-06
-2.5524000013363058e-06   3.155717317014238e-07   2.3195001716770727e-06
-3.411836312453591e-06   3.0999834333307715e-07   1.7471993118245947e-06
-3.411836312453591e-06   3.0999834333307715e-07   1.7471993118245947e-06
-3.411836312453591e-06   3.0999834333307715e-07   1.7471993118245947e-06
-3.411836312453591e-06   3.0999834333307715e-07   1.7471993118245947e-06
-2.1588456592161985e-06   1.7619999223301291e-07   3.75523805656023e-06
-2.1588456592161985e-06   1.7619999223301291e-07   3.75523805656023e-06
-2.1588456592161985e-06   1.7619999223301291e-07   3.75523805656023e-06
-2.1588456592161985e-06   1.7619999223301291e-07   3.75523805656023e-06
-2.2049785936994483e-06   2.4637215158642735e-07   1.8227149033178566e-06
-2.2049785936994483e-06   2.4637215158642735e-07   1.8227149033178566e-06
-2.2049785936994483e-06   2.4637215158642735e-07   1.8227149033178566e-06
-2.2049785936994483e-06   2.4637215158642735e-07   1.8227149033178566e-06
-3.4389720120359965e-06   1.097560306703073e-07   3.961340273095125e-06
-3.4389720120359965e-06   1.097560306703073e-07   3.961340273095125e-06
-3.4389720120359965e-06   1.097560306703073e-07   3.961340273095125e-06
-3.4389720120359965e-06   1.097560306703073e-07   3.961340273095125e-06
-2.7503558154003695e-06   1.7986035793701987e-07   2.771584015675694e-06
-2.7503558154003695e-06   1.7986035793701987e-07   2.771584015675694e-06
-2.7503558154003695e-06   1.7986035793701987e-07   2.771584015675694e-06
-2.7503558154003695e-06   1.7986035793701987e-07   2.771584015675694e-06
-3.4389720120360016e-06   2.463721515864217e-07   1.9046845758675585e-06
-3.4389720120360016e-06   2.463721515864217e-07   1.9046845758675585e-06
-3.4389720120360016e-06   2.463721515864217e-07   1.9046845758675585e-06
-3.4389720120360016e-06   2.463721515864217e-07   1.9046845758675585e-06
-2.204978593699443e-06   1.097560306703073e-07   3.879370600545452e-06
-2.204978593699443e-06   1.097560306703073e-07   3.879370600545452e-06
-2.204978593699443e-06   1.097560306703073e-07   3.879370600545452e-06
-2.204978593699443e-06   1.097560306703073e-07   3.879370600545452e-06
-2.1978776861611145e-06   9.149520375276957e-08   2.0919767232937468e-06
-2.1978776861611145e-06   9.149520375276957e-08   2.0919767232937468e-06
-2.1978776861611145e-06   9.149520375276957e-08   2.0919767232937468e-06
-2.1978776861611145e-06   9.149520375276957e-08   2.0919767232937468e-06
-3.5022839333581306e-06   -1.8266313616861638e-07   4.43048213924159e-06
-3.5022839333581306e-06   -1.8266313616861638e-07   4.43048213924159e-06
-3.5022839333581306e-06   -1.8266313616861638e-07   4.43048213924159e-06
-3.5022839333581306e-06   -1.8266313616861638e-07   4.43048213924159e-06
-2.725303934433803e-06   6.63412597893165e-08   2.9861128367929474e-06
-2.725303934433803e-06   6.63412597893165e-08   2.9861128367929474e-06
-2.725303934433803e-06   6.63412597893165e-08   2.9861128367929474e-06
-2.725303934433803e-06   6.63412597893165e-08   2.9861128367929474e-06
-2.15330213132706e-06   1.0704853644143592e-07   3.2814954888879476e-06
-2.15330213132706e-06   1.0704853644143592e-07   3.2814954888879476e-06
-2.15330213132706e-06   1.0704853644143592e-07   3.2814954888879476e-06
-2.15330213132706e-06   1.0704853644143592e-07   3.2814954888879476e-06
-1.3666941174354416e-06   -7.732582474599708e-07   4.064324775033138e-06
-1.3666941174354416e-06   -7.732582474599708e-07   4.064324775033138e-06
-1.3666941174354416e-06   -7.732582474599708e-07   4.064324775033138e-06
-1.3666941174354416e-06   -7.732582474599708e-07   4.064324775033138e-06
-1.3801405406368983e-06   4.5677819708296943e-08   2.7518158545811194e-06
-1.3801405406368983e-06   4.5677819708296943e-08   2.7518158545811194e-06
-1.3801405406368983e-06   4.5677819708296943e-08   2.7518158545811194e-06
-1.3801405406368983e-06   4.5677819708296943e-08   2.7518158545811194e-06
-2.1588456592161985e-06   -6.48113872980711e-07   4.465932734493363e-06
-2.1588456592161985e-06   -6.48113872980711e-07   4.465932734493363e-06
-2.1588456592161985e-06   -6.48113872980711e-07   4.465932734493363e-06
-2.1588456592161985e-06   -6.48113872980711e-07   4.465932734493363e-06
-1.759378603538298e-06   -3.854329961910436e-07   3.6425457822897307e-06
-1.759378603538298e-06   -3.854329961910436e-07   3.6425457822897307e-06
-1.759378603538298e-06   -3.854329961910436e-07   3.6425457822897307e-06
-1.759378603538298e-06   -3.854329961910436e-07   3.6425457822897307e-06
-2.1588456592162e-06   4.5677819708295335e-08   3.168090870194481e-06
-2.1588456592162e-06   4.5677819708295335e-08   3.168090870194481e-06
-2.1588456592162e-06   4.5677819708295335e-08   3.168090870194481e-06
-2.1588456592162e-06   4.5677819708295335e-08   3.168090870194481e-06
-1.380140540636895e-06   -6.48113872980711e-07   4.049657718879958e-06
-1.380140540636895e-06   -6.48113872980711e-07   4.049657718879958e-06
-1.380140540636895e-06   -6.48113872980711e-07   4.049657718879958e-06
-1.380140540636895e-06   -6.48113872980711e-07   4.049657718879958e-06
-1.4007746259543808e-06   -2.0358621126586088e-08   2.8225440310163162e-06
-1.4007746259543808e-06   -2.0358621126586088e-08   2.8225440310163162e-06
-1.4007746259543808e-06   -2.0358621126586088e-08   2.8225440310163162e-06
-1.4007746259543808e-06   -2.0358621126586088e-08   2.8225440310163162e-06
-2.2049785936994436e-06   -6.577978906545926e-07   4.545347538974885e-06
-2.2049785936994436e-06   -6.577978906545926e-07   4.545347538974885e-06
-2.2049785936994436e-06   -6.577978906545926e-07   4.545347538974885e-06
-2.2049785936994436e-06   -6.577978906545926e-07   4.545347538974885e-06
-1.7574218687935395e-06   -3.374857494458549e-07   3.607232379406473e-06
-1.7574218687935395e-06   -3.374857494458549e-07   3.607232379406473e-06
-1.7574218687935395e-06   -3.374857494458549e-07   3.607232379406473e-06
-1.7574218687935395e-06   -3.374857494458549e-07   3.607232379406473e-06
-2.2049785936994483e-06   -2.035862112659087e-08   3.2050075927331378e-06
-2.2049785936994483e-06   -2.035862112659087e-08   3.2050075927331378e-06
-2.2049785936994483e-06   -2.035862112659087e-08   3.2050075927331378e-06
-2.2049785936994483e-06   -2.035862112659087e-08   3.2050075927331378e-06
-1.4007746259543808e-06   -6.577978906545926e-07   4.1628839772580835e-06
-1.4007746259543808e-06   -6.577978906545926e-07   4.1628839772580835e-06
-1.4007746259543808e-06   -6.577978906545926e-07   4.1628839772580835e-06
-1.4007746259543808e-06   -6.577978906545926e-07   4.1628839772580835e-06
-1.4053522612612856e-06   -1.0398135524298114e-07   2.9144441746045333e-06
-1.4053522612612856e-06   -1.0398135524298114e-07   2.9144441746045333e-06
-1.4053522612612856e-06   -1.0398135524298114e-07   2.9144441746045333e-06
-1.4053522612612856e-06   -1.0398135524298114e-07   2.9144441746045333e-06
-2.1978776861611085e-06   -6.497492880795736e-07   4.562780642472846e-06
-2.1978776861611085e-06   -6.497492880795736e-07   4.562780642472846e-06
-2.1978776861611085e-06   -6.497492880795736e-07   4.562780642472846e-06
-2.1978776861611085e-06   -6.497492880795736e-07   4.562780642472846e-06
-1.7817538563363618e-06   -3.6933831202528146e-07   3.7009943404657106e-06
-1.7817538563363618e-06   -3.6933831202528146e-07   3.7009943404657106e-06
-1.7817538563363618e-06   -3.6933831202528146e-07   3.7009943404657106e-06
-1.7817538563363618e-06   -3.6933831202528146e-07   3.7009943404657106e-06
-1.3666941174354416e-06   3.24773215283702e-08   3.0697372796715936e-06
-1.3666941174354416e-06   3.24773215283702e-08   3.0697372796715936e-06
-1.3666941174354416e-06   3.24773215283702e-08   3.0697372796715936e-06
-1.3666941174354416e-06   3.24773215283702e-08   3.0697372796715936e-06
-1.059682544473568e-06   -6.057075654229924e-07   3.1985123024372476e-06
-1.059682544473568e-06   -6.057075654229924e-07   3.1985123024372476e-06
-1.059682544473568e-06   -6.057075654229924e-07   3.1985123024372476e-06
-1.059682544473568e-06   -6.057075654229924e-07   3.1985123024372476e-06
-1.062396344118398e-06   -1.6188254213441193e-08   2.706353398280404e-06
-1.062396344118398e-06   -1.6188254213441193e-08   2.706353398280404e-06
-1.062396344118398e-06   -1.6188254213441193e-08   2.706353398280404e-06
-1.062396344118398e-06   -1.6188254213441193e-08   2.706353398280404e-06
-1.3801405406368955e-06   -5.949448932701011e-07   3.5831810425785687e-06
-1.3801405406368955e-06   -5.949448932701011e-07   3.5831810425785687e-06
-1.3801405406368955e-06   -5.949448932701011e-07   3.5831810425785687e-06
-1.3801405406368955e-06   -5.949448932701011e-07   3.5831810425785687e-06
-1.2115927985306008e-06   -3.0287656818607685e-07   3.127027144017664e-06
-1.2115927985306008e-06   -3.0287656818607685e-07   3.127027144017664e-06
-1.2115927985306008e-06   -3.0287656818607685e-07   3.127027144017664e-06
-1.2115927985306008e-06   -3.0287656818607685e-07   3.127027144017664e-06
-1.380140540636895e-06   -1.6188254213444664e-08   3.0536073817143675e-06
-1.380140540636895e-06   -1.6188254213444664e-08   3.0536073817143675e-06
-1.380140540636895e-06   -1.6188254213444664e-08   3.0536073817143675e-06
-1.380140540636895e-06   -1.6188254213444664e-08   3.0536073817143675e-06
-1.062396344118398e-06   -5.949448932701011e-07   3.2359270591445714e-06
-1.062396344118398e-06   -5.949448932701011e-07   3.2359270591445714e-06
-1.062396344118398e-06   -5.949448932701011e-07   3.2359270591445714e-06
-1.062396344118398e-06   -5.949448932701011e-07   3.2359270591445714e-06
-1.0688295287192108e-06   -7.422398807485934e-08   2.7658702683627497e-06
-1.0688295287192108e-06   -7.422398807485934e-08   2.7658702683627497e-06
-1.0688295287192108e-06   -7.422398807485934e-08   2.7658702683627497e-06
-1.0688295287192108e-06   -7.422398807485934e-08   2.7658702683627497e-06
-1.400774625954379e-06   -6.10216545343149e-07   3.6407076314490215e-06
-1.400774625954379e-06   -6.10216545343149e-07   3.6407076314490215e-06
-1.400774625954379e-06   -6.10216545343149e-07   3.6407076314490215e-06
-1.400774625954379e-06   -6.10216545343149e-07   3.6407076314490215e-06
-1.2131576875140685e-06   -3.1645190217049807e-07   3.1517539481448666e-06
-1.2131576875140685e-06   -3.1645190217049807e-07   3.1517539481448666e-06
-1.2131576875140685e-06   -3.1645190217049807e-07   3.1517539481448666e-06
-1.2131576875140685e-06   -3.1645190217049807e-07   3.1517539481448666e-06
-1.4007746259543808e-06   -7.422398807485832e-08   3.0874658027237574e-06
-1.4007746259543808e-06   -7.422398807485832e-08   3.0874658027237574e-06
-1.4007746259543808e-06   -7.422398807485832e-08   3.0874658027237574e-06
-1.4007746259543808e-06   -7.422398807485832e-08   3.0874658027237574e-06
-1.0688295287192108e-06   -6.10216545343149e-07   3.31911209708804e-06
-1.0688295287192108e-06   -6.10216545343149e-07   3.31911209708804e-06
-1.0688295287192108e-06   -6.10216545343149e-07   3.31911209708804e-06
-1.0688295287192108e-06   -6.10216545343149e-07   3.31911209708804e-06
-1.064974799452816e-06   -1.3050949503023155e-07   2.8599155248428888e-06
-1.064974799452816e-06   -1.3050949503023155e-07   2.8599155248428888e-06
-1.064974799452816e-06   -1.3050949503023155e-07   2.8599155248428888e-06
-1.064974799452816e-06   -1.3050949503023155e-07   2.8599155248428888e-06
-1.4053522612612818e-06   -6.271191520242314e-07   3.725177088720047e-06
-1.4053522612612818e-06   -6.271191520242314e-07   3.725177088720047e-06
-1.4053522612612818e-06   -6.271191520242314e-07   3.725177088720047e-06
-1.4053522612612818e-06   -6.271191520242314e-07   3.725177088720047e-06
-1.2159085297413978e-06   -3.391202591260603e-07   3.236638200448002e-06
-1.2159085297413978e-06   -3.391202591260603e-07   3.236638200448002e-06
-1.2159085297413978e-06   -3.391202591260603e-07   3.236638200448002e-06
-1.2159085297413978e-06   -3.391202591260603e-07   3.236638200448002e-06
-1.059682544473568e-06   1.583991372899265e-07   2.149949057710332e-06
-1.059682544473568e-06   1.583991372899265e-07   2.149949057710332e-06
-1.059682544473568e-06   1.583991372899265e-07   2.149949057710332e-06
-1.059682544473568e-06   1.583991372899265e-07   2.149949057710332e-06
-9.472559243106028e-07   -2.5401284952514936e-07   2.0898795658928875e-06
-9.472559243106028e-07   -2.5401284952514936e-07   2.0898795658928875e-06
-9.472559243106028e-07   -2.5401284952514936e-07   2.0898795658928875e-06
-9.472559243106028e-07   -2.5401284952514936e-07   2.0898795658928875e-06
-9.409332626150911e-07   9.319937414844408e-08   1.943145884985561e-06
-9.409332626150911e-07   9.319937414844408e-08   1.943145884985561e-06
-9.409332626150911e-07   9.319937414844408e-08   1.943145884985561e-06
-9.409332626150911e-07   9.319937414844408e-08   1.943145884985561e-06
-1.0623963441183966e-06   -2.9222552929232727e-07   2.3768392962222014e-06
-1.0623963441183966e-06   -2.9222552929232727e-07   2.3768392962222014e-06
-1.0623963441183966e-06   -2.9222552929232727e-07   2.3768392962222014e-06
-1.0623963441183966e-06   -2.9222552929232727e-07   2.3768392962222014e-06
-9.958780557299855e-07   -5.884185436907149e-08   2.1259452772875678e-06
-9.958780557299855e-07   -5.884185436907149e-08   2.1259452772875678e-06
-9.958780557299855e-07   -5.884185436907149e-08   2.1259452772875678e-06
-9.958780557299855e-07   -5.884185436907149e-08   2.1259452772875678e-06
-1.062396344118398e-06   9.319937414843425e-08   2.174400827050001e-06
-1.062396344118398e-06   9.319937414843425e-08   2.174400827050001e-06
-1.062396344118398e-06   9.319937414843425e-08   2.174400827050001e-06
-1.062396344118398e-06   9.319937414843425e-08   2.174400827050001e-06
-9.409332626150843e-07   -2.9222552929232727e-07   2.1455843541577447e-06
-9.409332626150843e-07   -2.9222552929232727e-07   2.1455843541577447e-06
-9.409332626150843e-07   -2.9222552929232727e-07   2.1455843541577447e-06
-9.409332626150843e-07   -2.9222552929232727e-07   2.1455843541577447e-06
-9.462223443877481e-07   3.676312629116046e-08   2.0311317155419104e-06
-9.462223443877481e-07   3.676312629116046e-08   2.0311317155419104e-06
-9.462223443877481e-07   3.676312629116046e-08   2.0311317155419104e-06
-9.462223443877481e-07   3.676312629116046e-08   2.0311317155419104e-06
-1.0688295287192112e-06   -3.2251609862184123e-07   2.451044557708808e-06
-1.0688295287192112e-06   -3.2251609862184123e-07   2.451044557708808e-06
-1.0688295287192112e-06   -3.2251609862184123e-07   2.451044557708808e-06
-1.0688295287192112e-06   -3.2251609862184123e-07   2.451044557708808e-06
-9.891475310818904e-07   -9.652582373471301e-08   2.1826470633809584e-06
-9.891475310818904e-07   -9.652582373471301e-08   2.1826470633809584e-06
-9.891475310818904e-07   -9.652582373471301e-08   2.1826470633809584e-06
-9.891475310818904e-07   -9.652582373471301e-08   2.1826470633809584e-06
-1.0688295287192108e-06   3.676312629115388e-08   2.2466992504897236e-06
-1.0688295287192108e-06   3.676312629115388e-08   2.2466992504897236e-06
-1.0688295287192108e-06   3.676312629115388e-08   2.2466992504897236e-06
-1.0688295287192108e-06   3.676312629115388e-08   2.2466992504897236e-06
-9.462223443877481e-07   -3.2251609862184123e-07   2.2354770227610048e-06
-9.462223443877481e-07   -3.2251609862184123e-07   2.2354770227610048e-06
-9.462223443877481e-07   -3.2251609862184123e-07   2.2354770227610048e-06
-9.462223443877481e-07   -3.2251609862184123e-07   2.2354770227610048e-06
-9.460574559222906e-07   -2.0525934501736055e-08   2.141583044898784e-06
-9.460574559222906e-07   -2.0525934501736055e-08   2.141583044898784e-06
-9.460574559222906e-07   -2.0525934501736055e-08   2.141583044898784e-06
-9.460574559222906e-07   -2.0525934501736055e-08   2.141583044898784e-06
-1.0649747994528125e-06   -3.609576780418388e-07   2.5440376635737044e-06
-1.0649747994528125e-06   -3.609576780418388e-07   2.5440376635737044e-06
-1.0649747994528125e-06   -3.609576780418388e-07   2.5440376635737044e-06
-1.0649747994528125e-06   -3.609576780418388e-07   2.5440376635737044e-06
-9.88948034142641e-07   -1.3085451481468884e-07   2.2792644901204753e-06
-9.88948034142641e-07   -1.3085451481468884e-07   2.2792644901204753e-06
-9.88948034142641e-07   -1.3085451481468884e-07   2.2792644901204753e-06
-9.88948034142641e-07   -1.3085451481468884e-07   2.2792644901204753e-06
-9.47255924310596e-07   2.747932511631248e-07   5.888930524317032e-07
-9.47255924310596e-07   2.747932511631248e-07   5.888930524317032e-07
-9.47255924310596e-07   2.747932511631248e-07   5.888930524317032e-07
-9.47255924310596e-07   2.747932511631248e-07   5.888930524317032e-07
-6.464971455904758e-07   -1.9559864899511596e-08   9.135458139943191e-07
-6.464971455904758e-07   -1.9559864899511596e-08   9.135458139943191e-07
-6.464971455904758e-07   -1.9559864899511596e-08   9.135458139943191e-07
-6.464971455904758e-07   -1.9559864899511596e-08   9.135458139943191e-07
-6.942281648148043e-07   2.2691369805262344e-07   5.98565574719853e-07
-6.942281648148043e-07   2.2691369805262344e-07   5.98565574719853e-07
-6.942281648148043e-07   2.2691369805262344e-07   5.98565574719853e-07
-6.942281648148043e-07   2.2691369805262344e-07   5.98565574719853e-07
-9.40933262615092e-07   -3.098292059294517e-08   1.1644787089076558e-06
-9.40933262615092e-07   -3.098292059294517e-08   1.1644787089076558e-06
-9.40933262615092e-07   -3.098292059294517e-08   1.1644787089076558e-06
-9.40933262615092e-07   -3.098292059294517e-08   1.1644787089076558e-06
-7.791822545150059e-07   1.4347004860438444e-07   7.902219138891041e-07
-7.791822545150059e-07   1.4347004860438444e-07   7.902219138891041e-07
-7.791822545150059e-07   1.4347004860438444e-07   7.902219138891041e-07
-7.791822545150059e-07   1.4347004860438444e-07   7.902219138891041e-07
-9.409332626150911e-07   2.269136980526168e-07   7.533035459071305e-07
-9.409332626150911e-07   2.269136980526168e-07   7.533035459071305e-07
-9.409332626150911e-07   2.269136980526168e-07   7.533035459071305e-07
-9.409332626150911e-07   2.269136980526168e-07   7.533035459071305e-07
-6.942281648148043e-07   -3.098292059294517e-08   1.0097407377203174e-06
-6.942281648148043e-07   -3.098292059294517e-08   1.0097407377203174e-06
-6.942281648148043e-07   -3.098292059294517e-08   1.0097407377203174e-06
-6.942281648148043e-07   -3.098292059294517e-08   1.0097407377203174e-06
-7.352168267526235e-07   1.9604375801814686e-07   7.4783254409814e-07
-7.352168267526235e-07   1.9604375801814686e-07   7.4783254409814e-07
-7.352168267526235e-07   1.9604375801814686e-07   7.4783254409814e-07
-7.352168267526235e-07   1.9604375801814686e-07   7.4783254409814e-07
-9.462223443877448e-07   -4.52138305023062e-08   1.244262959935636e-06
-9.462223443877448e-07   -4.52138305023062e-08   1.244262959935636e-06
-9.462223443877448e-07   -4.52138305023062e-08   1.244262959935636e-06
-9.462223443877448e-07   -4.52138305023062e-08   1.244262959935636e-06
-8.075239152885701e-07   1.2205531154102901e-07   9.127374262110042e-07
-8.075239152885701e-07   1.2205531154102901e-07   9.127374262110042e-07
-8.075239152885701e-07   1.2205531154102901e-07   9.127374262110042e-07
-8.075239152885701e-07   1.2205531154102901e-07   9.127374262110042e-07
-9.462223443877481e-07   1.9604375801814556e-07   8.925870972104579e-07
-9.462223443877481e-07   1.9604375801814556e-07   8.925870972104579e-07
-9.462223443877481e-07   1.9604375801814556e-07   8.925870972104579e-07
-9.462223443877481e-07   1.9604375801814556e-07   8.925870972104579e-07
-7.352168267526235e-07   -4.52138305023062e-08   1.0995084068233588e-06
-7.352168267526235e-07   -4.52138305023062e-08   1.0995084068233588e-06
-7.352168267526235e-07   -4.52138305023062e-08   1.0995084068233588e-06
-7.352168267526235e-07   -4.52138305023062e-08   1.0995084068233588e-06
-8.120417596722091e-07   1.2888554054023868e-07   1.0160728022603463e-06
-8.120417596722091e-07   1.2888554054023868e-07   1.0160728022603463e-06
-8.120417596722091e-07   1.2888554054023868e-07   1.0160728022603463e-06
-8.120417596722091e-07   1.2888554054023868e-07   1.0160728022603463e-06
-9.460574559222846e-07   -6.666572288370237e-08   1.3567630540648043e-06
-9.460574559222846e-07   -6.666572288370237e-08   1.3567630540648043e-06
-9.460574559222846e-07   -6.666572288370237e-08   1.3567630540648043e-06
-9.460574559222846e-07   -6.666572288370237e-08   1.3567630540648043e-06
-8.215270537276823e-07   1.0535551931431866e-07   1.0459996384216009e-06
-8.215270537276823e-07   1.0535551931431866e-07   1.0459996384216009e-06
-8.215270537276823e-07   1.0535551931431866e-07   1.0459996384216009e-06
-8.215270537276823e-07   1.0535551931431866e-07   1.0459996384216009e-06
-7.670263122318162e-06   5.509457759126087e-07   3.904831378358344e-06
-7.670263122318162e-06   5.509457759126087e-07   3.904831378358344e-06
-7.670263122318162e-06   5.509457759126087e-07   3.904831378358344e-06
-7.670263122318162e-06   5.509457759126087e-07   3.904831378358344e-06
-1.732017468793353e-06   -4.505637545754391e-06   1.0767957474566165e-05
-1.732017468793353e-06   -4.505637545754391e-06   1.0767957474566165e-05
-1.732017468793353e-06   -4.505637545754391e-06   1.0767957474566165e-05
-1.732017468793353e-06   -4.505637545754391e-06   1.0767957474566165e-05
-2.0816444108328067e-06   1.7619999223301291e-07   2.081349586041702e-06
-2.0816444108328067e-06   1.7619999223301291e-07   2.081349586041702e-06
-2.0816444108328067e-06   1.7619999223301291e-07   2.081349586041702e-06
-2.0816444108328067e-06   1.7619999223301291e-07   2.081349586041702e-06
-6.99600079583296e-06   -3.6164232013903513e-06   1.2547517477215958e-05
-6.99600079583296e-06   -3.6164232013903513e-06   1.2547517477215958e-05
-6.99600079583296e-06   -3.6164232013903513e-06   1.2547517477215958e-05
-6.99600079583296e-06   -3.6164232013903513e-06   1.2547517477215958e-05
-4.645784546021458e-06   -1.7953542221744557e-06   7.53784900666725e-06
-4.645784546021458e-06   -1.7953542221744557e-06   7.53784900666725e-06
-4.645784546021458e-06   -1.7953542221744557e-06   7.53784900666725e-06
-4.645784546021458e-06   -1.7953542221744557e-06   7.53784900666725e-06
-6.996000795832948e-06   1.7619999223301376e-07   4.356923502215713e-06
-6.996000795832948e-06   1.7619999223301376e-07   4.356923502215713e-06
-6.996000795832948e-06   1.7619999223301376e-07   4.356923502215713e-06
-6.996000795832948e-06   1.7619999223301376e-07   4.356923502215713e-06
-2.08164441083281e-06   -3.6164232013903513e-06   1.0271943561041942e-05
-2.08164441083281e-06   -3.6164232013903513e-06   1.0271943561041942e-05
-2.08164441083281e-06   -3.6164232013903513e-06   1.0271943561041942e-05
-2.08164441083281e-06   -3.6164232013903513e-06   1.0271943561041942e-05
-2.153056179122846e-06   1.097560306703073e-07   2.2915396112281803e-06
-2.153056179122846e-06   1.097560306703073e-07   2.2915396112281803e-06
-2.153056179122846e-06   1.097560306703073e-07   2.2915396112281803e-06
-2.153056179122846e-06   1.097560306703073e-07   2.2915396112281803e-06
-6.606286520005236e-06   -3.2032137861835227e-06   1.1701372069477774e-05
-6.606286520005236e-06   -3.2032137861835227e-06   1.1701372069477774e-05
-6.606286520005236e-06   -3.2032137861835227e-06   1.1701372069477774e-05
-6.606286520005236e-06   -3.2032137861835227e-06   1.1701372069477774e-05
-4.525975467252165e-06   -1.7130447316649921e-06   7.340085548844875e-06
-4.525975467252165e-06   -1.7130447316649921e-06   7.340085548844875e-06
-4.525975467252165e-06   -1.7130447316649921e-06   7.340085548844875e-06
-4.525975467252165e-06   -1.7130447316649921e-06   7.340085548844875e-06
-6.606286520005225e-06   1.0975603067030439e-07   4.279321501340471e-06
-6.606286520005225e-06   1.0975603067030439e-07   4.279321501340471e-06
-6.606286520005225e-06   1.0975603067030439e-07   4.279321501340471e-06
-6.606286520005225e-06   1.0975603067030439e-07   4.279321501340471e-06
-2.1530561791228496e-06   -3.2032137861835227e-06   9.713590179365478e-06
-2.1530561791228496e-06   -3.2032137861835227e-06   9.713590179365478e-06
-2.1530561791228496e-06   -3.2032137861835227e-06   9.713590179365478e-06
-2.1530561791228496e-06   -3.2032137861835227e-06   9.713590179365478e-06
-2.408105193065116e-06   -1.8266313616861638e-07   2.8467898550672626e-06
-2.408105193065116e-06   -1.8266313616861638e-07   2.8467898550672626e-06
-2.408105193065116e-06   -1.8266313616861638e-07   2.8467898550672626e-06
-2.408105193065116e-06   -1.8266313616861638e-07   2.8467898550672626e-06
-6.098588996662303e-06   -2.6446857183591076e-06   1.0474809743710184e-05
-6.098588996662303e-06   -2.6446857183591076e-06   1.0474809743710184e-05
-6.098588996662303e-06   -2.6446857183591076e-06   1.0474809743710184e-05
-6.098588996662303e-06   -2.6446857183591076e-06   1.0474809743710184e-05
-4.378868527440179e-06   -1.5866947276851408e-06   6.973814367268938e-06
-4.378868527440179e-06   -1.5866947276851408e-06   6.973814367268938e-06
-4.378868527440179e-06   -1.5866947276851408e-06   6.973814367268938e-06
-4.378868527440179e-06   -1.5866947276851408e-06   6.973814367268938e-06
-1.7320174687933496e-06   -7.732582474599707e-07   2.3375025158462647e-06
-1.7320174687933496e-06   -7.732582474599707e-07   2.3375025158462647e-06
-1.7320174687933496e-06   -7.732582474599707e-07   2.3375025158462647e-06
-1.7320174687933496e-06   -7.732582474599707e-07   2.3375025158462647e-06
-5.82510352357853e-07   -1.6060034474672597e-06   3.753700589901057e-06
-5.82510352357853e-07   -1.6060034474672597e-06   3.753700589901057e-06
-5.82510352357853e-07   -1.6060034474672597e-06   3.753700589901057e-06
-5.82510352357853e-07   -1.6060034474672597e-06   3.753700589901057e-06
-6.793537423215963e-07   -6.48113872980711e-07   1.9558124130328878e-06
-6.793537423215963e-07   -6.48113872980711e-07   1.9558124130328878e-06
-6.793537423215963e-07   -6.48113872980711e-07   1.9558124130328878e-06
-6.793537423215963e-07   -6.48113872980711e-07   1.9558124130328878e-06
-2.0816444108328105e-06   -2.0418336245506355e-06   5.12919537816018e-06
-2.0816444108328105e-06   -2.0418336245506355e-06   5.12919537816018e-06
-2.0816444108328105e-06   -2.0418336245506355e-06   5.12919537816018e-06
-2.0816444108328105e-06   -2.0418336245506355e-06   5.12919537816018e-06
-1.20229432076995e-06   -1.0381813814190727e-06   3.061420548843132e-06
-1.20229432076995e-06   -1.0381813814190727e-06   3.061420548843132e-06
-1.20229432076995e-06   -1.0381813814190727e-06   3.061420548843132e-06
-1.20229432076995e-06   -1.0381813814190727e-06   3.061420548843132e-06
-2.081644410832805e-06   -6.481138729807094e-07   2.792044263974816e-06
-2.081644410832805e-06   -6.481138729807094e-07   2.792044263974816e-06
-2.081644410832805e-06   -6.481138729807094e-07   2.792044263974816e-06
-2.081644410832805e-06   -6.481138729807094e-07   2.792044263974816e-06
-6.793537423215997e-07   -2.0418336245506355e-06   4.292963527218224e-06
-6.793537423215997e-07   -2.0418336245506355e-06   4.292963527218224e-06
-6.793537423215997e-07   -2.0418336245506355e-06   4.292963527218224e-06
-6.793537423215997e-07   -2.0418336245506355e-06   4.292963527218224e-06
-7.645229189743822e-07   -6.577978906545926e-07   2.202665470623875e-06
-7.645229189743822e-07   -6.577978906545926e-07   2.202665470623875e-06
-7.645229189743822e-07   -6.577978906545926e-07   2.202665470623875e-06
-7.645229189743822e-07   -6.577978906545926e-07   2.202665470623875e-06
-2.1530561791228504e-06   -1.915883022377509e-06   5.271738649905056e-06
-2.1530561791228504e-06   -1.915883022377509e-06   5.271738649905056e-06
-2.1530561791228504e-06   -1.915883022377509e-06   5.271738649905056e-06
-2.1530561791228504e-06   -1.915883022377509e-06   5.271738649905056e-06
-1.3879459665289593e-06   -1.2417095939840802e-06   3.592050905212539e-06
-1.3879459665289593e-06   -1.2417095939840802e-06   3.592050905212539e-06
-1.3879459665289593e-06   -1.2417095939840802e-06   3.592050905212539e-06
-1.3879459665289593e-06   -1.2417095939840802e-06   3.592050905212539e-06
-2.1530561791228496e-06   -6.57797890654592e-07   2.9575165496576235e-06
-2.1530561791228496e-06   -6.57797890654592e-07   2.9575165496576235e-06
-2.1530561791228496e-06   -6.57797890654592e-07   2.9575165496576235e-06
-2.1530561791228496e-06   -6.57797890654592e-07   2.9575165496576235e-06
-7.645229189743822e-07   -1.915883022377509e-06   4.516887570871304e-06
-7.645229189743822e-07   -1.915883022377509e-06   4.516887570871304e-06
-7.645229189743822e-07   -1.915883022377509e-06   4.516887570871304e-06
-7.645229189743822e-07   -1.915883022377509e-06   4.516887570871304e-06
-9.078544617467088e-07   -6.497492880795736e-07   2.4346549172810417e-06
-9.078544617467088e-07   -6.497492880795736e-07   2.4346549172810417e-06
-9.078544617467088e-07   -6.497492880795736e-07   2.4346549172810417e-06
-9.078544617467088e-07   -6.497492880795736e-07   2.4346549172810417e-06
-2.4081051930651127e-06   -1.8312966963634157e-06   5.644001247782009e-06
-2.4081051930651127e-06   -1.8312966963634157e-06   5.644001247782009e-06
-2.4081051930651127e-06   -1.8312966963634157e-06   5.644001247782009e-06
-2.4081051930651127e-06   -1.8312966963634157e-06   5.644001247782009e-06
-1.512883020713391e-06   -1.1383035600180697e-06   3.7361684120552732e-06
-1.512883020713391e-06   -1.1383035600180697e-06   3.7361684120552732e-06
-1.512883020713391e-06   -1.1383035600180697e-06   3.7361684120552732e-06
-1.512883020713391e-06   -1.1383035600180697e-06   3.7361684120552732e-06
-5.82510352357853e-07   -6.057075654229911e-07   1.3549538554168128e-06
-5.82510352357853e-07   -6.057075654229911e-07   1.3549538554168128e-06
-5.82510352357853e-07   -6.057075654229911e-07   1.3549538554168128e-06
-5.82510352357853e-07   -6.057075654229911e-07   1.3549538554168128e-06
-3.378802543867158e-07   -5.670278578502063e-07   1.7858785099123764e-06
-3.378802543867158e-07   -5.670278578502063e-07   1.7858785099123764e-06
-3.378802543867158e-07   -5.670278578502063e-07   1.7858785099123764e-06
-3.378802543867158e-07   -5.670278578502063e-07   1.7858785099123764e-06
-3.3963990923189044e-07   -5.949448932701011e-07   1.4242913254488502e-06
-3.3963990923189044e-07   -5.949448932701011e-07   1.4242913254488502e-06
-3.3963990923189044e-07   -5.949448932701011e-07   1.4242913254488502e-06
-3.3963990923189044e-07   -5.949448932701011e-07   1.4242913254488502e-06
-6.793537423215995e-07   -7.033522454078347e-07   2.0555254585476516e-06
-6.793537423215995e-07   -7.033522454078347e-07   2.0555254585476516e-06
-6.793537423215995e-07   -7.033522454078347e-07   2.0555254585476516e-06
-6.793537423215995e-07   -7.033522454078347e-07   2.0555254585476516e-06
-4.527563867702404e-07   -5.656526266105009e-07   1.5952434280169754e-06
-4.527563867702404e-07   -5.656526266105009e-07   1.5952434280169754e-06
-4.527563867702404e-07   -5.656526266105009e-07   1.5952434280169754e-06
-4.527563867702404e-07   -5.656526266105009e-07   1.5952434280169754e-06
-6.793537423215997e-07   -5.949448932701017e-07   1.4893357367314887e-06
-6.793537423215997e-07   -5.949448932701017e-07   1.4893357367314887e-06
-6.793537423215997e-07   -5.949448932701017e-07   1.4893357367314887e-06
-6.793537423215997e-07   -5.949448932701017e-07   1.4893357367314887e-06
-3.3963990923189044e-07   -7.03352245407833e-07   1.9904810472650097e-06
-3.3963990923189044e-07   -7.03352245407833e-07   1.9904810472650097e-06
-3.3963990923189044e-07   -7.03352245407833e-07   1.9904810472650097e-06
-3.3963990923189044e-07   -7.03352245407833e-07   1.9904810472650097e-06
-3.554834925248852e-07   -6.10216545343149e-07   1.5328090655683372e-06
-3.554834925248852e-07   -6.10216545343149e-07   1.5328090655683372e-06
-3.554834925248852e-07   -6.10216545343149e-07   1.5328090655683372e-06
-3.554834925248852e-07   -6.10216545343149e-07   1.5328090655683372e-06
-7.645229189743819e-07   -8.563499774206036e-07   2.362221502230615e-06
-7.645229189743819e-07   -8.563499774206036e-07   2.362221502230615e-06
-7.645229189743819e-07   -8.563499774206036e-07   2.362221502230615e-06
-7.645229189743819e-07   -8.563499774206036e-07   2.362221502230615e-06
-4.989908199009187e-07   -6.175412717268219e-07   1.7763827803585756e-06
-4.989908199009187e-07   -6.175412717268219e-07   1.7763827803585756e-06
-4.989908199009187e-07   -6.175412717268219e-07   1.7763827803585756e-06
-4.989908199009187e-07   -6.175412717268219e-07   1.7763827803585756e-06
-7.645229189743788e-07   -6.102165453431495e-07   1.680489124814796e-06
-7.645229189743788e-07   -6.102165453431495e-07   1.680489124814796e-06
-7.645229189743788e-07   -6.102165453431495e-07   1.680489124814796e-06
-7.645229189743788e-07   -6.102165453431495e-07   1.680489124814796e-06
-3.554834925248852e-07   -8.563499774206036e-07   2.2145414429841395e-06
-3.554834925248852e-07   -8.563499774206036e-07   2.2145414429841395e-06
-3.554834925248852e-07   -8.563499774206036e-07   2.2145414429841395e-06
-3.554834925248852e-07   -8.563499774206036e-07   2.2145414429841395e-06
-3.884566747482866e-07   -6.271191520242314e-07   1.7011123710187158e-06
-3.884566747482866e-07   -6.271191520242314e-07   1.7011123710187158e-06
-3.884566747482866e-07   -6.271191520242314e-07   1.7011123710187158e-06
-3.884566747482866e-07   -6.271191520242314e-07   1.7011123710187158e-06
-9.078544617467103e-07   -9.99452072376691e-07   2.790175101560874e-06
-9.078544617467103e-07   -9.99452072376691e-07   2.790175101560874e-06
-9.078544617467103e-07   -9.99452072376691e-07   2.790175101560874e-06
-9.078544617467103e-07   -9.99452072376691e-07   2.790175101560874e-06
-5.553074316124844e-07   -6.603217136494546e-07   1.9991185027674936e-06
-5.553074316124844e-07   -6.603217136494546e-07   1.9991185027674936e-06
-5.553074316124844e-07   -6.603217136494546e-07   1.9991185027674936e-06
-5.553074316124844e-07   -6.603217136494546e-07   1.9991185027674936e-06
-3.378802543867158e-07   -2.540128495251505e-07   5.169761355051796e-07
-3.378802543867158e-07   -2.540128495251505e-07   5.169761355051796e-07
-3.378802543867158e-07   -2.540128495251505e-07   5.169761355051796e-07
-3.378802543867158e-07   -2.540128495251505e-07   5.169761355051796e-07
-2.7993152970812884e-07   -3.7555432528206755e-08   7.434317935009954e-07
-2.7993152970812884e-07   -3.7555432528206755e-08   7.434317935009954e-07
-2.7993152970812884e-07   -3.7555432528206755e-08   7.434317935009954e-07
-2.7993152970812884e-07   -3.7555432528206755e-08   7.434317935009954e-07
-2.392112480711079e-07   -2.9222552929232727e-07   6.823714673447496e-07
-2.392112480711079e-07   -2.9222552929232727e-07   6.823714673447496e-07
-2.392112480711079e-07   -2.9222552929232727e-07   6.823714673447496e-07
-2.392112480711079e-07   -2.9222552929232727e-07   6.823714673447496e-07
-3.3963990923188933e-07   -9.694568792855998e-08   7.32584664461111e-07
-3.3963990923188933e-07   -9.694568792855998e-08   7.32584664461111e-07
-3.3963990923188933e-07   -9.694568792855998e-08   7.32584664461111e-07
-3.3963990923188933e-07   -9.694568792855998e-08   7.32584664461111e-07
-2.795976727443995e-07   -1.6014551977720272e-07   6.704341694244441e-07
-2.795976727443995e-07   -1.6014551977720272e-07   6.704341694244441e-07
-2.795976727443995e-07   -1.6014551977720272e-07   6.704341694244441e-07
-2.795976727443995e-07   -1.6014551977720272e-07   6.704341694244441e-07
-3.3963990923189044e-07   -2.922255292923263e-07   5.652035625264904e-07
-3.3963990923189044e-07   -2.922255292923263e-07   5.652035625264904e-07
-3.3963990923189044e-07   -2.922255292923263e-07   5.652035625264904e-07
-3.3963990923189044e-07   -2.922255292923263e-07   5.652035625264904e-07
-2.392112480711011e-07   -9.694568792855998e-08   8.497525692793668e-07
-2.392112480711011e-07   -9.694568792855998e-08   8.497525692793668e-07
-2.392112480711011e-07   -9.694568792855998e-08   8.497525692793668e-07
-2.392112480711011e-07   -9.694568792855998e-08   8.497525692793668e-07
-2.223214136835497e-07   -3.2251609862184123e-07   7.509722834751851e-07
-2.223214136835497e-07   -3.2251609862184123e-07   7.509722834751851e-07
-2.223214136835497e-07   -3.2251609862184123e-07   7.509722834751851e-07
-2.223214136835497e-07   -3.2251609862184123e-07   7.509722834751851e-07
-3.5548349252488357e-07   -1.7879816981169337e-07   8.866783242579606e-07
-3.5548349252488357e-07   -1.7879816981169337e-07   8.866783242579606e-07
-3.5548349252488357e-07   -1.7879816981169337e-07   8.866783242579606e-07
-3.5548349252488357e-07   -1.7879816981169337e-07   8.866783242579606e-07
-2.652467968724601e-07   -1.962687259033387e-07   7.467661651589137e-07
-2.652467968724601e-07   -1.962687259033387e-07   7.467661651589137e-07
-2.652467968724601e-07   -1.962687259033387e-07   7.467661651589137e-07
-2.652467968724601e-07   -1.962687259033387e-07   7.467661651589137e-07
-3.554834925248852e-07   -3.22516098621844e-07   6.647415261890906e-07
-3.554834925248852e-07   -3.22516098621844e-07   6.647415261890906e-07
-3.554834925248852e-07   -3.22516098621844e-07   6.647415261890906e-07
-3.554834925248852e-07   -3.22516098621844e-07   6.647415261890906e-07
-2.223214136835497e-07   -1.7879816981169337e-07   9.729090815440415e-07
-2.223214136835497e-07   -1.7879816981169337e-07   9.729090815440415e-07
-2.223214136835497e-07   -1.7879816981169337e-07   9.729090815440415e-07
-2.223214136835497e-07   -1.7879816981169337e-07   9.729090815440415e-07
-1.9720127591216815e-07   -3.6095767804184556e-07   8.356034911025648e-07
-1.9720127591216815e-07   -3.6095767804184556e-07   8.356034911025648e-07
-1.9720127591216815e-07   -3.6095767804184556e-07   8.356034911025648e-07
-1.9720127591216815e-07   -3.6095767804184556e-07   8.356034911025648e-07
-3.8845667474828635e-07   -3.315164263188734e-07   1.136697738128963e-06
-3.8845667474828635e-07   -3.315164263188734e-07   1.136697738128963e-06
-3.8845667474828635e-07   -3.315164263188734e-07   1.136697738128963e-06
-3.8845667474828635e-07   -3.315164263188734e-07   1.136697738128963e-06
-2.5969184644088826e-07   -2.4560341139739526e-07   8.705418819970884e-07
-2.5969184644088826e-07   -2.4560341139739526e-07   8.705418819970884e-07
-2.5969184644088826e-07   -2.4560341139739526e-07   8.705418819970884e-07
-2.5969184644088826e-07   -2.4560341139739526e-07   8.705418819970884e-07
-2.7993152970812884e-07   -1.955986489951146e-08   -3.5287129655765483e-07
-2.7993152970812884e-07   -1.955986489951146e-08   -3.5287129655765483e-07
-2.7993152970812884e-07   -1.955986489951146e-08   -3.5287129655765483e-07
-2.7993152970812884e-07   -1.955986489951146e-08   -3.5287129655765483e-07
-8.27466913139131e-08   2.774701614570242e-08   4.154229393181453e-09
-8.27466913139131e-08   2.774701614570242e-08   4.154229393181453e-09
-8.27466913139131e-08   2.774701614570242e-08   4.154229393181453e-09
-8.27466913139131e-08   2.774701614570242e-08   4.154229393181453e-09
-4.3890224555190945e-08   -3.098292059294517e-08   -2.542671344324686e-07
-4.3890224555190945e-08   -3.098292059294517e-08   -2.542671344324686e-07
-4.3890224555190945e-08   -3.098292059294517e-08   -2.542671344324686e-07
-4.3890224555190945e-08   -3.098292059294517e-08   -2.542671344324686e-07
-2.3921124807110334e-07   4.312881852849667e-08   2.680086128781158e-08
-2.3921124807110334e-07   4.312881852849667e-08   2.680086128781158e-08
-2.3921124807110334e-07   4.312881852849667e-08   2.680086128781158e-08
-2.3921124807110334e-07   4.312881852849667e-08   2.680086128781158e-08
-1.473779275438819e-07   1.6529437947558525e-08   -1.102950445757095e-07
-1.473779275438819e-07   1.6529437947558525e-08   -1.102950445757095e-07
-1.473779275438819e-07   1.6529437947558525e-08   -1.102950445757095e-07
-1.473779275438819e-07   1.6529437947558525e-08   -1.102950445757095e-07
-2.392112480711079e-07   -3.0982920592944703e-08   -2.987341779053664e-07
-2.392112480711079e-07   -3.0982920592944703e-08   -2.987341779053664e-07
-2.392112480711079e-07   -3.0982920592944703e-08   -2.987341779053664e-07
-2.392112480711079e-07   -3.0982920592944703e-08   -2.987341779053664e-07
-4.38902245552045e-08   4.312881852849667e-08   7.126790476067889e-08
-4.38902245552045e-08   4.312881852849667e-08   7.126790476067889e-08
-4.38902245552045e-08   4.312881852849667e-08   7.126790476067889e-08
-4.38902245552045e-08   4.312881852849667e-08   7.126790476067889e-08
-2.9247455537624047e-08   -4.52138305023062e-08   -1.990425346416508e-07
-2.9247455537624047e-08   -4.52138305023062e-08   -1.990425346416508e-07
-2.9247455537624047e-08   -4.52138305023062e-08   -1.990425346416508e-07
-2.9247455537624047e-08   -4.52138305023062e-08   -1.990425346416508e-07
-2.2232141368355184e-07   2.3451577345282676e-08   8.154815089299078e-08
-2.2232141368355184e-07   2.3451577345282676e-08   8.154815089299078e-08
-2.2232141368355184e-07   2.3451577345282676e-08   8.154815089299078e-08
-2.2232141368355184e-07   2.3451577345282676e-08   8.154815089299078e-08
-1.2152801249165677e-07   9.696495748031503e-09   -7.818780213507122e-08
-1.2152801249165677e-07   9.696495748031503e-09   -7.818780213507122e-08
-1.2152801249165677e-07   9.696495748031503e-09   -7.818780213507122e-08
-1.2152801249165677e-07   9.696495748031503e-09   -7.818780213507122e-08
-2.223214136835497e-07   -4.5213830502309466e-08   -2.4024177935020056e-07
-2.223214136835497e-07   -4.5213830502309466e-08   -2.4024177935020056e-07
-2.223214136835497e-07   -4.5213830502309466e-08   -2.4024177935020056e-07
-2.223214136835497e-07   -4.5213830502309466e-08   -2.4024177935020056e-07
-2.9247455537624047e-08   2.3451577345282676e-08   1.227473956015541e-07
-2.9247455537624047e-08   2.3451577345282676e-08   1.227473956015541e-07
-2.9247455537624047e-08   2.3451577345282676e-08   1.227473956015541e-07
-2.9247455537624047e-08   2.3451577345282676e-08   1.227473956015541e-07
-1.4791397508198884e-08   -6.666572288370237e-08   -1.108149270843072e-07
-1.4791397508198884e-08   -6.666572288370237e-08   -1.108149270843072e-07
-1.4791397508198884e-08   -6.666572288370237e-08   -1.108149270843072e-07
-1.4791397508198884e-08   -6.666572288370237e-08   -1.108149270843072e-07
-1.9720127591216998e-07   -5.6704808871038174e-09   1.566043917243206e-07
-1.9720127591216998e-07   -5.6704808871038174e-09   1.566043917243206e-07
-1.9720127591216998e-07   -5.6704808871038174e-09   1.566043917243206e-07
-1.9720127591216998e-07   -5.6704808871038174e-09   1.566043917243206e-07
-9.944631798610195e-08   -1.1676431653295316e-09   -9.022240785554062e-09
-9.944631798610195e-08   -1.1676431653295316e-09   -9.022240785554062e-09
-9.944631798610195e-08   -1.1676431653295316e-09   -9.022240785554062e-09
-9.944631798610195e-08   -1.1676431653295316e-09   -9.022240785554062e-09
              </DataArray>   
             <DataArray type="Float64" NumberOfComponents="3" Name="Stress" format="ascii">   
-0.409141552635244   -0.102285388158811   -0.102285388158811
-0.409141552635244   -0.102285388158811   -0.102285388158811
-0.409141552635244   -0.102285388158811   -0.102285388158811
-0.409141552635244   -0.102285388158811   -0.102285388158811
-0.23636122434023   -0.008342731897108276   -0.005073982425248581
-0.23636122434023   -0.008342731897108276   -0.005073982425248581
-0.23636122434023   -0.008342731897108276   -0.005073982425248581
-0.23636122434023   -0.008342731897108276   -0.005073982425248581
-0.25402187083566236   -0.06350546770891559   -0.06350546770891559
-0.25402187083566236   -0.06350546770891559   -0.06350546770891559
-0.25402187083566236   -0.06350546770891559   -0.06350546770891559
-0.25402187083566236   -0.06350546770891559   -0.06350546770891559
-0.3940015462396831   -0.03302892073662791   -0.012842596875894412
-0.3940015462396831   -0.03302892073662791   -0.012842596875894412
-0.3940015462396831   -0.03302892073662791   -0.012842596875894412
-0.3940015462396831   -0.03302892073662791   -0.012842596875894412
-0.3088086599225668   -0.05102624813811076   -0.00089934866518648
-0.3088086599225668   -0.05102624813811076   -0.00089934866518648
-0.3088086599225668   -0.05102624813811076   -0.00089934866518648
-0.3088086599225668   -0.05102624813811076   -0.00089934866518648
-0.4275858252413103   -0.10689645631032757   -0.10689645631032757
-0.4275858252413103   -0.10689645631032757   -0.10689645631032757
-0.4275858252413103   -0.10689645631032757   -0.10689645631032757
-0.4275858252413103   -0.10689645631032757   -0.10689645631032757
-0.2284713218731222   0.002328337825697628   -0.0015865284308280748
-0.2284713218731222   0.002328337825697628   -0.0015865284308280748
-0.2284713218731222   0.002328337825697628   -0.0015865284308280748
-0.2284713218731222   0.002328337825697628   -0.0015865284308280748
-0.25421344631344034   -0.06355336157836008   -0.06355336157836008
-0.25421344631344034   -0.06355336157836008   -0.06355336157836008
-0.25421344631344034   -0.06355336157836008   -0.06355336157836008
-0.25421344631344034   -0.06355336157836008   -0.06355336157836008
-0.406653780097419   -0.03318088717371245   -0.018746442713411166
-0.406653780097419   -0.03318088717371245   -0.018746442713411166
-0.406653780097419   -0.03318088717371245   -0.018746442713411166
-0.406653780097419   -0.03318088717371245   -0.018746442713411166
-0.31976344916706784   -0.047852594900277406   -0.0169162899368755
-0.31976344916706784   -0.047852594900277406   -0.0169162899368755
-0.31976344916706784   -0.047852594900277406   -0.0169162899368755
-0.31976344916706784   -0.047852594900277406   -0.0169162899368755
-0.44029812679999436   -0.11007453169999859   -0.11007453169999859
-0.44029812679999436   -0.11007453169999859   -0.11007453169999859
-0.44029812679999436   -0.11007453169999859   -0.11007453169999859
-0.44029812679999436   -0.11007453169999859   -0.11007453169999859
-0.22731783857047783   0.006591543988313409   0.000779771569777014
-0.22731783857047783   0.006591543988313409   0.000779771569777014
-0.22731783857047783   0.006591543988313409   0.000779771569777014
-0.22731783857047783   0.006591543988313409   0.000779771569777014
-0.2534882173687622   -0.06337205434219055   -0.06337205434219055
-0.2534882173687622   -0.06337205434219055   -0.06337205434219055
-0.2534882173687622   -0.06337205434219055   -0.06337205434219055
-0.2534882173687622   -0.06337205434219055   -0.06337205434219055
-0.42943415567552823   -0.028723932364362714   -0.01152549696787529
-0.42943415567552823   -0.028723932364362714   -0.01152549696787529
-0.42943415567552823   -0.028723932364362714   -0.01152549696787529
-0.42943415567552823   -0.028723932364362714   -0.01152549696787529
-0.32768694153333766   -0.04694769477467681   -0.030467738512311927
-0.32768694153333766   -0.04694769477467681   -0.030467738512311927
-0.32768694153333766   -0.04694769477467681   -0.030467738512311927
-0.32768694153333766   -0.04694769477467681   -0.030467738512311927
-0.2596420905286212   -0.0649105226321553   -0.0649105226321553
-0.2596420905286212   -0.0649105226321553   -0.0649105226321553
-0.2596420905286212   -0.0649105226321553   -0.0649105226321553
-0.2596420905286212   -0.0649105226321553   -0.0649105226321553
-0.10902540777448688   -0.007816466976689397   -0.00248864136071079
-0.10902540777448688   -0.007816466976689397   -0.00248864136071079
-0.10902540777448688   -0.007816466976689397   -0.00248864136071079
-0.10902540777448688   -0.007816466976689397   -0.00248864136071079
-0.11379609149419956   -0.02844902287354989   -0.02844902287354989
-0.11379609149419956   -0.02844902287354989   -0.02844902287354989
-0.11379609149419956   -0.02844902287354989   -0.02844902287354989
-0.11379609149419956   -0.02844902287354989   -0.02844902287354989
-0.23603012044189275   -0.02809414015235305   -0.008958043296630004
-0.23603012044189275   -0.02809414015235305   -0.008958043296630004
-0.23603012044189275   -0.02809414015235305   -0.008958043296630004
-0.23603012044189275   -0.02809414015235305   -0.008958043296630004
-0.17443975554135824   -0.03323798299186574   0.0012751148364201004
-0.17443975554135824   -0.03323798299186574   0.0012751148364201004
-0.17443975554135824   -0.03323798299186574   0.0012751148364201004
-0.17443975554135824   -0.03323798299186574   0.0012751148364201004
-0.25402187083566213   -0.06350546770891553   -0.06350546770891553
-0.25402187083566213   -0.06350546770891553   -0.06350546770891553
-0.25402187083566213   -0.06350546770891553   -0.06350546770891553
-0.25402187083566213   -0.06350546770891553   -0.06350546770891553
-0.10238530812761949   0.00038133765582305107   -0.00022546657002250284
-0.10238530812761949   0.00038133765582305107   -0.00022546657002250284
-0.10238530812761949   0.00038133765582305107   -0.00022546657002250284
-0.10238530812761949   0.00038133765582305107   -0.00022546657002250284
-0.11074351436110551   -0.027685878590276377   -0.027685878590276377
-0.11074351436110551   -0.027685878590276377   -0.027685878590276377
-0.11074351436110551   -0.027685878590276377   -0.027685878590276377
-0.11074351436110551   -0.027685878590276377   -0.027685878590276377
-0.23492781606039945   -0.022779230881743894   -0.007899341009771813
-0.23492781606039945   -0.022779230881743894   -0.007899341009771813
-0.23492781606039945   -0.022779230881743894   -0.007899341009771813
-0.23492781606039945   -0.022779230881743894   -0.007899341009771813
-0.17150174228240161   -0.027875973464103126   -0.008910621255177133
-0.17150174228240161   -0.027875973464103126   -0.008910621255177133
-0.17150174228240161   -0.027875973464103126   -0.008910621255177133
-0.17150174228240161   -0.027875973464103126   -0.008910621255177133
-0.25421344631344034   -0.06355336157836008   -0.06355336157836008
-0.25421344631344034   -0.06355336157836008   -0.06355336157836008
-0.25421344631344034   -0.06355336157836008   -0.06355336157836008
-0.25421344631344034   -0.06355336157836008   -0.06355336157836008
-0.09783300225978758   0.0067131339546170135   0.0024676693714208494
-0.09783300225978758   0.0067131339546170135   0.0024676693714208494
-0.09783300225978758   0.0067131339546170135   0.0024676693714208494
-0.09783300225978758   0.0067131339546170135   0.0024676693714208494
-0.10787720792811696   -0.02696930198202924   -0.02696930198202924
-0.10787720792811696   -0.02696930198202924   -0.02696930198202924
-0.10787720792811696   -0.02696930198202924   -0.02696930198202924
-0.10787720792811696   -0.02696930198202924   -0.02696930198202924
-0.23264312835921977   -0.01742922370919848   -0.005089439927473748
-0.23264312835921977   -0.01742922370919848   -0.005089439927473748
-0.23264312835921977   -0.01742922370919848   -0.005089439927473748
-0.23264312835921977   -0.01742922370919848   -0.005089439927473748
-0.17180032247207877   -0.024522737536247806   -0.01977490278064243
-0.17180032247207877   -0.024522737536247806   -0.01977490278064243
-0.17180032247207877   -0.024522737536247806   -0.01977490278064243
-0.17180032247207877   -0.024522737536247806   -0.01977490278064243
-0.1188493178966745   -0.029712329474168624   -0.029712329474168624
-0.1188493178966745   -0.029712329474168624   -0.029712329474168624
-0.1188493178966745   -0.029712329474168624   -0.029712329474168624
-0.1188493178966745   -0.029712329474168624   -0.029712329474168624
0.012486146842934953   0.0005432421070391204   0.00012552096069010142
0.012486146842934953   0.0005432421070391204   0.00012552096069010142
0.012486146842934953   0.0005432421070391204   0.00012552096069010142
0.012486146842934953   0.0005432421070391204   0.00012552096069010142
0.01719362787436004   0.00429840696859001   0.00429840696859001
0.01719362787436004   0.00429840696859001   0.00429840696859001
0.01719362787436004   0.00429840696859001   0.00429840696859001
0.01719362787436004   0.00429840696859001   0.00429840696859001
-0.10695173232668272   -0.01847136419475294   -0.004204885714762623
-0.10695173232668272   -0.01847136419475294   -0.004204885714762623
-0.10695173232668272   -0.01847136419475294   -0.004204885714762623
-0.10695173232668272   -0.01847136419475294   -0.004204885714762623
-0.04660182903576686   -0.011787817418469944   0.0075039747898425985
-0.04660182903576686   -0.011787817418469944   0.0075039747898425985
-0.04660182903576686   -0.011787817418469944   0.0075039747898425985
-0.04660182903576686   -0.011787817418469944   0.0075039747898425985
-0.11379609149419977   -0.02844902287354994   -0.02844902287354994
-0.11379609149419977   -0.02844902287354994   -0.02844902287354994
-0.11379609149419977   -0.02844902287354994   -0.02844902287354994
-0.11379609149419977   -0.02844902287354994   -0.02844902287354994
0.017577583585162107   0.007815662190672168   0.0027009303005180807
0.017577583585162107   0.007815662190672168   0.0027009303005180807
0.017577583585162107   0.007815662190672168   0.0027009303005180807
0.017577583585162107   0.007815662190672168   0.0027009303005180807
0.020000748194626612   0.005000187048656653   0.005000187048656653
0.020000748194626612   0.005000187048656653   0.005000187048656653
0.020000748194626612   0.005000187048656653   0.005000187048656653
0.020000748194626612   0.005000187048656653   0.005000187048656653
-0.10268484828980251   -0.012263987242012352   -0.002814439582026175
-0.10268484828980251   -0.012263987242012352   -0.002814439582026175
-0.10268484828980251   -0.012263987242012352   -0.002814439582026175
-0.10268484828980251   -0.012263987242012352   -0.002814439582026175
-0.04419604221353178   -0.007212215049597256   -0.0027284735940224835
-0.04419604221353178   -0.007212215049597256   -0.0027284735940224835
-0.04419604221353178   -0.007212215049597256   -0.0027284735940224835
-0.04419604221353178   -0.007212215049597256   -0.0027284735940224835
-0.11074351436110572   -0.02768587859027643   -0.02768587859027643
-0.11074351436110572   -0.02768587859027643   -0.02768587859027643
-0.11074351436110572   -0.02768587859027643   -0.02768587859027643
-0.11074351436110572   -0.02768587859027643   -0.02768587859027643
0.021730245401028872   0.01409290953202004   0.004554950597304412
0.021730245401028872   0.01409290953202004   0.004554950597304412
0.021730245401028872   0.01409290953202004   0.004554950597304412
0.021730245401028872   0.01409290953202004   0.004554950597304412
0.023603527732223413   0.005900881933055853   0.005900881933055853
0.023603527732223413   0.005900881933055853   0.005900881933055853
0.023603527732223413   0.005900881933055853   0.005900881933055853
0.023603527732223413   0.005900881933055853   0.005900881933055853
-0.09804981103822105   -0.0049027502828251045   0.00010113076824573575
-0.09804981103822105   -0.0049027502828251045   0.00010113076824573575
-0.09804981103822105   -0.0049027502828251045   0.00010113076824573575
-0.09804981103822105   -0.0049027502828251045   0.00010113076824573575
-0.04234683386013037   -0.0028004220961860473   -0.012868777289481046
-0.04234683386013037   -0.0028004220961860473   -0.012868777289481046
-0.04234683386013037   -0.0028004220961860473   -0.012868777289481046
-0.04234683386013037   -0.0028004220961860473   -0.012868777289481046
0.013724882477099035   0.0034312206192747587   0.0034312206192747587
0.013724882477099035   0.0034312206192747587   0.0034312206192747587
0.013724882477099035   0.0034312206192747587   0.0034312206192747587
0.013724882477099035   0.0034312206192747587   0.0034312206192747587
0.14592236126600525   0.013455527037756185   0.004802276180450063
0.14592236126600525   0.013455527037756185   0.004802276180450063
0.14592236126600525   0.013455527037756185   0.004802276180450063
0.14592236126600525   0.013455527037756185   0.004802276180450063
0.15901660495326916   0.03975415123831729   0.03975415123831729
0.15901660495326916   0.03975415123831729   0.03975415123831729
0.15901660495326916   0.03975415123831729   0.03975415123831729
0.15901660495326916   0.03975415123831729   0.03975415123831729
0.013046733404075543   -0.010222206888127468   -0.0019154515261151101
0.013046733404075543   -0.010222206888127468   -0.0019154515261151101
0.013046733404075543   -0.010222206888127468   -0.0019154515261151101
0.013046733404075543   -0.010222206888127468   -0.0019154515261151101
0.08278484037934844   0.010337672197708744   0.01491818298070502
0.08278484037934844   0.010337672197708744   0.01491818298070502
0.08278484037934844   0.010337672197708744   0.01491818298070502
0.08278484037934844   0.010337672197708744   0.01491818298070502
0.017193627874360098   0.0042984069685900244   0.0042984069685900244
0.017193627874360098   0.0042984069685900244   0.0042984069685900244
0.017193627874360098   0.0042984069685900244   0.0042984069685900244
0.017193627874360098   0.0042984069685900244   0.0042984069685900244
0.14828939311089573   0.01865322000951112   0.007219023255257617
0.14828939311089573   0.01865322000951112   0.007219023255257617
0.14828939311089573   0.01865322000951112   0.007219023255257617
0.14828939311089573   0.01865322000951112   0.007219023255257617
0.15890161827276564   0.03972540456819141   0.03972540456819141
0.15890161827276564   0.03972540456819141   0.03972540456819141
0.15890161827276564   0.03972540456819141   0.03972540456819141
0.15890161827276564   0.03972540456819141   0.03972540456819141
0.017222657810362883   -0.004130742109524394   0.0002406642855189078
0.017222657810362883   -0.004130742109524394   0.0002406642855189078
0.017222657810362883   -0.004130742109524394   0.0002406642855189078
0.017222657810362883   -0.004130742109524394   0.0002406642855189078
0.08275043261143207   0.013782219590255846   0.0037556396358716286
0.08275043261143207   0.013782219590255846   0.0037556396358716286
0.08275043261143207   0.013782219590255846   0.0037556396358716286
0.08275043261143207   0.013782219590255846   0.0037556396358716286
0.020000748194626643   0.005000187048656661   0.005000187048656661
0.020000748194626643   0.005000187048656661   0.005000187048656661
0.020000748194626643   0.005000187048656661   0.005000187048656661
0.020000748194626643   0.005000187048656661   0.005000187048656661
0.1496096609733721   0.024080608494880806   0.008910414144535656
0.1496096609733721   0.024080608494880806   0.008910414144535656
0.1496096609733721   0.024080608494880806   0.008910414144535656
0.1496096609733721   0.024080608494880806   0.008910414144535656
0.16252297141252856   0.04063074285313214   0.04063074285313214
0.16252297141252856   0.04063074285313214   0.04063074285313214
0.16252297141252856   0.04063074285313214   0.04063074285313214
0.16252297141252856   0.04063074285313214   0.04063074285313214
0.022553435164651088   0.00387524532052088   0.0026760557077290135
0.022553435164651088   0.00387524532052088   0.0026760557077290135
0.022553435164651088   0.00387524532052088   0.0026760557077290135
0.022553435164651088   0.00387524532052088   0.0026760557077290135
0.08458507849493398   0.018838215759402414   -0.006591192400831756
0.08458507849493398   0.018838215759402414   -0.006591192400831756
0.08458507849493398   0.018838215759402414   -0.006591192400831756
0.08458507849493398   0.018838215759402414   -0.006591192400831756
0.15807866735818277   0.03951966683954569   0.03951966683954569
0.15807866735818277   0.03951966683954569   0.03951966683954569
0.15807866735818277   0.03951966683954569   0.03951966683954569
0.15807866735818277   0.03951966683954569   0.03951966683954569
0.3312902911642635   0.025433954264902088   0.009405733864449902
0.3312902911642635   0.025433954264902088   0.009405733864449902
0.3312902911642635   0.025433954264902088   0.009405733864449902
0.3312902911642635   0.025433954264902088   0.009405733864449902
0.3392876729826636   0.0848219182456659   0.0848219182456659
0.3392876729826636   0.0848219182456659   0.0848219182456659
0.3392876729826636   0.0848219182456659   0.0848219182456659
0.3392876729826636   0.0848219182456659   0.0848219182456659
0.14148981670059288   -0.007791917205468249   -0.00033372158127730617
0.14148981670059288   -0.007791917205468249   -0.00033372158127730617
0.14148981670059288   -0.007791917205468249   -0.00033372158127730617
0.14148981670059288   -0.007791917205468249   -0.00033372158127730617
0.23580853624109338   0.033571324977275815   0.026397090461286788
0.23580853624109338   0.033571324977275815   0.026397090461286788
0.23580853624109338   0.033571324977275815   0.026397090461286788
0.23580853624109338   0.033571324977275815   0.026397090461286788
0.15901660495326903   0.039754151238317256   0.039754151238317256
0.15901660495326903   0.039754151238317256   0.039754151238317256
0.15901660495326903   0.039754151238317256   0.039754151238317256
0.15901660495326903   0.039754151238317256   0.039754151238317256
0.31468851932040415   0.030203484392296864   0.0164445837877375
0.31468851932040415   0.030203484392296864   0.0164445837877375
0.31468851932040415   0.030203484392296864   0.0164445837877375
0.31468851932040415   0.030203484392296864   0.0164445837877375
0.3298269068855453   0.08245672672138632   0.08245672672138632
0.3298269068855453   0.08245672672138632   0.08245672672138632
0.3298269068855453   0.08245672672138632   0.08245672672138632
0.3298269068855453   0.08245672672138632   0.08245672672138632
0.1425194598036794   -0.003995313167466097   0.0015353299584189295
0.1425194598036794   -0.003995313167466097   0.0015353299584189295
0.1425194598036794   -0.003995313167466097   0.0015353299584189295
0.1425194598036794   -0.003995313167466097   0.0015353299584189295
0.22944757861192783   0.03471634601629919   0.012623645406008108
0.22944757861192783   0.03471634601629919   0.012623645406008108
0.22944757861192783   0.03471634601629919   0.012623645406008108
0.22944757861192783   0.03471634601629919   0.012623645406008108
0.15890161827276564   0.03972540456819141   0.03972540456819141
0.15890161827276564   0.03972540456819141   0.03972540456819141
0.15890161827276564   0.03972540456819141   0.03972540456819141
0.15890161827276564   0.03972540456819141   0.03972540456819141
0.3051758252521819   0.030467085821451932   0.011190959454506514
0.3051758252521819   0.030467085821451932   0.011190959454506514
0.3051758252521819   0.030467085821451932   0.011190959454506514
0.3051758252521819   0.030467085821451932   0.011190959454506514
0.31534684445394007   0.07883671111348502   0.07883671111348502
0.31534684445394007   0.07883671111348502   0.07883671111348502
0.31534684445394007   0.07883671111348502   0.07883671111348502
0.31534684445394007   0.07883671111348502   0.07883671111348502
0.14836784319067464   0.005533263089980495   0.004952581507016106
0.14836784319067464   0.005533263089980495   0.004952581507016106
0.14836784319067464   0.005533263089980495   0.004952581507016106
0.14836784319067464   0.005533263089980495   0.004952581507016106
0.22028882293691301   0.03785042514785996   -0.0034653515983809353
0.22028882293691301   0.03785042514785996   -0.0034653515983809353
0.22028882293691301   0.03785042514785996   -0.0034653515983809353
0.22028882293691301   0.03785042514785996   -0.0034653515983809353
-0.31847801310223306   -0.022893452484036472   0.004289203402113778
-0.31847801310223306   -0.022893452484036472   0.004289203402113778
-0.31847801310223306   -0.022893452484036472   0.004289203402113778
-0.31847801310223306   -0.022893452484036472   0.004289203402113778
-0.20340929487842735   -0.005359595832506746   -0.001562231365133131
-0.20340929487842735   -0.005359595832506746   -0.001562231365133131
-0.20340929487842735   -0.005359595832506746   -0.001562231365133131
-0.20340929487842735   -0.005359595832506746   -0.001562231365133131
-0.20422421399498905   0.008436935720972934   0.004709353167415784
-0.20422421399498905   0.008436935720972934   0.004709353167415784
-0.20422421399498905   0.008436935720972934   0.004709353167415784
-0.20422421399498905   0.008436935720972934   0.004709353167415784
-0.3229351964131962   -0.02238358375257691   -0.004135070708089791
-0.3229351964131962   -0.02238358375257691   -0.004135070708089791
-0.3229351964131962   -0.02238358375257691   -0.004135070708089791
-0.3229351964131962   -0.02238358375257691   -0.004135070708089791
-0.252012002513375   -0.008818013513302657   -0.0013605190800881732
-0.252012002513375   -0.008818013513302657   -0.0013605190800881732
-0.252012002513375   -0.008818013513302657   -0.0013605190800881732
-0.252012002513375   -0.008818013513302657   -0.0013605190800881732
-0.3202681842935969   -0.015292039787304847   0.0021084459246346315
-0.3202681842935969   -0.015292039787304847   0.0021084459246346315
-0.3202681842935969   -0.015292039787304847   0.0021084459246346315
-0.3202681842935969   -0.015292039787304847   0.0021084459246346315
-0.20719622977389807   0.0010403880963918352   -0.0027541781025450882
-0.20719622977389807   0.0010403880963918352   -0.0027541781025450882
-0.20719622977389807   0.0010403880963918352   -0.0027541781025450882
-0.20719622977389807   0.0010403880963918352   -0.0027541781025450882
-0.20412312861442256   0.012122937704920365   0.005242030196756306
-0.20412312861442256   0.012122937704920365   0.005242030196756306
-0.20412312861442256   0.012122937704920365   0.005242030196756306
-0.20412312861442256   0.012122937704920365   0.005242030196756306
-0.32440922594302907   -0.019588199423645196   -0.005424096046891267
-0.32440922594302907   -0.019588199423645196   -0.005424096046891267
-0.32440922594302907   -0.019588199423645196   -0.005424096046891267
-0.32440922594302907   -0.019588199423645196   -0.005424096046891267
-0.25865770966609336   -0.0057634569401861235   -0.0026277557827649473
-0.25865770966609336   -0.0057634569401861235   -0.0026277557827649473
-0.25865770966609336   -0.0057634569401861235   -0.0026277557827649473
-0.25865770966609336   -0.0057634569401861235   -0.0026277557827649473
-0.31822827482420235   -0.008806671293056664   0.01469913141665099
-0.31822827482420235   -0.008806671293056664   0.01469913141665099
-0.31822827482420235   -0.008806671293056664   0.01469913141665099
-0.31822827482420235   -0.008806671293056664   0.01469913141665099
-0.20781541609486176   0.0038300732127191928   -0.004926542713236637
-0.20781541609486176   0.0038300732127191928   -0.004926542713236637
-0.20781541609486176   0.0038300732127191928   -0.004926542713236637
-0.20781541609486176   0.0038300732127191928   -0.004926542713236637
-0.20002286815665804   0.021299495733293622   0.009180356001536966
-0.20002286815665804   0.021299495733293622   0.009180356001536966
-0.20002286815665804   0.021299495733293622   0.009180356001536966
-0.20002286815665804   0.021299495733293622   0.009180356001536966
-0.31472051607752616   -0.01550506772768405   -0.008707866136771804
-0.31472051607752616   -0.01550506772768405   -0.008707866136771804
-0.31472051607752616   -0.01550506772768405   -0.008707866136771804
-0.31472051607752616   -0.01550506772768405   -0.008707866136771804
-0.24822745658957546   0.002637079429644376   0.005617996655601887
-0.24822745658957546   0.002637079429644376   0.005617996655601887
-0.24822745658957546   0.002637079429644376   0.005617996655601887
-0.24822745658957546   0.002637079429644376   0.005617996655601887
-0.20826293502306342   -0.02783687478202222   -0.00335315313879812
-0.20826293502306342   -0.02783687478202222   -0.00335315313879812
-0.20826293502306342   -0.02783687478202222   -0.00335315313879812
-0.20826293502306342   -0.02783687478202222   -0.00335315313879812
-0.09682354435746601   -0.0025896797096485076   0.0009232917227294233
-0.09682354435746601   -0.0025896797096485076   0.0009232917227294233
-0.09682354435746601   -0.0025896797096485076   0.0009232917227294233
-0.09682354435746601   -0.0025896797096485076   0.0009232917227294233
-0.09786523345981528   0.0016581075863548803   0.0016383084148324373
-0.09786523345981528   0.0016581075863548803   0.0016383084148324373
-0.09786523345981528   0.0016581075863548803   0.0016383084148324373
-0.09786523345981528   0.0016581075863548803   0.0016383084148324373
-0.2121770057857531   -0.020311513071112213   -0.006306156994319397
-0.2121770057857531   -0.020311513071112213   -0.006306156994319397
-0.2121770057857531   -0.020311513071112213   -0.006306156994319397
-0.2121770057857531   -0.020311513071112213   -0.006306156994319397
-0.15381049904385857   -0.012698179583972007   -0.003704965484350474
-0.15381049904385857   -0.012698179583972007   -0.003704965484350474
-0.15381049904385857   -0.012698179583972007   -0.003704965484350474
-0.15381049904385857   -0.012698179583972007   -0.003704965484350474
-0.2119078683657384   -0.022110398059056707   -0.003161584906302268
-0.2119078683657384   -0.022110398059056707   -0.003161584906302268
-0.2119078683657384   -0.022110398059056707   -0.003161584906302268
-0.2119078683657384   -0.022110398059056707   -0.003161584906302268
-0.0977636793561461   0.0038276840979829634   -2.349757845050357e-05
-0.0977636793561461   0.0038276840979829634   -2.349757845050357e-05
-0.0977636793561461   0.0038276840979829634   -2.349757845050357e-05
-0.0977636793561461   0.0038276840979829634   -2.349757845050357e-05
-0.0971872521635503   0.00676700574781839   0.0020912782411904402
-0.0971872521635503   0.00676700574781839   0.0020912782411904402
-0.0971872521635503   0.00676700574781839   0.0020912782411904402
-0.0971872521635503   0.00676700574781839   0.0020912782411904402
-0.21190730386433781   -0.014709531506656617   -0.006846376841242837
-0.21190730386433781   -0.014709531506656617   -0.006846376841242837
-0.21190730386433781   -0.014709531506656617   -0.006846376841242837
-0.21190730386433781   -0.014709531506656617   -0.006846376841242837
-0.15320002793061063   -0.006993783825159677   -0.0017747473673080738
-0.15320002793061063   -0.006993783825159677   -0.0017747473673080738
-0.15320002793061063   -0.006993783825159677   -0.0017747473673080738
-0.15320002793061063   -0.006993783825159677   -0.0017747473673080738
-0.2110203493779254   -0.016535080438718597   -0.0005860554771189462
-0.2110203493779254   -0.016535080438718597   -0.0005860554771189462
-0.2110203493779254   -0.016535080438718597   -0.0005860554771189462
-0.2110203493779254   -0.016535080438718597   -0.0005860554771189462
-0.09738158922453416   0.009285172105308943   -0.0013985734212186712
-0.09738158922453416   0.009285172105308943   -0.0013985734212186712
-0.09738158922453416   0.009285172105308943   -0.0013985734212186712
-0.09738158922453416   0.009285172105308943   -0.0013985734212186712
-0.09526507848170498   0.011866666373981278   0.004011960610910234
-0.09526507848170498   0.011866666373981278   0.004011960610910234
-0.09526507848170498   0.011866666373981278   0.004011960610910234
-0.09526507848170498   0.011866666373981278   0.004011960610910234
-0.20929194635483436   -0.008231396540230689   -0.0076341427158211905
-0.20929194635483436   -0.008231396540230689   -0.0076341427158211905
-0.20929194635483436   -0.008231396540230689   -0.0076341427158211905
-0.20929194635483436   -0.008231396540230689   -0.0076341427158211905
-0.15222317654669448   -0.0015892357823719117   0.0007482438838043856
-0.15222317654669448   -0.0015892357823719117   0.0007482438838043856
-0.15222317654669448   -0.0015892357823719117   0.0007482438838043856
-0.15222317654669448   -0.0015892357823719117   0.0007482438838043856
-0.10196122914013599   -0.023201916384805874   -0.004152895515463911
-0.10196122914013599   -0.023201916384805874   -0.004152895515463911
-0.10196122914013599   -0.023201916384805874   -0.004152895515463911
-0.10196122914013599   -0.023201916384805874   -0.004152895515463911
0.008859877952303615   0.001996135024987987   0.003969718067139667
0.008859877952303615   0.001996135024987987   0.003969718067139667
0.008859877952303615   0.001996135024987987   0.003969718067139667
0.008859877952303615   0.001996135024987987   0.003969718067139667
0.008691643390364899   0.005572794230586211   0.0003725306948855102
0.008691643390364899   0.005572794230586211   0.0003725306948855102
0.008691643390364899   0.005572794230586211   0.0003725306948855102
0.008691643390364899   0.005572794230586211   0.0003725306948855102
-0.10210748712768342   -0.01524940954064149   -0.0026654427975125986
-0.10210748712768342   -0.01524940954064149   -0.0026654427975125986
-0.10210748712768342   -0.01524940954064149   -0.0026654427975125986
-0.10210748712768342   -0.01524940954064149   -0.0026654427975125986
-0.04708585140133466   -0.007812614117624345   -0.0015823397402894932
-0.04708585140133466   -0.007812614117624345   -0.0015823397402894932
-0.04708585140133466   -0.007812614117624345   -0.0015823397402894932
-0.04708585140133466   -0.007812614117624345   -0.0015823397402894932
-0.10282299436176041   -0.01758593096710313   -0.003906457541435962
-0.10282299436176041   -0.01758593096710313   -0.003906457541435962
-0.10282299436176041   -0.01758593096710313   -0.003906457541435962
-0.10282299436176041   -0.01758593096710313   -0.003906457541435962
0.009779101510800166   0.00828126654340612   0.003101348984241877
0.009779101510800166   0.00828126654340612   0.003101348984241877
0.009779101510800166   0.00828126654340612   0.003101348984241877
0.009779101510800166   0.00828126654340612   0.003101348984241877
0.00980181579827658   0.011159127451052091   0.0018144697952169517
0.00980181579827658   0.011159127451052091   0.0018144697952169517
0.00980181579827658   0.011159127451052091   0.0018144697952169517
0.00980181579827658   0.011159127451052091   0.0018144697952169517
-0.10145172356246444   -0.009114524805210088   -0.0033495482003527673
-0.10145172356246444   -0.009114524805210088   -0.0033495482003527673
-0.10145172356246444   -0.009114524805210088   -0.0033495482003527673
-0.10145172356246444   -0.009114524805210088   -0.0033495482003527673
-0.046053178394424944   -0.0018969105381251086   0.00047684717243720825
-0.046053178394424944   -0.0018969105381251086   0.00047684717243720825
-0.046053178394424944   -0.0018969105381251086   0.00047684717243720825
-0.046053178394424944   -0.0018969105381251086   0.00047684717243720825
-0.10175225624461086   -0.011923273499856491   -0.0020434629164385503
-0.10175225624461086   -0.011923273499856491   -0.0020434629164385503
-0.10175225624461086   -0.011923273499856491   -0.0020434629164385503
-0.10175225624461086   -0.011923273499856491   -0.0020434629164385503
0.010505695352732675   0.014371223018008162   0.002121772000541358
0.010505695352732675   0.014371223018008162   0.002121772000541358
0.010505695352732675   0.014371223018008162   0.002121772000541358
0.010505695352732675   0.014371223018008162   0.002121772000541358
0.010356508899421163   0.017344387322052048   0.0029304988549892666
0.010356508899421163   0.017344387322052048   0.0029304988549892666
0.010356508899421163   0.017344387322052048   0.0029304988549892666
0.010356508899421163   0.017344387322052048   0.0029304988549892666
-0.09980835923966727   -0.002580679133011049   -0.004257097671909354
-0.09980835923966727   -0.002580679133011049   -0.004257097671909354
-0.09980835923966727   -0.002580679133011049   -0.004257097671909354
-0.09980835923966727   -0.002580679133011049   -0.004257097671909354
-0.044593213590984365   0.004288386826791316   0.002731923976265968
-0.044593213590984365   0.004288386826791316   0.002731923976265968
-0.044593213590984365   0.004288386826791316   0.002731923976265968
-0.044593213590984365   0.004288386826791316   0.002731923976265968
0.003193631126297976   -0.017103125361546175   -0.005262255676354365
0.003193631126297976   -0.017103125361546175   -0.005262255676354365
0.003193631126297976   -0.017103125361546175   -0.005262255676354365
0.003193631126297976   -0.017103125361546175   -0.005262255676354365
0.11805881147840681   0.00795521839627427   0.007393353996295414
0.11805881147840681   0.00795521839627427   0.007393353996295414
0.11805881147840681   0.00795521839627427   0.007393353996295414
0.11805881147840681   0.00795521839627427   0.007393353996295414
0.11818969056500049   0.010940002266479286   -0.0012473629140062853
0.11818969056500049   0.010940002266479286   -0.0012473629140062853
0.11818969056500049   0.010940002266479286   -0.0012473629140062853
0.11818969056500049   0.010940002266479286   -0.0012473629140062853
0.005674352740166555   -0.010062095287695617   0.0009209669621755606
0.005674352740166555   -0.010062095287695617   0.0009209669621755606
0.005674352740166555   -0.010062095287695617   0.0009209669621755606
0.005674352740166555   -0.010062095287695617   0.0009209669621755606
0.06050393825044008   -0.0016039074576265182   2.3241193760005236e-05
0.06050393825044008   -0.0016039074576265182   2.3241193760005236e-05
0.06050393825044008   -0.0016039074576265182   2.3241193760005236e-05
0.06050393825044008   -0.0016039074576265182   2.3241193760005236e-05
0.004217814306309416   -0.012408053751182323   -0.004015766743623372
0.004217814306309416   -0.012408053751182323   -0.004015766743623372
0.004217814306309416   -0.012408053751182323   -0.004015766743623372
0.004217814306309416   -0.012408053751182323   -0.004015766743623372
0.12033425332900623   0.013973985060114788   0.006441468112386958
0.12033425332900623   0.013973985060114788   0.006441468112386958
0.12033425332900623   0.013973985060114788   0.006441468112386958
0.12033425332900623   0.013973985060114788   0.006441468112386958
0.11951526089767728   0.016485787721851032   0.0010307103550818817
0.11951526089767728   0.016485787721851032   0.0010307103550818817
0.11951526089767728   0.016485787721851032   0.0010307103550818817
0.11951526089767728   0.016485787721851032   0.0010307103550818817
0.00626110478134674   -0.004559545140041782   -0.00017041269833837063
0.00626110478134674   -0.004559545140041782   -0.00017041269833837063
0.00626110478134674   -0.004559545140041782   -0.00017041269833837063
0.00626110478134674   -0.004559545140041782   -0.00017041269833837063
0.061690479030810125   0.003684176709377842   0.002556609977502282
0.061690479030810125   0.003684176709377842   0.002556609977502282
0.061690479030810125   0.003684176709377842   0.002556609977502282
0.061690479030810125   0.003684176709377842   0.002556609977502282
0.005165360688356937   -0.007193391709746004   -0.00301528659358317
0.005165360688356937   -0.007193391709746004   -0.00301528659358317
0.005165360688356937   -0.007193391709746004   -0.00301528659358317
0.005165360688356937   -0.007193391709746004   -0.00301528659358317
0.1211120980335138   0.019620727334402024   0.005879956421713587
0.1211120980335138   0.019620727334402024   0.005879956421713587
0.1211120980335138   0.019620727334402024   0.005879956421713587
0.1211120980335138   0.019620727334402024   0.005879956421713587
0.11790801510609145   0.022876815439253986   0.002329326359954192
0.11790801510609145   0.022876815439253986   0.002329326359954192
0.11790801510609145   0.022876815439253986   0.002329326359954192
0.11790801510609145   0.022876815439253986   0.002329326359954192
0.006517931129888453   0.002193352314172422   -0.0011113549847946577
0.006517931129888453   0.002193352314172422   -0.0011113549847946577
0.006517931129888453   0.002193352314172422   -0.0011113549847946577
0.006517931129888453   0.002193352314172422   -0.0011113549847946577
0.06297317981937031   0.009717598736110812   0.004921802017685033
0.06297317981937031   0.009717598736110812   0.004921802017685033
0.06297317981937031   0.009717598736110812   0.004921802017685033
0.06297317981937031   0.009717598736110812   0.004921802017685033
0.10838273216067468   -0.023029224289936475   -0.010002599906154569
0.10838273216067468   -0.023029224289936475   -0.010002599906154569
0.10838273216067468   -0.023029224289936475   -0.010002599906154569
0.10838273216067468   -0.023029224289936475   -0.010002599906154569
0.22480817087396393   0.014868417622547585   0.007522750310233656
0.22480817087396393   0.014868417622547585   0.007522750310233656
0.22480817087396393   0.014868417622547585   0.007522750310233656
0.22480817087396393   0.014868417622547585   0.007522750310233656
0.22776233293721898   0.0065125006576296635   -0.015084148502413613
0.22776233293721898   0.0065125006576296635   -0.015084148502413613
0.22776233293721898   0.0065125006576296635   -0.015084148502413613
0.22776233293721898   0.0065125006576296635   -0.015084148502413613
0.11632753060580918   -0.004228512155004516   0.004610351711520123
0.11632753060580918   -0.004228512155004516   0.004610351711520123
0.11632753060580918   -0.004228512155004516   0.004610351711520123
0.11632753060580918   -0.004228512155004516   0.004610351711520123
0.16083627164851674   -0.0031697766457969706   -0.004294284652856076
0.16083627164851674   -0.0031697766457969706   -0.004294284652856076
0.16083627164851674   -0.0031697766457969706   -0.004294284652856076
0.16083627164851674   -0.0031697766457969706   -0.004294284652856076
0.11189222643885224   -0.015003022664345344   -0.006791658613922347
0.11189222643885224   -0.015003022664345344   -0.006791658613922347
0.11189222643885224   -0.015003022664345344   -0.006791658613922347
0.11189222643885224   -0.015003022664345344   -0.006791658613922347
0.23433758935581722   0.019426963418612345   0.0048776708295963835
0.23433758935581722   0.019426963418612345   0.0048776708295963835
0.23433758935581722   0.019426963418612345   0.0048776708295963835
0.23433758935581722   0.019426963418612345   0.0048776708295963835
0.23086158863748554   0.0125976528772399   -0.0038419686518574954
0.23086158863748554   0.0125976528772399   -0.0038419686518574954
0.23086158863748554   0.0125976528772399   -0.0038419686518574954
0.23086158863748554   0.0125976528772399   -0.0038419686518574954
0.11623038786550377   -0.0014448042429984417   0.002536937159063765
0.11623038786550377   -0.0014448042429984417   0.002536937159063765
0.11623038786550377   -0.0014448042429984417   0.002536937159063765
0.11623038786550377   -0.0014448042429984417   0.002536937159063765
0.1699031931863903   0.004279136971011344   0.00286079643103568
0.1699031931863903   0.004279136971011344   0.00286079643103568
0.1699031931863903   0.004279136971011344   0.00286079643103568
0.1699031931863903   0.004279136971011344   0.00286079643103568
0.11261498173893372   -0.011400211929546444   -0.005584685787237419
0.11261498173893372   -0.011400211929546444   -0.005584685787237419
0.11261498173893372   -0.011400211929546444   -0.005584685787237419
0.11261498173893372   -0.011400211929546444   -0.005584685787237419
0.23423290025002338   0.022308966049755873   0.0033032762383157256
0.23423290025002338   0.022308966049755873   0.0033032762383157256
0.23423290025002338   0.022308966049755873   0.0033032762383157256
0.23423290025002338   0.022308966049755873   0.0033032762383157256
0.23114438355472408   0.019954485053679284   -0.005717849038539603
0.23114438355472408   0.019954485053679284   -0.005717849038539603
0.23114438355472408   0.019954485053679284   -0.005717849038539603
0.23114438355472408   0.019954485053679284   -0.005717849038539603
0.11414005363197481   0.00483744362841599   0.001528890800208571
0.11414005363197481   0.00483744362841599   0.001528890800208571
0.11414005363197481   0.00483744362841599   0.001528890800208571
0.11414005363197481   0.00483744362841599   0.001528890800208571
0.1660227527496822   0.00773324489565539   0.002336159803365297
0.1660227527496822   0.00773324489565539   0.002336159803365297
0.1660227527496822   0.00773324489565539   0.002336159803365297
0.1660227527496822   0.00773324489565539   0.002336159803365297
-0.24633215140499537   -0.01093673943331306   0.01347490715740314
-0.24633215140499537   -0.01093673943331306   0.01347490715740314
-0.24633215140499537   -0.01093673943331306   0.01347490715740314
-0.24633215140499537   -0.01093673943331306   0.01347490715740314
-0.16482226929401772   -0.006774785129076602   -0.0035057894706943503
-0.16482226929401772   -0.006774785129076602   -0.0035057894706943503
-0.16482226929401772   -0.006774785129076602   -0.0035057894706943503
-0.16482226929401772   -0.006774785129076602   -0.0035057894706943503
-0.15843913308127472   0.013586861549568001   0.01122109247071235
-0.15843913308127472   0.013586861549568001   0.01122109247071235
-0.15843913308127472   0.013586861549568001   0.01122109247071235
-0.15843913308127472   0.013586861549568001   0.01122109247071235
-0.2473101443010701   -0.01783780239609694   -0.005444266844697282
-0.2473101443010701   -0.01783780239609694   -0.005444266844697282
-0.2473101443010701   -0.01783780239609694   -0.005444266844697282
-0.2473101443010701   -0.01783780239609694   -0.005444266844697282
-0.1960162144663566   -0.003020326709684183   -0.0007189809606604827
-0.1960162144663566   -0.003020326709684183   -0.0007189809606604827
-0.1960162144663566   -0.003020326709684183   -0.0007189809606604827
-0.1960162144663566   -0.003020326709684183   -0.0007189809606604827
-0.2400580730870891   -0.0019879063165960803   0.0149661931457065
-0.2400580730870891   -0.0019879063165960803   0.0149661931457065
-0.2400580730870891   -0.0019879063165960803   0.0149661931457065
-0.2400580730870891   -0.0019879063165960803   0.0149661931457065
-0.16455693805662544   -0.0011287682913026925   -0.004652302565170671
-0.16455693805662544   -0.0011287682913026925   -0.004652302565170671
-0.16455693805662544   -0.0011287682913026925   -0.004652302565170671
-0.16455693805662544   -0.0011287682913026925   -0.004652302565170671
-0.1576214011474348   0.01692159035994347   0.010337028075457779
-0.1576214011474348   0.01692159035994347   0.010337028075457779
-0.1576214011474348   0.01692159035994347   0.010337028075457779
-0.1576214011474348   0.01692159035994347   0.010337028075457779
-0.24309757781217323   -0.014796009201909065   -0.007397451105252839
-0.24309757781217323   -0.014796009201909065   -0.007397451105252839
-0.24309757781217323   -0.014796009201909065   -0.007397451105252839
-0.24309757781217323   -0.014796009201909065   -0.007397451105252839
-0.196117221490867   0.0008926730098881216   0.0020850968078861033
-0.196117221490867   0.0008926730098881216   0.0020850968078861033
-0.196117221490867   0.0008926730098881216   0.0020850968078861033
-0.196117221490867   0.0008926730098881216   0.0020850968078861033
-0.23636661872343182   0.0011645068808013442   0.010296828255744093
-0.23636661872343182   0.0011645068808013442   0.010296828255744093
-0.23636661872343182   0.0011645068808013442   0.010296828255744093
-0.23636661872343182   0.0011645068808013442   0.010296828255744093
-0.16398072372784903   0.0013327107855605619   -0.005870705252228938
-0.16398072372784903   0.0013327107855605619   -0.005870705252228938
-0.16398072372784903   0.0013327107855605619   -0.005870705252228938
-0.16398072372784903   0.0013327107855605619   -0.005870705252228938
-0.1576188272208673   0.019298120161255997   0.008206384451269567
-0.1576188272208673   0.019298120161255997   0.008206384451269567
-0.1576188272208673   0.019298120161255997   0.008206384451269567
-0.1576188272208673   0.019298120161255997   0.008206384451269567
-0.23773324917899075   -0.011466368377429412   -0.009383497698915695
-0.23773324917899075   -0.011466368377429412   -0.009383497698915695
-0.23773324917899075   -0.011466368377429412   -0.009383497698915695
-0.23773324917899075   -0.011466368377429412   -0.009383497698915695
-0.190213081273198   0.004443352241251718   0.004645006412682277
-0.190213081273198   0.004443352241251718   0.004645006412682277
-0.190213081273198   0.004443352241251718   0.004645006412682277
-0.190213081273198   0.004443352241251718   0.004645006412682277
-0.16507852775052825   -0.015614756757726413   0.004052889875402732
-0.16507852775052825   -0.015614756757726413   0.004052889875402732
-0.16507852775052825   -0.015614756757726413   0.004052889875402732
-0.16507852775052825   -0.015614756757726413   0.004052889875402732
-0.0845115627359072   -0.0033447388439016706   0.00010658695798067795
-0.0845115627359072   -0.0033447388439016706   0.00010658695798067795
-0.0845115627359072   -0.0033447388439016706   0.00010658695798067795
-0.0845115627359072   -0.0033447388439016706   0.00010658695798067795
-0.08189917226987928   0.00821927650766847   0.006069957383710198
-0.08189917226987928   0.00821927650766847   0.006069957383710198
-0.08189917226987928   0.00821927650766847   0.006069957383710198
-0.08189917226987928   0.00821927650766847   0.006069957383710198
-0.16763879945375074   -0.015396866137728588   -0.005793511704371359
-0.16763879945375074   -0.015396866137728588   -0.005793511704371359
-0.16763879945375074   -0.015396866137728588   -0.005793511704371359
-0.16763879945375074   -0.015396866137728588   -0.005793511704371359
-0.12437927370698301   -0.006107911074923009   -0.002690520085348626
-0.12437927370698301   -0.006107911074923009   -0.002690520085348626
-0.12437927370698301   -0.006107911074923009   -0.002690520085348626
-0.12437927370698301   -0.006107911074923009   -0.002690520085348626
-0.16437244050651775   -0.008717571031323618   0.0038589879253877733
-0.16437244050651775   -0.008717571031323618   0.0038589879253877733
-0.16437244050651775   -0.008717571031323618   0.0038589879253877733
-0.16437244050651775   -0.008717571031323618   0.0038589879253877733
-0.08451704446909224   0.002188468149283567   -0.0009885952539690724
-0.08451704446909224   0.002188468149283567   -0.0009885952539690724
-0.08451704446909224   0.002188468149283567   -0.0009885952539690724
-0.08451704446909224   0.002188468149283567   -0.0009885952539690724
-0.08149073137656176   0.013787676457001158   0.005223090489270022
-0.08149073137656176   0.013787676457001158   0.005223090489270022
-0.08149073137656176   0.013787676457001158   0.005223090489270022
-0.08149073137656176   0.013787676457001158   0.005223090489270022
-0.16649064816945153   -0.010228604787672391   -0.006859011887009857
-0.16649064816945153   -0.010228604787672391   -0.006859011887009857
-0.16649064816945153   -0.010228604787672391   -0.006859011887009857
-0.16649064816945153   -0.010228604787672391   -0.006859011887009857
-0.12285846790183987   -0.0005256716623959386   -0.00010263489537868774
-0.12285846790183987   -0.0005256716623959386   -0.00010263489537868774
-0.12285846790183987   -0.0005256716623959386   -0.00010263489537868774
-0.12285846790183987   -0.0005256716623959386   -0.00010263489537868774
-0.16316132467789135   -0.0030660501204125695   0.0026250509035310393
-0.16316132467789135   -0.0030660501204125695   0.0026250509035310393
-0.16316132467789135   -0.0030660501204125695   0.0026250509035310393
-0.16316132467789135   -0.0030660501204125695   0.0026250509035310393
-0.0842930813530623   0.007152095304800748   -0.0021530782410314753
-0.0842930813530623   0.007152095304800748   -0.0021530782410314753
-0.0842930813530623   0.007152095304800748   -0.0021530782410314753
-0.0842930813530623   0.007152095304800748   -0.0021530782410314753
-0.08132135172919691   0.019667540478560872   0.0038899477524991354
-0.08132135172919691   0.019667540478560872   0.0038899477524991354
-0.08132135172919691   0.019667540478560872   0.0038899477524991354
-0.08132135172919691   0.019667540478560872   0.0038899477524991354
-0.16551550379281008   -0.004612229020713052   -0.007366649226475858
-0.16551550379281008   -0.004612229020713052   -0.007366649226475858
-0.16551550379281008   -0.004612229020713052   -0.007366649226475858
-0.16551550379281008   -0.004612229020713052   -0.007366649226475858
-0.12275993142762823   0.004645867916734596   0.0018999326423975102
-0.12275993142762823   0.004645867916734596   0.0018999326423975102
-0.12275993142762823   0.004645867916734596   0.0018999326423975102
-0.12275993142762823   0.004645867916734596   0.0018999326423975102
-0.08756099363267764   -0.018149203482825758   -0.00033610288694834486
-0.08756099363267764   -0.018149203482825758   -0.00033610288694834486
-0.08756099363267764   -0.018149203482825758   -0.00033610288694834486
-0.08756099363267764   -0.018149203482825758   -0.00033610288694834486
-0.004860738545776184   0.0005189022870012374   0.0037266896695281734
-0.004860738545776184   0.0005189022870012374   0.0037266896695281734
-0.004860738545776184   0.0005189022870012374   0.0037266896695281734
-0.004860738545776184   0.0005189022870012374   0.0037266896695281734
-0.0050385072076502765   0.00505795605093533   0.0018024052403383724
-0.0050385072076502765   0.00505795605093533   0.0018024052403383724
-0.0050385072076502765   0.00505795605093533   0.0018024052403383724
-0.0050385072076502765   0.00505795605093533   0.0018024052403383724
-0.08747338676378423   -0.011470840416110465   -0.0021109981620365363
-0.08747338676378423   -0.011470840416110465   -0.0021109981620365363
-0.08747338676378423   -0.011470840416110465   -0.0021109981620365363
-0.08747338676378423   -0.011470840416110465   -0.0021109981620365363
-0.04638399281326214   -0.00580174459717436   -0.0015421600742435287
-0.04638399281326214   -0.00580174459717436   -0.0015421600742435287
-0.04638399281326214   -0.00580174459717436   -0.0015421600742435287
-0.04638399281326214   -0.00580174459717436   -0.0015421600742435287
-0.08737755507640002   -0.011992392165939357   -0.0011102879752857373
-0.08737755507640002   -0.011992392165939357   -0.0011102879752857373
-0.08737755507640002   -0.011992392165939357   -0.0011102879752857373
-0.08737755507640002   -0.011992392165939357   -0.0011102879752857373
-0.004653786126861234   0.0060600605689376886   0.00272390612628123
-0.004653786126861234   0.0060600605689376886   0.00272390612628123
-0.004653786126861234   0.0060600605689376886   0.00272390612628123
-0.004653786126861234   0.0060600605689376886   0.00272390612628123
-0.004488320848085148   0.011110820435930258   0.0008137752909696586
-0.004488320848085148   0.011110820435930258   0.0008137752909696586
-0.004488320848085148   0.011110820435930258   0.0008137752909696586
-0.004488320848085148   0.011110820435930258   0.0008137752909696586
-0.08710034811939603   -0.00591197262834464   -0.00312534413955548
-0.08710034811939603   -0.00591197262834464   -0.00312534413955548
-0.08710034811939603   -0.00591197262834464   -0.00312534413955548
-0.08710034811939603   -0.00591197262834464   -0.00312534413955548
-0.04579006049968865   -0.00022635247398167593   0.0005566997958218181
-0.04579006049968865   -0.00022635247398167593   0.0005566997958218181
-0.04579006049968865   -0.00022635247398167593   0.0005566997958218181
-0.04579006049968865   -0.00022635247398167593   0.0005566997958218181
-0.08697363875369007   -0.006024793492715553   -0.0023789764466547693
-0.08697363875369007   -0.006024793492715553   -0.0023789764466547693
-0.08697363875369007   -0.006024793492715553   -0.0023789764466547693
-0.08697363875369007   -0.006024793492715553   -0.0023789764466547693
-0.004219468650741846   0.011619202863350482   0.0016496538502659374
-0.004219468650741846   0.011619202863350482   0.0016496538502659374
-0.004219468650741846   0.011619202863350482   0.0016496538502659374
-0.004219468650741846   0.011619202863350482   0.0016496538502659374
-0.004252222210153643   0.017334538108485457   -0.00023714849394045143
-0.004252222210153643   0.017334538108485457   -0.00023714849394045143
-0.004252222210153643   0.017334538108485457   -0.00023714849394045143
-0.004252222210153643   0.017334538108485457   -0.00023714849394045143
-0.08691885344585898   -0.00026780719308254833   -0.0041622131591674705
-0.08691885344585898   -0.00026780719308254833   -0.0041622131591674705
-0.08691885344585898   -0.00026780719308254833   -0.0041622131591674705
-0.08691885344585898   -0.00026780719308254833   -0.0041622131591674705
-0.04529486202169906   0.00535520106068724   0.0024840610118421367
-0.04529486202169906   0.00535520106068724   0.0024840610118421367
-0.04529486202169906   0.00535520106068724   0.0024840610118421367
-0.04529486202169906   0.00535520106068724   0.0024840610118421367
-0.010604479715364826   -0.02012561118335179   -0.00434750270806195
-0.010604479715364826   -0.02012561118335179   -0.00434750270806195
-0.010604479715364826   -0.02012561118335179   -0.00434750270806195
-0.010604479715364826   -0.02012561118335179   -0.00434750270806195
0.07422596200781452   0.0049955043659632645   0.007106747369523053
0.07422596200781452   0.0049955043659632645   0.007106747369523053
0.07422596200781452   0.0049955043659632645   0.007106747369523053
0.07422596200781452   0.0049955043659632645   0.007106747369523053
0.07175286212295054   0.0023725388391834645   -0.0029843717862139724
0.07175286212295054   0.0023725388391834645   -0.0029843717862139724
0.07175286212295054   0.0023725388391834645   -0.0029843717862139724
0.07175286212295054   0.0023725388391834645   -0.0029843717862139724
-0.007511306911145904   -0.007163693971048666   0.001660056744844232
-0.007511306911145904   -0.007163693971048666   0.001660056744844232
-0.007511306911145904   -0.007163693971048666   0.001660056744844232
-0.007511306911145904   -0.007163693971048666   0.001660056744844232
0.031497452272416765   -0.0048885537938279785   -0.000908783285432879
0.031497452272416765   -0.0048885537938279785   -0.000908783285432879
0.031497452272416765   -0.0048885537938279785   -0.000908783285432879
0.031497452272416765   -0.0048885537938279785   -0.000908783285432879
-0.010426167143995373   -0.014568316945877785   -0.005509621444573994
-0.010426167143995373   -0.014568316945877785   -0.005509621444573994
-0.010426167143995373   -0.014568316945877785   -0.005509621444573994
-0.010426167143995373   -0.014568316945877785   -0.005509621444573994
0.07521545484204485   0.010324894300257246   0.00637623634818303
0.07521545484204485   0.010324894300257246   0.00637623634818303
0.07521545484204485   0.010324894300257246   0.00637623634818303
0.07521545484204485   0.010324894300257246   0.00637623634818303
0.07316861975006296   0.00801953048987938   -0.004182549517448779
0.07316861975006296   0.00801953048987938   -0.004182549517448779
0.07316861975006296   0.00801953048987938   -0.004182549517448779
0.07316861975006296   0.00801953048987938   -0.004182549517448779
-0.007195204152964211   -0.0021778593373070086   0.0005680385398116779
-0.007195204152964211   -0.0021778593373070086   0.0005680385398116779
-0.007195204152964211   -0.0021778593373070086   0.0005680385398116779
-0.007195204152964211   -0.0021778593373070086   0.0005680385398116779
0.03198529340202227   0.00019290146090740565   0.001190994466675747
0.03198529340202227   0.00019290146090740565   0.001190994466675747
0.03198529340202227   0.00019290146090740565   0.001190994466675747
0.03198529340202227   0.00019290146090740565   0.001190994466675747
-0.010034515334475209   -0.00912155163712376   -0.006684825067926626
-0.010034515334475209   -0.00912155163712376   -0.006684825067926626
-0.010034515334475209   -0.00912155163712376   -0.006684825067926626
-0.010034515334475209   -0.00912155163712376   -0.006684825067926626
0.07660606094237056   0.015561352800492678   0.005462834133475356
0.07660606094237056   0.015561352800492678   0.005462834133475356
0.07660606094237056   0.015561352800492678   0.005462834133475356
0.07660606094237056   0.015561352800492678   0.005462834133475356
0.07411057528578327   0.015047138982674724   -0.004435065798177979
0.07411057528578327   0.015047138982674724   -0.004435065798177979
0.07411057528578327   0.015047138982674724   -0.004435065798177979
0.07411057528578327   0.015047138982674724   -0.004435065798177979
-0.007057096272034523   0.003595609626502817   -0.0005225903213621462
-0.007057096272034523   0.003595609626502817   -0.0005225903213621462
-0.007057096272034523   0.003595609626502817   -0.0005225903213621462
-0.007057096272034523   0.003595609626502817   -0.0005225903213621462
0.033338207646319874   0.0058011163108069325   0.00365985430494881
0.033338207646319874   0.0058011163108069325   0.00365985430494881
0.033338207646319874   0.0058011163108069325   0.00365985430494881
0.033338207646319874   0.0058011163108069325   0.00365985430494881
0.06605967445831551   -0.02010972410419212   -0.008619461907816083
0.06605967445831551   -0.02010972410419212   -0.008619461907816083
0.06605967445831551   -0.02010972410419212   -0.008619461907816083
0.06605967445831551   -0.02010972410419212   -0.008619461907816083
0.14722686689631298   0.010968001889012643   0.008148473931869338
0.14722686689631298   0.010968001889012643   0.008148473931869338
0.14722686689631298   0.010968001889012643   0.008148473931869338
0.14722686689631298   0.010968001889012643   0.008148473931869338
0.14613398554245421   -0.001485880798015548   -0.011482946440180988
0.14613398554245421   -0.001485880798015548   -0.011482946440180988
0.14613398554245421   -0.001485880798015548   -0.011482946440180988
0.14613398554245421   -0.001485880798015548   -0.011482946440180988
0.07271674308728228   -0.0013318590313298254   0.005539430905957981
0.07271674308728228   -0.0013318590313298254   0.005539430905957981
0.07271674308728228   -0.0013318590313298254   0.005539430905957981
0.07271674308728228   -0.0013318590313298254   0.005539430905957981
0.10277726806697246   -0.0041192191723786915   -0.003520266706237864
0.10277726806697246   -0.0041192191723786915   -0.003520266706237864
0.10277726806697246   -0.0041192191723786915   -0.003520266706237864
0.10277726806697246   -0.0041192191723786915   -0.003520266706237864
0.0662957351848663   -0.017280362590822912   -0.010617105046628576
0.0662957351848663   -0.017280362590822912   -0.010617105046628576
0.0662957351848663   -0.017280362590822912   -0.010617105046628576
0.0662957351848663   -0.017280362590822912   -0.010617105046628576
0.15301079687845456   0.01491842619506174   0.006496803246743525
0.15301079687845456   0.01491842619506174   0.006496803246743525
0.15301079687845456   0.01491842619506174   0.006496803246743525
0.15301079687845456   0.01491842619506174   0.006496803246743525
0.15016209224890276   0.0017349843195487331   -0.015495824411599338
0.15016209224890276   0.0017349843195487331   -0.015495824411599338
0.15016209224890276   0.0017349843195487331   -0.015495824411599338
0.15016209224890276   0.0017349843195487331   -0.015495824411599338
0.07346505872663725   0.0011316646585437483   0.004187511196758863
0.07346505872663725   0.0011316646585437483   0.004187511196758863
0.07346505872663725   0.0011316646585437483   0.004187511196758863
0.07346505872663725   0.0011316646585437483   0.004187511196758863
0.1078074624343627   -0.0006007879318884329   -0.0009900954042096847
0.1078074624343627   -0.0006007879318884329   -0.0009900954042096847
0.1078074624343627   -0.0006007879318884329   -0.0009900954042096847
0.1078074624343627   -0.0006007879318884329   -0.0009900954042096847
0.0672611156451461   -0.014071795024427833   -0.011628744527725887
0.0672611156451461   -0.014071795024427833   -0.011628744527725887
0.0672611156451461   -0.014071795024427833   -0.011628744527725887
0.0672611156451461   -0.014071795024427833   -0.011628744527725887
0.15737936062680874   0.01795176929893529   0.004373732498545067
0.15737936062680874   0.01795176929893529   0.004373732498545067
0.15737936062680874   0.01795176929893529   0.004373732498545067
0.15737936062680874   0.01795176929893529   0.004373732498545067
0.15653389341535473   0.010073718497225645   -0.014683574639124057
0.15653389341535473   0.010073718497225645   -0.014683574639124057
0.15653389341535473   0.010073718497225645   -0.014683574639124057
0.15653389341535473   0.010073718497225645   -0.014683574639124057
0.07389632762847889   0.006443514989481574   0.0030973199084948456
0.07389632762847889   0.006443514989481574   0.0030973199084948456
0.07389632762847889   0.006443514989481574   0.0030973199084948456
0.07389632762847889   0.006443514989481574   0.0030973199084948456
0.10899519399779477   0.003366993966292982   0.0018649928216598862
0.10899519399779477   0.003366993966292982   0.0018649928216598862
0.10899519399779477   0.003366993966292982   0.0018649928216598862
0.10899519399779477   0.003366993966292982   0.0018649928216598862
-0.17271663562150477   -0.005254272319112584   0.011991140906612654
-0.17271663562150477   -0.005254272319112584   0.011991140906612654
-0.17271663562150477   -0.005254272319112584   0.011991140906612654
-0.17271663562150477   -0.005254272319112584   0.011991140906612654
-0.12241371201495813   -0.008580448731817871   -0.004433175378633579
-0.12241371201495813   -0.008580448731817871   -0.004433175378633579
-0.12241371201495813   -0.008580448731817871   -0.004433175378633579
-0.12241371201495813   -0.008580448731817871   -0.004433175378633579
-0.1149641898275851   0.011754581830438558   0.010171699814495233
-0.1149641898275851   0.011754581830438558   0.010171699814495233
-0.1149641898275851   0.011754581830438558   0.010171699814495233
-0.1149641898275851   0.011754581830438558   0.010171699814495233
-0.17271196382021947   -0.014307138780071418   -0.006504995113309104
-0.17271196382021947   -0.014307138780071418   -0.006504995113309104
-0.17271196382021947   -0.014307138780071418   -0.006504995113309104
-0.17271196382021947   -0.014307138780071418   -0.006504995113309104
-0.1398189157188255   -0.0021370599899253745   -0.0006318272712606317
-0.1398189157188255   -0.0021370599899253745   -0.0006318272712606317
-0.1398189157188255   -0.0021370599899253745   -0.0006318272712606317
-0.1398189157188255   -0.0021370599899253745   -0.0006318272712606317
-0.16591772278765368   0.0018011246078461982   0.01135794666160212
-0.16591772278765368   0.0018011246078461982   0.01135794666160212
-0.16591772278765368   0.0018011246078461982   0.01135794666160212
-0.16591772278765368   0.0018011246078461982   0.01135794666160212
-0.12119814173418168   -0.003793392431509425   -0.005450085456538807
-0.12119814173418168   -0.003793392431509425   -0.005450085456538807
-0.12119814173418168   -0.003793392431509425   -0.005450085456538807
-0.12119814173418168   -0.003793392431509425   -0.005450085456538807
-0.11386688502429504   0.014241574913154503   0.008559776682186812
-0.11386688502429504   0.014241574913154503   0.008559776682186812
-0.11386688502429504   0.014241574913154503   0.008559776682186812
-0.11386688502429504   0.014241574913154503   0.008559776682186812
-0.1684216289767685   -0.01152640058479738   -0.00817357183928449
-0.1684216289767685   -0.01152640058479738   -0.00817357183928449
-0.1684216289767685   -0.01152640058479738   -0.00817357183928449
-0.1684216289767685   -0.01152640058479738   -0.00817357183928449
-0.13869615683322906   0.001122619206220185   0.001253180771832476
-0.13869615683322906   0.001122619206220185   0.001253180771832476
-0.13869615683322906   0.001122619206220185   0.001253180771832476
-0.13869615683322906   0.001122619206220185   0.001253180771832476
-0.16171308765940656   0.004774104901866964   0.009068629260860413
-0.16171308765940656   0.004774104901866964   0.009068629260860413
-0.16171308765940656   0.004774104901866964   0.009068629260860413
-0.16171308765940656   0.004774104901866964   0.009068629260860413
-0.12007583790254917   -0.001559342134401908   -0.006684070661526481
-0.12007583790254917   -0.001559342134401908   -0.006684070661526481
-0.12007583790254917   -0.001559342134401908   -0.006684070661526481
-0.12007583790254917   -0.001559342134401908   -0.006684070661526481
-0.11326606499614618   0.01677594256908598   0.007360872850816697
-0.11326606499614618   0.01677594256908598   0.007360872850816697
-0.11326606499614618   0.01677594256908598   0.007360872850816697
-0.11326606499614618   0.01677594256908598   0.007360872850816697
-0.1627332899063246   -0.007799435420130573   -0.009755741917966212
-0.1627332899063246   -0.007799435420130573   -0.009755741917966212
-0.1627332899063246   -0.007799435420130573   -0.009755741917966212
-0.1627332899063246   -0.007799435420130573   -0.009755741917966212
-0.1333880285873337   0.004225612289749103   0.003834664228111501
-0.1333880285873337   0.004225612289749103   0.003834664228111501
-0.1333880285873337   0.004225612289749103   0.003834664228111501
-0.1333880285873337   0.004225612289749103   0.003834664228111501
-0.12080390862385071   -0.009681205703391423   0.004716598548476083
-0.12080390862385071   -0.009681205703391423   0.004716598548476083
-0.12080390862385071   -0.009681205703391423   0.004716598548476083
-0.12080390862385071   -0.009681205703391423   0.004716598548476083
-0.07148827254132804   -0.005550111877299731   -0.0007215404387799574
-0.07148827254132804   -0.005550111877299731   -0.0007215404387799574
-0.07148827254132804   -0.005550111877299731   -0.0007215404387799574
-0.07148827254132804   -0.005550111877299731   -0.0007215404387799574
-0.0678207359133276   0.006821030134880947   0.005477906118253178
-0.0678207359133276   0.006821030134880947   0.005477906118253178
-0.0678207359133276   0.006821030134880947   0.005477906118253178
-0.0678207359133276   0.006821030134880947   0.005477906118253178
-0.1226938449403306   -0.011624068084540879   -0.005097925834252756
-0.1226938449403306   -0.011624068084540879   -0.005097925834252756
-0.1226938449403306   -0.011624068084540879   -0.005097925834252756
-0.1226938449403306   -0.011624068084540879   -0.005097925834252756
-0.09536051879420213   -0.004551877093822425   -0.0020856442206233982
-0.09536051879420213   -0.004551877093822425   -0.0020856442206233982
-0.09536051879420213   -0.004551877093822425   -0.0020856442206233982
-0.09536051879420213   -0.004551877093822425   -0.0020856442206233982
-0.11933981939666025   -0.0038072841879372883   0.0038554179874954204
-0.11933981939666025   -0.0038072841879372883   0.0038554179874954204
-0.11933981939666025   -0.0038072841879372883   0.0038554179874954204
-0.11933981939666025   -0.0038072841879372883   0.0038554179874954204
-0.07074218602914695   -0.0005631783338722867   -0.0017451359920915388
-0.07074218602914695   -0.0005631783338722867   -0.0017451359920915388
-0.07074218602914695   -0.0005631783338722867   -0.0017451359920915388
-0.07074218602914695   -0.0005631783338722867   -0.0017451359920915388
-0.06696375219720013   0.011943177810719158   0.004473005132696487
-0.06696375219720013   0.011943177810719158   0.004473005132696487
-0.06696375219720013   0.011943177810719158   0.004473005132696487
-0.06696375219720013   0.011943177810719158   0.004473005132696487
-0.12099816123980033   -0.006836348842353467   -0.0060186806398313175
-0.12099816123980033   -0.006836348842353467   -0.0060186806398313175
-0.12099816123980033   -0.006836348842353467   -0.0060186806398313175
-0.12099816123980033   -0.006836348842353467   -0.0060186806398313175
-0.09351901119874118   0.00042753009984707047   5.71745073343231e-05
-0.09351901119874118   0.00042753009984707047   5.71745073343231e-05
-0.09351901119874118   0.00042753009984707047   5.71745073343231e-05
-0.09351901119874118   0.00042753009984707047   5.71745073343231e-05
-0.11739122133711243   0.0016658474687067798   0.003513822562547642
-0.11739122133711243   0.0016658474687067798   0.003513822562547642
-0.11739122133711243   0.0016658474687067798   0.003513822562547642
-0.11739122133711243   0.0016658474687067798   0.003513822562547642
-0.07003367982196244   0.003977993777584319   -0.002911448957980245
-0.07003367982196244   0.003977993777584319   -0.002911448957980245
-0.07003367982196244   0.003977993777584319   -0.002911448957980245
-0.07003367982196244   0.003977993777584319   -0.002911448957980245
-0.06613405226498753   0.01744484670132426   0.003537277855888166
-0.06613405226498753   0.01744484670132426   0.003537277855888166
-0.06613405226498753   0.01744484670132426   0.003537277855888166
-0.06613405226498753   0.01744484670132426   0.003537277855888166
-0.11974616598252193   -0.001631184717780218   -0.0066325047941967405
-0.11974616598252193   -0.001631184717780218   -0.0066325047941967405
-0.11974616598252193   -0.001631184717780218   -0.0066325047941967405
-0.11974616598252193   -0.001631184717780218   -0.0066325047941967405
-0.09278330537437413   0.0051717067495089045   0.0021197731024061245
-0.09278330537437413   0.0051717067495089045   0.0021197731024061245
-0.09278330537437413   0.0051717067495089045   0.0021197731024061245
-0.09278330537437413   0.0051717067495089045   0.0021197731024061245
-0.0729200580489599   -0.01377034626532394   0.0003397664110856358
-0.0729200580489599   -0.01377034626532394   0.0003397664110856358
-0.0729200580489599   -0.01377034626532394   0.0003397664110856358
-0.0729200580489599   -0.01377034626532394   0.0003397664110856358
-0.020950503344489394   -0.0019390128467856032   0.002940778693283796
-0.020950503344489394   -0.0019390128467856032   0.002940778693283796
-0.020950503344489394   -0.0019390128467856032   0.002940778693283796
-0.020950503344489394   -0.0019390128467856032   0.002940778693283796
-0.02050197602893326   0.002546430944131605   0.0010039479043228356
-0.02050197602893326   0.002546430944131605   0.0010039479043228356
-0.02050197602893326   0.002546430944131605   0.0010039479043228356
-0.02050197602893326   0.002546430944131605   0.0010039479043228356
-0.07212687429549436   -0.007910431036289725   -0.0013213246214111864
-0.07212687429549436   -0.007910431036289725   -0.0013213246214111864
-0.07212687429549436   -0.007910431036289725   -0.0013213246214111864
-0.07212687429549436   -0.007910431036289725   -0.0013213246214111864
-0.04671139371727358   -0.005033174273745946   -0.0014999401889808422
-0.04671139371727358   -0.005033174273745946   -0.0014999401889808422
-0.04671139371727358   -0.005033174273745946   -0.0014999401889808422
-0.04671139371727358   -0.005033174273745946   -0.0014999401889808422
-0.07199970446576964   -0.008060904688262963   -0.0005350018208138676
-0.07199970446576964   -0.008060904688262963   -0.0005350018208138676
-0.07199970446576964   -0.008060904688262963   -0.0005350018208138676
-0.07199970446576964   -0.008060904688262963   -0.0005350018208138676
-0.020195192244496004   0.003130858210266616   0.001953439560374095
-0.020195192244496004   0.003130858210266616   0.001953439560374095
-0.020195192244496004   0.003130858210266616   0.001953439560374095
-0.020195192244496004   0.003130858210266616   0.001953439560374095
-0.019463281015758702   0.00828177982003829   0.0002063509987218332
-0.019463281015758702   0.00828177982003829   0.0002063509987218332
-0.019463281015758702   0.00828177982003829   0.0002063509987218332
-0.019463281015758702   0.00828177982003829   0.0002063509987218332
-0.07126651250369236   -0.0028002108073495093   -0.002297407781696011
-0.07126651250369236   -0.0028002108073495093   -0.002297407781696011
-0.07126651250369236   -0.0028002108073495093   -0.002297407781696011
-0.07126651250369236   -0.0028002108073495093   -0.002297407781696011
-0.045599712906799386   9.737769357609852e-05   0.0005296228720703196
-0.045599712906799386   9.737769357609852e-05   0.0005296228720703196
-0.045599712906799386   9.737769357609852e-05   0.0005296228720703196
-0.045599712906799386   9.737769357609852e-05   0.0005296228720703196
-0.07099435287540734   -0.0023442240342998275   -0.0013925964133206007
-0.07099435287540734   -0.0023442240342998275   -0.0013925964133206007
-0.07099435287540734   -0.0023442240342998275   -0.0013925964133206007
-0.07099435287540734   -0.0023442240342998275   -0.0013925964133206007
-0.01933449853307571   0.008226735157956702   0.0009053080742183902
-0.01933449853307571   0.008226735157956702   0.0009053080742183902
-0.01933449853307571   0.008226735157956702   0.0009053080742183902
-0.01933449853307571   0.008226735157956702   0.0009053080742183902
-0.018524278612353666   0.01410054235677781   -0.0007150402433709936
-0.018524278612353666   0.01410054235677781   -0.0007150402433709936
-0.018524278612353666   0.01410054235677781   -0.0007150402433709936
-0.018524278612353666   0.01410054235677781   -0.0007150402433709936
-0.07052404371307376   0.0023644065070840548   -0.00333223919030247
-0.07052404371307376   0.0023644065070840548   -0.00333223919030247
-0.07052404371307376   0.0023644065070840548   -0.00333223919030247
-0.07052404371307376   0.0023644065070840548   -0.00333223919030247
-0.04458622550925124   0.005253000126893196   0.0024851406379857357
-0.04458622550925124   0.005253000126893196   0.0024851406379857357
-0.04458622550925124   0.005253000126893196   0.0024851406379857357
-0.04458622550925124   0.005253000126893196   0.0024851406379857357
-0.025355390734271392   -0.01712220823070071   -0.0039004628717112747
-0.025355390734271392   -0.01712220823070071   -0.0039004628717112747
-0.025355390734271392   -0.01712220823070071   -0.0039004628717112747
-0.025355390734271392   -0.01712220823070071   -0.0039004628717112747
0.02860456321604911   0.0020814878603350982   0.006358805392858133
0.02860456321604911   0.0020814878603350982   0.006358805392858133
0.02860456321604911   0.0020814878603350982   0.006358805392858133
0.02860456321604911   0.0020814878603350982   0.006358805392858133
0.026239336988979924   -0.0015036585848746415   -0.0037904102244114756
0.026239336988979924   -0.0015036585848746415   -0.0037904102244114756
0.026239336988979924   -0.0015036585848746415   -0.0037904102244114756
0.026239336988979924   -0.0015036585848746415   -0.0037904102244114756
-0.02149297546116016   -0.0038539209599891826   0.0024493026473089343
-0.02149297546116016   -0.0038539209599891826   0.0024493026473089343
-0.02149297546116016   -0.0038539209599891826   0.0024493026473089343
-0.02149297546116016   -0.0038539209599891826   0.0024493026473089343
0.0018261201244766463   -0.004954383610105195   -0.001080519314446325
0.0018261201244766463   -0.004954383610105195   -0.001080519314446325
0.0018261201244766463   -0.004954383610105195   -0.001080519314446325
0.0018261201244766463   -0.004954383610105195   -0.001080519314446325
-0.0245552777484497   -0.011873104531086455   -0.004843025218041309
-0.0245552777484497   -0.011873104531086455   -0.004843025218041309
-0.0245552777484497   -0.011873104531086455   -0.004843025218041309
-0.0245552777484497   -0.011873104531086455   -0.004843025218041309
0.02981659401504368   0.007030479724996942   0.005561736596035719
0.02981659401504368   0.007030479724996942   0.005561736596035719
0.02981659401504368   0.007030479724996942   0.005561736596035719
0.02981659401504368   0.007030479724996942   0.005561736596035719
0.02819707002850328   0.003925524891780008   -0.0043073144962207325
0.02819707002850328   0.003925524891780008   -0.0043073144962207325
0.02819707002850328   0.003925524891780008   -0.0043073144962207325
0.02819707002850328   0.003925524891780008   -0.0043073144962207325
-0.020745755695282486   0.0007155018274812479   0.001360255593659776
-0.020745755695282486   0.0007155018274812479   0.001360255593659776
-0.020745755695282486   0.0007155018274812479   0.001360255593659776
-0.020745755695282486   0.0007155018274812479   0.001360255593659776
0.002883241947919174   -0.0002696085205652827   0.0009947785979438225
0.002883241947919174   -0.0002696085205652827   0.0009947785979438225
0.002883241947919174   -0.0002696085205652827   0.0009947785979438225
0.002883241947919174   -0.0002696085205652827   0.0009947785979438225
-0.02370176331249311   -0.006778029175131234   -0.005926251489780673
-0.02370176331249311   -0.006778029175131234   -0.005926251489780673
-0.02370176331249311   -0.006778029175131234   -0.005926251489780673
-0.02370176331249311   -0.006778029175131234   -0.005926251489780673
0.0316006985142975   0.011866676762976093   0.004769676061554027
0.0316006985142975   0.011866676762976093   0.004769676061554027
0.0316006985142975   0.011866676762976093   0.004769676061554027
0.0316006985142975   0.011866676762976093   0.004769676061554027
0.029783616194067542   0.01006821365493677   -0.005000282645296367
0.029783616194067542   0.01006821365493677   -0.005000282645296367
0.029783616194067542   0.01006821365493677   -0.005000282645296367
0.029783616194067542   0.01006821365493677   -0.005000282645296367
-0.019949761649792216   0.00593431542244202   0.0003237715037720497
-0.019949761649792216   0.00593431542244202   0.0003237715037720497
-0.019949761649792216   0.00593431542244202   0.0003237715037720497
-0.019949761649792216   0.00593431542244202   0.0003237715037720497
0.00446313704989809   0.004763518560381301   0.0031231005979793633
0.00446313704989809   0.004763518560381301   0.0031231005979793633
0.00446313704989809   0.004763518560381301   0.0031231005979793633
0.00446313704989809   0.004763518560381301   0.0031231005979793633
0.021894835022162523   -0.01729147401286621   -0.007816873703373247
0.021894835022162523   -0.01729147401286621   -0.007816873703373247
0.021894835022162523   -0.01729147401286621   -0.007816873703373247
0.021894835022162523   -0.01729147401286621   -0.007816873703373247
0.07161614465865489   0.007255115034067406   0.008438697821276944
0.07161614465865489   0.007255115034067406   0.008438697821276944
0.07161614465865489   0.007255115034067406   0.008438697821276944
0.07161614465865489   0.007255115034067406   0.008438697821276944
0.07077548698604996   -0.004890705123296915   -0.01031354345264515
0.07077548698604996   -0.004890705123296915   -0.01031354345264515
0.07077548698604996   -0.004890705123296915   -0.01031354345264515
0.07077548698604996   -0.004890705123296915   -0.01031354345264515
0.028893043572339665   0.0016452168462195741   0.006329247261293097
0.028893043572339665   0.0016452168462195741   0.006329247261293097
0.028893043572339665   0.0016452168462195741   0.006329247261293097
0.028893043572339665   0.0016452168462195741   0.006329247261293097
0.045755430222122646   -0.0037750100485714703   -0.0026087671096824555
0.045755430222122646   -0.0037750100485714703   -0.0026087671096824555
0.045755430222122646   -0.0037750100485714703   -0.0026087671096824555
0.045755430222122646   -0.0037750100485714703   -0.0026087671096824555
0.022632687692525875   -0.014268349458153265   -0.009058965833402863
0.022632687692525875   -0.014268349458153265   -0.009058965833402863
0.022632687692525875   -0.014268349458153265   -0.009058965833402863
0.022632687692525875   -0.014268349458153265   -0.009058965833402863
0.07756071857873627   0.011547736893948557   0.007174172493541413
0.07756071857873627   0.011547736893948557   0.007174172493541413
0.07756071857873627   0.011547736893948557   0.007174172493541413
0.07756071857873627   0.011547736893948557   0.007174172493541413
0.07511420470317617   -0.0018638004905887039   -0.01243896052544232
0.07511420470317617   -0.0018638004905887039   -0.01243896052544232
0.07511420470317617   -0.0018638004905887039   -0.01243896052544232
0.07511420470317617   -0.0018638004905887039   -0.01243896052544232
0.03004164857872587   0.00386704298574936   0.004974060160922675
0.03004164857872587   0.00386704298574936   0.004974060160922675
0.03004164857872587   0.00386704298574936   0.004974060160922675
0.03004164857872587   0.00386704298574936   0.004974060160922675
0.050020651430093266   -0.0006906888009283983   -0.00019408233538888023
0.050020651430093266   -0.0006906888009283983   -0.00019408233538888023
0.050020651430093266   -0.0006906888009283983   -0.00019408233538888023
0.050020651430093266   -0.0006906888009283983   -0.00019408233538888023
0.023812281626759142   -0.011747949436180002   -0.01055778217698142
0.023812281626759142   -0.011747949436180002   -0.01055778217698142
0.023812281626759142   -0.011747949436180002   -0.01055778217698142
0.023812281626759142   -0.011747949436180002   -0.01055778217698142
0.0818966329919697   0.014304253268167576   0.005305127159769937
0.0818966329919697   0.014304253268167576   0.005305127159769937
0.0818966329919697   0.014304253268167576   0.005305127159769937
0.0818966329919697   0.014304253268167576   0.005305127159769937
0.08184276911711341   0.0047380743467429955   -0.013376324793832547
0.08184276911711341   0.0047380743467429955   -0.013376324793832547
0.08184276911711341   0.0047380743467429955   -0.013376324793832547
0.08184276911711341   0.0047380743467429955   -0.013376324793832547
0.03121294532826342   0.008246488840722783   0.003968087839896589
0.03121294532826342   0.008246488840722783   0.003968087839896589
0.03121294532826342   0.008246488840722783   0.003968087839896589
0.03121294532826342   0.008246488840722783   0.003968087839896589
0.05233705212781266   0.0026540548900811506   0.001933656948645625
0.05233705212781266   0.0026540548900811506   0.001933656948645625
0.05233705212781266   0.0026540548900811506   0.001933656948645625
0.05233705212781266   0.0026540548900811506   0.001933656948645625
-0.10056717606778215   -0.0012160712791849972   0.010542175937355642
-0.10056717606778215   -0.0012160712791849972   0.010542175937355642
-0.10056717606778215   -0.0012160712791849972   0.010542175937355642
-0.10056717606778215   -0.0012160712791849972   0.010542175937355642
-0.08047788401684935   -0.010554510329374697   -0.005058403942794673
-0.08047788401684935   -0.010554510329374697   -0.005058403942794673
-0.08047788401684935   -0.010554510329374697   -0.005058403942794673
-0.08047788401684935   -0.010554510329374697   -0.005058403942794673
-0.07276399750976682   0.008777109331702676   0.00896827913510875
-0.07276399750976682   0.008777109331702676   0.00896827913510875
-0.07276399750976682   0.008777109331702676   0.00896827913510875
-0.07276399750976682   0.008777109331702676   0.00896827913510875
-0.10024316693002894   -0.010996847523073   -0.0069482364125351866
-0.10024316693002894   -0.010996847523073   -0.0069482364125351866
-0.10024316693002894   -0.010996847523073   -0.0069482364125351866
-0.10024316693002894   -0.010996847523073   -0.0069482364125351866
-0.08522071685356115   -0.002241466080328179   -0.0015740569341994434
-0.08522071685356115   -0.002241466080328179   -0.0015740569341994434
-0.08522071685356115   -0.002241466080328179   -0.0015740569341994434
-0.08522071685356115   -0.002241466080328179   -0.0015740569341994434
-0.09368453152554614   0.00480747109907189   0.010040621987733834
-0.09368453152554614   0.00480747109907189   0.010040621987733834
-0.09368453152554614   0.00480747109907189   0.010040621987733834
-0.09368453152554614   0.00480747109907189   0.010040621987733834
-0.07884848804960105   -0.006553064425793528   -0.0061239998065657116
-0.07884848804960105   -0.006553064425793528   -0.0061239998065657116
-0.07884848804960105   -0.006553064425793528   -0.0061239998065657116
-0.07884848804960105   -0.006553064425793528   -0.0061239998065657116
-0.07106779534498661   0.01108959684472492   0.007552581676547034
-0.07106779534498661   0.01108959684472492   0.007552581676547034
-0.07106779534498661   0.01108959684472492   0.007552581676547034
-0.07106779534498661   0.01108959684472492   0.007552581676547034
-0.09553039914969287   -0.008371559173105217   -0.008627061280024087
-0.09553039914969287   -0.008371559173105217   -0.008627061280024087
-0.09553039914969287   -0.008371559173105217   -0.008627061280024087
-0.09553039914969287   -0.008371559173105217   -0.008627061280024087
-0.0827539690097529   0.0007616198729151757   0.0003733705815784803
-0.0827539690097529   0.0007616198729151757   0.0003733705815784803
-0.0827539690097529   0.0007616198729151757   0.0003733705815784803
-0.0827539690097529   0.0007616198729151757   0.0003733705815784803
-0.08899423819736924   0.007608524000530529   0.008073660307956886
-0.08899423819736924   0.007608524000530529   0.008073660307956886
-0.08899423819736924   0.007608524000530529   0.008073660307956886
-0.08899423819736924   0.007608524000530529   0.008073660307956886
-0.07716211851638625   -0.004448648547986862   -0.007380788787738932
-0.07716211851638625   -0.004448648547986862   -0.007380788787738932
-0.07716211851638625   -0.004448648547986862   -0.007380788787738932
-0.07716211851638625   -0.004448648547986862   -0.007380788787738932
-0.0697271365271724   0.01405463671601974   0.006508465383633153
-0.0697271365271724   0.01405463671601974   0.006508465383633153
-0.0697271365271724   0.01405463671601974   0.006508465383633153
-0.0697271365271724   0.01405463671601974   0.006508465383633153
-0.08921443510222363   -0.004151658338782369   -0.009962648705321483
-0.08921443510222363   -0.004151658338782369   -0.009962648705321483
-0.08921443510222363   -0.004151658338782369   -0.009962648705321483
-0.08921443510222363   -0.004151658338782369   -0.009962648705321483
-0.07785634375024035   0.0037711471658506517   0.002750109097730815
-0.07785634375024035   0.0037711471658506517   0.002750109097730815
-0.07785634375024035   0.0037711471658506517   0.002750109097730815
-0.07785634375024035   0.0037711471658506517   0.002750109097730815
-0.07743436032228289   -0.005561733754668362   0.0051664379553312875
-0.07743436032228289   -0.005561733754668362   0.0051664379553312875
-0.07743436032228289   -0.005561733754668362   0.0051664379553312875
-0.07743436032228289   -0.005561733754668362   0.0051664379553312875
-0.058661560779001996   -0.00797754726552078   -0.0014861670533584737
-0.058661560779001996   -0.00797754726552078   -0.0014861670533584737
-0.058661560779001996   -0.00797754726552078   -0.0014861670533584737
-0.058661560779001996   -0.00797754726552078   -0.0014861670533584737
-0.054441219321343444   0.003964188252335512   0.004590730231143952
-0.054441219321343444   0.003964188252335512   0.004590730231143952
-0.054441219321343444   0.003964188252335512   0.004590730231143952
-0.054441219321343444   0.003964188252335512   0.004590730231143952
-0.0787677450737786   -0.008056562720783957   -0.004216786632462381
-0.0787677450737786   -0.008056562720783957   -0.004216786632462381
-0.0787677450737786   -0.008056562720783957   -0.004216786632462381
-0.0787677450737786   -0.008056562720783957   -0.004216786632462381
-0.06718492985646665   -0.004031464676115313   -0.0019178220852267614
-0.06718492985646665   -0.004031464676115313   -0.0019178220852267614
-0.06718492985646665   -0.004031464676115313   -0.0019178220852267614
-0.06718492985646665   -0.004031464676115313   -0.0019178220852267614
-0.07549160926820575   -0.0002854748736186557   0.004392804548234462
-0.07549160926820575   -0.0002854748736186557   0.004392804548234462
-0.07549160926820575   -0.0002854748736186557   0.004392804548234462
-0.07549160926820575   -0.0002854748736186557   0.004392804548234462
-0.05733554515991568   -0.0034250896278292947   -0.002491621081551972
-0.05733554515991568   -0.0034250896278292947   -0.002491621081551972
-0.05733554515991568   -0.0034250896278292947   -0.002491621081551972
-0.05733554515991568   -0.0034250896278292947   -0.002491621081551972
-0.052990526343867674   0.008700500611611562   0.0036579317340611865
-0.052990526343867674   0.008700500611611562   0.0036579317340611865
-0.052990526343867674   0.008700500611611562   0.0036579317340611865
-0.052990526343867674   0.008700500611611562   0.0036579317340611865
-0.07651935544695455   -0.0035567179897408787   -0.0050589039988257825
-0.07651935544695455   -0.0035567179897408787   -0.0050589039988257825
-0.07651935544695455   -0.0035567179897408787   -0.0050589039988257825
-0.07651935544695455   -0.0035567179897408787   -0.0050589039988257825
-0.06503305543192486   0.0004811696148272135   0.00010233759847056876
-0.06503305543192486   0.0004811696148272135   0.00010233759847056876
-0.06503305543192486   0.0004811696148272135   0.00010233759847056876
-0.06503305543192486   0.0004811696148272135   0.00010233759847056876
-0.07304859425486875   0.004754114564142795   0.0039840694077185
-0.07304859425486875   0.004754114564142795   0.0039840694077185
-0.07304859425486875   0.004754114564142795   0.0039840694077185
-0.07304859425486875   0.004754114564142795   0.0039840694077185
-0.05602080004186547   0.0008301555518149782   -0.003623091696131735
-0.05602080004186547   0.0008301555518149782   -0.003623091696131735
-0.05602080004186547   0.0008301555518149782   -0.003623091696131735
-0.05602080004186547   0.0008301555518149782   -0.003623091696131735
-0.05154241065425355   0.013889904719501812   0.0027691870639450253
-0.05154241065425355   0.013889904719501812   0.0027691870639450253
-0.05154241065425355   0.013889904719501812   0.0027691870639450253
-0.05154241065425355   0.013889904719501812   0.0027691870639450253
-0.07470193650754683   0.0014067707284629513   -0.005717668530681105
-0.07470193650754683   0.0014067707284629513   -0.005717668530681105
-0.07470193650754683   0.0014067707284629513   -0.005717668530681105
-0.07470193650754683   0.0014067707284629513   -0.005717668530681105
-0.06349411158714359   0.0049631556997361565   0.0020994010737667495
-0.06349411158714359   0.0049631556997361565   0.0020994010737667495
-0.06349411158714359   0.0049631556997361565   0.0020994010737667495
-0.06349411158714359   0.0049631556997361565   0.0020994010737667495
-0.05853505642569517   -0.009841931426793894   0.0010107388744478162
-0.05853505642569517   -0.009841931426793894   0.0010107388744478162
-0.05853505642569517   -0.009841931426793894   0.0010107388744478162
-0.05853505642569517   -0.009841931426793894   0.0010107388744478162
-0.037003253740843886   -0.0044671532013128516   0.002094843779762725
-0.037003253740843886   -0.0044671532013128516   0.002094843779762725
-0.037003253740843886   -0.0044671532013128516   0.002094843779762725
-0.037003253740843886   -0.0044671532013128516   0.002094843779762725
-0.035965694216347904   -0.00036335570679620934   0.0002528719469099428
-0.035965694216347904   -0.00036335570679620934   0.0002528719469099428
-0.035965694216347904   -0.00036335570679620934   0.0002528719469099428
-0.035965694216347904   -0.00036335570679620934   0.0002528719469099428
-0.05711958514066124   -0.004378873450436232   -0.0004580371626734252
-0.05711958514066124   -0.004378873450436232   -0.0004580371626734252
-0.05711958514066124   -0.004378873450436232   -0.0004580371626734252
-0.05711958514066124   -0.004378873450436232   -0.0004580371626734252
-0.04723471938039281   -0.004533866256177724   -0.0014132872675114141
-0.04723471938039281   -0.004533866256177724   -0.0014132872675114141
-0.04723471938039281   -0.004533866256177724   -0.0014132872675114141
-0.04723471938039281   -0.004533866256177724   -0.0014132872675114141
-0.05703157401237606   -0.004588730874767641   0.00019187590308352787
-0.05703157401237606   -0.004588730874767641   0.00019187590308352787
-0.05703157401237606   -0.004588730874767641   0.00019187590308352787
-0.05703157401237606   -0.004588730874767641   0.00019187590308352787
-0.03567259398509219   0.00022761307707555058   0.0011274043193164308
-0.03567259398509219   0.00022761307707555058   0.0011274043193164308
-0.03567259398509219   0.00022761307707555058   0.0011274043193164308
-0.03567259398509219   0.00022761307707555058   0.0011274043193164308
-0.03437436201065526   0.004933320458973862   -0.0005219019431162621
-0.03437436201065526   0.004933320458973862   -0.0005219019431162621
-0.03437436201065526   0.004933320458973862   -0.0005219019431162621
-0.03437436201065526   0.004933320458973862   -0.0005219019431162621
-0.05566427748557111   0.00038502188189369103   -0.0013953452447385624
-0.05566427748557111   0.00038502188189369103   -0.0013953452447385624
-0.05566427748557111   0.00038502188189369103   -0.0013953452447385624
-0.05566427748557111   0.00038502188189369103   -0.0013953452447385624
-0.04554775802095323   0.0002036805504067405   0.0005576148128670104
-0.04554775802095323   0.0002036805504067405   0.0005576148128670104
-0.04554775802095323   0.0002036805504067405   0.0005576148128670104
-0.04554775802095323   0.0002036805504067405   0.0005576148128670104
-0.05545460826427353   0.0006910467880015241   -0.0006530240443590267
-0.05545460826427353   0.0006910467880015241   -0.0006530240443590267
-0.05545460826427353   0.0006910467880015241   -0.0006530240443590267
-0.05545460826427353   0.0006910467880015241   -0.0006530240443590267
-0.03423847101919584   0.004972855765622728   0.00011801770753135706
-0.03423847101919584   0.004972855765622728   0.00011801770753135706
-0.03423847101919584   0.004972855765622728   0.00011801770753135706
-0.03423847101919584   0.004972855765622728   0.00011801770753135706
-0.032868971255070246   0.010283835558740493   -0.0013901663900237797
-0.032868971255070246   0.010283835558740493   -0.0013901663900237797
-0.032868971255070246   0.010283835558740493   -0.0013901663900237797
-0.032868971255070246   0.010283835558740493   -0.0013901663900237797
-0.05431989345488944   0.005183849391139854   -0.0024121716108715992
-0.05431989345488944   0.005183849391139854   -0.0024121716108715992
-0.05431989345488944   0.005183849391139854   -0.0024121716108715992
-0.05431989345488944   0.005183849391139854   -0.0024121716108715992
-0.04396174141382993   0.004959003916250239   0.0024478911904225655
-0.04396174141382993   0.004959003916250239   0.0024478911904225655
-0.04396174141382993   0.004959003916250239   0.0024478911904225655
-0.04396174141382993   0.004959003916250239   0.0024478911904225655
-0.039863242043345105   -0.013515237047438892   -0.003157013886617997
-0.039863242043345105   -0.013515237047438892   -0.003157013886617997
-0.039863242043345105   -0.013515237047438892   -0.003157013886617997
-0.039863242043345105   -0.013515237047438892   -0.003157013886617997
-0.016306580952395493   -0.0007479718259329696   0.005464363829103521
-0.016306580952395493   -0.0007479718259329696   0.005464363829103521
-0.016306580952395493   -0.0007479718259329696   0.005464363829103521
-0.016306580952395493   -0.0007479718259329696   0.005464363829103521
-0.018069886283441416   -0.004518375072633991   -0.0042960570936338505
-0.018069886283441416   -0.004518375072633991   -0.0042960570936338505
-0.018069886283441416   -0.004518375072633991   -0.0042960570936338505
-0.018069886283441416   -0.004518375072633991   -0.0042960570936338505
-0.03540237215283017   -0.0005019368166049778   0.0032080633743070213
-0.03540237215283017   -0.0005019368166049778   0.0032080633743070213
-0.03540237215283017   -0.0005019368166049778   0.0032080633743070213
-0.03540237215283017   -0.0005019368166049778   0.0032080633743070213
-0.02736520575977312   -0.004616241284273632   -0.0010246798777569885
-0.02736520575977312   -0.004616241284273632   -0.0010246798777569885
-0.02736520575977312   -0.004616241284273632   -0.0010246798777569885
-0.02736520575977312   -0.004616241284273632   -0.0010246798777569885
-0.03845924163541139   -0.008543899079451656   -0.004034321775752682
-0.03845924163541139   -0.008543899079451656   -0.004034321775752682
-0.03845924163541139   -0.008543899079451656   -0.004034321775752682
-0.03845924163541139   -0.008543899079451656   -0.004034321775752682
-0.01458834569426546   0.003948258296807453   0.004645012482804469
-0.01458834569426546   0.003948258296807453   0.004645012482804469
-0.01458834569426546   0.003948258296807453   0.004645012482804469
-0.01458834569426546   0.003948258296807453   0.004645012482804469
-0.015666299192827467   0.0004907858449299217   -0.004842780821551873
-0.015666299192827467   0.0004907858449299217   -0.004842780821551873
-0.015666299192827467   0.0004907858449299217   -0.004842780821551873
-0.015666299192827467   0.0004907858449299217   -0.004842780821551873
-0.03407111017446662   0.003771249358978348   0.002156428337822123
-0.03407111017446662   0.003771249358978348   0.002156428337822123
-0.03407111017446662   0.003771249358978348   0.002156428337822123
-0.03407111017446662   0.003771249358978348   0.002156428337822123
-0.025536954579754242   -0.00017715507080016783   0.0009931955928117906
-0.025536954579754242   -0.00017715507080016783   0.0009931955928117906
-0.025536954579754242   -0.00017715507080016783   0.0009931955928117906
-0.025536954579754242   -0.00017715507080016783   0.0009931955928117906
-0.037029755627294075   -0.0038220493259337176   -0.005043500241403373
-0.037029755627294075   -0.0038220493259337176   -0.005043500241403373
-0.037029755627294075   -0.0038220493259337176   -0.005043500241403373
-0.037029755627294075   -0.0038220493259337176   -0.005043500241403373
-0.012311518078900472   0.008480220190940866   0.003941690402072394
-0.012311518078900472   0.008480220190940866   0.003941690402072394
-0.012311518078900472   0.008480220190940866   0.003941690402072394
-0.012311518078900472   0.008480220190940866   0.003941690402072394
-0.013639780788365141   0.006042923191310705   -0.005443170513311599
-0.013639780788365141   0.006042923191310705   -0.005443170513311599
-0.013639780788365141   0.006042923191310705   -0.005443170513311599
-0.013639780788365141   0.006042923191310705   -0.005443170513311599
-0.03270732038742481   0.008560205688485784   0.0011417178184580951
-0.03270732038742481   0.008560205688485784   0.0011417178184580951
-0.03270732038742481   0.008560205688485784   0.0011417178184580951
-0.03270732038742481   0.008560205688485784   0.0011417178184580951
-0.023682251136214756   0.004390109685422712   0.002990633422743816
-0.023682251136214756   0.004390109685422712   0.002990633422743816
-0.023682251136214756   0.004390109685422712   0.002990633422743816
-0.023682251136214756   0.004390109685422712   0.002990633422743816
-0.021537137693459912   -0.014458799450867773   -0.006977592251284288
-0.021537137693459912   -0.014458799450867773   -0.006977592251284288
-0.021537137693459912   -0.014458799450867773   -0.006977592251284288
-0.021537137693459912   -0.014458799450867773   -0.006977592251284288
-0.001973464428537202   0.003667734533792746   0.0085324063662261
-0.001973464428537202   0.003667734533792746   0.0085324063662261
-0.001973464428537202   0.003667734533792746   0.0085324063662261
-0.001973464428537202   0.003667734533792746   0.0085324063662261
-0.0021120601540127763   -0.007680465188462443   -0.00929405918576263
-0.0021120601540127763   -0.007680465188462443   -0.00929405918576263
-0.0021120601540127763   -0.007680465188462443   -0.00929405918576263
-0.0021120601540127763   -0.007680465188462443   -0.00929405918576263
-0.013993940428507112   0.004574009007779816   0.006991288100623799
-0.013993940428507112   0.004574009007779816   0.006991288100623799
-0.013993940428507112   0.004574009007779816   0.006991288100623799
-0.013993940428507112   0.004574009007779816   0.006991288100623799
-0.009787845735735929   -0.0032690754609572587   -0.0014747128100379766
-0.009787845735735929   -0.0032690754609572587   -0.0014747128100379766
-0.009787845735735929   -0.0032690754609572587   -0.0014747128100379766
-0.009787845735735929   -0.0032690754609572587   -0.0014747128100379766
-0.02012081079811959   -0.011031012023385751   -0.008038042716273439
-0.02012081079811959   -0.011031012023385751   -0.008038042716273439
-0.02012081079811959   -0.011031012023385751   -0.008038042716273439
-0.02012081079811959   -0.011031012023385751   -0.008038042716273439
0.004465831657198433   0.008375577284301966   0.007539357397529006
0.004465831657198433   0.008375577284301966   0.007539357397529006
0.004465831657198433   0.008375577284301966   0.007539357397529006
0.004465831657198433   0.008375577284301966   0.007539357397529006
0.002612708952576766   -0.004831825347667735   -0.011091341880013695
0.002612708952576766   -0.004831825347667735   -0.011091341880013695
0.002612708952576766   -0.004831825347667735   -0.011091341880013695
0.002612708952576766   -0.004831825347667735   -0.011091341880013695
-0.01234062083771045   0.006642909170174335   0.005633487628788825
-0.01234062083771045   0.006642909170174335   0.005633487628788825
-0.01234062083771045   0.006642909170174335   0.005633487628788825
-0.01234062083771045   0.006642909170174335   0.005633487628788825
-0.006027925270261892   -0.0003100202928810325   0.0006809209115495151
-0.006027925270261892   -0.0003100202928810325   0.0006809209115495151
-0.006027925270261892   -0.0003100202928810325   0.0006809209115495151
-0.006027925270261892   -0.0003100202928810325   0.0006809209115495151
-0.018400971818359247   -0.008684470622256872   -0.009340887482023968
-0.018400971818359247   -0.008684470622256872   -0.009340887482023968
-0.018400971818359247   -0.008684470622256872   -0.009340887482023968
-0.018400971818359247   -0.008684470622256872   -0.009340887482023968
0.009129484832785391   0.010951979344323319   0.0057087328290379
0.009129484832785391   0.010951979344323319   0.0057087328290379
0.009129484832785391   0.010951979344323319   0.0057087328290379
0.009129484832785391   0.010951979344323319   0.0057087328290379
0.009349426438819095   0.0006949318062040039   -0.011926178443252979
0.009349426438819095   0.0006949318062040039   -0.011926178443252979
0.009349426438819095   0.0006949318062040039   -0.011926178443252979
0.009349426438819095   0.0006949318062040039   -0.011926178443252979
-0.010805725022410704   0.01018602211049109   0.004584009397280363
-0.010805725022410704   0.01018602211049109   0.004584009397280363
-0.010805725022410704   0.01018602211049109   0.004584009397280363
-0.010805725022410704   0.01018602211049109   0.004584009397280363
-0.002436997750035621   0.0027477629004978954   0.0028322278734779936
-0.002436997750035621   0.0027477629004978954   0.0028322278734779936
-0.002436997750035621   0.0027477629004978954   0.0028322278734779936
-0.002436997750035621   0.0027477629004978954   0.0028322278734779936
-0.03010964016624396   0.002485819706533594   0.009775002386143128
-0.03010964016624396   0.002485819706533594   0.009775002386143128
-0.03010964016624396   0.002485819706533594   0.009775002386143128
-0.03010964016624396   0.002485819706533594   0.009775002386143128
-0.039634227189122746   -0.012548608297078738   -0.005581020316237037
-0.039634227189122746   -0.012548608297078738   -0.005581020316237037
-0.039634227189122746   -0.012548608297078738   -0.005581020316237037
-0.039634227189122746   -0.012548608297078738   -0.005581020316237037
-0.03164719095608865   0.005703877397154763   0.007959412214663336
-0.03164719095608865   0.005703877397154763   0.007959412214663336
-0.03164719095608865   0.005703877397154763   0.007959412214663336
-0.03164719095608865   0.005703877397154763   0.007959412214663336
-0.0293473196336098   -0.007743325964427446   -0.007274692381148569
-0.0293473196336098   -0.007743325964427446   -0.007274692381148569
-0.0293473196336098   -0.007743325964427446   -0.007274692381148569
-0.0293473196336098   -0.007743325964427446   -0.007274692381148569
-0.03198129670488737   -0.002438539624295086   -0.002849377252091938
-0.03198129670488737   -0.002438539624295086   -0.002849377252091938
-0.03198129670488737   -0.002438539624295086   -0.002849377252091938
-0.03198129670488737   -0.002438539624295086   -0.002849377252091938
-0.022994472313334118   0.0076598186116113775   0.009086399644190885
-0.022994472313334118   0.0076598186116113775   0.009086399644190885
-0.022994472313334118   0.0076598186116113775   0.009086399644190885
-0.022994472313334118   0.0076598186116113775   0.009086399644190885
-0.037575323949388076   -0.009274552851907503   -0.00670282250277057
-0.037575323949388076   -0.009274552851907503   -0.00670282250277057
-0.037575323949388076   -0.009274552851907503   -0.00670282250277057
-0.037575323949388076   -0.009274552851907503   -0.00670282250277057
-0.029372491815621845   0.007918538557073758   0.006665520036803585
-0.029372491815621845   0.007918538557073758   0.006665520036803585
-0.029372491815621845   0.007918538557073758   0.006665520036803585
-0.029372491815621845   0.007918538557073758   0.006665520036803585
-0.024150981956160847   -0.005240467560523943   -0.008996823084905497
-0.024150981956160847   -0.005240467560523943   -0.008996823084905497
-0.024150981956160847   -0.005240467560523943   -0.008996823084905497
-0.024150981956160847   -0.005240467560523943   -0.008996823084905497
-0.028154646697712532   0.00036385720306291326   -0.0007590820966279317
-0.028154646697712532   0.00036385720306291326   -0.0007590820966279317
-0.028154646697712532   0.00036385720306291326   -0.0007590820966279317
-0.028154646697712532   0.00036385720306291326   -0.0007590820966279317
-0.01778988678127285   0.010346327168654447   0.007221858060356131
-0.01778988678127285   0.010346327168654447   0.007221858060356131
-0.01778988678127285   0.010346327168654447   0.007221858060356131
-0.01778988678127285   0.010346327168654447   0.007221858060356131
-0.035341411300853255   -0.007276080482447643   -0.007984458349831598
-0.035341411300853255   -0.007276080482447643   -0.007984458349831598
-0.035341411300853255   -0.007276080482447643   -0.007984458349831598
-0.035341411300853255   -0.007276080482447643   -0.007984458349831598
-0.027318724294511057   0.01137035158028243   0.005751690082289939
-0.027318724294511057   0.01137035158028243   0.005751690082289939
-0.027318724294511057   0.01137035158028243   0.005751690082289939
-0.027318724294511057   0.01137035158028243   0.005751690082289939
-0.017201292172642622   -0.0004896671800909474   -0.01011495231410827
-0.017201292172642622   -0.0004896671800909474   -0.01011495231410827
-0.017201292172642622   -0.0004896671800909474   -0.01011495231410827
-0.017201292172642622   -0.0004896671800909474   -0.01011495231410827
-0.02363298584301523   0.003338983502723213   0.0014461915756254714
-0.02363298584301523   0.003338983502723213   0.0014461915756254714
-0.02363298584301523   0.003338983502723213   0.0014461915756254714
-0.02363298584301523   0.003338983502723213   0.0014461915756254714
-0.03523142573289926   -0.001847842593390889   0.0057322212611921
-0.03523142573289926   -0.001847842593390889   0.0057322212611921
-0.03523142573289926   -0.001847842593390889   0.0057322212611921
-0.03523142573289926   -0.001847842593390889   0.0057322212611921
-0.04630496960016989   -0.010253070525854148   -0.002174948883176011
-0.04630496960016989   -0.010253070525854148   -0.002174948883176011
-0.04630496960016989   -0.010253070525854148   -0.002174948883176011
-0.04630496960016989   -0.010253070525854148   -0.002174948883176011
-0.04163916892256661   0.0009534104064140101   0.0037045028523154783
-0.04163916892256661   0.0009534104064140101   0.0037045028523154783
-0.04163916892256661   0.0009534104064140101   0.0037045028523154783
-0.04163916892256661   0.0009534104064140101   0.0037045028523154783
-0.03591279329498333   -0.0044480918372173765   -0.0032166302454368226
-0.03591279329498333   -0.0044480918372173765   -0.0032166302454368226
-0.03591279329498333   -0.0044480918372173765   -0.0032166302454368226
-0.03591279329498333   -0.0044480918372173765   -0.0032166302454368226
-0.03984215351575058   -0.0035769818126676145   -0.0019155234390517562
-0.03984215351575058   -0.0035769818126676145   -0.0019155234390517562
-0.03984215351575058   -0.0035769818126676145   -0.0019155234390517562
-0.03984215351575058   -0.0035769818126676145   -0.0019155234390517562
-0.032784094779119984   0.0029827323033106293   0.00499603819335134
-0.032784094779119984   0.0029827323033106293   0.00499603819335134
-0.032784094779119984   0.0029827323033106293   0.00499603819335134
-0.032784094779119984   0.0029827323033106293   0.00499603819335134
-0.04443215907137296   -0.006141705367057028   -0.003165332118245442
-0.04443215907137296   -0.006141705367057028   -0.003165332118245442
-0.04443215907137296   -0.006141705367057028   -0.003165332118245442
-0.04443215907137296   -0.006141705367057028   -0.003165332118245442
-0.03962372401715279   0.00539723053176866   0.0028152071789201544
-0.03962372401715279   0.00539723053176866   0.0028152071789201544
-0.03962372401715279   0.00539723053176866   0.0028152071789201544
-0.03962372401715279   0.00539723053176866   0.0028152071789201544
-0.03313416725316318   -0.0002205316672371279   -0.004003786926591571
-0.03313416725316318   -0.0002205316672371279   -0.004003786926591571
-0.03313416725316318   -0.0002205316672371279   -0.004003786926591571
-0.03313416725316318   -0.0002205316672371279   -0.004003786926591571
-0.03739497274196894   0.000520335375244034   -2.3487860108086303e-06
-0.03739497274196894   0.000520335375244034   -2.3487860108086303e-06
-0.03739497274196894   0.000520335375244034   -2.3487860108086303e-06
-0.03739497274196894   0.000520335375244034   -2.3487860108086303e-06
-0.029849143225843956   0.007691054635666573   0.004509746907100195
-0.029849143225843956   0.007691054635666573   0.004509746907100195
-0.029849143225843956   0.007691054635666573   0.004509746907100195
-0.029849143225843956   0.007691054635666573   0.004509746907100195
-0.04254986197657463   -0.0021554697032383635   -0.004262782383182477
-0.04254986197657463   -0.0021554697032383635   -0.004262782383182477
-0.04254986197657463   -0.0021554697032383635   -0.004262782383182477
-0.04254986197657463   -0.0021554697032383635   -0.004262782383182477
-0.037594000501323305   0.01036576985017355   0.001969391071648347
-0.037594000501323305   0.01036576985017355   0.001969391071648347
-0.037594000501323305   0.01036576985017355   0.001969391071648347
-0.037594000501323305   0.01036576985017355   0.001969391071648347
-0.030781064667712674   0.00452292726939873   -0.004712587472834176
-0.030781064667712674   0.00452292726939873   -0.004712587472834176
-0.030781064667712674   0.00452292726939873   -0.004712587472834176
-0.030781064667712674   0.00452292726939873   -0.004712587472834176
-0.03507623301620341   0.004807948976537356   0.001964916801616091
-0.03507623301620341   0.004807948976537356   0.001964916801616091
-0.03507623301620341   0.004807948976537356   0.001964916801616091
-0.03507623301620341   0.004807948976537356   0.001964916801616091
-0.04470035542416813   -0.006088776666445133   0.0016838281374233217
-0.04470035542416813   -0.006088776666445133   0.0016838281374233217
-0.04470035542416813   -0.006088776666445133   0.0016838281374233217
-0.04470035542416813   -0.006088776666445133   0.0016838281374233217
-0.05282315990265556   -0.006763971904548862   0.0012826664492595616
-0.05282315990265556   -0.006763971904548862   0.0012826664492595616
-0.05282315990265556   -0.006763971904548862   0.0012826664492595616
-0.05282315990265556   -0.006763971904548862   0.0012826664492595616
-0.05126030298235518   -0.003216704866558045   -0.000506476401588558
-0.05126030298235518   -0.003216704866558045   -0.000506476401588558
-0.05126030298235518   -0.003216704866558045   -0.000506476401588558
-0.05126030298235518   -0.003216704866558045   -0.000506476401588558
-0.042634020412567225   -0.000771832708991043   0.00045548851771705346
-0.042634020412567225   -0.000771832708991043   0.00045548851771705346
-0.042634020412567225   -0.000771832708991043   0.00045548851771705346
-0.042634020412567225   -0.000771832708991043   0.00045548851771705346
-0.047926975495977166   -0.003973280600137217   -0.0013000595701828438
-0.047926975495977166   -0.003973280600137217   -0.0013000595701828438
-0.047926975495977166   -0.003973280600137217   -0.0013000595701828438
-0.047926975495977166   -0.003973280600137217   -0.0013000595701828438
-0.04263495816972833   -0.0012121226826094875   0.0008910897055294537
-0.04263495816972833   -0.0012121226826094875   0.0008910897055294537
-0.04263495816972833   -0.0012121226826094875   0.0008910897055294537
-0.04263495816972833   -0.0012121226826094875   0.0008910897055294537
-0.05093921422732834   -0.002456263895074296   0.0003385264020619079
-0.05093921422732834   -0.002456263895074296   0.0003385264020619079
-0.05093921422732834   -0.002456263895074296   0.0003385264020619079
-0.05093921422732834   -0.002456263895074296   0.0003385264020619079
-0.049127163279273314   0.0017184451469937426   -0.0012653431255361058
-0.049127163279273314   0.0017184451469937426   -0.0012653431255361058
-0.049127163279273314   0.0017184451469937426   -0.0012653431255361058
-0.049127163279273314   0.0017184451469937426   -0.0012653431255361058
-0.04062488316893276   0.003651814846778999   -0.00044517289499015206
-0.04062488316893276   0.003651814846778999   -0.00044517289499015206
-0.04062488316893276   0.003651814846778999   -0.00044517289499015206
-0.04062488316893276   0.003651814846778999   -0.00044517289499015206
-0.045687938905457706   0.0004154397732550989   0.0006017636187579164
-0.045687938905457706   0.0004154397732550989   0.0006017636187579164
-0.045687938905457706   0.0004154397732550989   0.0006017636187579164
-0.045687938905457706   0.0004154397732550989   0.0006017636187579164
-0.040514684057591024   0.003704614265114217   5.302324338295628e-05
-0.040514684057591024   0.003704614265114217   5.302324338295628e-05
-0.040514684057591024   0.003704614265114217   5.302324338295628e-05
-0.040514684057591024   0.003704614265114217   5.302324338295628e-05
-0.04895570954797672   0.0019472985712968918   -0.0006369278933567304
-0.04895570954797672   0.0019472985712968918   -0.0006369278933567304
-0.04895570954797672   0.0019472985712968918   -0.0006369278933567304
-0.04895570954797672   0.0019472985712968918   -0.0006369278933567304
-0.04708289072633487   0.006692288314188435   -0.0021069797241832664
-0.04708289072633487   0.006692288314188435   -0.0021069797241832664
-0.04708289072633487   0.006692288314188435   -0.0021069797241832664
-0.04708289072633487   0.006692288314188435   -0.0021069797241832664
-0.03873218342921454   0.008093665846190722   -0.0014494195638245734
-0.03873218342921454   0.008093665846190722   -0.0014494195638245734
-0.03873218342921454   0.008093665846190722   -0.0014494195638245734
-0.03873218342921454   0.008093665846190722   -0.0014494195638245734
-0.0435652829258343   0.004814357305843623   0.002413053437948809
-0.0435652829258343   0.004814357305843623   0.002413053437948809
-0.0435652829258343   0.004814357305843623   0.002413053437948809
-0.0435652829258343   0.004814357305843623   0.002413053437948809
-0.05419394402207546   -0.009904468680140164   -0.002430757372249074
-0.05419394402207546   -0.009904468680140164   -0.002430757372249074
-0.05419394402207546   -0.009904468680140164   -0.002430757372249074
-0.05419394402207546   -0.009904468680140164   -0.002430757372249074
-0.060056853314652256   -0.0033357147522433926   0.004555570829388239
-0.060056853314652256   -0.0033357147522433926   0.004555570829388239
-0.060056853314652256   -0.0033357147522433926   0.004555570829388239
-0.060056853314652256   -0.0033357147522433926   0.004555570829388239
-0.06120591029555391   -0.0072681652654994055   -0.0048195407274413725
-0.06120591029555391   -0.0072681652654994055   -0.0048195407274413725
-0.06120591029555391   -0.0072681652654994055   -0.0048195407274413725
-0.06120591029555391   -0.0072681652654994055   -0.0048195407274413725
-0.04914902573094032   0.0028857644370128   0.003947440551914877
-0.04914902573094032   0.0028857644370128   0.003947440551914877
-0.04914902573094032   0.0028857644370128   0.003947440551914877
-0.04914902573094032   0.0028857644370128   0.003947440551914877
-0.05589149566969426   -0.004139044733331451   -0.0008287982503964336
-0.05589149566969426   -0.004139044733331451   -0.0008287982503964336
-0.05589149566969426   -0.004139044733331451   -0.0008287982503964336
-0.05589149566969426   -0.004139044733331451   -0.0008287982503964336
-0.052197039298578676   -0.005153212908723843   -0.003253649940540725
-0.052197039298578676   -0.005153212908723843   -0.003253649940540725
-0.052197039298578676   -0.005153212908723843   -0.003253649940540725
-0.052197039298578676   -0.005153212908723843   -0.003253649940540725
-0.05782289674590019   0.0011058120622534882   0.0037215496930743507
-0.05782289674590019   0.0011058120622534882   0.0037215496930743507
-0.05782289674590019   0.0011058120622534882   0.0037215496930743507
-0.05782289674590019   0.0011058120622534882   0.0037215496930743507
-0.05832703448211818   -0.0025934339134819455   -0.005411063716823955
-0.05832703448211818   -0.0025934339134819455   -0.005411063716823955
-0.05832703448211818   -0.0025934339134819455   -0.005411063716823955
-0.05832703448211818   -0.0025934339134819455   -0.005411063716823955
-0.047256148626743544   0.006868152485760249   0.00294002279834577
-0.047256148626743544   0.006868152485760249   0.00294002279834577
-0.047256148626743544   0.006868152485760249   0.00294002279834577
-0.047256148626743544   0.006868152485760249   0.00294002279834577
-0.05328895475095253   0.00010742593357994552   0.0011440040343610382
-0.05328895475095253   0.00010742593357994552   0.0011440040343610382
-0.05328895475095253   0.00010742593357994552   0.0011440040343610382
-0.05328895475095253   0.00010742593357994552   0.0011440040343610382
-0.05020716895825161   -0.0007305277833586782   -0.0042163985900760615
-0.05020716895825161   -0.0007305277833586782   -0.0042163985900760615
-0.05020716895825161   -0.0007305277833586782   -0.0042163985900760615
-0.05020716895825161   -0.0007305277833586782   -0.0042163985900760615
-0.055037655645519636   0.005343604860728423   0.003098791691958907
-0.055037655645519636   0.005343604860728423   0.003098791691958907
-0.055037655645519636   0.005343604860728423   0.003098791691958907
-0.055037655645519636   0.005343604860728423   0.003098791691958907
-0.05582003080428574   0.0025188633387335096   -0.005952283513446182
-0.05582003080428574   0.0025188633387335096   -0.005952283513446182
-0.05582003080428574   0.0025188633387335096   -0.005952283513446182
-0.05582003080428574   0.0025188633387335096   -0.005952283513446182
-0.0453589579159312   0.011260008269358733   0.0019449643726647137
-0.0453589579159312   0.011260008269358733   0.0019449643726647137
-0.0453589579159312   0.011260008269358733   0.0019449643726647137
-0.0453589579159312   0.011260008269358733   0.0019449643726647137
-0.051156677481646   0.004266170572349914   0.0030112537251386125
-0.051156677481646   0.004266170572349914   0.0030112537251386125
-0.051156677481646   0.004266170572349914   0.0030112537251386125
-0.051156677481646   0.004266170572349914   0.0030112537251386125
-0.06388113266369456   -0.011667157100081326   -0.006234383567986013
-0.06388113266369456   -0.011667157100081326   -0.006234383567986013
-0.06388113266369456   -0.011667157100081326   -0.006234383567986013
-0.06388113266369456   -0.011667157100081326   -0.006234383567986013
-0.07329269906189172   0.00028629513845196235   0.008443356559612892
-0.07329269906189172   0.00028629513845196235   0.008443356559612892
-0.07329269906189172   0.00028629513845196235   0.008443356559612892
-0.07329269906189172   0.00028629513845196235   0.008443356559612892
-0.07270326658897452   -0.010245347957252503   -0.008396170564070384
-0.07270326658897452   -0.010245347957252503   -0.008396170564070384
-0.07270326658897452   -0.010245347957252503   -0.008396170564070384
-0.07270326658897452   -0.010245347957252503   -0.008396170564070384
-0.05578989673483547   0.00743021392904211   0.007562147881608707
-0.05578989673483547   0.00743021392904211   0.007562147881608707
-0.05578989673483547   0.00743021392904211   0.007562147881608707
-0.05578989673483547   0.00743021392904211   0.007562147881608707
-0.06369913607708637   -0.002710076751027567   -0.00020192583656448255
-0.06369913607708637   -0.002710076751027567   -0.00020192583656448255
-0.06369913607708637   -0.002710076751027567   -0.00020192583656448255
-0.06369913607708637   -0.002710076751027567   -0.00020192583656448255
-0.061779418597836054   -0.0078103281225680695   -0.007144919381784681
-0.061779418597836054   -0.0078103281225680695   -0.007144919381784681
-0.061779418597836054   -0.0078103281225680695   -0.007144919381784681
-0.061779418597836054   -0.0078103281225680695   -0.007144919381784681
-0.06636093551366917   0.0053480033066620036   0.007722133548541871
-0.06636093551366917   0.0053480033066620036   0.007722133548541871
-0.06636093551366917   0.0053480033066620036   0.007722133548541871
-0.06636093551366917   0.0053480033066620036   0.007722133548541871
-0.06756026767113787   -0.0075374096950715005   -0.010048459864012945
-0.06756026767113787   -0.0075374096950715005   -0.010048459864012945
-0.06756026767113787   -0.0075374096950715005   -0.010048459864012945
-0.06756026767113787   -0.0075374096950715005   -0.010048459864012945
-0.05361644187089089   0.009338989308504285   0.006209476117326262
-0.05361644187089089   0.009338989308504285   0.006209476117326262
-0.05361644187089089   0.009338989308504285   0.006209476117326262
-0.05361644187089089   0.009338989308504285   0.006209476117326262
-0.06039903321677359   0.000146843889414423   0.0016645354457350257
-0.06039903321677359   0.000146843889414423   0.0016645354457350257
-0.06039903321677359   0.000146843889414423   0.0016645354457350257
-0.06039903321677359   0.000146843889414423   0.0016645354457350257
-0.05950340389794546   -0.005578011591265187   -0.008308333118177842
-0.05950340389794546   -0.005578011591265187   -0.008308333118177842
-0.05950340389794546   -0.005578011591265187   -0.008308333118177842
-0.05950340389794546   -0.005578011591265187   -0.008308333118177842
-0.06130120109350628   0.007751695755275704   0.005957767573798745
-0.06130120109350628   0.007751695755275704   0.005957767573798745
-0.06130120109350628   0.007751695755275704   0.005957767573798745
-0.06130120109350628   0.007751695755275704   0.005957767573798745
-0.06068197956900007   -0.002911272773250404   -0.011026210474833886
-0.06068197956900007   -0.002911272773250404   -0.011026210474833886
-0.06068197956900007   -0.002911272773250404   -0.011026210474833886
-0.06068197956900007   -0.002911272773250404   -0.011026210474833886
-0.05169496584661124   0.012077746611720508   0.005114158001939047
-0.05169496584661124   0.012077746611720508   0.005114158001939047
-0.05169496584661124   0.012077746611720508   0.005114158001939047
-0.05169496584661124   0.012077746611720508   0.005114158001939047
-0.055517126284209656   0.0029529868597276895   0.0038719336173487036
-0.055517126284209656   0.0029529868597276895   0.0038719336173487036
-0.055517126284209656   0.0029529868597276895   0.0038719336173487036
-0.055517126284209656   0.0029529868597276895   0.0038719336173487036
0.03914358394166697   0.006164154893422175   0.009204984505476708
0.03914358394166697   0.006164154893422175   0.009204984505476708
0.03914358394166697   0.006164154893422175   0.009204984505476708
0.03914358394166697   0.006164154893422175   0.009204984505476708
0.00014400270898338226   -0.0146234016668984   -0.005934583517717248
0.00014400270898338226   -0.0146234016668984   -0.005934583517717248
0.00014400270898338226   -0.0146234016668984   -0.005934583517717248
0.00014400270898338226   -0.0146234016668984   -0.005934583517717248
0.008395119523804317   0.0026739734171220293   0.007069365369188526
0.008395119523804317   0.0026739734171220293   0.007069365369188526
0.008395119523804317   0.0026739734171220293   0.007069365369188526
0.008395119523804317   0.0026739734171220293   0.007069365369188526
0.04034778235132498   -0.004571050520125802   -0.0075044467153762996
0.04034778235132498   -0.004571050520125802   -0.0075044467153762996
0.04034778235132498   -0.004571050520125802   -0.0075044467153762996
0.04034778235132498   -0.004571050520125802   -0.0075044467153762996
0.020085908010910695   -0.0026303836969915765   -0.004492072748863747
0.020085908010910695   -0.0026303836969915765   -0.004492072748863747
0.020085908010910695   -0.0026303836969915765   -0.004492072748863747
0.020085908010910695   -0.0026303836969915765   -0.004492072748863747
0.04653168623629346   0.010546848436375302   0.008297173752965214
0.04653168623629346   0.010546848436375302   0.008297173752965214
0.04653168623629346   0.010546848436375302   0.008297173752965214
0.04653168623629346   0.010546848436375302   0.008297173752965214
0.0026191487729824527   -0.012035992405232334   -0.007100522562566431
0.0026191487729824527   -0.012035992405232334   -0.007100522562566431
0.0026191487729824527   -0.012035992405232334   -0.007100522562566431
0.0026191487729824527   -0.012035992405232334   -0.007100522562566431
0.011194817239315407   0.004801333496482015   0.005866383004648035
0.011194817239315407   0.004801333496482015   0.005866383004648035
0.011194817239315407   0.004801333496482015   0.005866383004648035
0.011194817239315407   0.004801333496482015   0.005866383004648035
0.04601677992314064   -0.002175235622126478   -0.009306126125532135
0.04601677992314064   -0.002175235622126478   -0.009306126125532135
0.04601677992314064   -0.002175235622126478   -0.009306126125532135
0.04601677992314064   -0.002175235622126478   -0.009306126125532135
0.02523497932400748   -1.1678155990189724e-05   -0.002204237736580226
0.02523497932400748   -1.1678155990189724e-05   -0.002204237736580226
0.02523497932400748   -1.1678155990189724e-05   -0.002204237736580226
0.02523497932400748   -1.1678155990189724e-05   -0.002204237736580226
0.0522401505818937   0.013136851561074529   0.006498639985032089
0.0522401505818937   0.013136851561074529   0.006498639985032089
0.0522401505818937   0.013136851561074529   0.006498639985032089
0.0522401505818937   0.013136851561074529   0.006498639985032089
0.005358138107439508   -0.01012406215984061   -0.008391616998409316
0.005358138107439508   -0.01012406215984061   -0.008391616998409316
0.005358138107439508   -0.01012406215984061   -0.008391616998409316
0.005358138107439508   -0.01012406215984061   -0.008391616998409316
0.013899214735122364   0.008767917974014926   0.00507246654865611
0.013899214735122364   0.008767917974014926   0.00507246654865611
0.013899214735122364   0.008767917974014926   0.00507246654865611
0.013899214735122364   0.008767917974014926   0.00507246654865611
0.0535758755217979   0.003168261906679958   -0.010236258408242872
0.0535758755217979   0.003168261906679958   -0.010236258408242872
0.0535758755217979   0.003168261906679958   -0.010236258408242872
0.0535758755217979   0.003168261906679958   -0.010236258408242872
0.029394804695866073   0.0029694710639471744   -7.999806984309177e-05
0.029394804695866073   0.0029694710639471744   -7.999806984309177e-05
0.029394804695866073   0.0029694710639471744   -7.999806984309177e-05
0.029394804695866073   0.0029694710639471744   -7.999806984309177e-05
0.005922460815401156   0.0019118886694914745   0.006422416677981747
0.005922460815401156   0.0019118886694914745   0.006422416677981747
0.005922460815401156   0.0019118886694914745   0.006422416677981747
0.005922460815401156   0.0019118886694914745   0.006422416677981747
-0.03458547487062134   -0.012495030952168681   -0.002737810909271581
-0.03458547487062134   -0.012495030952168681   -0.002737810909271581
-0.03458547487062134   -0.012495030952168681   -0.002737810909271581
-0.03458547487062134   -0.012495030952168681   -0.002737810909271581
-0.029500687160230524   -0.001953166894983016   0.002845888330986019
-0.029500687160230524   -0.001953166894983016   0.002845888330986019
-0.029500687160230524   -0.001953166894983016   0.002845888330986019
-0.029500687160230524   -0.001953166894983016   0.002845888330986019
0.005828786615461335   -0.0010128161269686775   -0.002075509628435788
0.005828786615461335   -0.0010128161269686775   -0.002075509628435788
0.005828786615461335   -0.0010128161269686775   -0.002075509628435788
0.005828786615461335   -0.0010128161269686775   -0.002075509628435788
-0.013392455622908953   -0.0030686759354974415   -0.002114297090243118
-0.013392455622908953   -0.0030686759354974415   -0.002114297090243118
-0.013392455622908953   -0.0030686759354974415   -0.002114297090243118
-0.013392455622908953   -0.0030686759354974415   -0.002114297090243118
0.008841875776256765   0.006284660029860313   0.005692460018712003
0.008841875776256765   0.006284660029860313   0.005692460018712003
0.008841875776256765   0.006284660029860313   0.005692460018712003
0.008841875776256765   0.006284660029860313   0.005692460018712003
-0.032208325606145144   -0.008945192336930693   -0.0037002784566393873
-0.032208325606145144   -0.008945192336930693   -0.0037002784566393873
-0.032208325606145144   -0.008945192336930693   -0.0037002784566393873
-0.032208325606145144   -0.008945192336930693   -0.0037002784566393873
-0.026963571955365688   0.002214260472201469   0.001999578472807751
-0.026963571955365688   0.002214260472201469   0.001999578472807751
-0.026963571955365688   0.002214260472201469   0.001999578472807751
-0.026963571955365688   0.002214260472201469   0.001999578472807751
0.009074388988128937   0.0028898760697401195   -0.0028243008245426556
0.009074388988128937   0.0028898760697401195   -0.0028243008245426556
0.009074388988128937   0.0028898760697401195   -0.0028243008245426556
0.009074388988128937   0.0028898760697401195   -0.0028243008245426556
-0.010694415052496527   0.0005679164263833799   -0.00029755921699960684
-0.010694415052496527   0.0005679164263833799   -0.00029755921699960684
-0.010694415052496527   0.0005679164263833799   -0.00029755921699960684
-0.010694415052496527   0.0005679164263833799   -0.00029755921699960684
0.012219776369972185   0.01067459739465908   0.005117914759754864
0.012219776369972185   0.01067459739465908   0.005117914759754864
0.012219776369972185   0.01067459739465908   0.005117914759754864
0.012219776369972185   0.01067459739465908   0.005117914759754864
-0.029811553966531623   -0.005273055482038351   -0.0047530156287821125
-0.029811553966531623   -0.005273055482038351   -0.0047530156287821125
-0.029811553966531623   -0.005273055482038351   -0.0047530156287821125
-0.029811553966531623   -0.005273055482038351   -0.0047530156287821125
-0.024404091446579235   0.006979513063421992   0.0011933682761486918
-0.024404091446579235   0.006979513063421992   0.0011933682761486918
-0.024404091446579235   0.006979513063421992   0.0011933682761486918
-0.024404091446579235   0.006979513063421992   0.0011933682761486918
0.011887569981293188   0.007369232454329605   -0.0035870717008044907
0.011887569981293188   0.007369232454329605   -0.0035870717008044907
0.011887569981293188   0.007369232454329605   -0.0035870717008044907
0.011887569981293188   0.007369232454329605   -0.0035870717008044907
-0.007655487676572445   0.004637286507417452   0.0016594299416102158
-0.007655487676572445   0.004637286507417452   0.0016594299416102158
-0.007655487676572445   0.004637286507417452   0.0016594299416102158
-0.007655487676572445   0.004637286507417452   0.0016594299416102158
-0.031520788906992885   -0.0022849278366064854   0.0023755157933089284
-0.031520788906992885   -0.0022849278366064854   0.0023755157933089284
-0.031520788906992885   -0.0022849278366064854   0.0023755157933089284
-0.031520788906992885   -0.0022849278366064854   0.0023755157933089284
-0.06864473683260137   -0.009180034655262657   0.0004970953972780721
-0.06864473683260137   -0.009180034655262657   0.0004970953972780721
-0.06864473683260137   -0.009180034655262657   0.0004970953972780721
-0.06864473683260137   -0.009180034655262657   0.0004970953972780721
-0.06648133831722491   -0.005887113504182995   -0.0012735975535811761
-0.06648133831722491   -0.005887113504182995   -0.0012735975535811761
-0.06648133831722491   -0.005887113504182995   -0.0012735975535811761
-0.06648133831722491   -0.005887113504182995   -0.0012735975535811761
-0.028911704821621732   0.0024514031984043307   0.0013862299306430029
-0.028911704821621732   0.0024514031984043307   0.0013862299306430029
-0.028911704821621732   0.0024514031984043307   0.0013862299306430029
-0.028911704821621732   0.0024514031984043307   0.0013862299306430029
-0.04895887549787125   -0.0034365328961040165   -0.0012701767384483463
-0.04895887549787125   -0.0034365328961040165   -0.0012701767384483463
-0.04895887549787125   -0.0034365328961040165   -0.0012701767384483463
-0.04895887549787125   -0.0034365328961040165   -0.0012701767384483463
-0.028917669819529413   0.002201584444978686   0.0016062236945303596
-0.028917669819529413   0.002201584444978686   0.0016062236945303596
-0.028917669819529413   0.002201584444978686   0.0016062236945303596
-0.028917669819529413   0.002201584444978686   0.0016062236945303596
-0.06620572396837049   -0.00536764539981046   -0.000414993913682187
-0.06620572396837049   -0.00536764539981046   -0.000414993913682187
-0.06620572396837049   -0.00536764539981046   -0.000414993913682187
-0.06620572396837049   -0.00536764539981046   -0.000414993913682187
-0.06379967141726353   -0.0012943444534082669   -0.002001181147591873
-0.06379967141726353   -0.0012943444534082669   -0.002001181147591873
-0.06379967141726353   -0.0012943444534082669   -0.002001181147591873
-0.06379967141726353   -0.0012943444534082669   -0.002001181147591873
-0.026402368011345354   0.00647492261283718   0.0005449360522741063
-0.026402368011345354   0.00647492261283718   0.0005449360522741063
-0.026402368011345354   0.00647492261283718   0.0005449360522741063
-0.026402368011345354   0.00647492261283718   0.0005449360522741063
-0.046179840189144485   0.0005784915671275589   0.0005740040476471314
-0.046179840189144485   0.0005784915671275589   0.0005740040476471314
-0.046179840189144485   0.0005784915671275589   0.0005740040476471314
-0.046179840189144485   0.0005784915671275589   0.0005740040476471314
-0.026300346934757537   0.006759791235184809   0.0007701728128656454
-0.026300346934757537   0.006759791235184809   0.0007701728128656454
-0.026300346934757537   0.006759791235184809   0.0007701728128656454
-0.026300346934757537   0.006759791235184809   0.0007701728128656454
-0.06368043070688767   -0.0013579512887919726   -0.00134137076032934
-0.06368043070688767   -0.0013579512887919726   -0.00134137076032934
-0.06368043070688767   -0.0013579512887919726   -0.00134137076032934
-0.06368043070688767   -0.0013579512887919726   -0.00134137076032934
-0.061222959367767366   0.0033223198509689782   -0.002815373601380459
-0.061222959367767366   0.0033223198509689782   -0.002815373601380459
-0.061222959367767366   0.0033223198509689782   -0.002815373601380459
-0.061222959367767366   0.0033223198509689782   -0.002815373601380459
-0.02402446750251848   0.010509990249538931   -0.0004389891896641098
-0.02402446750251848   0.010509990249538931   -0.0004389891896641098
-0.02402446750251848   0.010509990249538931   -0.0004389891896641098
-0.02402446750251848   0.010509990249538931   -0.0004389891896641098
-0.043559518190131374   0.004587727544791   0.0022981868595167293
-0.043559518190131374   0.004587727544791   0.0022981868595167293
-0.043559518190131374   0.004587727544791   0.0022981868595167293
-0.043559518190131374   0.004587727544791   0.0022981868595167293
-0.06851887815791896   -0.0062916358864071684   -0.0017620099981648465
-0.06851887815791896   -0.0062916358864071684   -0.0017620099981648465
-0.06851887815791896   -0.0062916358864071684   -0.0017620099981648465
-0.06851887815791896   -0.0062916358864071684   -0.0017620099981648465
-0.10278154509307967   -0.006049601968713991   0.003639018223192656
-0.10278154509307967   -0.006049601968713991   0.003639018223192656
-0.10278154509307967   -0.006049601968713991   0.003639018223192656
-0.10278154509307967   -0.006049601968713991   0.003639018223192656
-0.10316726753661722   -0.009778381091059132   -0.00535504528276788
-0.10316726753661722   -0.009778381091059132   -0.00535504528276788
-0.10316726753661722   -0.009778381091059132   -0.00535504528276788
-0.10316726753661722   -0.009778381091059132   -0.00535504528276788
-0.06294677989803779   0.0058661561024396704   0.004645924935731178
-0.06294677989803779   0.0058661561024396704   0.004645924935731178
-0.06294677989803779   0.0058661561024396704   0.004645924935731178
-0.06294677989803779   0.0058661561024396704   0.004645924935731178
-0.08386481604335401   -0.0036880865557718523   -0.0005657583361321303
-0.08386481604335401   -0.0036880865557718523   -0.0005657583361321303
-0.08386481604335401   -0.0036880865557718523   -0.0005657583361321303
-0.08386481604335401   -0.0036880865557718523   -0.0005657583361321303
-0.06590363358981313   -0.0017575689410709479   -0.002514618479634289
-0.06590363358981313   -0.0017575689410709479   -0.002514618479634289
-0.06590363358981313   -0.0017575689410709479   -0.002514618479634289
-0.06590363358981313   -0.0017575689410709479   -0.002514618479634289
-0.09997747768596096   -0.0019217198886655566   0.0027372427681205632
-0.09997747768596096   -0.0019217198886655566   0.0027372427681205632
-0.09997747768596096   -0.0019217198886655566   0.0027372427681205632
-0.09997747768596096   -0.0019217198886655566   0.0027372427681205632
-0.09973243089968967   -0.0054077212901293865   -0.005963063808160121
-0.09973243089968967   -0.0054077212901293865   -0.005963063808160121
-0.09973243089968967   -0.0054077212901293865   -0.005963063808160121
-0.09973243089968967   -0.0054077212901293865   -0.005963063808160121
-0.06049665019203404   0.009516025503000125   0.0037035550221471976
-0.06049665019203404   0.009516025503000125   0.0037035550221471976
-0.06049665019203404   0.009516025503000125   0.0037035550221471976
-0.06049665019203404   0.009516025503000125   0.0037035550221471976
-0.08044628623238556   0.0003693462920903584   0.0013487192816190575
-0.08044628623238556   0.0003693462920903584   0.0013487192816190575
-0.08044628623238556   0.0003693462920903584   0.0013487192816190575
-0.08044628623238556   0.0003693462920903584   0.0013487192816190575
-0.06335170367634291   0.002374916280743636   -0.0034306031771406467
-0.06335170367634291   0.002374916280743636   -0.0034306031771406467
-0.06335170367634291   0.002374916280743636   -0.0034306031771406467
-0.06335170367634291   0.002374916280743636   -0.0034306031771406467
-0.0966177197888613   0.0019930455586464092   0.002209724897205874
-0.0966177197888613   0.0019930455586464092   0.002209724897205874
-0.0966177197888613   0.0019930455586464092   0.002209724897205874
-0.0966177197888613   0.0019930455586464092   0.002209724897205874
-0.09667062717537674   -0.0006777324732247098   -0.0064320700808031366
-0.09667062717537674   -0.0006777324732247098   -0.0064320700808031366
-0.09667062717537674   -0.0006777324732247098   -0.0064320700808031366
-0.09667062717537674   -0.0006777324732247098   -0.0064320700808031366
-0.058074844028835615   0.013496821759339802   0.002750701184907449
-0.058074844028835615   0.013496821759339802   0.002750701184907449
-0.058074844028835615   0.013496821759339802   0.002750701184907449
-0.058074844028835615   0.013496821759339802   0.002750701184907449
-0.07801253872602046   0.004105832272093015   0.0030501497066277197
-0.07801253872602046   0.004105832272093015   0.0030501497066277197
-0.07801253872602046   0.004105832272093015   0.0030501497066277197
-0.07801253872602046   0.004105832272093015   0.0030501497066277197
-0.10519651813728502   -0.008900191484882027   -0.0055852574816660314
-0.10519651813728502   -0.008900191484882027   -0.0055852574816660314
-0.10519651813728502   -0.008900191484882027   -0.0055852574816660314
-0.10519651813728502   -0.008900191484882027   -0.0055852574816660314
-0.1420710968612715   -0.00299480553637017   0.008228224473809706
-0.1420710968612715   -0.00299480553637017   0.008228224473809706
-0.1420710968612715   -0.00299480553637017   0.008228224473809706
-0.1420710968612715   -0.00299480553637017   0.008228224473809706
-0.1406066358511104   -0.012563438995540483   -0.007589377625029327
-0.1406066358511104   -0.012563438995540483   -0.007589377625029327
-0.1406066358511104   -0.012563438995540483   -0.007589377625029327
-0.1406066358511104   -0.012563438995540483   -0.007589377625029327
-0.096512330694919   0.0100320636150804   0.008109194219583624
-0.096512330694919   0.0100320636150804   0.008109194219583624
-0.096512330694919   0.0100320636150804   0.008109194219583624
-0.096512330694919   0.0100320636150804   0.008109194219583624
-0.11583773260074666   -0.002111941016220732   0.001128211741581388
-0.11583773260074666   -0.002111941016220732   0.001128211741581388
-0.11583773260074666   -0.002111941016220732   0.001128211741581388
-0.11583773260074666   -0.002111941016220732   0.001128211741581388
-0.10233933297719905   -0.0046590446759163205   -0.006334708900819393
-0.10233933297719905   -0.0046590446759163205   -0.006334708900819393
-0.10233933297719905   -0.0046590446759163205   -0.006334708900819393
-0.10233933297719905   -0.0046590446759163205   -0.006334708900819393
-0.13456121659754164   0.0023460862667432636   0.0077281933805282655
-0.13456121659754164   0.0023460862667432636   0.0077281933805282655
-0.13456121659754164   0.0023460862667432636   0.0077281933805282655
-0.13456121659754164   0.0023460862667432636   0.0077281933805282655
-0.1349856094581105   -0.009990853971604853   -0.009070572695999805
-0.1349856094581105   -0.009990853971604853   -0.009070572695999805
-0.1349856094581105   -0.009990853971604853   -0.009070572695999805
-0.1349856094581105   -0.009990853971604853   -0.009070572695999805
-0.09377113450160479   0.011727367924507699   0.006708328967626355
-0.09377113450160479   0.011727367924507699   0.006708328967626355
-0.09377113450160479   0.011727367924507699   0.006708328967626355
-0.09377113450160479   0.011727367924507699   0.006708328967626355
-0.11291436187186109   0.0006152773208126829   0.002651480103084909
-0.11291436187186109   0.0006152773208126829   0.002651480103084909
-0.11291436187186109   0.0006152773208126829   0.002651480103084909
-0.11291436187186109   0.0006152773208126829   0.002651480103084909
-0.09943753089222025   -0.0025386506095129782   -0.00735763445142945
-0.09943753089222025   -0.0025386506095129782   -0.00735763445142945
-0.09943753089222025   -0.0025386506095129782   -0.00735763445142945
-0.09943753089222025   -0.0025386506095129782   -0.00735763445142945
-0.12905895469303058   0.004535422936879269   0.006036424220913836
-0.12905895469303058   0.004535422936879269   0.006036424220913836
-0.12905895469303058   0.004535422936879269   0.006036424220913836
-0.12905895469303058   0.004535422936879269   0.006036424220913836
-0.12793563453626788   -0.006226156645583746   -0.010164689594925573
-0.12793563453626788   -0.006226156645583746   -0.010164689594925573
-0.12793563453626788   -0.006226156645583746   -0.010164689594925573
-0.12793563453626788   -0.006226156645583746   -0.010164689594925573
-0.0914029279335506   0.013645516248802943   0.005583177406299263
-0.0914029279335506   0.013645516248802943   0.005583177406299263
-0.0914029279335506   0.013645516248802943   0.005583177406299263
-0.0914029279335506   0.013645516248802943   0.005583177406299263
-0.10675632444028409   0.003123899246886594   0.004853277048651225
-0.10675632444028409   0.003123899246886594   0.004853277048651225
-0.10675632444028409   0.003123899246886594   0.004853277048651225
-0.10675632444028409   0.003123899246886594   0.004853277048651225
0.10793341429905186   0.009902890948225428   0.008907467967839417
0.10793341429905186   0.009902890948225428   0.008907467967839417
0.10793341429905186   0.009902890948225428   0.008907467967839417
0.10793341429905186   0.009902890948225428   0.008907467967839417
0.03898362692632979   -0.01702122611368676   -0.005839664751346979
0.03898362692632979   -0.01702122611368676   -0.005839664751346979
0.03898362692632979   -0.01702122611368676   -0.005839664751346979
0.03898362692632979   -0.01702122611368676   -0.005839664751346979
0.047391739291569326   -0.00038900100267105775   0.006361843931645408
0.047391739291569326   -0.00038900100267105775   0.006361843931645408
0.047391739291569326   -0.00038900100267105775   0.006361843931645408
0.047391739291569326   -0.00038900100267105775   0.006361843931645408
0.10945699117319804   -0.0016742760907427906   -0.007487898602966125
0.10945699117319804   -0.0016742760907427906   -0.007487898602966125
0.10945699117319804   -0.0016742760907427906   -0.007487898602966125
0.10945699117319804   -0.0016742760907427906   -0.007487898602966125
0.071278844577314   -0.0028673757819555196   -0.006665477025086006
0.071278844577314   -0.0028673757819555196   -0.006665477025086006
0.071278844577314   -0.0028673757819555196   -0.006665477025086006
0.071278844577314   -0.0028673757819555196   -0.006665477025086006
0.1155398755040863   0.013515589038040843   0.007736657922690368
0.1155398755040863   0.013515589038040843   0.007736657922690368
0.1155398755040863   0.013515589038040843   0.007736657922690368
0.1155398755040863   0.013515589038040843   0.007736657922690368
0.041761072350096205   -0.015126648742040075   -0.007053843036350704
0.041761072350096205   -0.015126648742040075   -0.007053843036350704
0.041761072350096205   -0.015126648742040075   -0.007053843036350704
0.041761072350096205   -0.015126648742040075   -0.007053843036350704
0.050515146339051055   0.001627956221356577   0.005211466675965071
0.050515146339051055   0.001627956221356577   0.005211466675965071
0.050515146339051055   0.001627956221356577   0.005211466675965071
0.050515146339051055   0.001627956221356577   0.005211466675965071
0.11542598561030078   0.0006021860556846802   -0.009331636950621513
0.11542598561030078   0.0006021860556846802   -0.009331636950621513
0.11542598561030078   0.0006021860556846802   -0.009331636950621513
0.11542598561030078   0.0006021860556846802   -0.009331636950621513
0.07760979578265749   -0.00043581071118408213   -0.004098982468915808
0.07760979578265749   -0.00043581071118408213   -0.004098982468915808
0.07760979578265749   -0.00043581071118408213   -0.004098982468915808
0.07760979578265749   -0.00043581071118408213   -0.004098982468915808
0.12155140302265798   0.015977034546878606   0.005920601619968777
0.12155140302265798   0.015977034546878606   0.005920601619968777
0.12155140302265798   0.015977034546878606   0.005920601619968777
0.12155140302265798   0.015977034546878606   0.005920601619968777
0.04485127312147521   -0.013285348075056293   -0.008194595115500811
0.04485127312147521   -0.013285348075056293   -0.008194595115500811
0.04485127312147521   -0.013285348075056293   -0.008194595115500811
0.04485127312147521   -0.013285348075056293   -0.008194595115500811
0.05363882458912395   0.006131218695596759   0.0045155764690150745
0.05363882458912395   0.006131218695596759   0.0045155764690150745
0.05363882458912395   0.006131218695596759   0.0045155764690150745
0.05363882458912395   0.006131218695596759   0.0045155764690150745
0.12331444031796035   0.0065262255110246255   -0.010033359352582535
0.12331444031796035   0.0065262255110246255   -0.010033359352582535
0.12331444031796035   0.0065262255110246255   -0.010033359352582535
0.12331444031796035   0.0065262255110246255   -0.010033359352582535
0.08125926774749792   0.0025720443122031825   -0.001936737520664227
0.08125926774749792   0.0025720443122031825   -0.001936737520664227
0.08125926774749792   0.0025720443122031825   -0.001936737520664227
0.08125926774749792   0.0025720443122031825   -0.001936737520664227
0.04615392857639546   0.005665446163457734   0.007325171221836416
0.04615392857639546   0.005665446163457734   0.007325171221836416
0.04615392857639546   0.005665446163457734   0.007325171221836416
0.04615392857639546   0.005665446163457734   0.007325171221836416
-0.023513247911055364   -0.015919670287865707   -0.003095378804144582
-0.023513247911055364   -0.015919670287865707   -0.003095378804144582
-0.023513247911055364   -0.015919670287865707   -0.003095378804144582
-0.023513247911055364   -0.015919670287865707   -0.003095378804144582
-0.01786487112845592   -0.00491185681682026   0.0021229446662312267
-0.01786487112845592   -0.00491185681682026   0.0021229446662312267
-0.01786487112845592   -0.00491185681682026   0.0021229446662312267
-0.01786487112845592   -0.00491185681682026   0.0021229446662312267
0.04619536629983921   0.0008200413535261186   -0.0008290633832025622
0.04619536629983921   0.0008200413535261186   -0.0008290633832025622
0.04619536629983921   0.0008200413535261186   -0.0008290633832025622
0.04619536629983921   0.0008200413535261186   -0.0008290633832025622
0.012128913781933034   -0.003164171431425715   -0.002764882402078731
0.012128913781933034   -0.003164171431425715   -0.002764882402078731
0.012128913781933034   -0.003164171431425715   -0.002764882402078731
0.012128913781933034   -0.003164171431425715   -0.002764882402078731
0.04939112707294622   0.009423925214488763   0.00654585662137053
0.04939112707294622   0.009423925214488763   0.00654585662137053
0.04939112707294622   0.009423925214488763   0.00654585662137053
0.04939112707294622   0.009423925214488763   0.00654585662137053
-0.020770674584935388   -0.013225783361153357   -0.004092146071833008
-0.020770674584935388   -0.013225783361153357   -0.004092146071833008
-0.020770674584935388   -0.013225783361153357   -0.004092146071833008
-0.020770674584935388   -0.013225783361153357   -0.004092146071833008
-0.01496886590578835   -0.001090192035385069   0.001318613543741022
-0.01496886590578835   -0.001090192035385069   0.001318613543741022
-0.01496886590578835   -0.001090192035385069   0.001318613543741022
-0.01496886590578835   -0.001090192035385069   0.001318613543741022
0.04966873883858989   0.004211971154383563   -0.0016045857593671425
0.04966873883858989   0.004211971154383563   -0.0016045857593671425
0.04966873883858989   0.004211971154383563   -0.0016045857593671425
0.04966873883858989   0.004211971154383563   -0.0016045857593671425
0.014901081655537808   -0.0001649274132853036   -0.0010886768538010245
0.014901081655537808   -0.0001649274132853036   -0.0010886768538010245
0.014901081655537808   -0.0001649274132853036   -0.0010886768538010245
0.014901081655537808   -0.0001649274132853036   -0.0010886768538010245
0.05299735369095592   0.01340785092215323   0.005842608734692781
0.05299735369095592   0.01340785092215323   0.005842608734692781
0.05299735369095592   0.01340785092215323   0.005842608734692781
0.05299735369095592   0.01340785092215323   0.005842608734692781
-0.018009809646818867   -0.009998400691821351   -0.004977896504975286
-0.018009809646818867   -0.009998400691821351   -0.004977896504975286
-0.018009809646818867   -0.009998400691821351   -0.004977896504975286
-0.018009809646818867   -0.009998400691821351   -0.004977896504975286
-0.012097379395069012   0.003394315620418411   0.0005232935060017364
-0.012097379395069012   0.003394315620418411   0.0005232935060017364
-0.012097379395069012   0.003394315620418411   0.0005232935060017364
-0.012097379395069012   0.003394315620418411   0.0005232935060017364
0.05270828741520092   0.008300193280618184   -0.002306083985620723
0.05270828741520092   0.008300193280618184   -0.002306083985620723
0.05270828741520092   0.008300193280618184   -0.002306083985620723
0.05270828741520092   0.008300193280618184   -0.002306083985620723
0.01844478269930782   0.0035610877982347705   0.0008830743976618971
0.01844478269930782   0.0035610877982347705   0.0008830743976618971
0.01844478269930782   0.0035610877982347705   0.0008830743976618971
0.01844478269930782   0.0035610877982347705   0.0008830743976618971
-0.01880921346764601   0.0013238963027326725   0.003181226822303815
-0.01880921346764601   0.0013238963027326725   0.003181226822303815
-0.01880921346764601   0.0013238963027326725   0.003181226822303815
-0.01880921346764601   0.0013238963027326725   0.003181226822303815
-0.0847932759230289   -0.01418455891958396   -0.0004905847037448022
-0.0847932759230289   -0.01418455891958396   -0.0004905847037448022
-0.0847932759230289   -0.01418455891958396   -0.0004905847037448022
-0.0847932759230289   -0.01418455891958396   -0.0004905847037448022
-0.08141563811977613   -0.008719630242891688   -0.001965003977682696
-0.08141563811977613   -0.008719630242891688   -0.001965003977682696
-0.08141563811977613   -0.008719630242891688   -0.001965003977682696
-0.08141563811977613   -0.008719630242891688   -0.001965003977682696
-0.0163599296373698   0.0026804803305632017   0.002055314974278283
-0.0163599296373698   0.0026804803305632017   0.002055314974278283
-0.0163599296373698   0.0026804803305632017   0.002055314974278283
-0.0163599296373698   0.0026804803305632017   0.002055314974278283
-0.05042591021936636   -0.004294662706370423   -0.0017432981859604084
-0.05042591021936636   -0.004294662706370423   -0.0017432981859604084
-0.05042591021936636   -0.004294662706370423   -0.0017432981859604084
-0.05042591021936636   -0.004294662706370423   -0.0017432981859604084
-0.01576150874577117   0.005291480316677689   0.002436419446157045
-0.01576150874577117   0.005291480316677689   0.002436419446157045
-0.01576150874577117   0.005291480316677689   0.002436419446157045
-0.01576150874577117   0.005291480316677689   0.002436419446157045
-0.08180380297032536   -0.011120374187956396   -0.0015050842853641467
-0.08180380297032536   -0.011120374187956396   -0.0015050842853641467
-0.08180380297032536   -0.011120374187956396   -0.0015050842853641467
-0.08180380297032536   -0.011120374187956396   -0.0015050842853641467
-0.07821298070055066   -0.0045258024703020185   -0.0026480766742165655
-0.07821298070055066   -0.0045258024703020185   -0.0026480766742165655
-0.07821298070055066   -0.0045258024703020185   -0.0026480766742165655
-0.07821298070055066   -0.0045258024703020185   -0.0026480766742165655
-0.013547461167902668   0.006114826594983249   0.00122061860280083
-0.013547461167902668   0.006114826594983249   0.00122061860280083
-0.013547461167902668   0.006114826594983249   0.00122061860280083
-0.013547461167902668   0.006114826594983249   0.00122061860280083
-0.04718721576393221   -0.0007931850663247583   -1.6802892975711827e-05
-0.04718721576393221   -0.0007931850663247583   -1.6802892975711827e-05
-0.04718721576393221   -0.0007931850663247583   -1.6802892975711827e-05
-0.04718721576393221   -0.0007931850663247583   -1.6802892975711827e-05
-0.012818857101181757   0.009398608908910745   0.001579856622477693
-0.012818857101181757   0.009398608908910745   0.001579856622477693
-0.012818857101181757   0.009398608908910745   0.001579856622477693
-0.012818857101181757   0.009398608908910745   0.001579856622477693
-0.07874975792795283   -0.007617757944910684   -0.002240007336618684
-0.07874975792795283   -0.007617757944910684   -0.002240007336618684
-0.07874975792795283   -0.007617757944910684   -0.002240007336618684
-0.07874975792795283   -0.007617757944910684   -0.002240007336618684
-0.07522499858630188   -0.00033130931768300675   -0.0034449559419904036
-0.07522499858630188   -0.00033130931768300675   -0.0034449559419904036
-0.07522499858630188   -0.00033130931768300675   -0.0034449559419904036
-0.07522499858630188   -0.00033130931768300675   -0.0034449559419904036
-0.010885848548663396   0.009607239587856987   0.0003680237705914256
-0.010885848548663396   0.009607239587856987   0.0003680237705914256
-0.010885848548663396   0.009607239587856987   0.0003680237705914256
-0.010885848548663396   0.009607239587856987   0.0003680237705914256
-0.0442256599100403   0.0026986887738301834   0.0016191713566072546
-0.0442256599100403   0.0026986887738301834   0.0016191713566072546
-0.0442256599100403   0.0026986887738301834   0.0016191713566072546
-0.0442256599100403   0.0026986887738301834   0.0016191713566072546
-0.08266445435926087   -0.0029668288562387235   -0.00106420694824902
-0.08266445435926087   -0.0029668288562387235   -0.00106420694824902
-0.08266445435926087   -0.0029668288562387235   -0.00106420694824902
-0.08266445435926087   -0.0029668288562387235   -0.00106420694824902
-0.14525889439932774   -0.011723897971908794   0.0024231601242254495
-0.14525889439932774   -0.011723897971908794   0.0024231601242254495
-0.14525889439932774   -0.011723897971908794   0.0024231601242254495
-0.14525889439932774   -0.011723897971908794   0.0024231601242254495
-0.14391372777610417   -0.012429081296096055   -0.0058633141788887256
-0.14391372777610417   -0.012429081296096055   -0.0058633141788887256
-0.14391372777610417   -0.012429081296096055   -0.0058633141788887256
-0.14391372777610417   -0.012429081296096055   -0.0058633141788887256
-0.07712289698931882   0.005748890470665846   0.005030180961047128
-0.07712289698931882   0.005748890470665846   0.005030180961047128
-0.07712289698931882   0.005748890470665846   0.005030180961047128
-0.07712289698931882   0.005748890470665846   0.005030180961047128
-0.11146562027178411   -0.0047202247682956375   -0.0006254626912005658
-0.11146562027178411   -0.0047202247682956375   -0.0006254626912005658
-0.11146562027178411   -0.0047202247682956375   -0.0006254626912005658
-0.11146562027178411   -0.0047202247682956375   -0.0006254626912005658
-0.07935801056883038   0.0013128547399727034   -0.001709351205817459
-0.07935801056883038   0.0013128547399727034   -0.001709351205817459
-0.07935801056883038   0.0013128547399727034   -0.001709351205817459
-0.07935801056883038   0.0013128547399727034   -0.001709351205817459
-0.1416195896980368   -0.007934021066847301   0.0011123159821993783
-0.1416195896980368   -0.007934021066847301   0.0011123159821993783
-0.1416195896980368   -0.007934021066847301   0.0011123159821993783
-0.1416195896980368   -0.007934021066847301   0.0011123159821993783
-0.13967013660260355   -0.00835705394899812   -0.006488355827274505
-0.13967013660260355   -0.00835705394899812   -0.006488355827274505
-0.13967013660260355   -0.00835705394899812   -0.006488355827274505
-0.13967013660260355   -0.00835705394899812   -0.006488355827274505
-0.07417021517160619   0.008995200323527904   0.0040447481766765795
-0.07417021517160619   0.008995200323527904   0.0040447481766765795
-0.07417021517160619   0.008995200323527904   0.0040447481766765795
-0.07417021517160619   0.008995200323527904   0.0040447481766765795
-0.10708662743406516   -0.00086476829321162   0.00112767126876054
-0.10708662743406516   -0.00086476829321162   0.00112767126876054
-0.10708662743406516   -0.00086476829321162   0.00112767126876054
-0.10708662743406516   -0.00086476829321162   0.00112767126876054
-0.0762699636974458   0.005107410809740982   -0.0025662049387344494
-0.0762699636974458   0.005107410809740982   -0.0025662049387344494
-0.0762699636974458   0.005107410809740982   -0.0025662049387344494
-0.0762699636974458   0.005107410809740982   -0.0025662049387344494
-0.1374097987890302   -0.004308675147479103   0.0007649544390732265
-0.1374097987890302   -0.004308675147479103   0.0007649544390732265
-0.1374097987890302   -0.004308675147479103   0.0007649544390732265
-0.1374097987890302   -0.004308675147479103   0.0007649544390732265
-0.13588178832143882   -0.003982340542052196   -0.0068381660294493125
-0.13588178832143882   -0.003982340542052196   -0.0068381660294493125
-0.13588178832143882   -0.003982340542052196   -0.0068381660294493125
-0.13588178832143882   -0.003982340542052196   -0.0068381660294493125
-0.07131133634313627   0.012517347822357167   0.003274698133798197
-0.07131133634313627   0.012517347822357167   0.003274698133798197
-0.07131133634313627   0.012517347822357167   0.003274698133798197
-0.07131133634313627   0.012517347822357167   0.003274698133798197
-0.10429618332775822   0.0023942982967653514   0.0026266341259391754
-0.10429618332775822   0.0023942982967653514   0.0026266341259391754
-0.10429618332775822   0.0023942982967653514   0.0026266341259391754
-0.10429618332775822   0.0023942982967653514   0.0026266341259391754
-0.1456711029840251   -0.006360673174930893   -0.0050011075962393785
-0.1456711029840251   -0.006360673174930893   -0.0050011075962393785
-0.1456711029840251   -0.006360673174930893   -0.0050011075962393785
-0.1456711029840251   -0.006360673174930893   -0.0050011075962393785
-0.20878443943433816   -0.0076957295368924525   0.008596753360058669
-0.20878443943433816   -0.0076957295368924525   0.008596753360058669
-0.20878443943433816   -0.0076957295368924525   0.008596753360058669
-0.20878443943433816   -0.0076957295368924525   0.008596753360058669
-0.20552951377501452   -0.014756366047071253   -0.006815771011079135
-0.20552951377501452   -0.014756366047071253   -0.006815771011079135
-0.20552951377501452   -0.014756366047071253   -0.006815771011079135
-0.20552951377501452   -0.014756366047071253   -0.006815771011079135
-0.1362313760972997   0.01128826628335292   0.008831096635683383
-0.1362313760972997   0.01128826628335292   0.008831096635683383
-0.1362313760972997   0.01128826628335292   0.008831096635683383
-0.1362313760972997   0.01128826628335292   0.008831096635683383
-0.16629106979809127   -0.0020385937307620325   0.0021768541758084023
-0.16629106979809127   -0.0020385937307620325   0.0021768541758084023
-0.16629106979809127   -0.0020385937307620325   0.0021768541758084023
-0.16629106979809127   -0.0020385937307620325   0.0021768541758084023
-0.14171978375867655   -0.0017465007659651886   -0.0055761746218820915
-0.14171978375867655   -0.0017465007659651886   -0.0055761746218820915
-0.14171978375867655   -0.0017465007659651886   -0.0055761746218820915
-0.14171978375867655   -0.0017465007659651886   -0.0055761746218820915
-0.1999102689048551   -0.0015907617889728068   0.008114849081617817
-0.1999102689048551   -0.0015907617889728068   0.008114849081617817
-0.1999102689048551   -0.0015907617889728068   0.008114849081617817
-0.1999102689048551   -0.0015907617889728068   0.008114849081617817
-0.1989120923625143   -0.012254926298294999   -0.008062184285473771
-0.1989120923625143   -0.012254926298294999   -0.008062184285473771
-0.1989120923625143   -0.012254926298294999   -0.008062184285473771
-0.1989120923625143   -0.012254926298294999   -0.008062184285473771
-0.13272746823285464   0.01282532298655558   0.007042609085916356
-0.13272746823285464   0.01282532298655558   0.007042609085916356
-0.13272746823285464   0.01282532298655558   0.007042609085916356
-0.13272746823285464   0.01282532298655558   0.007042609085916356
-0.16324672997572437   0.0007082502849475453   0.003570597919233004
-0.16324672997572437   0.0007082502849475453   0.003570597919233004
-0.16324672997572437   0.0007082502849475453   0.003570597919233004
-0.16324672997572437   0.0007082502849475453   0.003570597919233004
-0.13792489717079007   0.00027592256141951294   -0.006395135178624839
-0.13792489717079007   0.00027592256141951294   -0.006395135178624839
-0.13792489717079007   0.00027592256141951294   -0.006395135178624839
-0.13792489717079007   0.00027592256141951294   -0.006395135178624839
-0.19357576034108415   0.0004333772103350744   0.0059311723130433406
-0.19357576034108415   0.0004333772103350744   0.0059311723130433406
-0.19357576034108415   0.0004333772103350744   0.0059311723130433406
-0.19357576034108415   0.0004333772103350744   0.0059311723130433406
-0.19156544294808708   -0.009352097748811315   -0.009242377567235557
-0.19156544294808708   -0.009352097748811315   -0.009242377567235557
-0.19156544294808708   -0.009352097748811315   -0.009242377567235557
-0.19156544294808708   -0.009352097748811315   -0.009242377567235557
-0.1297028670160402   0.014088353443603405   0.005985746511887712
-0.1297028670160402   0.014088353443603405   0.005985746511887712
-0.1297028670160402   0.014088353443603405   0.005985746511887712
-0.1297028670160402   0.014088353443603405   0.005985746511887712
-0.15566857041009527   0.0029461420654074283   0.005783833738739591
-0.15566857041009527   0.0029461420654074283   0.005783833738739591
-0.15566857041009527   0.0029461420654074283   0.005783833738739591
-0.15566857041009527   0.0029461420654074283   0.005783833738739591
0.1760288088446998   0.013320840885575023   0.008825488326597781
0.1760288088446998   0.013320840885575023   0.008825488326597781
0.1760288088446998   0.013320840885575023   0.008825488326597781
0.1760288088446998   0.013320840885575023   0.008825488326597781
0.07681675765541064   -0.019787528466331698   -0.0042699355517909375
0.07681675765541064   -0.019787528466331698   -0.0042699355517909375
0.07681675765541064   -0.019787528466331698   -0.0042699355517909375
0.07681675765541064   -0.019787528466331698   -0.0042699355517909375
0.0849454876953148   -0.003882923479884108   0.0059803679292105135
0.0849454876953148   -0.003882923479884108   0.0059803679292105135
0.0849454876953148   -0.003882923479884108   0.0059803679292105135
0.0849454876953148   -0.003882923479884108   0.0059803679292105135
0.17756580207726874   0.0006233391692713544   -0.0065440856784441705
0.17756580207726874   0.0006233391692713544   -0.0065440856784441705
0.17756580207726874   0.0006233391692713544   -0.0065440856784441705
0.17756580207726874   0.0006233391692713544   -0.0065440856784441705
0.12133596692095665   -0.0032966465582785   -0.009151371021644589
0.12133596692095665   -0.0032966465582785   -0.009151371021644589
0.12133596692095665   -0.0032966465582785   -0.009151371021644589
0.12133596692095665   -0.0032966465582785   -0.009151371021644589
0.18344289989661297   0.0160945282433687   0.007370214344177635
0.18344289989661297   0.0160945282433687   0.007370214344177635
0.18344289989661297   0.0160945282433687   0.007370214344177635
0.18344289989661297   0.0160945282433687   0.007370214344177635
0.07964146746502382   -0.018781034964928594   -0.005641621737198954
0.07964146746502382   -0.018781034964928594   -0.005641621737198954
0.07964146746502382   -0.018781034964928594   -0.005641621737198954
0.07964146746502382   -0.018781034964928594   -0.005641621737198954
0.08796753268694203   -0.0020631472739348553   0.00480014932463956
0.08796753268694203   -0.0020631472739348553   0.00480014932463956
0.08796753268694203   -0.0020631472739348553   0.00480014932463956
0.08796753268694203   -0.0020631472739348553   0.00480014932463956
0.18308120728003485   0.0026144316716604082   -0.00807641578726284
0.18308120728003485   0.0026144316716604082   -0.00807641578726284
0.18308120728003485   0.0026144316716604082   -0.00807641578726284
0.18308120728003485   0.0026144316716604082   -0.00807641578726284
0.1284198037175958   -0.001203009764289456   -0.006284336643223363
0.1284198037175958   -0.001203009764289456   -0.006284336643223363
0.1284198037175958   -0.001203009764289456   -0.006284336643223363
0.1284198037175958   -0.001203009764289456   -0.006284336643223363
0.18891006672721972   0.018251493577714398   0.005430819542607386
0.18891006672721972   0.018251493577714398   0.005430819542607386
0.18891006672721972   0.018251493577714398   0.005430819542607386
0.18891006672721972   0.018251493577714398   0.005430819542607386
0.08263132035583447   -0.017207562063911434   -0.006736497540921677
0.08263132035583447   -0.017207562063911434   -0.006736497540921677
0.08263132035583447   -0.017207562063911434   -0.006736497540921677
0.08263132035583447   -0.017207562063911434   -0.006736497540921677
0.09072623744597921   0.002857031541694966   0.004208873672750295
0.09072623744597921   0.002857031541694966   0.004208873672750295
0.09072623744597921   0.002857031541694966   0.004208873672750295
0.09072623744597921   0.002857031541694966   0.004208873672750295
0.18994274997487662   0.008472634369685001   -0.008422518648265875
0.18994274997487662   0.008472634369685001   -0.008422518648265875
0.18994274997487662   0.008472634369685001   -0.008422518648265875
0.18994274997487662   0.008472634369685001   -0.008422518648265875
0.1307581374608876   0.00167510778357223   -0.0043542815760536455
0.1307581374608876   0.00167510778357223   -0.0043542815760536455
0.1307581374608876   0.00167510778357223   -0.0043542815760536455
0.1307581374608876   0.00167510778357223   -0.0043542815760536455
0.08491191999373345   0.008056757157183186   0.0083615905163077
0.08491191999373345   0.008056757157183186   0.0083615905163077
0.08491191999373345   0.008056757157183186   0.0083615905163077
0.08491191999373345   0.008056757157183186   0.0083615905163077
-0.012158087423151767   -0.023999250665364524   -0.0024882800737545587
-0.012158087423151767   -0.023999250665364524   -0.0024882800737545587
-0.012158087423151767   -0.023999250665364524   -0.0024882800737545587
-0.012158087423151767   -0.023999250665364524   -0.0024882800737545587
-0.005326068966405188   -0.008930452931884363   0.001939900455981759
-0.005326068966405188   -0.008930452931884363   0.001939900455981759
-0.005326068966405188   -0.008930452931884363   0.001939900455981759
-0.005326068966405188   -0.008930452931884363   0.001939900455981759
0.08403553478127125   -0.0029863714062824988   0.0005340512853911064
0.08403553478127125   -0.0029863714062824988   0.0005340512853911064
0.08403553478127125   -0.0029863714062824988   0.0005340512853911064
0.08403553478127125   -0.0029863714062824988   0.0005340512853911064
0.03683099958568589   -0.006270327922996035   -0.004181695328467987
0.03683099958568589   -0.006270327922996035   -0.004181695328467987
0.03683099958568589   -0.006270327922996035   -0.004181695328467987
0.03683099958568589   -0.006270327922996035   -0.004181695328467987
0.08818612450945425   0.0108701094800796   0.007430519039944935
0.08818612450945425   0.0108701094800796   0.007430519039944935
0.08818612450945425   0.0108701094800796   0.007430519039944935
0.08818612450945425   0.0108701094800796   0.007430519039944935
-0.009157325956042489   -0.022467601079701076   -0.003679236344388035
-0.009157325956042489   -0.022467601079701076   -0.003679236344388035
-0.009157325956042489   -0.022467601079701076   -0.003679236344388035
-0.009157325956042489   -0.022467601079701076   -0.003679236344388035
-0.002253540057939977   -0.005625291637386631   0.0011313791783194263
-0.002253540057939977   -0.005625291637386631   0.0011313791783194263
-0.002253540057939977   -0.005625291637386631   0.0011313791783194263
-0.002253540057939977   -0.005625291637386631   0.0011313791783194263
0.08722946925956292   -0.0004879172507376156   -0.000465397835453003
0.08722946925956292   -0.0004879172507376156   -0.000465397835453003
0.08722946925956292   -0.0004879172507376156   -0.000465397835453003
0.08722946925956292   -0.0004879172507376156   -0.000465397835453003
0.03943668916440936   -0.004226286890977418   -0.002676950276936589
0.03943668916440936   -0.004226286890977418   -0.002676950276936589
0.03943668916440936   -0.004226286890977418   -0.002676950276936589
0.03943668916440936   -0.004226286890977418   -0.002676950276936589
0.09160330264471046   0.014252476196157842   0.006663375643389022
0.09160330264471046   0.014252476196157842   0.006663375643389022
0.09160330264471046   0.014252476196157842   0.006663375643389022
0.09160330264471046   0.014252476196157842   0.006663375643389022
-0.006422145852109412   -0.02016045749330363   -0.005176483936610749
-0.006422145852109412   -0.02016045749330363   -0.005176483936610749
-0.006422145852109412   -0.02016045749330363   -0.005176483936610749
-0.006422145852109412   -0.02016045749330363   -0.005176483936610749
0.00016838580233561457   -0.0016823809376945399   0.00032094653568095837
0.00016838580233561457   -0.0016823809376945399   0.00032094653568095837
0.00016838580233561457   -0.0016823809376945399   0.00032094653568095837
0.00016838580233561457   -0.0016823809376945399   0.00032094653568095837
0.08959158598309215   0.002746316585580739   -0.001353668685571696
0.08959158598309215   0.002746316585580739   -0.001353668685571696
0.08959158598309215   0.002746316585580739   -0.001353668685571696
0.08959158598309215   0.002746316585580739   -0.001353668685571696
0.04280763646878605   -0.0011401660079996701   -0.0010161269757053895
0.04280763646878605   -0.0011401660079996701   -0.0010161269757053895
0.04280763646878605   -0.0011401660079996701   -0.0010161269757053895
0.04280763646878605   -0.0011401660079996701   -0.0010161269757053895
-0.005494140849972317   0.002616521217610777   0.00421568090916739
-0.005494140849972317   0.002616521217610777   0.00421568090916739
-0.005494140849972317   0.002616521217610777   0.00421568090916739
-0.005494140849972317   0.002616521217610777   0.00421568090916739
-0.10037102469086374   -0.029722582955688782   -0.001893403894572646
-0.10037102469086374   -0.029722582955688782   -0.001893403894572646
-0.10037102469086374   -0.029722582955688782   -0.001893403894572646
-0.10037102469086374   -0.029722582955688782   -0.001893403894572646
-0.09366894177937629   -0.013623069073867969   -0.0021534199058710676
-0.09366894177937629   -0.013623069073867969   -0.0021534199058710676
-0.09366894177937629   -0.013623069073867969   -0.0021534199058710676
-0.09366894177937629   -0.013623069073867969   -0.0021534199058710676
-0.005224923333119977   -0.008485855989001156   0.0020010316795244527
-0.005224923333119977   -0.008485855989001156   0.0020010316795244527
-0.005224923333119977   -0.008485855989001156   0.0020010316795244527
-0.005224923333119977   -0.008485855989001156   0.0020010316795244527
-0.05138755300735139   -0.01163776974141346   -0.003686181685704665
-0.05138755300735139   -0.01163776974141346   -0.003686181685704665
-0.05138755300735139   -0.01163776974141346   -0.003686181685704665
-0.05138755300735139   -0.01163776974141346   -0.003686181685704665
-0.002073134751203442   0.0058180000274684176   0.003456118572637709
-0.002073134751203442   0.0058180000274684176   0.003456118572637709
-0.002073134751203442   0.0058180000274684176   0.003456118572637709
-0.002073134751203442   0.0058180000274684176   0.003456118572637709
-0.09658348250454588   -0.02768967723359051   -0.002659515371996418
-0.09658348250454588   -0.02768967723359051   -0.002659515371996418
-0.09658348250454588   -0.02768967723359051   -0.002659515371996418
-0.09658348250454588   -0.02768967723359051   -0.002659515371996418
-0.08984234825264839   -0.00996460233684746   -0.0028816389716069995
-0.08984234825264839   -0.00996460233684746   -0.0028816389716069995
-0.08984234825264839   -0.00996460233684746   -0.0028816389716069995
-0.08984234825264839   -0.00996460233684746   -0.0028816389716069995
-0.002377903571129696   -0.006071581977958688   0.0009558519529429066
-0.002377903571129696   -0.006071581977958688   0.0009558519529429066
-0.002377903571129696   -0.006071581977958688   0.0009558519529429066
-0.002377903571129696   -0.006071581977958688   0.0009558519529429066
-0.04767252290658861   -0.008982046374837006   -0.001984984850092235
-0.04767252290658861   -0.008982046374837006   -0.001984984850092235
-0.04767252290658861   -0.008982046374837006   -0.001984984850092235
-0.04767252290658861   -0.008982046374837006   -0.001984984850092235
0.001051364001736348   0.009330491230178702   0.002700116609135718
0.001051364001736348   0.009330491230178702   0.002700116609135718
0.001051364001736348   0.009330491230178702   0.002700116609135718
0.001051364001736348   0.009330491230178702   0.002700116609135718
-0.09323472573486927   -0.025329785454339136   -0.0044783432652197586
-0.09323472573486927   -0.025329785454339136   -0.0044783432652197586
-0.09323472573486927   -0.025329785454339136   -0.0044783432652197586
-0.09323472573486927   -0.025329785454339136   -0.0044783432652197586
-0.08712941409115545   -0.006451620490432413   -0.0036827110783635244
-0.08712941409115545   -0.006451620490432413   -0.0036827110783635244
-0.08712941409115545   -0.006451620490432413   -0.0036827110783635244
-0.08712941409115545   -0.006451620490432413   -0.0036827110783635244
-0.0005313122376515303   -0.004078082405742498   -0.0007818421962069373
-0.0005313122376515303   -0.004078082405742498   -0.0007818421962069373
-0.0005313122376515303   -0.004078082405742498   -0.0007818421962069373
-0.0005313122376515303   -0.004078082405742498   -0.0007818421962069373
-0.044957389366631365   -0.00647178526644861   -0.0008735037572621676
-0.044957389366631365   -0.00647178526644861   -0.0008735037572621676
-0.044957389366631365   -0.00647178526644861   -0.0008735037572621676
-0.044957389366631365   -0.00647178526644861   -0.0008735037572621676
-0.09445641059315482   -0.002047180423219587   4.264061502840498e-06
-0.09445641059315482   -0.002047180423219587   4.264061502840498e-06
-0.09445641059315482   -0.002047180423219587   4.264061502840498e-06
-0.09445641059315482   -0.002047180423219587   4.264061502840498e-06
-0.1893628177823924   -0.03195515002130233   -0.0014183749959578668
-0.1893628177823924   -0.03195515002130233   -0.0014183749959578668
-0.1893628177823924   -0.03195515002130233   -0.0014183749959578668
-0.1893628177823924   -0.03195515002130233   -0.0014183749959578668
-0.1823788489728492   -0.01754119412236363   -0.006164290020569847
-0.1823788489728492   -0.01754119412236363   -0.006164290020569847
-0.1823788489728492   -0.01754119412236363   -0.006164290020569847
-0.1823788489728492   -0.01754119412236363   -0.006164290020569847
-0.09147925954459245   -0.008881286276365872   0.004053208470546175
-0.09147925954459245   -0.008881286276365872   0.004053208470546175
-0.09147925954459245   -0.008881286276365872   0.004053208470546175
-0.09147925954459245   -0.008881286276365872   0.004053208470546175
-0.1382547521676841   -0.014200373788200668   -0.0025706697517417407
-0.1382547521676841   -0.014200373788200668   -0.0025706697517417407
-0.1382547521676841   -0.014200373788200668   -0.0025706697517417407
-0.1382547521676841   -0.014200373788200668   -0.0025706697517417407
-0.09022427530863936   0.0020099560744844293   -0.0005631127005387478
-0.09022427530863936   0.0020099560744844293   -0.0005631127005387478
-0.09022427530863936   0.0020099560744844293   -0.0005631127005387478
-0.09022427530863936   0.0020099560744844293   -0.0005631127005387478
-0.1836447835776194   -0.028443386842029638   -0.0015917703247533502
-0.1836447835776194   -0.028443386842029638   -0.0015917703247533502
-0.1836447835776194   -0.028443386842029638   -0.0015917703247533502
-0.1836447835776194   -0.028443386842029638   -0.0015917703247533502
-0.176849425209937   -0.013769750730037316   -0.007100797052818725
-0.176849425209937   -0.013769750730037316   -0.007100797052818725
-0.176849425209937   -0.013769750730037316   -0.007100797052818725
-0.176849425209937   -0.013769750730037316   -0.007100797052818725
-0.08780731509522081   -0.006087274231585718   0.003416198710269572
-0.08780731509522081   -0.006087274231585718   0.003416198710269572
-0.08780731509522081   -0.006087274231585718   0.003416198710269572
-0.08780731509522081   -0.006087274231585718   0.003416198710269572
-0.13247447547130986   -0.01057776806823078   -0.0007098039323438906
-0.13247447547130986   -0.01057776806823078   -0.0007098039323438906
-0.13247447547130986   -0.01057776806823078   -0.0007098039323438906
-0.13247447547130986   -0.01057776806823078   -0.0007098039323438906
-0.08639961400093382   0.005511547426959258   -0.001144117476840894
-0.08639961400093382   0.005511547426959258   -0.001144117476840894
-0.08639961400093382   0.005511547426959258   -0.001144117476840894
-0.08639961400093382   0.005511547426959258   -0.001144117476840894
-0.178470224499088   -0.025581670583445813   -0.0033928736451636784
-0.178470224499088   -0.025581670583445813   -0.0033928736451636784
-0.178470224499088   -0.025581670583445813   -0.0033928736451636784
-0.178470224499088   -0.025581670583445813   -0.0033928736451636784
-0.17246593080509912   -0.009838977170547422   -0.007352332368754263
-0.17246593080509912   -0.009838977170547422   -0.007352332368754263
-0.17246593080509912   -0.009838977170547422   -0.007352332368754263
-0.17246593080509912   -0.009838977170547422   -0.007352332368754263
-0.08571892217134544   -0.0043105387567484825   0.001228666787003179
-0.08571892217134544   -0.0043105387567484825   0.001228666787003179
-0.08571892217134544   -0.0043105387567484825   0.001228666787003179
-0.08571892217134544   -0.0043105387567484825   0.001228666787003179
-0.1295577413061871   -0.008389546222343273   -7.238948089678243e-05
-0.1295577413061871   -0.008389546222343273   -7.238948089678243e-05
-0.1295577413061871   -0.008389546222343273   -7.238948089678243e-05
-0.1295577413061871   -0.008389546222343273   -7.238948089678243e-05
-0.1846085902331453   -0.005416989852391231   -0.004185397418633507
-0.1846085902331453   -0.005416989852391231   -0.004185397418633507
-0.1846085902331453   -0.005416989852391231   -0.004185397418633507
-0.1846085902331453   -0.005416989852391231   -0.004185397418633507
-0.2785972886013806   -0.02253887845555084   0.009503448356330994
-0.2785972886013806   -0.02253887845555084   0.009503448356330994
-0.2785972886013806   -0.02253887845555084   0.009503448356330994
-0.2785972886013806   -0.02253887845555084   0.009503448356330994
-0.2702450914645199   -0.018449939942655355   -0.005846219127130117
-0.2702450914645199   -0.018449939942655355   -0.005846219127130117
-0.2702450914645199   -0.018449939942655355   -0.005846219127130117
-0.2702450914645199   -0.018449939942655355   -0.005846219127130117
-0.1747578956851857   0.005421369056365477   0.008977913239016972
-0.1747578956851857   0.005421369056365477   0.008977913239016972
-0.1747578956851857   0.005421369056365477   0.008977913239016972
-0.1747578956851857   0.005421369056365477   0.008977913239016972
-0.2167836742957452   -0.006795509492465178   0.0016059463228021709
-0.2167836742957452   -0.006795509492465178   0.0016059463228021709
-0.2167836742957452   -0.006795509492465178   0.0016059463228021709
-0.2167836742957452   -0.006795509492465178   0.0016059463228021709
-0.17854434674061048   0.0001273818593381798   -0.004660354841077333
-0.17854434674061048   0.0001273818593381798   -0.004660354841077333
-0.17854434674061048   0.0001273818593381798   -0.004660354841077333
-0.17854434674061048   0.0001273818593381798   -0.004660354841077333
-0.26585211788937985   -0.012549430225911908   0.010218139031824195
-0.26585211788937985   -0.012549430225911908   0.010218139031824195
-0.26585211788937985   -0.012549430225911908   0.010218139031824195
-0.26585211788937985   -0.012549430225911908   0.010218139031824195
-0.26121472314134375   -0.015673153847813585   -0.006962520177448009
-0.26121472314134375   -0.015673153847813585   -0.006962520177448009
-0.26121472314134375   -0.015673153847813585   -0.006962520177448009
-0.26121472314134375   -0.015673153847813585   -0.006962520177448009
-0.1693365934312576   0.008112555031346648   0.008581056079194295
-0.1693365934312576   0.008112555031346648   0.008581056079194295
-0.1693365934312576   0.008112555031346648   0.008581056079194295
-0.1693365934312576   0.008112555031346648   0.008581056079194295
-0.2119588617970037   -0.0027338029034970693   0.0044749906758304835
-0.2119588617970037   -0.0027338029034970693   0.0044749906758304835
-0.2119588617970037   -0.0027338029034970693   0.0044749906758304835
-0.2119588617970037   -0.0027338029034970693   0.0044749906758304835
-0.1732306440475403   0.002300698010217636   -0.005077339981088596
-0.1732306440475403   0.002300698010217636   -0.005077339981088596
-0.1732306440475403   0.002300698010217636   -0.005077339981088596
-0.1732306440475403   0.002300698010217636   -0.005077339981088596
-0.257163894623432   -0.009704518925055992   0.00732298748935545
-0.257163894623432   -0.009704518925055992   0.00732298748935545
-0.257163894623432   -0.009704518925055992   0.00732298748935545
-0.257163894623432   -0.009704518925055992   0.00732298748935545
-0.2518219331505564   -0.013222454816521859   -0.00844922865422246
-0.2518219331505564   -0.013222454816521859   -0.00844922865422246
-0.2518219331505564   -0.013222454816521859   -0.00844922865422246
-0.2518219331505564   -0.013222454816521859   -0.00844922865422246
-0.16551088393714836   0.011057163513782747   0.006526761286669976
-0.16551088393714836   0.011057163513782747   0.006526761286669976
-0.16551088393714836   0.011057163513782747   0.006526761286669976
-0.16551088393714836   0.011057163513782747   0.006526761286669976
-0.20157467751344843   0.0006750325778281108   0.007515794851740605
-0.20157467751344843   0.0006750325778281108   0.007515794851740605
-0.20157467751344843   0.0006750325778281108   0.007515794851740605
-0.20157467751344843   0.0006750325778281108   0.007515794851740605
0.23638395930245268   0.014582160999981844   0.008011310132734713
0.23638395930245268   0.014582160999981844   0.008011310132734713
0.23638395930245268   0.014582160999981844   0.008011310132734713
0.23638395930245268   0.014582160999981844   0.008011310132734713
0.11159946531957093   -0.020245181594051833   0.001224053128830272
0.11159946531957093   -0.020245181594051833   0.001224053128830272
0.11159946531957093   -0.020245181594051833   0.001224053128830272
0.11159946531957093   -0.020245181594051833   0.001224053128830272
0.1172535352043187   -0.008932616603519176   0.00598840233055324
0.1172535352043187   -0.008932616603519176   0.00598840233055324
0.1172535352043187   -0.008932616603519176   0.00598840233055324
0.1172535352043187   -0.008932616603519176   0.00598840233055324
0.23732220808967194   0.0031273658347428235   -0.002261811104400307
0.23732220808967194   0.0031273658347428235   -0.002261811104400307
0.23732220808967194   0.0031273658347428235   -0.002261811104400307
0.23732220808967194   0.0031273658347428235   -0.002261811104400307
0.16556004193883228   -0.00402680240331494   -0.010624443328936783
0.16556004193883228   -0.00402680240331494   -0.010624443328936783
0.16556004193883228   -0.00402680240331494   -0.010624443328936783
0.16556004193883228   -0.00402680240331494   -0.010624443328936783
0.24161106691286616   0.016002649201118803   0.006307199645195195
0.24161106691286616   0.016002649201118803   0.006307199645195195
0.24161106691286616   0.016002649201118803   0.006307199645195195
0.24161106691286616   0.016002649201118803   0.006307199645195195
0.11395590339162355   -0.020816672959395936   0.0013842996229542527
0.11395590339162355   -0.020816672959395936   0.0013842996229542527
0.11395590339162355   -0.020816672959395936   0.0013842996229542527
0.11395590339162355   -0.020816672959395936   0.0013842996229542527
0.1192718521883089   -0.007629191405357772   0.0045148239193722045
0.1192718521883089   -0.007629191405357772   0.0045148239193722045
0.1192718521883089   -0.007629191405357772   0.0045148239193722045
0.1192718521883089   -0.007629191405357772   0.0045148239193722045
0.24108911472978092   0.004575731567868363   -0.0011464395146695804
0.24108911472978092   0.004575731567868363   -0.0011464395146695804
0.24108911472978092   0.004575731567868363   -0.0011464395146695804
0.24108911472978092   0.004575731567868363   -0.0011464395146695804
0.17199504403473037   -0.003103184010755926   -0.007368510612346911
0.17199504403473037   -0.003103184010755926   -0.007368510612346911
0.17199504403473037   -0.003103184010755926   -0.007368510612346911
0.17199504403473037   -0.003103184010755926   -0.007368510612346911
0.24475580642569214   0.017430987303995796   0.004331763228759299
0.24475580642569214   0.017430987303995796   0.004331763228759299
0.24475580642569214   0.017430987303995796   0.004331763228759299
0.24475580642569214   0.017430987303995796   0.004331763228759299
0.11629357149204626   -0.019796036141837017   0.0017902651745381713
0.11629357149204626   -0.019796036141837017   0.0017902651745381713
0.11629357149204626   -0.019796036141837017   0.0017902651745381713
0.11629357149204626   -0.019796036141837017   0.0017902651745381713
0.1222997694156703   -0.0025455386205599055   0.004129596959715906
0.1222997694156703   -0.0025455386205599055   0.004129596959715906
0.1222997694156703   -0.0025455386205599055   0.004129596959715906
0.1222997694156703   -0.0025455386205599055   0.004129596959715906
0.24509521402865037   0.008100449921037325   -0.0006846316311179858
0.24509521402865037   0.008100449921037325   -0.0006846316311179858
0.24509521402865037   0.008100449921037325   -0.0006846316311179858
0.24509521402865037   0.008100449921037325   -0.0006846316311179858
0.17243906265416212   -0.001198337448443422   -0.005659597776630328
0.17243906265416212   -0.001198337448443422   -0.005659597776630328
0.17243906265416212   -0.001198337448443422   -0.005659597776630328
0.17243906265416212   -0.001198337448443422   -0.005659597776630328
0.11801916819301986   0.004291111377521459   0.008786274524501618
0.11801916819301986   0.004291111377521459   0.008786274524501618
0.11801916819301986   0.004291111377521459   0.008786274524501618
0.11801916819301986   0.004291111377521459   0.008786274524501618
0.003558831846990915   -0.03877062912526061   0.0034487547899488442
0.003558831846990915   -0.03877062912526061   0.0034487547899488442
0.003558831846990915   -0.03877062912526061   0.0034487547899488442
0.003558831846990915   -0.03877062912526061   0.0034487547899488442
0.010710918217235754   -0.01706357368613401   0.0034726564501690654
0.010710918217235754   -0.01706357368613401   0.0034726564501690654
0.010710918217235754   -0.01706357368613401   0.0034726564501690654
0.010710918217235754   -0.01706357368613401   0.0034726564501690654
0.11514001171490137   -0.016244192038966602   0.002732360318913378
0.11514001171490137   -0.016244192038966602   0.002732360318913378
0.11514001171490137   -0.016244192038966602   0.002732360318913378
0.11514001171490137   -0.016244192038966602   0.002732360318913378
0.05991222429130402   -0.01656101824492723   -0.00640331934575201
0.05991222429130402   -0.01656101824492723   -0.00640331934575201
0.05991222429130402   -0.01656101824492723   -0.00640331934575201
0.05991222429130402   -0.01656101824492723   -0.00640331934575201
0.12045986538300388   0.005674309817564744   0.007413126802895661
0.12045986538300388   0.005674309817564744   0.007413126802895661
0.12045986538300388   0.005674309817564744   0.007413126802895661
0.12045986538300388   0.005674309817564744   0.007413126802895661
0.006801190622029985   -0.03757194946976859   0.004432394257774816
0.006801190622029985   -0.03757194946976859   0.004432394257774816
0.006801190622029985   -0.03757194946976859   0.004432394257774816
0.006801190622029985   -0.03757194946976859   0.004432394257774816
0.01350951472847121   -0.014655518946014974   0.0024165482192519067
0.01350951472847121   -0.014655518946014974   0.0024165482192519067
0.01350951472847121   -0.014655518946014974   0.0024165482192519067
0.01350951472847121   -0.014655518946014974   0.0024165482192519067
0.11756937960541622   -0.014914216548367335   0.0032874861479184805
0.11756937960541622   -0.014914216548367335   0.0032874861479184805
0.11756937960541622   -0.014914216548367335   0.0032874861479184805
0.11756937960541622   -0.014914216548367335   0.0032874861479184805
0.06221200812847844   -0.01558541097279236   -0.0032100141926754526
0.06221200812847844   -0.01558541097279236   -0.0032100141926754526
0.06221200812847844   -0.01558541097279236   -0.0032100141926754526
0.06221200812847844   -0.01558541097279236   -0.0032100141926754526
0.12275470055754392   0.007975152873322407   0.006324721486867086
0.12275470055754392   0.007975152873322407   0.006324721486867086
0.12275470055754392   0.007975152873322407   0.006324721486867086
0.12275470055754392   0.007975152873322407   0.006324721486867086
0.009673994443099028   -0.03619508770094939   0.004778515547325404
0.009673994443099028   -0.03619508770094939   0.004778515547325404
0.009673994443099028   -0.03619508770094939   0.004778515547325404
0.009673994443099028   -0.03619508770094939   0.004778515547325404
0.01785669210194146   -0.01102880564891983   0.0015056140230761692
0.01785669210194146   -0.01102880564891983   0.0015056140230761692
0.01785669210194146   -0.01102880564891983   0.0015056140230761692
0.01785669210194146   -0.01102880564891983   0.0015056140230761692
0.12018690235446734   -0.012923679618540997   0.003943402651681591
0.12018690235446734   -0.012923679618540997   0.003943402651681591
0.12018690235446734   -0.012923679618540997   0.003943402651681591
0.12018690235446734   -0.012923679618540997   0.003943402651681591
0.06653278988153918   -0.013313153884771445   0.0005382347757008181
0.06653278988153918   -0.013313153884771445   0.0005382347757008181
0.06653278988153918   -0.013313153884771445   0.0005382347757008181
0.06653278988153918   -0.013313153884771445   0.0005382347757008181
0.01054619921154452   -0.00603122074900111   0.005646183236457362
0.01054619921154452   -0.00603122074900111   0.005646183236457362
0.01054619921154452   -0.00603122074900111   0.005646183236457362
0.01054619921154452   -0.00603122074900111   0.005646183236457362
-0.10495488969561388   -0.06543348501875398   0.005388387330707515
-0.10495488969561388   -0.06543348501875398   0.005388387330707515
-0.10495488969561388   -0.06543348501875398   0.005388387330707515
-0.10495488969561388   -0.06543348501875398   0.005388387330707515
-0.0938563295707923   -0.026605763779504826   3.289896467842824e-05
-0.0938563295707923   -0.026605763779504826   3.289896467842824e-05
-0.0938563295707923   -0.026605763779504826   3.289896467842824e-05
-0.0938563295707923   -0.026605763779504826   3.289896467842824e-05
0.004974050679507264   -0.04480098275509296   0.0025257278304856006
0.004974050679507264   -0.04480098275509296   0.0025257278304856006
0.004974050679507264   -0.04480098275509296   0.0025257278304856006
0.004974050679507264   -0.04480098275509296   0.0025257278304856006
-0.04701589246311714   -0.03594735477391426   -0.007661383677688404
-0.04701589246311714   -0.03594735477391426   -0.007661383677688404
-0.04701589246311714   -0.03594735477391426   -0.007661383677688404
-0.04701589246311714   -0.03594735477391426   -0.007661383677688404
0.013478077239498027   -0.004247072196094802   0.004491950071441228
0.013478077239498027   -0.004247072196094802   0.004491950071441228
0.013478077239498027   -0.004247072196094802   0.004491950071441228
0.013478077239498027   -0.004247072196094802   0.004491950071441228
-0.10025558830744494   -0.06505490651516524   0.006485748017076427
-0.10025558830744494   -0.06505490651516524   0.006485748017076427
-0.10025558830744494   -0.06505490651516524   0.006485748017076427
-0.10025558830744494   -0.06505490651516524   0.006485748017076427
-0.08956260234078822   -0.02379497177186029   -0.00047639824689889917
-0.08956260234078822   -0.02379497177186029   -0.00047639824689889917
-0.08956260234078822   -0.02379497177186029   -0.00047639824689889917
-0.08956260234078822   -0.02379497177186029   -0.00047639824689889917
0.00794556207428721   -0.04352866036655236   0.003469926368869487
0.00794556207428721   -0.04352866036655236   0.003469926368869487
0.00794556207428721   -0.04352866036655236   0.003469926368869487
0.00794556207428721   -0.04352866036655236   0.003469926368869487
-0.04261133268523122   -0.03444299885432591   -0.002691018456184366
-0.04261133268523122   -0.03444299885432591   -0.002691018456184366
-0.04261133268523122   -0.03444299885432591   -0.002691018456184366
-0.04261133268523122   -0.03444299885432591   -0.002691018456184366
0.016161694603734757   -0.0019587058363867886   0.002980634485941462
0.016161694603734757   -0.0019587058363867886   0.002980634485941462
0.016161694603734757   -0.0019587058363867886   0.002980634485941462
0.016161694603734757   -0.0019587058363867886   0.002980634485941462
-0.09593735451828567   -0.06352354595007487   0.007378415043829882
-0.09593735451828567   -0.06352354595007487   0.007378415043829882
-0.09593735451828567   -0.06352354595007487   0.007378415043829882
-0.09593735451828567   -0.06352354595007487   0.007378415043829882
-0.08246166216463426   -0.020582644420790247   -0.001374302344462949
-0.08246166216463426   -0.020582644420790247   -0.001374302344462949
-0.08246166216463426   -0.020582644420790247   -0.001374302344462949
-0.08246166216463426   -0.020582644420790247   -0.001374302344462949
0.012567214162786347   -0.04047229862756005   0.004501717305940699
0.012567214162786347   -0.04047229862756005   0.004501717305940699
0.012567214162786347   -0.04047229862756005   0.004501717305940699
0.012567214162786347   -0.04047229862756005   0.004501717305940699
-0.03695850717748758   -0.031493472961566245   0.0023439364574264947
-0.03695850717748758   -0.031493472961566245   0.0023439364574264947
-0.03695850717748758   -0.031493472961566245   0.0023439364574264947
-0.03695850717748758   -0.031493472961566245   0.0023439364574264947
-0.09484918735080894   -0.012226721773832133   0.002710135809809623
-0.09484918735080894   -0.012226721773832133   0.002710135809809623
-0.09484918735080894   -0.012226721773832133   0.002710135809809623
-0.09484918735080894   -0.012226721773832133   0.002710135809809623
-0.22805142580600044   -0.10019569356197489   -0.0035045290115378776
-0.22805142580600044   -0.10019569356197489   -0.0035045290115378776
-0.22805142580600044   -0.10019569356197489   -0.0035045290115378776
-0.22805142580600044   -0.10019569356197489   -0.0035045290115378776
-0.20995872870447194   -0.034601174205910086   -0.0060667620172954306
-0.20995872870447194   -0.034601174205910086   -0.0060667620172954306
-0.20995872870447194   -0.034601174205910086   -0.0060667620172954306
-0.20995872870447194   -0.034601174205910086   -0.0060667620172954306
-0.10445583093421006   -0.08178772309887848   0.0022173514669632383
-0.10445583093421006   -0.08178772309887848   0.0022173514669632383
-0.10445583093421006   -0.08178772309887848   0.0022173514669632383
-0.10445583093421006   -0.08178772309887848   0.0022173514669632383
-0.15919499412853025   -0.059374633205052485   -0.008174483000453684
-0.15919499412853025   -0.059374633205052485   -0.008174483000453684
-0.15919499412853025   -0.059374633205052485   -0.008174483000453684
-0.15919499412853025   -0.059374633205052485   -0.008174483000453684
-0.08982444053256494   -0.00886970674400627   0.002456287120316634
-0.08982444053256494   -0.00886970674400627   0.002456287120316634
-0.08982444053256494   -0.00886970674400627   0.002456287120316634
-0.08982444053256494   -0.00886970674400627   0.002456287120316634
-0.22382791694355222   -0.10675698839821715   -0.0032568890203879403
-0.22382791694355222   -0.10675698839821715   -0.0032568890203879403
-0.22382791694355222   -0.10675698839821715   -0.0032568890203879403
-0.22382791694355222   -0.10675698839821715   -0.0032568890203879403
-0.20409681587462128   -0.03127824376319719   -0.006249148168387302
-0.20409681587462128   -0.03127824376319719   -0.006249148168387302
-0.20409681587462128   -0.03127824376319719   -0.006249148168387302
-0.20409681587462128   -0.03127824376319719   -0.006249148168387302
-0.10019218137018739   -0.08077389656109596   0.0033546313953416486
-0.10019218137018739   -0.08077389656109596   0.0033546313953416486
-0.10019218137018739   -0.08077389656109596   0.0033546313953416486
-0.10019218137018739   -0.08077389656109596   0.0033546313953416486
-0.1528168407588614   -0.057326526452634904   -0.00511726708341893
-0.1528168407588614   -0.057326526452634904   -0.00511726708341893
-0.1528168407588614   -0.057326526452634904   -0.00511726708341893
-0.1528168407588614   -0.057326526452634904   -0.00511726708341893
-0.08577994592503337   -0.006197214772999468   0.000839126833015397
-0.08577994592503337   -0.006197214772999468   0.000839126833015397
-0.08577994592503337   -0.006197214772999468   0.000839126833015397
-0.08577994592503337   -0.006197214772999468   0.000839126833015397
-0.21827718039468869   -0.10562305462620711   -0.0028061599057128146
-0.21827718039468869   -0.10562305462620711   -0.0028061599057128146
-0.21827718039468869   -0.10562305462620711   -0.0028061599057128146
-0.21827718039468869   -0.10562305462620711   -0.0028061599057128146
-0.19481815534193592   -0.027797233216327613   -0.007105572340309646
-0.19481815534193592   -0.027797233216327613   -0.007105572340309646
-0.19481815534193592   -0.027797233216327613   -0.007105572340309646
-0.19481815534193592   -0.027797233216327613   -0.007105572340309646
-0.09094610461926855   -0.07121711104339286   0.006837952004969594
-0.09094610461926855   -0.07121711104339286   0.006837952004969594
-0.09094610461926855   -0.07121711104339286   0.006837952004969594
-0.09094610461926855   -0.07121711104339286   0.006837952004969594
-0.1458966612999795   -0.05115485799502991   -0.002081529834964812
-0.1458966612999795   -0.05115485799502991   -0.002081529834964812
-0.1458966612999795   -0.05115485799502991   -0.002081529834964812
-0.1458966612999795   -0.05115485799502991   -0.002081529834964812
-0.20975567139081955   -0.010929612320187888   -0.0012918381774203718
-0.20975567139081955   -0.010929612320187888   -0.0012918381774203718
-0.20975567139081955   -0.010929612320187888   -0.0012918381774203718
-0.20975567139081955   -0.010929612320187888   -0.0012918381774203718
-0.36421307180616214   -0.07208139847972703   0.0038060794075270047
-0.36421307180616214   -0.07208139847972703   0.0038060794075270047
-0.36421307180616214   -0.07208139847972703   0.0038060794075270047
-0.36421307180616214   -0.07208139847972703   0.0038060794075270047
-0.350734437987434   -0.0329716283519182   -0.007010531500153074
-0.350734437987434   -0.0329716283519182   -0.007010531500153074
-0.350734437987434   -0.0329716283519182   -0.007010531500153074
-0.350734437987434   -0.0329716283519182   -0.007010531500153074
-0.20698768638257392   -0.03880006849938159   0.012987343885665976
-0.20698768638257392   -0.03880006849938159   0.012987343885665976
-0.20698768638257392   -0.03880006849938159   0.012987343885665976
-0.20698768638257392   -0.03880006849938159   0.012987343885665976
-0.27159813750035267   -0.04131815891655439   0.0031098611801480586
-0.27159813750035267   -0.04131815891655439   0.0031098611801480586
-0.27159813750035267   -0.04131815891655439   0.0031098611801480586
-0.27159813750035267   -0.04131815891655439   0.0031098611801480586
-0.20219370459293   -0.0018582820884044532   1.54664229095932e-05
-0.20219370459293   -0.0018582820884044532   1.54664229095932e-05
-0.20219370459293   -0.0018582820884044532   1.54664229095932e-05
-0.20219370459293   -0.0018582820884044532   1.54664229095932e-05
-0.3566396130305654   -0.07102460801638273   0.0015165729486517048
-0.3566396130305654   -0.07102460801638273   0.0015165729486517048
-0.3566396130305654   -0.07102460801638273   0.0015165729486517048
-0.3566396130305654   -0.07102460801638273   0.0015165729486517048
-0.34383235958291725   -0.030287931319964406   -0.008925609525693656
-0.34383235958291725   -0.030287931319964406   -0.008925609525693656
-0.34383235958291725   -0.030287931319964406   -0.008925609525693656
-0.34383235958291725   -0.030287931319964406   -0.008925609525693656
-0.2009736827514591   -0.03714756817787187   0.015235841862099775
-0.2009736827514591   -0.03714756817787187   0.015235841862099775
-0.2009736827514591   -0.03714756817787187   0.015235841862099775
-0.2009736827514591   -0.03714756817787187   0.015235841862099775
-0.2683942063803813   -0.03422135212625857   0.0031698609059231508
-0.2683942063803813   -0.03422135212625857   0.0031698609059231508
-0.2683942063803813   -0.03422135212625857   0.0031698609059231508
-0.2683942063803813   -0.03422135212625857   0.0031698609059231508
-0.1968567172444768   0.0005224494139097896   -0.0018493481947703047
-0.1968567172444768   0.0005224494139097896   -0.0018493481947703047
-0.1968567172444768   0.0005224494139097896   -0.0018493481947703047
-0.1968567172444768   0.0005224494139097896   -0.0018493481947703047
-0.3482040521520339   -0.06821267597387966   0.0071406722826356335
-0.3482040521520339   -0.06821267597387966   0.0071406722826356335
-0.3482040521520339   -0.06821267597387966   0.0071406722826356335
-0.3482040521520339   -0.06821267597387966   0.0071406722826356335
-0.32944650368293277   -0.02507691541689048   -0.010208013620911715
-0.32944650368293277   -0.02507691541689048   -0.010208013620911715
-0.32944650368293277   -0.02507691541689048   -0.010208013620911715
-0.32944650368293277   -0.02507691541689048   -0.010208013620911715
-0.19149346939554665   -0.03496214087003948   0.016682765045349258
-0.19149346939554665   -0.03496214087003948   0.016682765045349258
-0.19149346939554665   -0.03496214087003948   0.016682765045349258
-0.19149346939554665   -0.03496214087003948   0.016682765045349258
-0.2536572377101369   -0.026300828818238853   0.007242850589732431
-0.2536572377101369   -0.026300828818238853   0.007242850589732431
-0.2536572377101369   -0.026300828818238853   0.007242850589732431
-0.2536572377101369   -0.026300828818238853   0.007242850589732431
0.2590388798651577   0.009676146568801294   0.0033912793975085474
0.2590388798651577   0.009676146568801294   0.0033912793975085474
0.2590388798651577   0.009676146568801294   0.0033912793975085474
0.2590388798651577   0.009676146568801294   0.0033912793975085474
0.130468297541435   -0.0076145009705461605   0.0020110722907671283
0.130468297541435   -0.0076145009705461605   0.0020110722907671283
0.130468297541435   -0.0076145009705461605   0.0020110722907671283
0.130468297541435   -0.0076145009705461605   0.0020110722907671283
0.12593568703465507   -0.0177807389554677   0.004584185999563933
0.12593568703465507   -0.0177807389554677   0.004584185999563933
0.12593568703465507   -0.0177807389554677   0.004584185999563933
0.12593568703465507   -0.0177807389554677   0.004584185999563933
0.2572310919632689   0.014408648685012002   0.0012787830601590534
0.2572310919632689   0.014408648685012002   0.0012787830601590534
0.2572310919632689   0.014408648685012002   0.0012787830601590534
0.2572310919632689   0.014408648685012002   0.0012787830601590534
0.1828849363493368   -0.002286698590217004   -0.006859085443294522
0.1828849363493368   -0.002286698590217004   -0.006859085443294522
0.1828849363493368   -0.002286698590217004   -0.006859085443294522
0.1828849363493368   -0.002286698590217004   -0.006859085443294522
0.2561695278112298   0.00785426183077434   0.0025253491542013944
0.2561695278112298   0.00785426183077434   0.0025253491542013944
0.2561695278112298   0.00785426183077434   0.0025253491542013944
0.2561695278112298   0.00785426183077434   0.0025253491542013944
0.1266582097870079   -0.011565393500916607   0.001981454306776988
0.1266582097870079   -0.011565393500916607   0.001981454306776988
0.1266582097870079   -0.011565393500916607   0.001981454306776988
0.1266582097870079   -0.011565393500916607   0.001981454306776988
0.12295178025548538   -0.018076130735974662   0.0037315834404108156
0.12295178025548538   -0.018076130735974662   0.0037315834404108156
0.12295178025548538   -0.018076130735974662   0.0037315834404108156
0.12295178025548538   -0.018076130735974662   0.0037315834404108156
0.25457961838190296   0.013920206101642366   0.0025277045679688703
0.25457961838190296   0.013920206101642366   0.0025277045679688703
0.25457961838190296   0.013920206101642366   0.0025277045679688703
0.25457961838190296   0.013920206101642366   0.0025277045679688703
0.18276485743474777   -0.0031318699769678285   -0.00766241002299752
0.18276485743474777   -0.0031318699769678285   -0.00766241002299752
0.18276485743474777   -0.0031318699769678285   -0.00766241002299752
0.18276485743474777   -0.0031318699769678285   -0.00766241002299752
0.2528954380821433   0.007309738312864571   0.0007172708579460483
0.2528954380821433   0.007309738312864571   0.0007172708579460483
0.2528954380821433   0.007309738312864571   0.0007172708579460483
0.2528954380821433   0.007309738312864571   0.0007172708579460483
0.12398705226338488   -0.012114571239056897   0.002946383982990658
0.12398705226338488   -0.012114571239056897   0.002946383982990658
0.12398705226338488   -0.012114571239056897   0.002946383982990658
0.12398705226338488   -0.012114571239056897   0.002946383982990658
0.11985847278416469   -0.0161640431972608   0.0032296440218770803
0.11985847278416469   -0.0161640431972608   0.0032296440218770803
0.11985847278416469   -0.0161640431972608   0.0032296440218770803
0.11985847278416469   -0.0161640431972608   0.0032296440218770803
0.25055658593461755   0.014458772701694142   0.003886517869926241
0.25055658593461755   0.014458772701694142   0.003886517869926241
0.25055658593461755   0.014458772701694142   0.003886517869926241
0.25055658593461755   0.014458772701694142   0.003886517869926241
0.17630413477362294   -0.0030065759751801424   -0.0100975306802144
0.17630413477362294   -0.0030065759751801424   -0.0100975306802144
0.17630413477362294   -0.0030065759751801424   -0.0100975306802144
0.17630413477362294   -0.0030065759751801424   -0.0100975306802144
0.13031582862240054   -0.012818446152631655   0.006452672877680296
0.13031582862240054   -0.012818446152631655   0.006452672877680296
0.13031582862240054   -0.012818446152631655   0.006452672877680296
0.13031582862240054   -0.012818446152631655   0.006452672877680296
0.021002571658858875   -0.015434231386445847   0.0008497923832856994
0.021002571658858875   -0.015434231386445847   0.0008497923832856994
0.021002571658858875   -0.015434231386445847   0.0008497923832856994
0.021002571658858875   -0.015434231386445847   0.0008497923832856994
0.013137921610137129   -0.036007648343933434   0.005917168898843465
0.013137921610137129   -0.036007648343933434   0.005917168898843465
0.013137921610137129   -0.036007648343933434   0.005917168898843465
0.013137921610137129   -0.036007648343933434   0.005917168898843465
0.1307845384005377   0.006208736014010126   0.004838967859498905
0.1307845384005377   0.006208736014010126   0.004838967859498905
0.1307845384005377   0.006208736014010126   0.004838967859498905
0.1307845384005377   0.006208736014010126   0.004838967859498905
0.0726553620798505   -0.014580621402089527   -0.00036656725480930293
0.0726553620798505   -0.014580621402089527   -0.00036656725480930293
0.0726553620798505   -0.014580621402089527   -0.00036656725480930293
0.0726553620798505   -0.014580621402089527   -0.00036656725480930293
0.12701049377614518   -0.013317559616825767   0.005495040368372587
0.12701049377614518   -0.013317559616825767   0.005495040368372587
0.12701049377614518   -0.013317559616825767   0.005495040368372587
0.12701049377614518   -0.013317559616825767   0.005495040368372587
0.015948663412853534   -0.017444655534773475   0.0014078851032650512
0.015948663412853534   -0.017444655534773475   0.0014078851032650512
0.015948663412853534   -0.017444655534773475   0.0014078851032650512
0.015948663412853534   -0.017444655534773475   0.0014078851032650512
0.009543468553152617   -0.03612275837584703   0.005270688062783593
0.009543468553152617   -0.03612275837584703   0.005270688062783593
0.009543468553152617   -0.03612275837584703   0.005270688062783593
0.009543468553152617   -0.03612275837584703   0.005270688062783593
0.12804134111284152   0.005443414765908414   0.005659842225308687
0.12804134111284152   0.005443414765908414   0.005659842225308687
0.12804134111284152   0.005443414765908414   0.005659842225308687
0.12804134111284152   0.005443414765908414   0.005659842225308687
0.06770610534016998   -0.015469443279025712   -0.0032681280571499136
0.06770610534016998   -0.015469443279025712   -0.0032681280571499136
0.06770610534016998   -0.015469443279025712   -0.0032681280571499136
0.06770610534016998   -0.015469443279025712   -0.0032681280571499136
0.12407997979551544   -0.013341919715844967   0.004638370120430418
0.12407997979551544   -0.013341919715844967   0.004638370120430418
0.12407997979551544   -0.013341919715844967   0.004638370120430418
0.12407997979551544   -0.013341919715844967   0.004638370120430418
0.012449353219806022   -0.01839290054476642   0.002070253564970006
0.012449353219806022   -0.01839290054476642   0.002070253564970006
0.012449353219806022   -0.01839290054476642   0.002070253564970006
0.012449353219806022   -0.01839290054476642   0.002070253564970006
0.005540823670383908   -0.03583687093656045   0.004023524745660112
0.005540823670383908   -0.03583687093656045   0.004023524745660112
0.005540823670383908   -0.03583687093656045   0.004023524745660112
0.005540823670383908   -0.03583687093656045   0.004023524745660112
0.12492732408128301   0.005710420596521503   0.0066994367136859806
0.12492732408128301   0.005710420596521503   0.0066994367136859806
0.12492732408128301   0.005710420596521503   0.0066994367136859806
0.12492732408128301   0.005710420596521503   0.0066994367136859806
0.06481858707627973   -0.015128435094818194   -0.005677288044297916
0.06481858707627973   -0.015128435094818194   -0.005677288044297916
0.06481858707627973   -0.015128435094818194   -0.005677288044297916
0.06481858707627973   -0.015128435094818194   -0.005677288044297916
0.01684687987160946   -0.041019490132777406   0.005656592193369246
0.01684687987160946   -0.041019490132777406   0.005656592193369246
0.01684687987160946   -0.041019490132777406   0.005656592193369246
0.01684687987160946   -0.041019490132777406   0.005656592193369246
-0.0845432233101469   -0.023324101065070053   -0.0003670250643293155
-0.0845432233101469   -0.023324101065070053   -0.0003670250643293155
-0.0845432233101469   -0.023324101065070053   -0.0003670250643293155
-0.0845432233101469   -0.023324101065070053   -0.0003670250643293155
-0.09876644959334627   -0.06469966031747755   0.00677284029141623
-0.09876644959334627   -0.06469966031747755   0.00677284029141623
-0.09876644959334627   -0.06469966031747755   0.00677284029141623
-0.09876644959334627   -0.06469966031747755   0.00677284029141623
0.019368451986054296   -0.0021230352429320648   0.003185207677427481
0.019368451986054296   -0.0021230352429320648   0.003185207677427481
0.019368451986054296   -0.0021230352429320648   0.003185207677427481
0.019368451986054296   -0.0021230352429320648   0.003185207677427481
-0.036366593733815386   -0.032314174831455614   0.0013140741140296982
-0.036366593733815386   -0.032314174831455614   0.0013140741140296982
-0.036366593733815386   -0.032314174831455614   0.0013140741140296982
-0.036366593733815386   -0.032314174831455614   0.0013140741140296982
0.011363799324125476   -0.04318366397274654   0.0042225730975983065
0.011363799324125476   -0.04318366397274654   0.0042225730975983065
0.011363799324125476   -0.04318366397274654   0.0042225730975983065
0.011363799324125476   -0.04318366397274654   0.0042225730975983065
-0.09215079793524075   -0.025028032591486227   0.0001794708559517185
-0.09215079793524075   -0.025028032591486227   0.0001794708559517185
-0.09215079793524075   -0.025028032591486227   0.0001794708559517185
-0.09215079793524075   -0.025028032591486227   0.0001794708559517185
-0.10370053397700815   -0.06540658001390207   0.005726424183416326
-0.10370053397700815   -0.06540658001390207   0.005726424183416326
-0.10370053397700815   -0.06540658001390207   0.005726424183416326
-0.10370053397700815   -0.06540658001390207   0.005726424183416326
0.01598360286012336   -0.0029626690649027024   0.004311270286693082
0.01598360286012336   -0.0029626690649027024   0.004311270286693082
0.01598360286012336   -0.0029626690649027024   0.004311270286693082
0.01598360286012336   -0.0029626690649027024   0.004311270286693082
-0.04257047732516997   -0.034087980934158796   -0.002781665631664044
-0.04257047732516997   -0.034087980934158796   -0.002781665631664044
-0.04257047732516997   -0.034087980934158796   -0.002781665631664044
-0.04257047732516997   -0.034087980934158796   -0.002781665631664044
0.00753514072410349   -0.04373622650168768   0.0028425170433786003
0.00753514072410349   -0.04373622650168768   0.0028425170433786003
0.00753514072410349   -0.04373622650168768   0.0028425170433786003
0.00753514072410349   -0.04373622650168768   0.0028425170433786003
-0.09696550020001399   -0.026346450936143313   0.0003414639906273928
-0.09696550020001399   -0.026346450936143313   0.0003414639906273928
-0.09696550020001399   -0.026346450936143313   0.0003414639906273928
-0.09696550020001399   -0.026346450936143313   0.0003414639906273928
-0.10913315931707816   -0.0648165876353165   0.004480645747022997
-0.10913315931707816   -0.0648165876353165   0.004480645747022997
-0.10913315931707816   -0.0648165876353165   0.004480645747022997
-0.10913315931707816   -0.0648165876353165   0.004480645747022997
0.012237549427922033   -0.0033634919322969104   0.005033774529087064
0.012237549427922033   -0.0033634919322969104   0.005033774529087064
0.012237549427922033   -0.0033634919322969104   0.005033774529087064
0.012237549427922033   -0.0033634919322969104   0.005033774529087064
-0.04766858233056954   -0.034682770619226574   -0.007004415616003986
-0.04766858233056954   -0.034682770619226574   -0.007004415616003986
-0.04766858233056954   -0.034682770619226574   -0.007004415616003986
-0.04766858233056954   -0.034682770619226574   -0.007004415616003986
-0.09267734240609854   -0.07107692950126517   0.006715207892108301
-0.09267734240609854   -0.07107692950126517   0.006715207892108301
-0.09267734240609854   -0.07107692950126517   0.006715207892108301
-0.09267734240609854   -0.07107692950126517   0.006715207892108301
-0.20233210847494884   -0.0288444697358604   -0.004363754911123184
-0.20233210847494884   -0.0288444697358604   -0.004363754911123184
-0.20233210847494884   -0.0288444697358604   -0.004363754911123184
-0.20233210847494884   -0.0288444697358604   -0.004363754911123184
-0.22736959534069698   -0.10779140741123433   -0.00488730568832909
-0.22736959534069698   -0.10779140741123433   -0.00488730568832909
-0.22736959534069698   -0.10779140741123433   -0.00488730568832909
-0.22736959534069698   -0.10779140741123433   -0.00488730568832909
-0.08757045612675307   -0.004699334398716478   0.00275248170562017
-0.08757045612675307   -0.004699334398716478   0.00275248170562017
-0.08757045612675307   -0.004699334398716478   0.00275248170562017
-0.08757045612675307   -0.004699334398716478   0.00275248170562017
-0.15091262279829415   -0.05067451421491967   -0.0034984630745887165
-0.15091262279829415   -0.05067451421491967   -0.0034984630745887165
-0.15091262279829415   -0.05067451421491967   -0.0034984630745887165
-0.15091262279829415   -0.05067451421491967   -0.0034984630745887165
-0.1029212562712127   -0.08138704095229168   0.0026861875368974428
-0.1029212562712127   -0.08138704095229168   0.0026861875368974428
-0.1029212562712127   -0.08138704095229168   0.0026861875368974428
-0.1029212562712127   -0.08138704095229168   0.0026861875368974428
-0.2117850132481821   -0.03086991890960373   -0.003885883727387069
-0.2117850132481821   -0.03086991890960373   -0.003885883727387069
-0.2117850132481821   -0.03086991890960373   -0.003885883727387069
-0.2117850132481821   -0.03086991890960373   -0.003885883727387069
-0.23331973626409944   -0.10919906756241404   -0.00564366871733674
-0.23331973626409944   -0.10919906756241404   -0.00564366871733674
-0.23331973626409944   -0.10919906756241404   -0.00564366871733674
-0.23331973626409944   -0.10919906756241404   -0.00564366871733674
-0.09221139966275005   -0.006172867739952509   0.003938383480756613
-0.09221139966275005   -0.006172867739952509   0.003938383480756613
-0.09221139966275005   -0.006172867739952509   0.003938383480756613
-0.09221139966275005   -0.006172867739952509   0.003938383480756613
-0.1582761393202104   -0.05652318192897564   -0.005720092415284658
-0.1582761393202104   -0.05652318192897564   -0.005720092415284658
-0.1582761393202104   -0.05652318192897564   -0.005720092415284658
-0.1582761393202104   -0.05652318192897564   -0.005720092415284658
-0.10810938963118549   -0.08281095942719842   0.0010865253258250974
-0.10810938963118549   -0.08281095942719842   0.0010865253258250974
-0.10810938963118549   -0.08281095942719842   0.0010865253258250974
-0.10810938963118549   -0.08281095942719842   0.0010865253258250974
-0.21771017097434966   -0.032849400553853714   -0.003945509277149803
-0.21771017097434966   -0.032849400553853714   -0.003945509277149803
-0.21771017097434966   -0.032849400553853714   -0.003945509277149803
-0.21771017097434966   -0.032849400553853714   -0.003945509277149803
-0.23829500438961163   -0.10332448349411102   -0.006350010478278151
-0.23829500438961163   -0.10332448349411102   -0.006350010478278151
-0.23829500438961163   -0.10332448349411102   -0.006350010478278151
-0.23829500438961163   -0.10332448349411102   -0.006350010478278151
-0.09797520785741128   -0.008295831030279923   0.0037496464403207063
-0.09797520785741128   -0.008295831030279923   0.0037496464403207063
-0.09797520785741128   -0.008295831030279923   0.0037496464403207063
-0.09797520785741128   -0.008295831030279923   0.0037496464403207063
-0.16525716197609328   -0.058375475802393564   -0.008005920142779933
-0.16525716197609328   -0.058375475802393564   -0.008005920142779933
-0.16525716197609328   -0.058375475802393564   -0.008005920142779933
-0.16525716197609328   -0.058375475802393564   -0.008005920142779933
-0.20017137758893025   -0.03709599130097096   0.014691421084076745
-0.20017137758893025   -0.03709599130097096   0.014691421084076745
-0.20017137758893025   -0.03709599130097096   0.014691421084076745
-0.20017137758893025   -0.03709599130097096   0.014691421084076745
-0.3440140153099224   -0.024756702607125473   -0.00518824547652068
-0.3440140153099224   -0.024756702607125473   -0.00518824547652068
-0.3440140153099224   -0.024756702607125473   -0.00518824547652068
-0.3440140153099224   -0.024756702607125473   -0.00518824547652068
-0.36371188098631374   -0.07195610077476493   0.003931377112489117
-0.36371188098631374   -0.07195610077476493   0.003931377112489117
-0.36371188098631374   -0.07195610077476493   0.003931377112489117
-0.36371188098631374   -0.07195610077476493   0.003931377112489117
-0.20370010363769164   0.003781004509967649   0.0018877409054937882
-0.20370010363769164   0.003781004509967649   0.0018877409054937882
-0.20370010363769164   0.003781004509967649   0.0018877409054937882
-0.20370010363769164   0.003781004509967649   0.0018877409054937882
-0.26468233744762604   -0.025210915158543668   0.0051172435554135455
-0.26468233744762604   -0.025210915158543668   0.0051172435554135455
-0.26468233744762604   -0.025210915158543668   0.0051172435554135455
-0.26468233744762604   -0.025210915158543668   0.0051172435554135455
-0.21013203300976904   -0.039437155742448875   0.01294625429752229
-0.21013203300976904   -0.039437155742448875   0.01294625429752229
-0.21013203300976904   -0.039437155742448875   0.01294625429752229
-0.21013203300976904   -0.039437155742448875   0.01294625429752229
-0.35658157559690834   -0.028039564505019682   -0.0043336322102261425
-0.35658157559690834   -0.028039564505019682   -0.0043336322102261425
-0.35658157559690834   -0.028039564505019682   -0.0043336322102261425
-0.35658157559690834   -0.028039564505019682   -0.0043336322102261425
-0.3715161604593704   -0.074743744873584   -0.002202563908549561
-0.3715161604593704   -0.074743744873584   -0.002202563908549561
-0.3715161604593704   -0.074743744873584   -0.002202563908549561
-0.3715161604593704   -0.074743744873584   -0.002202563908549561
-0.20930947980604575   0.00202111605629577   0.003187429954220059
-0.20930947980604575   0.00202111605629577   0.003187429954220059
-0.20930947980604575   0.00202111605629577   0.003187429954220059
-0.20930947980604575   0.00202111605629577   0.003187429954220059
-0.279215440834018   -0.03299085536128671   0.0019117116687774119
-0.279215440834018   -0.03299085536128671   0.0019117116687774119
-0.279215440834018   -0.03299085536128671   0.0019117116687774119
-0.279215440834018   -0.03299085536128671   0.0019117116687774119
-0.21650857470392473   -0.04121591719713353   0.010428988718254692
-0.21650857470392473   -0.04121591719713353   0.010428988718254692
-0.21650857470392473   -0.04121591719713353   0.010428988718254692
-0.21650857470392473   -0.04121591719713353   0.010428988718254692
-0.3627376090543851   -0.02992725511304737   -0.003126296644156274
-0.3627376090543851   -0.02992725511304737   -0.003126296644156274
-0.3627376090543851   -0.02992725511304737   -0.003126296644156274
-0.3627376090543851   -0.02992725511304737   -0.003126296644156274
-0.3777511744485168   -0.07559945654800036   -0.0002461082914850583
-0.3777511744485168   -0.07559945654800036   -0.0002461082914850583
-0.3777511744485168   -0.07559945654800036   -0.0002461082914850583
-0.3777511744485168   -0.07559945654800036   -0.0002461082914850583
-0.21729901456782283   -0.0061676224819772404   0.0014730776185308773
-0.21729901456782283   -0.0061676224819772404   0.0014730776185308773
-0.21729901456782283   -0.0061676224819772404   0.0014730776185308773
-0.21729901456782283   -0.0061676224819772404   0.0014730776185308773
-0.2817127193718043   -0.03951985264347939   0.0029494782175741446
-0.2817127193718043   -0.03951985264347939   0.0029494782175741446
-0.2817127193718043   -0.03951985264347939   0.0029494782175741446
-0.2817127193718043   -0.03951985264347939   0.0029494782175741446
0.23182502985672845   0.011372707515341668   -0.004409617595083238
0.23182502985672845   0.011372707515341668   -0.004409617595083238
0.23182502985672845   0.011372707515341668   -0.004409617595083238
0.23182502985672845   0.011372707515341668   -0.004409617595083238
0.11526284658783238   -0.0032124112787540807   0.0019118652267873836
0.11526284658783238   -0.0032124112787540807   0.0019118652267873836
0.11526284658783238   -0.0032124112787540807   0.0019118652267873836
0.11526284658783238   -0.0032124112787540807   0.0019118652267873836
0.1086629388397949   -0.016381415002921798   -0.004103382256035973
0.1086629388397949   -0.016381415002921798   -0.004103382256035973
0.1086629388397949   -0.016381415002921798   -0.004103382256035973
0.1086629388397949   -0.016381415002921798   -0.004103382256035973
0.22934390579742867   0.01636099770108866   0.0022367085265947387
0.22934390579742867   0.01636099770108866   0.0022367085265947387
0.22934390579742867   0.01636099770108866   0.0022367085265947387
0.22934390579742867   0.01636099770108866   0.0022367085265947387
0.16230275833044108   0.0004157312856182954   -0.006246708595203645
0.16230275833044108   0.0004157312856182954   -0.006246708595203645
0.16230275833044108   0.0004157312856182954   -0.006246708595203645
0.16230275833044108   0.0004157312856182954   -0.006246708595203645
0.22611996432198694   0.007021888595682785   -0.0045438897452061595
0.22611996432198694   0.007021888595682785   -0.0045438897452061595
0.22611996432198694   0.007021888595682785   -0.0045438897452061595
0.22611996432198694   0.007021888595682785   -0.0045438897452061595
0.11172894077749732   -0.007200245435254986   0.0020454578648078387
0.11172894077749732   -0.007200245435254986   0.0020454578648078387
0.11172894077749732   -0.007200245435254986   0.0020454578648078387
0.11172894077749732   -0.007200245435254986   0.0020454578648078387
0.10507834748842707   -0.017176955084581006   -0.0034568304696720583
0.10507834748842707   -0.017176955084581006   -0.0034568304696720583
0.10507834748842707   -0.017176955084581006   -0.0034568304696720583
0.10507834748842707   -0.017176955084581006   -0.0034568304696720583
0.22442677375487413   0.015184583685398698   0.003433231796772995
0.22442677375487413   0.015184583685398698   0.003433231796772995
0.22442677375487413   0.015184583685398698   0.003433231796772995
0.22442677375487413   0.015184583685398698   0.003433231796772995
0.16068518794241862   -0.0013883796309414331   -0.0072153360240507555
0.16068518794241862   -0.0013883796309414331   -0.0072153360240507555
0.16068518794241862   -0.0013883796309414331   -0.0072153360240507555
0.16068518794241862   -0.0013883796309414331   -0.0072153360240507555
0.22116528619113635   0.005994895235493042   -0.003684517572010216
0.22116528619113635   0.005994895235493042   -0.003684517572010216
0.22116528619113635   0.005994895235493042   -0.003684517572010216
0.22116528619113635   0.005994895235493042   -0.003684517572010216
0.10809586290678502   -0.008231238780055307   0.0026850303175920773
0.10809586290678502   -0.008231238780055307   0.0026850303175920773
0.10809586290678502   -0.008231238780055307   0.0026850303175920773
0.10809586290678502   -0.008231238780055307   0.0026850303175920773
0.1016548525216197   -0.016581568644167585   -0.0024134554463845406
0.1016548525216197   -0.016581568644167585   -0.0024134554463845406
0.1016548525216197   -0.016581568644167585   -0.0024134554463845406
0.1016548525216197   -0.016581568644167585   -0.0024134554463845406
0.21838337099559044   0.014669710279561161   0.0046221268736595066
0.21838337099559044   0.014669710279561161   0.0046221268736595066
0.21838337099559044   0.014669710279561161   0.0046221268736595066
0.21838337099559044   0.014669710279561161   0.0046221268736595066
0.15331370639338027   -0.0023560570378750173   -0.009322317676928734
0.15331370639338027   -0.0023560570378750173   -0.009322317676928734
0.15331370639338027   -0.0023560570378750173   -0.009322317676928734
0.15331370639338027   -0.0023560570378750173   -0.009322317676928734
0.11659095332628315   0.003817903332034297   0.001522084308252833
0.11659095332628315   0.003817903332034297   0.001522084308252833
0.11659095332628315   0.003817903332034297   0.001522084308252833
0.11659095332628315   0.003817903332034297   0.001522084308252833
0.008590014891435072   -0.007473958372001132   -0.0005548297383607768
0.008590014891435072   -0.007473958372001132   -0.0005548297383607768
0.008590014891435072   -0.007473958372001132   -0.0005548297383607768
0.008590014891435072   -0.007473958372001132   -0.0005548297383607768
0.0023633806662738096   -0.021251592721177985   -0.004041518082177769
0.0023633806662738096   -0.021251592721177985   -0.004041518082177769
0.0023633806662738096   -0.021251592721177985   -0.004041518082177769
0.0023633806662738096   -0.021251592721177985   -0.004041518082177769
0.11659464421919644   0.013627518857697918   0.005546210780350579
0.11659464421919644   0.013627518857697918   0.005546210780350579
0.11659464421919644   0.013627518857697918   0.005546210780350579
0.11659464421919644   0.013627518857697918   0.005546210780350579
0.05991990200651942   -0.0025783208521870903   -0.002172422020976176
0.05991990200651942   -0.0025783208521870903   -0.002172422020976176
0.05991990200651942   -0.0025783208521870903   -0.002172422020976176
0.05991990200651942   -0.0025783208521870903   -0.002172422020976176
0.11363514416052983   0.002238591219209815   0.00213763812550663
0.11363514416052983   0.002238591219209815   0.00213763812550663
0.11363514416052983   0.002238591219209815   0.00213763812550663
0.11363514416052983   0.002238591219209815   0.00213763812550663
0.0054533236079267276   -0.009732222199703645   -0.00011117389538751977
0.0054533236079267276   -0.009732222199703645   -0.00011117389538751977
0.0054533236079267276   -0.009732222199703645   -0.00011117389538751977
0.0054533236079267276   -0.009732222199703645   -0.00011117389538751977
-0.001094496195844761   -0.02210217112832767   -0.002932249937185459
-0.001094496195844761   -0.02210217112832767   -0.002932249937185459
-0.001094496195844761   -0.02210217112832767   -0.002932249937185459
-0.001094496195844761   -0.02210217112832767   -0.002932249937185459
0.11280873351750242   0.011930565909386487   0.0060875786817371795
0.11280873351750242   0.011930565909386487   0.0060875786817371795
0.11280873351750242   0.011930565909386487   0.0060875786817371795
0.11280873351750242   0.011930565909386487   0.0060875786817371795
0.05585089069014331   -0.004180691166332568   -0.003071901157704578
0.05585089069014331   -0.004180691166332568   -0.003071901157704578
0.05585089069014331   -0.004180691166332568   -0.003071901157704578
0.05585089069014331   -0.004180691166332568   -0.003071901157704578
0.11002652340930974   0.0012749179918114563   0.002832176058349313
0.11002652340930974   0.0012749179918114563   0.002832176058349313
0.11002652340930974   0.0012749179918114563   0.002832176058349313
0.11002652340930974   0.0012749179918114563   0.002832176058349313
0.0016822777891099   -0.011451959333989518   0.000301408193249694
0.0016822777891099   -0.011451959333989518   0.000301408193249694
0.0016822777891099   -0.011451959333989518   0.000301408193249694
0.0016822777891099   -0.011451959333989518   0.000301408193249694
-0.004777874896673347   -0.02198940513716982   -0.00209449297680657
-0.004777874896673347   -0.02198940513716982   -0.00209449297680657
-0.004777874896673347   -0.02198940513716982   -0.00209449297680657
-0.004777874896673347   -0.02198940513716982   -0.00209449297680657
0.10898494530774516   0.010955287738567151   0.006700152101508636
0.10898494530774516   0.010955287738567151   0.006700152101508636
0.10898494530774516   0.010955287738567151   0.006700152101508636
0.10898494530774516   0.010955287738567151   0.006700152101508636
0.05282993612536286   -0.0046759785503826205   -0.0037849345692996025
0.05282993612536286   -0.0046759785503826205   -0.0037849345692996025
0.05282993612536286   -0.0046759785503826205   -0.0037849345692996025
0.05282993612536286   -0.0046759785503826205   -0.0037849345692996025
0.009493656386849191   -0.0042878635328868165   0.0007772828995955103
0.009493656386849191   -0.0042878635328868165   0.0007772828995955103
0.009493656386849191   -0.0042878635328868165   0.0007772828995955103
0.009493656386849191   -0.0042878635328868165   0.0007772828995955103
-0.09482491319566135   -0.010783519486025551   -0.0029332429129325186
-0.09482491319566135   -0.010783519486025551   -0.0029332429129325186
-0.09482491319566135   -0.010783519486025551   -0.0029332429129325186
-0.09482491319566135   -0.010783519486025551   -0.0029332429129325186
-0.10175051848035452   -0.027929795467469466   -0.004729622978850719
-0.10175051848035452   -0.027929795467469466   -0.004729622978850719
-0.10175051848035452   -0.027929795467469466   -0.004729622978850719
-0.10175051848035452   -0.027929795467469466   -0.004729622978850719
0.010129680934001378   0.010242079492274523   0.0032963110430076553
0.010129680934001378   0.010242079492274523   0.0032963110430076553
0.010129680934001378   0.010242079492274523   0.0032963110430076553
0.010129680934001378   0.010242079492274523   0.0032963110430076553
-0.04433375891629063   -0.007807431615520591   -0.0020937907831036946
-0.04433375891629063   -0.007807431615520591   -0.0020937907831036946
-0.04433375891629063   -0.007807431615520591   -0.0020937907831036946
-0.04433375891629063   -0.007807431615520591   -0.0020937907831036946
0.006878146572166719   -0.004834995096644584   0.0021157138227533767
0.006878146572166719   -0.004834995096644584   0.0021157138227533767
0.006878146572166719   -0.004834995096644584   0.0021157138227533767
0.006878146572166719   -0.004834995096644584   0.0021157138227533767
-0.09823360900523206   -0.012587345765262728   -0.0024875253054451605
-0.09823360900523206   -0.012587345765262728   -0.0024875253054451605
-0.09823360900523206   -0.012587345765262728   -0.0024875253054451605
-0.09823360900523206   -0.012587345765262728   -0.0024875253054451605
-0.10578388066045281   -0.028840341313036706   -0.0033096074334007684
-0.10578388066045281   -0.028840341313036706   -0.0033096074334007684
-0.10578388066045281   -0.028840341313036706   -0.0033096074334007684
-0.10578388066045281   -0.028840341313036706   -0.0033096074334007684
0.006340104786354608   0.008438297554370805   0.003700286291112913
0.006340104786354608   0.008438297554370805   0.003700286291112913
0.006340104786354608   0.008438297554370805   0.003700286291112913
0.006340104786354608   0.008438297554370805   0.003700286291112913
-0.04769249047604944   -0.008826353310464411   -0.00249164623012603
-0.04769249047604944   -0.008826353310464411   -0.00249164623012603
-0.04769249047604944   -0.008826353310464411   -0.00249164623012603
-0.04769249047604944   -0.008826353310464411   -0.00249164623012603
0.0033019087235352583   -0.0058097843694017715   0.0027573879007887357
0.0033019087235352583   -0.0058097843694017715   0.0027573879007887357
0.0033019087235352583   -0.0058097843694017715   0.0027573879007887357
0.0033019087235352583   -0.0058097843694017715   0.0027573879007887357
-0.10267813991696859   -0.014524714708599742   -0.0020965303204166265
-0.10267813991696859   -0.014524714708599742   -0.0020965303204166265
-0.10267813991696859   -0.014524714708599742   -0.0020965303204166265
-0.10267813991696859   -0.014524714708599742   -0.0020965303204166265
-0.11023488531644292   -0.029451414954242975   -0.002933405836278308
-0.11023488531644292   -0.029451414954242975   -0.002933405836278308
-0.11023488531644292   -0.029451414954242975   -0.002933405836278308
-0.11023488531644292   -0.029451414954242975   -0.002933405836278308
0.0022377002980573536   0.006909244414866712   0.004084733444810464
0.0022377002980573536   0.006909244414866712   0.004084733444810464
0.0022377002980573536   0.006909244414866712   0.004084733444810464
0.0022377002980573536   0.006909244414866712   0.004084733444810464
-0.052028203246751024   -0.010043370851939425   -0.0034806118673643117
-0.052028203246751024   -0.010043370851939425   -0.0034806118673643117
-0.052028203246751024   -0.010043370851939425   -0.0034806118673643117
-0.052028203246751024   -0.010043370851939425   -0.0034806118673643117
-0.09295141669761398   -0.005804530316595242   0.0014552504078721414
-0.09295141669761398   -0.005804530316595242   0.0014552504078721414
-0.09295141669761398   -0.005804530316595242   0.0014552504078721414
-0.09295141669761398   -0.005804530316595242   0.0014552504078721414
-0.19662404301954955   -0.012668404481342165   -0.0049875203460445555
-0.19662404301954955   -0.012668404481342165   -0.0049875203460445555
-0.19662404301954955   -0.012668404481342165   -0.0049875203460445555
-0.19662404301954955   -0.012668404481342165   -0.0049875203460445555
-0.20442010758758472   -0.02960651373885677   -0.004933763534249616
-0.20442010758758472   -0.02960651373885677   -0.004933763534249616
-0.20442010758758472   -0.02960651373885677   -0.004933763534249616
-0.20442010758758472   -0.02960651373885677   -0.004933763534249616
-0.09338558051286758   0.008044953225235598   0.0011203181658783826
-0.09338558051286758   0.008044953225235598   0.0011203181658783826
-0.09338558051286758   0.008044953225235598   0.0011203181658783826
-0.09338558051286758   0.008044953225235598   0.0011203181658783826
-0.1456765391132325   -0.009554606146327447   -0.0016327934300065352
-0.1456765391132325   -0.009554606146327447   -0.0016327934300065352
-0.1456765391132325   -0.009554606146327447   -0.0016327934300065352
-0.1456765391132325   -0.009554606146327447   -0.0016327934300065352
-0.09583195603265406   -0.006262876635486789   0.0031962704276689556
-0.09583195603265406   -0.006262876635486789   0.0031962704276689556
-0.09583195603265406   -0.006262876635486789   0.0031962704276689556
-0.09583195603265406   -0.006262876635486789   0.0031962704276689556
-0.20148244197993886   -0.014807393790275087   -0.005044555444603772
-0.20148244197993886   -0.014807393790275087   -0.005044555444603772
-0.20148244197993886   -0.014807393790275087   -0.005044555444603772
-0.20148244197993886   -0.014807393790275087   -0.005044555444603772
-0.20994166405930617   -0.03122421180932633   -0.0035880724695563355
-0.20994166405930617   -0.03122421180932633   -0.0035880724695563355
-0.20994166405930617   -0.03122421180932633   -0.0035880724695563355
-0.20994166405930617   -0.03122421180932633   -0.0035880724695563355
-0.09787876896341301   0.006062248235658738   0.0013133615031029784
-0.09787876896341301   0.006062248235658738   0.0013133615031029784
-0.09787876896341301   0.006062248235658738   0.0013133615031029784
-0.09787876896341301   0.006062248235658738   0.0013133615031029784
-0.14901347292087494   -0.010355241155121753   -0.0015759850351475075
-0.14901347292087494   -0.010355241155121753   -0.0015759850351475075
-0.14901347292087494   -0.010355241155121753   -0.0015759850351475075
-0.14901347292087494   -0.010355241155121753   -0.0015759850351475075
-0.10025832609176577   -0.007895304085423247   0.0033731281824210474
-0.10025832609176577   -0.007895304085423247   0.0033731281824210474
-0.10025832609176577   -0.007895304085423247   0.0033731281824210474
-0.10025832609176577   -0.007895304085423247   0.0033731281824210474
-0.20722710122717702   -0.016931653784468644   -0.004307816333769944
-0.20722710122717702   -0.016931653784468644   -0.004307816333769944
-0.20722710122717702   -0.016931653784468644   -0.004307816333769944
-0.20722710122717702   -0.016931653784468644   -0.004307816333769944
-0.21614130959665703   -0.03342849171287637   -0.0037475552334157824
-0.21614130959665703   -0.03342849171287637   -0.0037475552334157824
-0.21614130959665703   -0.03342849171287637   -0.0037475552334157824
-0.21614130959665703   -0.03342849171287637   -0.0037475552334157824
-0.10274520627476107   0.0035571458901180047   0.0015064285277684485
-0.10274520627476107   0.0035571458901180047   0.0015064285277684485
-0.10274520627476107   0.0035571458901180047   0.0015064285277684485
-0.10274520627476107   0.0035571458901180047   0.0015064285277684485
-0.1553924850311391   -0.012727670277945757   -0.0027232630149681995
-0.1553924850311391   -0.012727670277945757   -0.0027232630149681995
-0.1553924850311391   -0.012727670277945757   -0.0027232630149681995
-0.1553924850311391   -0.012727670277945757   -0.0027232630149681995
-0.19039336720419028   0.008087139132674191   0.005410315116735365
-0.19039336720419028   0.008087139132674191   0.005410315116735365
-0.19039336720419028   0.008087139132674191   0.005410315116735365
-0.19039336720419028   0.008087139132674191   0.005410315116735365
-0.2944430654011825   -0.014597979571148972   -0.003430469990102273
-0.2944430654011825   -0.014597979571148972   -0.003430469990102273
-0.2944430654011825   -0.014597979571148972   -0.003430469990102273
-0.2944430654011825   -0.014597979571148972   -0.003430469990102273
-0.3007545254283453   -0.014921280651058688   0.005430736891008058
-0.3007545254283453   -0.014921280651058688   0.005430736891008058
-0.3007545254283453   -0.014921280651058688   0.005430736891008058
-0.3007545254283453   -0.014921280651058688   0.005430736891008058
-0.19640740562367145   0.006611453764215486   -0.0010882212177572848
-0.19640740562367145   0.006611453764215486   -0.0010882212177572848
-0.19640740562367145   0.006611453764215486   -0.0010882212177572848
-0.19640740562367145   0.006611453764215486   -0.0010882212177572848
-0.23400660405979418   -4.481935127378239e-05   0.00605580547837942
-0.23400660405979418   -4.481935127378239e-05   0.00605580547837942
-0.23400660405979418   -4.481935127378239e-05   0.00605580547837942
-0.23400660405979418   -4.481935127378239e-05   0.00605580547837942
-0.19479434132535384   0.006585266332455202   0.00700328770559042
-0.19479434132535384   0.006585266332455202   0.00700328770559042
-0.19479434132535384   0.006585266332455202   0.00700328770559042
-0.19479434132535384   0.006585266332455202   0.00700328770559042
-0.30223371333999055   -0.014761216832626892   -0.0021252664856500625
-0.30223371333999055   -0.014761216832626892   -0.0021252664856500625
-0.30223371333999055   -0.014761216832626892   -0.0021252664856500625
-0.30223371333999055   -0.014761216832626892   -0.0021252664856500625
-0.30861684591013744   -0.016983747739311134   0.0074704770802695945
-0.30861684591013744   -0.016983747739311134   0.0074704770802695945
-0.30861684591013744   -0.016983747739311134   0.0074704770802695945
-0.30861684591013744   -0.016983747739311134   0.0074704770802695945
-0.20217668580964382   0.0051954436849308075   -0.0011828367155035675
-0.20217668580964382   0.0051954436849308075   -0.0011828367155035675
-0.20217668580964382   0.0051954436849308075   -0.0011828367155035675
-0.20217668580964382   0.0051954436849308075   -0.0011828367155035675
-0.2446248404334176   -0.0024066205301800717   0.0037007754638838167
-0.2446248404334176   -0.0024066205301800717   0.0037007754638838167
-0.2446248404334176   -0.0024066205301800717   0.0037007754638838167
-0.2446248404334176   -0.0024066205301800717   0.0037007754638838167
-0.2006958049330458   0.004491472758779584   0.006925538593637642
-0.2006958049330458   0.004491472758779584   0.006925538593637642
-0.2006958049330458   0.004491472758779584   0.006925538593637642
-0.2006958049330458   0.004491472758779584   0.006925538593637642
-0.31037765531253014   -0.016559705338955198   -0.0017576123320472928
-0.31037765531253014   -0.016559705338955198   -0.0017576123320472928
-0.31037765531253014   -0.016559705338955198   -0.0017576123320472928
-0.31037765531253014   -0.016559705338955198   -0.0017576123320472928
-0.31991754218031154   -0.025730531226589658   0.006277061507949812
-0.31991754218031154   -0.025730531226589658   0.006277061507949812
-0.31991754218031154   -0.025730531226589658   0.006277061507949812
-0.31991754218031154   -0.025730531226589658   0.006277061507949812
-0.20883489944196623   0.0004992075391625286   -0.0011432037120014237
-0.20883489944196623   0.0004992075391625286   -0.0011432037120014237
-0.20883489944196623   0.0004992075391625286   -0.0011432037120014237
-0.20883489944196623   0.0004992075391625286   -0.0011432037120014237
-0.2483961480503429   -0.005511547219678288   0.001821657256170157
-0.2483961480503429   -0.005511547219678288   0.001821657256170157
-0.2483961480503429   -0.005511547219678288   0.001821657256170157
-0.2483961480503429   -0.005511547219678288   0.001821657256170157
0.19319989844127317   0.010770591197505602   -0.006110174245353015
0.19319989844127317   0.010770591197505602   -0.006110174245353015
0.19319989844127317   0.010770591197505602   -0.006110174245353015
0.19319989844127317   0.010770591197505602   -0.006110174245353015
0.09457059138508973   -0.0009378019333345956   0.0019952309376294565
0.09457059138508973   -0.0009378019333345956   0.0019952309376294565
0.09457059138508973   -0.0009378019333345956   0.0019952309376294565
0.09457059138508973   -0.0009378019333345956   0.0019952309376294565
0.08727495321226607   -0.013654979958100291   -0.005774227184195112
0.08727495321226607   -0.013654979958100291   -0.005774227184195112
0.08727495321226607   -0.013654979958100291   -0.005774227184195112
0.08727495321226607   -0.013654979958100291   -0.005774227184195112
0.18997681875328967   0.015226295630461933   0.0025302846241268117
0.18997681875328967   0.015226295630461933   0.0025302846241268117
0.18997681875328967   0.015226295630461933   0.0025302846241268117
0.18997681875328967   0.015226295630461933   0.0025302846241268117
0.13395239023314004   0.001144472854829652   -0.004430514004544826
0.13395239023314004   0.001144472854829652   -0.004430514004544826
0.13395239023314004   0.001144472854829652   -0.004430514004544826
0.13395239023314004   0.001144472854829652   -0.004430514004544826
0.18646051276513606   0.006143322876730438   -0.005968272562908274
0.18646051276513606   0.006143322876730438   -0.005968272562908274
0.18646051276513606   0.006143322876730438   -0.005968272562908274
0.18646051276513606   0.006143322876730438   -0.005968272562908274
0.09065684684976072   -0.004706419555028277   0.0021866806002047
0.09065684684976072   -0.004706419555028277   0.0021866806002047
0.09065684684976072   -0.004706419555028277   0.0021866806002047
0.09065684684976072   -0.004706419555028277   0.0021866806002047
0.08363419913921318   -0.01467423528358974   -0.005068288432515932
0.08363419913921318   -0.01467423528358974   -0.005068288432515932
0.08363419913921318   -0.01467423528358974   -0.005068288432515932
0.08363419913921318   -0.01467423528358974   -0.005068288432515932
0.18455731407373202   0.013784854130350715   0.003578305880090213
0.18455731407373202   0.013784854130350715   0.003578305880090213
0.18455731407373202   0.013784854130350715   0.003578305880090213
0.18455731407373202   0.013784854130350715   0.003578305880090213
0.13140880265617383   -0.000781931542563688   -0.00556645463060255
0.13140880265617383   -0.000781931542563688   -0.00556645463060255
0.13140880265617383   -0.000781931542563688   -0.00556645463060255
0.13140880265617383   -0.000781931542563688   -0.00556645463060255
0.18110078374452016   0.004874034164043008   -0.004793525799658083
0.18110078374452016   0.004874034164043008   -0.004793525799658083
0.18110078374452016   0.004874034164043008   -0.004793525799658083
0.18110078374452016   0.004874034164043008   -0.004793525799658083
0.08695565536874479   -0.005898489416962024   0.00276324684851373
0.08695565536874479   -0.005898489416962024   0.00276324684851373
0.08695565536874479   -0.005898489416962024   0.00276324684851373
0.08695565536874479   -0.005898489416962024   0.00276324684851373
0.0803487959534214   -0.014692976215644225   -0.004156730560198401
0.0803487959534214   -0.014692976215644225   -0.004156730560198401
0.0803487959534214   -0.014692976215644225   -0.004156730560198401
0.0803487959534214   -0.014692976215644225   -0.004156730560198401
0.17844870806564672   0.012737135112129941   0.004565314766725436
0.17844870806564672   0.012737135112129941   0.004565314766725436
0.17844870806564672   0.012737135112129941   0.004565314766725436
0.17844870806564672   0.012737135112129941   0.004565314766725436
0.12449480467574305   -0.002016800037844723   -0.007439361305168282
0.12449480467574305   -0.002016800037844723   -0.007439361305168282
0.12449480467574305   -0.002016800037844723   -0.007439361305168282
0.12449480467574305   -0.002016800037844723   -0.007439361305168282
0.0966270014164664   0.010426917260760928   0.0009125619004171697
0.0966270014164664   0.010426917260760928   0.0009125619004171697
0.0966270014164664   0.010426917260760928   0.0009125619004171697
0.0966270014164664   0.010426917260760928   0.0009125619004171697
0.001537608368888881   -0.0037709715948065973   -0.0006192100013409275
0.001537608368888881   -0.0037709715948065973   -0.0006192100013409275
0.001537608368888881   -0.0037709715948065973   -0.0006192100013409275
0.001537608368888881   -0.0037709715948065973   -0.0006192100013409275
-0.003972037950383306   -0.01240578068620104   -0.00405360476956447
-0.003972037950383306   -0.01240578068620104   -0.00405360476956447
-0.003972037950383306   -0.01240578068620104   -0.00405360476956447
-0.003972037950383306   -0.01240578068620104   -0.00405360476956447
0.09496235186417795   0.013955535580957065   0.005052250536305414
0.09496235186417795   0.013955535580957065   0.005052250536305414
0.09496235186417795   0.013955535580957065   0.005052250536305414
0.09496235186417795   0.013955535580957065   0.005052250536305414
0.046543661446757104   0.0019997161950276766   -0.0004398466667688728
0.046543661446757104   0.0019997161950276766   -0.0004398466667688728
0.046543661446757104   0.0019997161950276766   -0.0004398466667688728
0.046543661446757104   0.0019997161950276766   -0.0004398466667688728
0.09305062367140257   0.008082751352288359   0.0013663938010975841
0.09305062367140257   0.008082751352288359   0.0013663938010975841
0.09305062367140257   0.008082751352288359   0.0013663938010975841
0.09305062367140257   0.008082751352288359   0.0013663938010975841
-0.0020201438130330812   -0.006492830512957665   -0.0002070842560572023
-0.0020201438130330812   -0.006492830512957665   -0.0002070842560572023
-0.0020201438130330812   -0.006492830512957665   -0.0002070842560572023
-0.0020201438130330812   -0.006492830512957665   -0.0002070842560572023
-0.007417741795302226   -0.014041701454937904   -0.003547282827080111
-0.007417741795302226   -0.014041701454937904   -0.003547282827080111
-0.007417741795302226   -0.014041701454937904   -0.003547282827080111
-0.007417741795302226   -0.014041701454937904   -0.003547282827080111
0.09105296720131173   0.011786773344054842   0.00556454325033153
0.09105296720131173   0.011786773344054842   0.00556454325033153
0.09105296720131173   0.011786773344054842   0.00556454325033153
0.09105296720131173   0.011786773344054842   0.00556454325033153
0.04225252147754808   -0.00016922906386825955   -0.0016595650121551567
0.04225252147754808   -0.00016922906386825955   -0.0016595650121551567
0.04225252147754808   -0.00016922906386825955   -0.0016595650121551567
0.04225252147754808   -0.00016922906386825955   -0.0016595650121551567
0.08922061791431206   0.006361117570232911   0.001828452589155117
0.08922061791431206   0.006361117570232911   0.001828452589155117
0.08922061791431206   0.006361117570232911   0.001828452589155117
0.08922061791431206   0.006361117570232911   0.001828452589155117
-0.0055843038764563785   -0.008614957049269033   0.00019316236148025825
-0.0055843038764563785   -0.008614957049269033   0.00019316236148025825
-0.0055843038764563785   -0.008614957049269033   0.00019316236148025825
-0.0055843038764563785   -0.008614957049269033   0.00019316236148025825
-0.010815868407586368   -0.01492340756318669   -0.0028925106919290445
-0.010815868407586368   -0.01492340756318669   -0.0028925106919290445
-0.010815868407586368   -0.01492340756318669   -0.0028925106919290445
-0.010815868407586368   -0.01492340756318669   -0.0028925106919290445
0.08733156090731647   0.010038326795009395   0.006025791198622339
0.08733156090731647   0.010038326795009395   0.006025791198622339
0.08733156090731647   0.010038326795009395   0.006025791198622339
0.08733156090731647   0.010038326795009395   0.006025791198622339
0.03921104982346256   -0.0014439375487622294   -0.0025208415026283823
0.03921104982346256   -0.0014439375487622294   -0.0025208415026283823
0.03921104982346256   -0.0014439375487622294   -0.0025208415026283823
0.03921104982346256   -0.0014439375487622294   -0.0025208415026283823
0.004903513734977259   0.01019723627462211   0.0022421089596722527
0.004903513734977259   0.01019723627462211   0.0022421089596722527
0.004903513734977259   0.01019723627462211   0.0022421089596722527
0.004903513734977259   0.01019723627462211   0.0022421089596722527
-0.08885347607173724   -0.006169357450171432   -0.003001652065590864
-0.08885347607173724   -0.006169357450171432   -0.003001652065590864
-0.08885347607173724   -0.006169357450171432   -0.003001652065590864
-0.08885347607173724   -0.006169357450171432   -0.003001652065590864
-0.09314727104746748   -0.011625807531081795   -0.002766172092305069
-0.09314727104746748   -0.011625807531081795   -0.002766172092305069
-0.09314727104746748   -0.011625807531081795   -0.002766172092305069
-0.09314727104746748   -0.011625807531081795   -0.002766172092305069
0.0021228752196902055   0.011469285589017636   0.0025458948055841644
0.0021228752196902055   0.011469285589017636   0.0025458948055841644
0.0021228752196902055   0.011469285589017636   0.0025458948055841644
0.0021228752196902055   0.011469285589017636   0.0025458948055841644
-0.04368272227753956   0.0011162588170941044   0.00022188334240460465
-0.04368272227753956   0.0011162588170941044   0.00022188334240460465
-0.04368272227753956   0.0011162588170941044   0.00022188334240460465
-0.04368272227753956   0.0011162588170941044   0.00022188334240460465
0.001550234300810889   0.008414435930896134   0.0027375398693093305
0.001550234300810889   0.008414435930896134   0.0027375398693093305
0.001550234300810889   0.008414435930896134   0.0027375398693093305
0.001550234300810889   0.008414435930896134   0.0027375398693093305
-0.09247667350106713   -0.00847300124543974   -0.002565990645945378
-0.09247667350106713   -0.00847300124543974   -0.002565990645945378
-0.09247667350106713   -0.00847300124543974   -0.002565990645945378
-0.09247667350106713   -0.00847300124543974   -0.002565990645945378
-0.0968374426832922   -0.013411910182689658   -0.0023732049245425773
-0.0968374426832922   -0.013411910182689658   -0.0023732049245425773
-0.0968374426832922   -0.013411910182689658   -0.0023732049245425773
-0.0968374426832922   -0.013411910182689658   -0.0023732049245425773
-0.0014397638314076373   0.00924445641216307   0.003056449125292002
-0.0014397638314076373   0.00924445641216307   0.003056449125292002
-0.0014397638314076373   0.00924445641216307   0.003056449125292002
-0.0014397638314076373   0.00924445641216307   0.003056449125292002
-0.04722597533866514   -0.0006799103182164659   -0.0006696791673443643
-0.04722597533866514   -0.0006799103182164659   -0.0006696791673443643
-0.04722597533866514   -0.0006799103182164659   -0.0006696791673443643
-0.04722597533866514   -0.0006799103182164659   -0.0006696791673443643
-0.0019206155318031337   0.006687854699677098   0.003208792335800348
-0.0019206155318031337   0.006687854699677098   0.003208792335800348
-0.0019206155318031337   0.006687854699677098   0.003208792335800348
-0.0019206155318031337   0.006687854699677098   0.003208792335800348
-0.09627857373965099   -0.01077729122695769   -0.0022134791620684454
-0.09627857373965099   -0.01077729122695769   -0.0022134791620684454
-0.09627857373965099   -0.01077729122695769   -0.0022134791620684454
-0.09627857373965099   -0.01077729122695769   -0.0022134791620684454
-0.10049141476669039   -0.014796222663305344   -0.0017134868813020667
-0.10049141476669039   -0.014796222663305344   -0.0017134868813020667
-0.10049141476669039   -0.014796222663305344   -0.0017134868813020667
-0.10049141476669039   -0.014796222663305344   -0.0017134868813020667
-0.005135803543113453   0.0071487935243717575   0.0034356125428770127
-0.005135803543113453   0.0071487935243717575   0.0034356125428770127
-0.005135803543113453   0.0071487935243717575   0.0034356125428770127
-0.005135803543113453   0.0071487935243717575   0.0034356125428770127
-0.051042717908176924   -0.0025032186813427892   -0.0016572583160299375
-0.051042717908176924   -0.0025032186813427892   -0.0016572583160299375
-0.051042717908176924   -0.0025032186813427892   -0.0016572583160299375
-0.051042717908176924   -0.0025032186813427892   -0.0016572583160299375
-0.08395409579421112   0.01160688950608934   0.0037190023657804223
-0.08395409579421112   0.01160688950608934   0.0037190023657804223
-0.08395409579421112   0.01160688950608934   0.0037190023657804223
-0.08395409579421112   0.01160688950608934   0.0037190023657804223
-0.17704024488358125   -0.008350170187350282   -0.004820183534782723
-0.17704024488358125   -0.008350170187350282   -0.004820183534782723
-0.17704024488358125   -0.008350170187350282   -0.004820183534782723
-0.17704024488358125   -0.008350170187350282   -0.004820183534782723
-0.18036297668943962   -0.009807203000005513   -0.0011630667837551388
-0.18036297668943962   -0.009807203000005513   -0.0011630667837551388
-0.18036297668943962   -0.009807203000005513   -0.0011630667837551388
-0.18036297668943962   -0.009807203000005513   -0.0011630667837551388
-0.08849295859586298   0.008812716429181796   6.68662054546772e-05
-0.08849295859586298   0.008812716429181796   6.68662054546772e-05
-0.08849295859586298   0.008812716429181796   6.68662054546772e-05
-0.08849295859586298   0.008812716429181796   6.68662054546772e-05
-0.13149560749247613   0.0009064631263375721   0.0010025555413831688
-0.13149560749247613   0.0009064631263375721   0.0010025555413831688
-0.13149560749247613   0.0009064631263375721   0.0010025555413831688
-0.13149560749247613   0.0009064631263375721   0.0010025555413831688
-0.08747245254107597   0.009833281473444207   0.0041488314351274804
-0.08747245254107597   0.009833281473444207   0.0041488314351274804
-0.08747245254107597   0.009833281473444207   0.0041488314351274804
-0.08747245254107597   0.009833281473444207   0.0041488314351274804
-0.18126810212967034   -0.010712387429711395   -0.004783509555203921
-0.18126810212967034   -0.010712387429711395   -0.004783509555203921
-0.18126810212967034   -0.010712387429711395   -0.004783509555203921
-0.18126810212967034   -0.010712387429711395   -0.004783509555203921
-0.1848943226348961   -0.011829818086215114   -0.0011314164347832065
-0.1848943226348961   -0.011829818086215114   -0.0011314164347832065
-0.1848943226348961   -0.011829818086215114   -0.0011314164347832065
-0.1848943226348961   -0.011829818086215114   -0.0011314164347832065
-0.09223956083914586   0.00669021831497774   0.0005140757985223942
-0.09223956083914586   0.00669021831497774   0.0005140757985223942
-0.09223956083914586   0.00669021831497774   0.0005140757985223942
-0.09223956083914586   0.00669021831497774   0.0005140757985223942
-0.13455773644409835   -0.0006721220958199707   0.00028209781282798486
-0.13455773644409835   -0.0006721220958199707   0.00028209781282798486
-0.13455773644409835   -0.0006721220958199707   0.00028209781282798486
-0.13455773644409835   -0.0006721220958199707   0.00028209781282798486
-0.09111175230971269   0.008101372181592719   0.004741964579073115
-0.09111175230971269   0.008101372181592719   0.004741964579073115
-0.09111175230971269   0.008101372181592719   0.004741964579073115
-0.09111175230971269   0.008101372181592719   0.004741964579073115
-0.18576308351835163   -0.012981924306852598   -0.004323114631423508
-0.18576308351835163   -0.012981924306852598   -0.004323114631423508
-0.18576308351835163   -0.012981924306852598   -0.004323114631423508
-0.18576308351835163   -0.012981924306852598   -0.004323114631423508
-0.189040821271853   -0.014020946595850358   -8.841890498144638e-05
-0.189040821271853   -0.014020946595850358   -8.841890498144638e-05
-0.189040821271853   -0.014020946595850358   -8.841890498144638e-05
-0.189040821271853   -0.014020946595850358   -8.841890498144638e-05
-0.09621206232333657   0.0041098094213134   0.0007772432508487059
-0.09621206232333657   0.0041098094213134   0.0007772432508487059
-0.09621206232333657   0.0041098094213134   0.0007772432508487059
-0.09621206232333657   0.0041098094213134   0.0007772432508487059
-0.13963872989293313   -0.0030359735230892568   -0.0007405853996331679
-0.13963872989293313   -0.0030359735230892568   -0.0007405853996331679
-0.13963872989293313   -0.0030359735230892568   -0.0007405853996331679
-0.13963872989293313   -0.0030359735230892568   -0.0007405853996331679
-0.17104916663760422   0.01176991806761462   0.005015119440135992
-0.17104916663760422   0.01176991806761462   0.005015119440135992
-0.17104916663760422   0.01176991806761462   0.005015119440135992
-0.17104916663760422   0.01176991806761462   0.005015119440135992
-0.2620715949427383   -0.012235360004184147   -0.004117584051971046
-0.2620715949427383   -0.012235360004184147   -0.004117584051971046
-0.2620715949427383   -0.012235360004184147   -0.004117584051971046
-0.2620715949427383   -0.012235360004184147   -0.004117584051971046
-0.2651338420972895   -0.006089578302057766   0.004133054924494483
-0.2651338420972895   -0.006089578302057766   0.004133054924494483
-0.2651338420972895   -0.006089578302057766   0.004133054924494483
-0.2651338420972895   -0.006089578302057766   0.004133054924494483
-0.1774357396427216   0.00574596991580862   -0.002080054465978993
-0.1774357396427216   0.00574596991580862   -0.002080054465978993
-0.1774357396427216   0.00574596991580862   -0.002080054465978993
-0.1774357396427216   0.00574596991580862   -0.002080054465978993
-0.20915853332031897   0.002230203594797503   0.005019346077273687
-0.20915853332031897   0.002230203594797503   0.005019346077273687
-0.20915853332031897   0.002230203594797503   0.005019346077273687
-0.20915853332031897   0.002230203594797503   0.005019346077273687
-0.17454213891355783   0.012357445974099164   0.005776473121547203
-0.17454213891355783   0.012357445974099164   0.005776473121547203
-0.17454213891355783   0.012357445974099164   0.005776473121547203
-0.17454213891355783   0.012357445974099164   0.005776473121547203
-0.2678591186517985   -0.012532730185693515   -0.0030501759644128053
-0.2678591186517985   -0.012532730185693515   -0.0030501759644128053
-0.2678591186517985   -0.012532730185693515   -0.0030501759644128053
-0.2678591186517985   -0.012532730185693515   -0.0030501759644128053
-0.27078173500160835   -0.0071515878131781715   0.005687054985916053
-0.27078173500160835   -0.0071515878131781715   0.005687054985916053
-0.27078173500160835   -0.0071515878131781715   0.005687054985916053
-0.27078173500160835   -0.0071515878131781715   0.005687054985916053
-0.1817626719384002   0.004530804160406882   -0.0018337851989261578
-0.1817626719384002   0.004530804160406882   -0.0018337851989261578
-0.1817626719384002   0.004530804160406882   -0.0018337851989261578
-0.1817626719384002   0.004530804160406882   -0.0018337851989261578
-0.2173733983468627   0.0011444731012819065   0.0034622104876402323
-0.2173733983468627   0.0011444731012819065   0.0034622104876402323
-0.2173733983468627   0.0011444731012819065   0.0034622104876402323
-0.2173733983468627   0.0011444731012819065   0.0034622104876402323
-0.17856028335118493   0.011580903249362673   0.0071280586481948195
-0.17856028335118493   0.011580903249362673   0.0071280586481948195
-0.17856028335118493   0.011580903249362673   0.0071280586481948195
-0.17856028335118493   0.011580903249362673   0.0071280586481948195
-0.2738113654641561   -0.014028928777465186   -0.0025837563625306613
-0.2738113654641561   -0.014028928777465186   -0.0025837563625306613
-0.2738113654641561   -0.014028928777465186   -0.0025837563625306613
-0.2738113654641561   -0.014028928777465186   -0.0025837563625306613
-0.2784588582454154   -0.012093047759682535   0.005519478597230038
-0.2784588582454154   -0.012093047759682535   0.005519478597230038
-0.2784588582454154   -0.012093047759682535   0.005519478597230038
-0.2784588582454154   -0.012093047759682535   0.005519478597230038
-0.18645268315938546   0.0005799789664706553   -0.0017486539049655653
-0.18645268315938546   0.0005799789664706553   -0.0017486539049655653
-0.18645268315938546   0.0005799789664706553   -0.0017486539049655653
-0.18645268315938546   0.0005799789664706553   -0.0017486539049655653
-0.21916722165178518   -0.0005549611723251746   0.0030745235963376884
-0.21916722165178518   -0.0005549611723251746   0.0030745235963376884
-0.21916722165178518   -0.0005549611723251746   0.0030745235963376884
-0.21916722165178518   -0.0005549611723251746   0.0030745235963376884
0.15153611283825652   0.00876628440914341   -0.006449858803143473
0.15153611283825652   0.00876628440914341   -0.006449858803143473
0.15153611283825652   0.00876628440914341   -0.006449858803143473
0.15153611283825652   0.00876628440914341   -0.006449858803143473
0.0712587664994055   0.0006943257192206578   0.0022838153559654696
0.0712587664994055   0.0006943257192206578   0.0022838153559654696
0.0712587664994055   0.0006943257192206578   0.0022838153559654696
0.0712587664994055   0.0006943257192206578   0.0022838153559654696
0.06417966672207266   -0.011685698356527816   -0.006232533279612598
0.06417966672207266   -0.011685698356527816   -0.006232533279612598
0.06417966672207266   -0.011685698356527816   -0.006232533279612598
0.06417966672207266   -0.011685698356527816   -0.006232533279612598
0.14870316964226224   0.01353193421155282   0.002849965195503814
0.14870316964226224   0.01353193421155282   0.002849965195503814
0.14870316964226224   0.01353193421155282   0.002849965195503814
0.14870316964226224   0.01353193421155282   0.002849965195503814
0.10329392250090422   0.0013672201527228645   -0.003074431163005198
0.10329392250090422   0.0013672201527228645   -0.003074431163005198
0.10329392250090422   0.0013672201527228645   -0.003074431163005198
0.10329392250090422   0.0013672201527228645   -0.003074431163005198
0.1450949739549047   0.004510044950012955   -0.00616912397974266
0.1450949739549047   0.004510044950012955   -0.00616912397974266
0.1450949739549047   0.004510044950012955   -0.00616912397974266
0.1450949739549047   0.004510044950012955   -0.00616912397974266
0.06772256047309176   -0.002729111031325969   0.0025253481502803404
0.06772256047309176   -0.002729111031325969   0.0025253481502803404
0.06772256047309176   -0.002729111031325969   0.0025253481502803404
0.06772256047309176   -0.002729111031325969   0.0025253481502803404
0.0609074480834208   -0.012734545095980307   -0.005368824261253697
0.0609074480834208   -0.012734545095980307   -0.005368824261253697
0.0609074480834208   -0.012734545095980307   -0.005368824261253697
0.0609074480834208   -0.012734545095980307   -0.005368824261253697
0.14360567461847928   0.012007604346009646   0.0038465274589466964
0.14360567461847928   0.012007604346009646   0.0038465274589466964
0.14360567461847928   0.012007604346009646   0.0038465274589466964
0.14360567461847928   0.012007604346009646   0.0038465274589466964
0.10060863022922538   -0.0005169655691561852   -0.004105870247125866
0.10060863022922538   -0.0005169655691561852   -0.004105870247125866
0.10060863022922538   -0.0005169655691561852   -0.004105870247125866
0.10060863022922538   -0.0005169655691561852   -0.004105870247125866
0.14006257480575235   0.003164976374168335   -0.00502634363284572
0.14006257480575235   0.003164976374168335   -0.00502634363284572
0.14006257480575235   0.003164976374168335   -0.00502634363284572
0.14006257480575235   0.003164976374168335   -0.00502634363284572
0.06435353579201271   -0.003988929228273326   0.003115998413998411
0.06435353579201271   -0.003988929228273326   0.003115998413998411
0.06435353579201271   -0.003988929228273326   0.003115998413998411
0.06435353579201271   -0.003988929228273326   0.003115998413998411
0.05799215950548983   -0.013163737959786969   -0.0044825020327022135
0.05799215950548983   -0.013163737959786969   -0.0044825020327022135
0.05799215950548983   -0.013163737959786969   -0.0044825020327022135
0.05799215950548983   -0.013163737959786969   -0.0044825020327022135
0.13782686233448316   0.010514577242219908   0.004652795511748981
0.13782686233448316   0.010514577242219908   0.004652795511748981
0.13782686233448316   0.010514577242219908   0.004652795511748981
0.13782686233448316   0.010514577242219908   0.004652795511748981
0.09455361288131375   -0.0018644603314615302   -0.005760994456612481
0.09455361288131375   -0.0018644603314615302   -0.005760994456612481
0.09455361288131375   -0.0018644603314615302   -0.005760994456612481
0.09455361288131375   -0.0018644603314615302   -0.005760994456612481
0.07276849303234327   0.010587001738440585   -6.0227998564724335e-05
0.07276849303234327   0.010587001738440585   -6.0227998564724335e-05
0.07276849303234327   0.010587001738440585   -6.0227998564724335e-05
0.07276849303234327   0.010587001738440585   -6.0227998564724335e-05
-0.005547922067418386   -0.0015627493597120947   -0.00024699565036327784
-0.005547922067418386   -0.0015627493597120947   -0.00024699565036327784
-0.005547922067418386   -0.0015627493597120947   -0.00024699565036327784
-0.005547922067418386   -0.0015627493597120947   -0.00024699565036327784
-0.010540535172879426   -0.008970438345691339   -0.004074732059871562
-0.010540535172879426   -0.008970438345691339   -0.004074732059871562
-0.010540535172879426   -0.008970438345691339   -0.004074732059871562
-0.010540535172879426   -0.008970438345691339   -0.004074732059871562
0.07116621238428501   0.01240671440485287   0.004607782270067798
0.07116621238428501   0.01240671440485287   0.004607782270067798
0.07116621238428501   0.01240671440485287   0.004607782270067798
0.07116621238428501   0.01240671440485287   0.004607782270067798
0.0314580608507884   0.0029641653203142052   0.00027970656870712264
0.0314580608507884   0.0029641653203142052   0.00027970656870712264
0.0314580608507884   0.0029641653203142052   0.00027970656870712264
0.0314580608507884   0.0029641653203142052   0.00027970656870712264
0.06944512845536667   0.007936213498332463   0.00047286353199804177
0.06944512845536667   0.007936213498332463   0.00047286353199804177
0.06944512845536667   0.007936213498332463   0.00047286353199804177
0.06944512845536667   0.007936213498332463   0.00047286353199804177
-0.008793922077872562   -0.004474408273080322   0.00016230334255174297
-0.008793922077872562   -0.004474408273080322   0.00016230334255174297
-0.008793922077872562   -0.004474408273080322   0.00016230334255174297
-0.008793922077872562   -0.004474408273080322   0.00016230334255174297
-0.01361514999366066   -0.010942981898879359   -0.0034161157693670943
-0.01361514999366066   -0.010942981898879359   -0.0034161157693670943
-0.01361514999366066   -0.010942981898879359   -0.0034161157693670943
-0.01361514999366066   -0.010942981898879359   -0.0034161157693670943
0.06752800463410247   0.009972628506188462   0.005026784889985357
0.06752800463410247   0.009972628506188462   0.005026784889985357
0.06752800463410247   0.009972628506188462   0.005026784889985357
0.06752800463410247   0.009972628506188462   0.005026784889985357
0.027597033536214757   0.0005329556345067465   -0.0009327883324102751
0.027597033536214757   0.0005329556345067465   -0.0009327883324102751
0.027597033536214757   0.0005329556345067465   -0.0009327883324102751
0.027597033536214757   0.0005329556345067465   -0.0009327883324102751
0.06586877020315393   0.005814727952203037   0.0008885132892286086
0.06586877020315393   0.005814727952203037   0.0008885132892286086
0.06586877020315393   0.005814727952203037   0.0008885132892286086
0.06586877020315393   0.005814727952203037   0.0008885132892286086
-0.011988302428480023   -0.006817468210661466   0.0005926083683181979
-0.011988302428480023   -0.006817468210661466   0.0005926083683181979
-0.011988302428480023   -0.006817468210661466   0.0005926083683181979
-0.011988302428480023   -0.006817468210661466   0.0005926083683181979
-0.01663919556989081   -0.012520778805861558   -0.0027989803285251363
-0.01663919556989081   -0.012520778805861558   -0.0027989803285251363
-0.01663919556989081   -0.012520778805861558   -0.0027989803285251363
-0.01663919556989081   -0.012520778805861558   -0.0027989803285251363
0.06416771360791257   0.007795758913992701   0.005435771605631575
0.06416771360791257   0.007795758913992701   0.005435771605631575
0.06416771360791257   0.007795758913992701   0.005435771605631575
0.06416771360791257   0.007795758913992701   0.005435771605631575
0.024746540833990388   -0.0012123035383496067   -0.0019102350658086165
0.024746540833990388   -0.0012123035383496067   -0.0019102350658086165
0.024746540833990388   -0.0012123035383496067   -0.0019102350658086165
0.024746540833990388   -0.0012123035383496067   -0.0019102350658086165
-0.002420767066798887   0.012068933968782756   0.0017570960242393695
-0.002420767066798887   0.012068933968782756   0.0017570960242393695
-0.002420767066798887   0.012068933968782756   0.0017570960242393695
-0.002420767066798887   0.012068933968782756   0.0017570960242393695
-0.08077051220563279   -0.004000236546073458   -0.0026726834253008322
-0.08077051220563279   -0.004000236546073458   -0.0026726834253008322
-0.08077051220563279   -0.004000236546073458   -0.0026726834253008322
-0.08077051220563279   -0.004000236546073458   -0.0026726834253008322
-0.08397895226976887   -0.006686285451066235   -0.002130132905376125
-0.08397895226976887   -0.006686285451066235   -0.002130132905376125
-0.08397895226976887   -0.006686285451066235   -0.002130132905376125
-0.08397895226976887   -0.006686285451066235   -0.002130132905376125
-0.005516057205853804   0.01000441019639466   0.0020728092331709657
-0.005516057205853804   0.01000441019639466   0.0020728092331709657
-0.005516057205853804   0.01000441019639466   0.0020728092331709657
-0.005516057205853804   0.01000441019639466   0.0020728092331709657
-0.04306587765518406   0.0028432933495229074   0.0008345885119249784
-0.04306587765518406   0.0028432933495229074   0.0008345885119249784
-0.04306587765518406   0.0028432933495229074   0.0008345885119249784
-0.04306587765518406   0.0028432933495229074   0.0008345885119249784
-0.005470822826100948   0.009918371070340987   0.0023850202579889716
-0.005470822826100948   0.009918371070340987   0.0023850202579889716
-0.005470822826100948   0.009918371070340987   0.0023850202579889716
-0.005470822826100948   0.009918371070340987   0.0023850202579889716
-0.0839690610018698   -0.006545120677361396   -0.0022218413395856435
-0.0839690610018698   -0.006545120677361396   -0.0022218413395856435
-0.0839690610018698   -0.006545120677361396   -0.0022218413395856435
-0.0839690610018698   -0.006545120677361396   -0.0022218413395856435
-0.08713110061129375   -0.008818287429845395   -0.001565933304871868
-0.08713110061129375   -0.008818287429845395   -0.001565933304871868
-0.08713110061129375   -0.008818287429845395   -0.001565933304871868
-0.08713110061129375   -0.008818287429845395   -0.001565933304871868
-0.008729153072799103   0.007500623448232577   0.0025702634878290395
-0.008729153072799103   0.007500623448232577   0.0025702634878290395
-0.008729153072799103   0.007500623448232577   0.0025702634878290395
-0.008729153072799103   0.007500623448232577   0.0025702634878290395
-0.04625091486437567   0.0006999233800016359   -0.00013186675804369554
-0.04625091486437567   0.0006999233800016359   -0.00013186675804369554
-0.04625091486437567   0.0006999233800016359   -0.00013186675804369554
-0.04625091486437567   0.0006999233800016359   -0.00013186675804369554
-0.008616441094453824   0.0077706004167113875   0.0028638464110768164
-0.008616441094453824   0.0077706004167113875   0.0028638464110768164
-0.008616441094453824   0.0077706004167113875   0.0028638464110768164
-0.008616441094453824   0.0077706004167113875   0.0028638464110768164
-0.08723503232377623   -0.009079484132461933   -0.0018243951646663634
-0.08723503232377623   -0.009079484132461933   -0.0018243951646663634
-0.08723503232377623   -0.009079484132461933   -0.0018243951646663634
-0.08723503232377623   -0.009079484132461933   -0.0018243951646663634
-0.09023380155435283   -0.010758064460807256   -0.0010006793717786773
-0.09023380155435283   -0.010758064460807256   -0.0010006793717786773
-0.09023380155435283   -0.010758064460807256   -0.0010006793717786773
-0.09023380155435283   -0.010758064460807256   -0.0010006793717786773
-0.011963979161079368   0.005079463538116457   0.0029768593715538885
-0.011963979161079368   0.005079463538116457   0.0029768593715538885
-0.011963979161079368   0.005079463538116457   0.0029768593715538885
-0.011963979161079368   0.005079463538116457   0.0029768593715538885
-0.04959103789754991   -0.0014560902570979611   -0.0012152896135442992
-0.04959103789754991   -0.0014560902570979611   -0.0012152896135442992
-0.04959103789754991   -0.0014560902570979611   -0.0012152896135442992
-0.04959103789754991   -0.0014560902570979611   -0.0012152896135442992
-0.07603302297508813   0.01351518011464611   0.00349934606670246
-0.07603302297508813   0.01351518011464611   0.00349934606670246
-0.07603302297508813   0.01351518011464611   0.00349934606670246
-0.07603302297508813   0.01351518011464611   0.00349934606670246
-0.15484319425887086   -0.006530303476384832   -0.004704741149026325
-0.15484319425887086   -0.006530303476384832   -0.004704741149026325
-0.15484319425887086   -0.006530303476384832   -0.004704741149026325
-0.15484319425887086   -0.006530303476384832   -0.004704741149026325
-0.15657193705013053   -0.004820573009257444   -2.0602532473961398e-05
-0.15657193705013053   -0.004820573009257444   -2.0602532473961398e-05
-0.15657193705013053   -0.004820573009257444   -2.0602532473961398e-05
-0.15657193705013053   -0.004820573009257444   -2.0602532473961398e-05
-0.08084915737212967   0.007267434400949707   -0.0004348782691955518
-0.08084915737212967   0.007267434400949707   -0.0004348782691955518
-0.08084915737212967   0.007267434400949707   -0.0004348782691955518
-0.08084915737212967   0.007267434400949707   -0.0004348782691955518
-0.11628416840636295   0.0024744684940746255   0.0014031978322055234
-0.11628416840636295   0.0024744684940746255   0.0014031978322055234
-0.11628416840636295   0.0024744684940746255   0.0014031978322055234
-0.11628416840636295   0.0024744684940746255   0.0014031978322055234
-0.07909466532869515   0.011500004259424407   0.004105012089501821
-0.07909466532869515   0.011500004259424407   0.004105012089501821
-0.07909466532869515   0.011500004259424407   0.004105012089501821
-0.07909466532869515   0.011500004259424407   0.004105012089501821
-0.15832457958023383   -0.00905129335440149   -0.004553094837847337
-0.15832457958023383   -0.00905129335440149   -0.004553094837847337
-0.15832457958023383   -0.00905129335440149   -0.004553094837847337
-0.15832457958023383   -0.00905129335440149   -0.004553094837847337
-0.16025126690437272   -0.006981740690221401   0.0001659868377535817
-0.16025126690437272   -0.006981740690221401   0.0001659868377535817
-0.16025126690437272   -0.006981740690221401   0.0001659868377535817
-0.16025126690437272   -0.006981740690221401   0.0001659868377535817
-0.08405346411099064   0.004944716327280985   5.924543951869952e-05
-0.08405346411099064   0.004944716327280985   5.924543951869952e-05
-0.08405346411099064   0.004944716327280985   5.924543951869952e-05
-0.08405346411099064   0.004944716327280985   5.924543951869952e-05
-0.11888033513062336   0.0006172401803444978   0.0005158479486032756
-0.11888033513062336   0.0006172401803444978   0.0005158479486032756
-0.11888033513062336   0.0006172401803444978   0.0005158479486032756
-0.11888033513062336   0.0006172401803444978   0.0005158479486032756
-0.08221778241751312   0.009523527405363792   0.004658842828823473
-0.08221778241751312   0.009523527405363792   0.004658842828823473
-0.08221778241751312   0.009523527405363792   0.004658842828823473
-0.08221778241751312   0.009523527405363792   0.004658842828823473
-0.1619983450126796   -0.011471948183134122   -0.004079196210867903
-0.1619983450126796   -0.011471948183134122   -0.004079196210867903
-0.1619983450126796   -0.011471948183134122   -0.004079196210867903
-0.1619983450126796   -0.011471948183134122   -0.004079196210867903
-0.1635603393228256   -0.009346386265566348   0.0008445418159389621
-0.1635603393228256   -0.009346386265566348   0.0008445418159389621
-0.1635603393228256   -0.009346386265566348   0.0008445418159389621
-0.1635603393228256   -0.009346386265566348   0.0008445418159389621
-0.08735215632684838   0.002234504536438097   0.00041497776849923253
-0.08735215632684838   0.002234504536438097   0.00041497776849923253
-0.08735215632684838   0.002234504536438097   0.00041497776849923253
-0.08735215632684838   0.002234504536438097   0.00041497776849923253
-0.12309108032590398   -0.0018261272020004132   -0.0006554881136142882
-0.12309108032590398   -0.0018261272020004132   -0.0006554881136142882
-0.12309108032590398   -0.0018261272020004132   -0.0006554881136142882
-0.12309108032590398   -0.0018261272020004132   -0.0006554881136142882
-0.14920121279472015   0.012131004812402403   0.004843857882939963
-0.14920121279472015   0.012131004812402403   0.004843857882939963
-0.14920121279472015   0.012131004812402403   0.004843857882939963
-0.14920121279472015   0.012131004812402403   0.004843857882939963
-0.22642824757890007   -0.010596575448705105   -0.004867038360310962
-0.22642824757890007   -0.010596575448705105   -0.004867038360310962
-0.22642824757890007   -0.010596575448705105   -0.004867038360310962
-0.22642824757890007   -0.010596575448705105   -0.004867038360310962
-0.2285607802981692   -0.003184059527634564   0.004394838972252639
-0.2285607802981692   -0.003184059527634564   0.004394838972252639
-0.2285607802981692   -0.003184059527634564   0.004394838972252639
-0.2285607802981692   -0.003184059527634564   0.004394838972252639
-0.15532194307204067   0.004086020470917849   -0.002677226122199696
-0.15532194307204067   0.004086020470917849   -0.002677226122199696
-0.15532194307204067   0.004086020470917849   -0.002677226122199696
-0.15532194307204067   0.004086020470917849   -0.002677226122199696
-0.1814015497369664   0.002497831919712881   0.004609617310840138
-0.1814015497369664   0.002497831919712881   0.004609617310840138
-0.1814015497369664   0.002497831919712881   0.004609617310840138
-0.1814015497369664   0.002497831919712881   0.004609617310840138
-0.1519869696313654   0.012390389268078283   0.005693272284015032
-0.1519869696313654   0.012390389268078283   0.005693272284015032
-0.1519869696313654   0.012390389268078283   0.005693272284015032
-0.1519869696313654   0.012390389268078283   0.005693272284015032
-0.23185384648521393   -0.011446521071164624   -0.0038080304194388
-0.23185384648521393   -0.011446521071164624   -0.0038080304194388
-0.23185384648521393   -0.011446521071164624   -0.0038080304194388
-0.23185384648521393   -0.011446521071164624   -0.0038080304194388
-0.23341180481708856   -0.004336561257929153   0.005478520588082033
-0.23341180481708856   -0.004336561257929153   0.005478520588082033
-0.23341180481708856   -0.004336561257929153   0.005478520588082033
-0.23341180481708856   -0.004336561257929153   0.005478520588082033
-0.15877907859928272   0.0028157697031328255   -0.002270582030150174
-0.15877907859928272   0.0028157697031328255   -0.002270582030150174
-0.15877907859928272   0.0028157697031328255   -0.002270582030150174
-0.15877907859928272   0.0028157697031328255   -0.002270582030150174
-0.18854553966631957   0.0012395872292935359   0.003004603443421139
-0.18854553966631957   0.0012395872292935359   0.003004603443421139
-0.18854553966631957   0.0012395872292935359   0.003004603443421139
-0.18854553966631957   0.0012395872292935359   0.003004603443421139
-0.1552434672261186   0.011538375875341102   0.006684868663461802
-0.1552434672261186   0.011538375875341102   0.006684868663461802
-0.1552434672261186   0.011538375875341102   0.006684868663461802
-0.1552434672261186   0.011538375875341102   0.006684868663461802
-0.23686269726675263   -0.012974448506636871   -0.0031380544115287047
-0.23686269726675263   -0.012974448506636871   -0.0031380544115287047
-0.23686269726675263   -0.012974448506636871   -0.0031380544115287047
-0.23686269726675263   -0.012974448506636871   -0.0031380544115287047
-0.23982415588660638   -0.008688219308631236   0.00528182744674591
-0.23982415588660638   -0.008688219308631236   0.00528182744674591
-0.23982415588660638   -0.008688219308631236   0.00528182744674591
-0.23982415588660638   -0.008688219308631236   0.00528182744674591
-0.1624645701426308   -0.0009541224570192644   -0.002068876091635174
-0.1624645701426308   -0.0009541224570192644   -0.002068876091635174
-0.1624645701426308   -0.0009541224570192644   -0.002068876091635174
-0.1624645701426308   -0.0009541224570192644   -0.002068876091635174
-0.18990509211324838   -0.00041584737759411267   0.0025541000949584067
-0.18990509211324838   -0.00041584737759411267   0.0025541000949584067
-0.18990509211324838   -0.00041584737759411267   0.0025541000949584067
-0.18990509211324838   -0.00041584737759411267   0.0025541000949584067
0.1089275837295366   0.006467727425192426   -0.006517993344313292
0.1089275837295366   0.006467727425192426   -0.006517993344313292
0.1089275837295366   0.006467727425192426   -0.006517993344313292
0.1089275837295366   0.006467727425192426   -0.006517993344313292
0.04648544935714938   0.002241874646856554   0.002649841128503136
0.04648544935714938   0.002241874646856554   0.002649841128503136
0.04648544935714938   0.002241874646856554   0.002649841128503136
0.04648544935714938   0.002241874646856554   0.002649841128503136
0.03987980106359711   -0.010030105331551074   -0.00613686394135055
0.03987980106359711   -0.010030105331551074   -0.00613686394135055
0.03987980106359711   -0.010030105331551074   -0.00613686394135055
0.03987980106359711   -0.010030105331551074   -0.00613686394135055
0.10678393173109224   0.011869649391294639   0.0032371396504782953
0.10678393173109224   0.011869649391294639   0.0032371396504782953
0.10678393173109224   0.011869649391294639   0.0032371396504782953
0.10678393173109224   0.011869649391294639   0.0032371396504782953
0.07153676480600366   0.0015454097668136432   -0.0019406687173967605
0.07153676480600366   0.0015454097668136432   -0.0019406687173967605
0.07153676480600366   0.0015454097668136432   -0.0019406687173967605
0.07153676480600366   0.0015454097668136432   -0.0019406687173967605
0.10305429850027774   0.0026032429346626064   -0.0061446200469630246
0.10305429850027774   0.0026032429346626064   -0.0061446200469630246
0.10305429850027774   0.0026032429346626064   -0.0061446200469630246
0.10305429850027774   0.0026032429346626064   -0.0061446200469630246
0.043538139260667304   -0.000834993908663333   0.0029597156211133733
0.043538139260667304   -0.000834993908663333   0.0029597156211133733
0.043538139260667304   -0.000834993908663333   0.0029597156211133733
0.043538139260667304   -0.000834993908663333   0.0029597156211133733
0.03710695460124621   -0.01111649511749065   -0.005275249841321712
0.03710695460124621   -0.01111649511749065   -0.005275249841321712
0.03710695460124621   -0.01111649511749065   -0.005275249841321712
0.03710695460124621   -0.01111649511749065   -0.005275249841321712
0.10219545241884052   0.010319572370398808   0.004257936917817135
0.10219545241884052   0.010319572370398808   0.004257936917817135
0.10219545241884052   0.010319572370398808   0.004257936917817135
0.10219545241884052   0.010319572370398808   0.004257936917817135
0.06885472680175671   -0.0002934617863930046   -0.002973181689627326
0.06885472680175671   -0.0002934617863930046   -0.002973181689627326
0.06885472680175671   -0.0002934617863930046   -0.002973181689627326
0.06885472680175671   -0.0002934617863930046   -0.002973181689627326
0.09850596493658964   0.0012036427443618825   -0.00507357086740128
0.09850596493658964   0.0012036427443618825   -0.00507357086740128
0.09850596493658964   0.0012036427443618825   -0.00507357086740128
0.09850596493658964   0.0012036427443618825   -0.00507357086740128
0.0406821764557133   -0.002114831119237808   0.0035991954327612777
0.0406821764557133   -0.002114831119237808   0.0035991954327612777
0.0406821764557133   -0.002114831119237808   0.0035991954327612777
0.0406821764557133   -0.002114831119237808   0.0035991954327612777
0.034654323578472826   -0.011933022133275488   -0.004412662609710019
0.034654323578472826   -0.011933022133275488   -0.004412662609710019
0.034654323578472826   -0.011933022133275488   -0.004412662609710019
0.034654323578472826   -0.011933022133275488   -0.004412662609710019
0.09679294390413598   0.008399336486829353   0.004928387046905354
0.09679294390413598   0.008399336486829353   0.004928387046905354
0.09679294390413598   0.008399336486829353   0.004928387046905354
0.09679294390413598   0.008399336486829353   0.004928387046905354
0.0637759312745938   -0.001735574690131787   -0.004483041505818578
0.0637759312745938   -0.001735574690131787   -0.004483041505818578
0.0637759312745938   -0.001735574690131787   -0.004483041505818578
0.0637759312745938   -0.001735574690131787   -0.004483041505818578
0.04708829330677684   0.00882923329158379   -0.0009232977680876028
0.04708829330677684   0.00882923329158379   -0.0009232977680876028
0.04708829330677684   0.00882923329158379   -0.0009232977680876028
0.04708829330677684   0.00882923329158379   -0.0009232977680876028
-0.013549720349750317   0.00030419814273005595   0.00020590822104406368
-0.013549720349750317   0.00030419814273005595   0.00020590822104406368
-0.013549720349750317   0.00030419814273005595   0.00020590822104406368
-0.013549720349750317   0.00030419814273005595   0.00020590822104406368
-0.01806862958884904   -0.007134924896174343   -0.003865572261941878
-0.01806862958884904   -0.007134924896174343   -0.003865572261941878
-0.01806862958884904   -0.007134924896174343   -0.003865572261941878
-0.01806862958884904   -0.007134924896174343   -0.003865572261941878
0.046061659374053446   0.010521345064056758   0.004220977215323997
0.046061659374053446   0.010521345064056758   0.004220977215323997
0.046061659374053446   0.010521345064056758   0.004220977215323997
0.046061659374053446   0.010521345064056758   0.004220977215323997
0.015053874593344204   0.0029694996881616175   0.0006003507612529532
0.015053874593344204   0.0029694996881616175   0.0006003507612529532
0.015053874593344204   0.0029694996881616175   0.0006003507612529532
0.015053874593344204   0.0029694996881616175   0.0006003507612529532
0.044230931502394426   0.006013198632232488   -0.00042451571114744284
0.044230931502394426   0.006013198632232488   -0.00042451571114744284
0.044230931502394426   0.006013198632232488   -0.00042451571114744284
0.044230931502394426   0.006013198632232488   -0.00042451571114744284
-0.01627270020386127   -0.002661576951021406   0.0006407267178440586
-0.01627270020386127   -0.002661576951021406   0.0006407267178440586
-0.01627270020386127   -0.002661576951021406   0.0006407267178440586
-0.01627270020386127   -0.002661576951021406   0.0006407267178440586
-0.02063826627901559   -0.009300332732337904   -0.0031717503895284157
-0.02063826627901559   -0.009300332732337904   -0.0031717503895284157
-0.02063826627901559   -0.009300332732337904   -0.0031717503895284157
-0.02063826627901559   -0.009300332732337904   -0.0031717503895284157
0.042896483394684694   0.007964596482275781   0.004591302526104681
0.042896483394684694   0.007964596482275781   0.004591302526104681
0.042896483394684694   0.007964596482275781   0.004591302526104681
0.042896483394684694   0.007964596482275781   0.004591302526104681
0.011829137440964888   0.0004416747563542934   -0.0006127989315928506
0.011829137440964888   0.0004416747563542934   -0.0006127989315928506
0.011829137440964888   0.0004416747563542934   -0.0006127989315928506
0.011829137440964888   0.0004416747563542934   -0.0006127989315928506
0.04112387835407132   0.003687517527706692   5.356277606122966e-06
0.04112387835407132   0.003687517527706692   5.356277606122966e-06
0.04112387835407132   0.003687517527706692   5.356277606122966e-06
0.04112387835407132   0.003687517527706692   5.356277606122966e-06
-0.018944643534914467   -0.005102236074281578   0.001098266672920883
-0.018944643534914467   -0.005102236074281578   0.001098266672920883
-0.018944643534914467   -0.005102236074281578   0.001098266672920883
-0.018944643534914467   -0.005102236074281578   0.001098266672920883
-0.02316616652638998   -0.011264651662312941   -0.002532401141594082
-0.02316616652638998   -0.011264651662312941   -0.002532401141594082
-0.02316616652638998   -0.011264651662312941   -0.002532401141594082
-0.02316616652638998   -0.011264651662312941   -0.002532401141594082
0.040040860977085445   0.005577586407662617   0.00500941584241579
0.040040860977085445   0.005577586407662617   0.00500941584241579
0.040040860977085445   0.005577586407662617   0.00500941584241579
0.040040860977085445   0.005577586407662617   0.00500941584241579
0.009325745547782508   -0.0015697592487789271   -0.0016579322449781068
0.009325745547782508   -0.0015697592487789271   -0.0016579322449781068
0.009325745547782508   -0.0015697592487789271   -0.0016579322449781068
0.009325745547782508   -0.0015697592487789271   -0.0016579322449781068
-0.011317618131901184   0.010632502036947279   0.0010381154160720137
-0.011317618131901184   0.010632502036947279   0.0010381154160720137
-0.011317618131901184   0.010632502036947279   0.0010381154160720137
-0.011317618131901184   0.010632502036947279   0.0010381154160720137
-0.07261054626999312   -0.0023013788825636625   -0.0022582850127956535
-0.07261054626999312   -0.0023013788825636625   -0.0022582850127956535
-0.07261054626999312   -0.0023013788825636625   -0.0022582850127956535
-0.07261054626999312   -0.0023013788825636625   -0.0022582850127956535
-0.07517916651694698   -0.004680882195968227   -0.0016905434175426173
-0.07517916651694698   -0.004680882195968227   -0.0016905434175426173
-0.07517916651694698   -0.004680882195968227   -0.0016905434175426173
-0.07517916651694698   -0.004680882195968227   -0.0016905434175426173
-0.01393474519939239   0.008000717638831012   0.0016682071503358433
-0.01393474519939239   0.008000717638831012   0.0016682071503358433
-0.01393474519939239   0.008000717638831012   0.0016682071503358433
-0.01393474519939239   0.008000717638831012   0.0016682071503358433
-0.04314813336958743   0.002846434459311445   0.0008931531141826141
-0.04314813336958743   0.002846434459311445   0.0008931531141826141
-0.04314813336958743   0.002846434459311445   0.0008931531141826141
-0.04314813336958743   0.002846434459311445   0.0008931531141826141
-0.013879192062564298   0.008255466227565051   0.0016912242457424475
-0.013879192062564298   0.008255466227565051   0.0016912242457424475
-0.013879192062564298   0.008255466227565051   0.0016912242457424475
-0.013879192062564298   0.008255466227565051   0.0016912242457424475
-0.07525127983268991   -0.004952190963617219   -0.0017798012286077847
-0.07525127983268991   -0.004952190963617219   -0.0017798012286077847
-0.07525127983268991   -0.004952190963617219   -0.0017798012286077847
-0.07525127983268991   -0.004952190963617219   -0.0017798012286077847
-0.07778120257033438   -0.0070405085962516045   -0.0010833472370565742
-0.07778120257033438   -0.0070405085962516045   -0.0010833472370565742
-0.07778120257033438   -0.0070405085962516045   -0.0010833472370565742
-0.07778120257033438   -0.0070405085962516045   -0.0010833472370565742
-0.01663466233351149   0.005371072436279873   0.0021748641693742888
-0.01663466233351149   0.005371072436279873   0.0021748641693742888
-0.01663466233351149   0.005371072436279873   0.0021748641693742888
-0.01663466233351149   0.005371072436279873   0.0021748641693742888
-0.04582031565971367   0.000521947882530141   -0.00013598898124522274
-0.04582031565971367   0.000521947882530141   -0.00013598898124522274
-0.04582031565971367   0.000521947882530141   -0.00013598898124522274
-0.04582031565971367   0.000521947882530141   -0.00013598898124522274
-0.01652478743255454   0.0058720884173361475   0.0022232226931027926
-0.01652478743255454   0.0058720884173361475   0.0022232226931027926
-0.01652478743255454   0.0058720884173361475   0.0022232226931027926
-0.01652478743255454   0.0058720884173361475   0.0022232226931027926
-0.0779458202204176   -0.007596267326434118   -0.0013506767572895612
-0.0779458202204176   -0.007596267326434118   -0.0013506767572895612
-0.0779458202204176   -0.007596267326434118   -0.0013506767572895612
-0.0779458202204176   -0.007596267326434118   -0.0013506767572895612
-0.08032794921296664   -0.009285540301848118   -0.0004841897763817103
-0.08032794921296664   -0.009285540301848118   -0.0004841897763817103
-0.08032794921296664   -0.009285540301848118   -0.0004841897763817103
-0.08032794921296664   -0.009285540301848118   -0.0004841897763817103
-0.019321369247689287   0.002819637370311756   0.002607296219284583
-0.019321369247689287   0.002819637370311756   0.002607296219284583
-0.019321369247689287   0.002819637370311756   0.002607296219284583
-0.019321369247689287   0.002819637370311756   0.002607296219284583
-0.04861265310570831   -0.0018009927537997513   -0.0012575815461370933
-0.04861265310570831   -0.0018009927537997513   -0.0012575815461370933
-0.04861265310570831   -0.0018009927537997513   -0.0012575815461370933
-0.04861265310570831   -0.0018009927537997513   -0.0012575815461370933
-0.0686482511204027   0.012249996459694129   0.003001815392898727
-0.0686482511204027   0.012249996459694129   0.003001815392898727
-0.0686482511204027   0.012249996459694129   0.003001815392898727
-0.0686482511204027   0.012249996459694129   0.003001815392898727
-0.1310550088656667   -0.004947323294480679   -0.0044568726250221995
-0.1310550088656667   -0.004947323294480679   -0.0044568726250221995
-0.1310550088656667   -0.004947323294480679   -0.0044568726250221995
-0.1310550088656667   -0.004947323294480679   -0.0044568726250221995
-0.13198899487897137   -0.0027490891272222984   0.0006223415967861329
-0.13198899487897137   -0.0027490891272222984   0.0006223415967861329
-0.13198899487897137   -0.0027490891272222984   0.0006223415967861329
-0.13198899487897137   -0.0027490891272222984   0.0006223415967861329
-0.07301804571474371   0.005261406268948311   -0.0008272278714433869
-0.07301804571474371   0.005261406268948311   -0.0008272278714433869
-0.07301804571474371   0.005261406268948311   -0.0008272278714433869
-0.07301804571474371   0.005261406268948311   -0.0008272278714433869
-0.10053828207273487   0.002465454061438492   0.001267656261821998
-0.10053828207273487   0.002465454061438492   0.001267656261821998
-0.10053828207273487   0.002465454061438492   0.001267656261821998
-0.10053828207273487   0.002465454061438492   0.001267656261821998
-0.07117063584764008   0.010020299921909614   0.003650927811114538
-0.07117063584764008   0.010020299921909614   0.003650927811114538
-0.07117063584764008   0.010020299921909614   0.003650927811114538
-0.07117063584764008   0.010020299921909614   0.003650927811114538
-0.13393157074519715   -0.007603148779305912   -0.004236478082261054
-0.13393157074519715   -0.007603148779305912   -0.004236478082261054
-0.13393157074519715   -0.007603148779305912   -0.004236478082261054
-0.13393157074519715   -0.007603148779305912   -0.004236478082261054
-0.13507259727847762   -0.005093174307753429   0.000888925431833598
-0.13507259727847762   -0.005093174307753429   0.000888925431833598
-0.13507259727847762   -0.005093174307753429   0.000888925431833598
-0.13507259727847762   -0.005093174307753429   0.000888925431833598
-0.07565150273263085   0.0028283758092345485   -0.00030373245402570085
-0.07565150273263085   0.0028283758092345485   -0.00030373245402570085
-0.07565150273263085   0.0028283758092345485   -0.00030373245402570085
-0.07565150273263085   0.0028283758092345485   -0.00030373245402570085
-0.10271733368086675   0.00039776273062705134   0.0002470088756131557
-0.10271733368086675   0.00039776273062705134   0.0002470088756131557
-0.10271733368086675   0.00039776273062705134   0.0002470088756131557
-0.10271733368086675   0.00039776273062705134   0.0002470088756131557
-0.07373434928514869   0.007848976935891115   0.004261433656729776
-0.07373434928514869   0.007848976935891115   0.004261433656729776
-0.07373434928514869   0.007848976935891115   0.004261433656729776
-0.07373434928514869   0.007848976935891115   0.004261433656729776
-0.137005741705853   -0.010129766414303076   -0.0037402045984955314
-0.137005741705853   -0.010129766414303076   -0.0037402045984955314
-0.137005741705853   -0.010129766414303076   -0.0037402045984955314
-0.137005741705853   -0.010129766414303076   -0.0037402045984955314
-0.13779011107255115   -0.007629910337130605   0.00153085814635851
-0.13779011107255115   -0.007629910337130605   0.00153085814635851
-0.13779011107255115   -0.007629910337130605   0.00153085814635851
-0.13779011107255115   -0.007629910337130605   0.00153085814635851
-0.0783365192883143   8.081887551107322e-05   0.0001066006695201278
-0.0783365192883143   8.081887551107322e-05   0.0001066006695201278
-0.0783365192883143   8.081887551107322e-05   0.0001066006695201278
-0.0783365192883143   8.081887551107322e-05   0.0001066006695201278
-0.10618659451598705   -0.002093832394832462   -0.0009739460803110259
-0.10618659451598705   -0.002093832394832462   -0.0009739460803110259
-0.10618659451598705   -0.002093832394832462   -0.0009739460803110259
-0.10618659451598705   -0.002093832394832462   -0.0009739460803110259
-0.12596228849719496   0.011401587686891715   0.004657818235964171
-0.12596228849719496   0.011401587686891715   0.004657818235964171
-0.12596228849719496   0.011401587686891715   0.004657818235964171
-0.12596228849719496   0.011401587686891715   0.004657818235964171
-0.18712195742964285   -0.008798547566552725   -0.005475135592447411
-0.18712195742964285   -0.008798547566552725   -0.005475135592447411
-0.18712195742964285   -0.008798547566552725   -0.005475135592447411
-0.18712195742964285   -0.008798547566552725   -0.005475135592447411
-0.18866019188186178   -0.001130215096707174   0.004579844849496308
-0.18866019188186178   -0.001130215096707174   0.004579844849496308
-0.18866019188186178   -0.001130215096707174   0.004579844849496308
-0.18866019188186178   -0.001130215096707174   0.004579844849496308
-0.13176565953022554   0.002166222760273409   -0.003176293546983155
-0.13176565953022554   0.002166222760273409   -0.003176293546983155
-0.13176565953022554   0.002166222760273409   -0.003176293546983155
-0.13176565953022554   0.002166222760273409   -0.003176293546983155
-0.15133596296626603   0.002417411596518655   0.0039806233757972865
-0.15133596296626603   0.002417411596518655   0.0039806233757972865
-0.15133596296626603   0.002417411596518655   0.0039806233757972865
-0.15133596296626603   0.002417411596518655   0.0039806233757972865
-0.12823517984241398   0.011139403226460735   0.005502924425889159
-0.12823517984241398   0.011139403226460735   0.005502924425889159
-0.12823517984241398   0.011139403226460735   0.005502924425889159
-0.12823517984241398   0.011139403226460735   0.005502924425889159
-0.19227660603884372   -0.010189330032064937   -0.004443111000056682
-0.19227660603884372   -0.010189330032064937   -0.004443111000056682
-0.19227660603884372   -0.010189330032064937   -0.004443111000056682
-0.19227660603884372   -0.010189330032064937   -0.004443111000056682
-0.19306402686793053   -0.002436725000954723   0.005751892718059905
-0.19306402686793053   -0.002436725000954723   0.005751892718059905
-0.19306402686793053   -0.002436725000954723   0.005751892718059905
-0.19306402686793053   -0.002436725000954723   0.005751892718059905
-0.13460125496338948   0.0008352065579639197   -0.0026827438584455954
-0.13460125496338948   0.0008352065579639197   -0.0026827438584455954
-0.13460125496338948   0.0008352065579639197   -0.0026827438584455954
-0.13460125496338948   0.0008352065579639197   -0.0026827438584455954
-0.15754817195580256   0.000941788057813274   0.0022883748256426386
-0.15754817195580256   0.000941788057813274   0.0022883748256426386
-0.15754817195580256   0.000941788057813274   0.0022883748256426386
-0.15754817195580256   0.000941788057813274   0.0022883748256426386
-0.13091289604329415   0.010134978400299702   0.006459278899695952
-0.13091289604329415   0.010134978400299702   0.006459278899695952
-0.13091289604329415   0.010134978400299702   0.006459278899695952
-0.13091289604329415   0.010134978400299702   0.006459278899695952
-0.19681231795275603   -0.011796429008021095   -0.003629858699004101
-0.19681231795275603   -0.011796429008021095   -0.003629858699004101
-0.19681231795275603   -0.011796429008021095   -0.003629858699004101
-0.19681231795275603   -0.011796429008021095   -0.003629858699004101
-0.19895378368637542   -0.006698402444027425   0.00569893751706867
-0.19895378368637542   -0.006698402444027425   0.00569893751706867
-0.19895378368637542   -0.006698402444027425   0.00569893751706867
-0.19895378368637542   -0.006698402444027425   0.00569893751706867
-0.137591633764138   -0.0027293632678479923   -0.002377302380861505
-0.137591633764138   -0.0027293632678479923   -0.002377302380861505
-0.137591633764138   -0.0027293632678479923   -0.002377302380861505
-0.137591633764138   -0.0027293632678479923   -0.002377302380861505
-0.1589270783395829   -0.0008119656120605598   0.001553964918396663
-0.1589270783395829   -0.0008119656120605598   0.001553964918396663
-0.1589270783395829   -0.0008119656120605598   0.001553964918396663
-0.1589270783395829   -0.0008119656120605598   0.001553964918396663
0.06521480378254343   0.004132973065350397   -0.006624021204420315
0.06521480378254343   0.004132973065350397   -0.006624021204420315
0.06521480378254343   0.004132973065350397   -0.006624021204420315
0.06521480378254343   0.004132973065350397   -0.006624021204420315
0.0205608124534753   0.0037273847532230207   0.0030375152695624272
0.0205608124534753   0.0037273847532230207   0.0030375152695624272
0.0205608124534753   0.0037273847532230207   0.0030375152695624272
0.0205608124534753   0.0037273847532230207   0.0030375152695624272
0.014473500723388075   -0.008416718172777029   -0.005884267162175869
0.014473500723388075   -0.008416718172777029   -0.005884267162175869
0.014473500723388075   -0.008416718172777029   -0.005884267162175869
0.014473500723388075   -0.008416718172777029   -0.005884267162175869
0.06378224643776079   0.010159126224510444   0.003648621451923425
0.06378224643776079   0.010159126224510444   0.003648621451923425
0.06378224643776079   0.010159126224510444   0.003648621451923425
0.06378224643776079   0.010159126224510444   0.003648621451923425
0.038681134779368326   0.0017283372505997058   -0.0008443240241615863
0.038681134779368326   0.0017283372505997058   -0.0008443240241615863
0.038681134779368326   0.0017283372505997058   -0.0008443240241615863
0.038681134779368326   0.0017283372505997058   -0.0008443240241615863
0.059917542968012744   0.0006214914784344917   -0.006137261150741331
0.059917542968012744   0.0006214914784344917   -0.006137261150741331
0.059917542968012744   0.0006214914784344917   -0.006137261150741331
0.059917542968012744   0.0006214914784344917   -0.006137261150741331
0.018218514074900872   0.0010012264550633512   0.0034228549675478707
0.018218514074900872   0.0010012264550633512   0.0034228549675478707
0.018218514074900872   0.0010012264550633512   0.0034228549675478707
0.018218514074900872   0.0010012264550633512   0.0034228549675478707
0.012194051523265801   -0.009542412313757485   -0.005050585607385772
0.012194051523265801   -0.009542412313757485   -0.005050585607385772
0.012194051523265801   -0.009542412313757485   -0.005050585607385772
0.012194051523265801   -0.009542412313757485   -0.005050585607385772
0.05968023057711457   0.008613059332856516   0.0047618061038062895
0.05968023057711457   0.008613059332856516   0.0047618061038062895
0.05968023057711457   0.008613059332856516   0.0047618061038062895
0.05968023057711457   0.008613059332856516   0.0047618061038062895
0.035974184155291945   -6.086601909006083e-05   -0.001958997015738239
0.035974184155291945   -6.086601909006083e-05   -0.001958997015738239
0.035974184155291945   -6.086601909006083e-05   -0.001958997015738239
0.035974184155291945   -6.086601909006083e-05   -0.001958997015738239
0.05581662650858537   -0.0008303426470109027   -0.005112812258972843
0.05581662650858537   -0.0008303426470109027   -0.005112812258972843
0.05581662650858537   -0.0008303426470109027   -0.005112812258972843
0.05581662650858537   -0.0008303426470109027   -0.005112812258972843
0.01589121012573841   -0.0002654557999466414   0.004158250891166667
0.01589121012573841   -0.0002654557999466414   0.004158250891166667
0.01589121012573841   -0.0002654557999466414   0.004158250891166667
0.01589121012573841   -0.0002654557999466414   0.004158250891166667
0.010171420783182044   -0.010756920252418735   -0.0042313735283811575
0.010171420783182044   -0.010756920252418735   -0.0042313735283811575
0.010171420783182044   -0.010756920252418735   -0.0042313735283811575
0.010171420783182044   -0.010756920252418735   -0.0042313735283811575
0.05455915248496649   0.006236868314443013   0.005347959092991536
0.05455915248496649   0.006236868314443013   0.005347959092991536
0.05455915248496649   0.006236868314443013   0.005347959092991536
0.05455915248496649   0.006236868314443013   0.005347959092991536
0.031854069830705725   -0.0015929670803890988   -0.003389041931817317
0.031854069830705725   -0.0015929670803890988   -0.003389041931817317
0.031854069830705725   -0.0015929670803890988   -0.003389041931817317
0.031854069830705725   -0.0015929670803890988   -0.003389041931817317
0.020196851858846274   0.006667791958474086   -0.0017226949088339953
0.020196851858846274   0.006667791958474086   -0.0017226949088339953
0.020196851858846274   0.006667791958474086   -0.0017226949088339953
0.020196851858846274   0.006667791958474086   -0.0017226949088339953
-0.022346132994779434   0.0017346490028599159   0.0006305011787507003
-0.022346132994779434   0.0017346490028599159   0.0006305011787507003
-0.022346132994779434   0.0017346490028599159   0.0006305011787507003
-0.022346132994779434   0.0017346490028599159   0.0006305011787507003
-0.02628418013374934   -0.005492065576487692   -0.0035002364795992977
-0.02628418013374934   -0.005492065576487692   -0.0035002364795992977
-0.02628418013374934   -0.005492065576487692   -0.0035002364795992977
-0.02628418013374934   -0.005492065576487692   -0.0035002364795992977
0.019731058190563575   0.0082172621121577   0.003769539888767024
0.019731058190563575   0.0082172621121577   0.003769539888767024
0.019731058190563575   0.0082172621121577   0.003769539888767024
0.019731058190563575   0.0082172621121577   0.003769539888767024
-0.002343251290404877   0.002656094752365012   0.0007764777015190325
-0.002343251290404877   0.002656094752365012   0.0007764777015190325
-0.002343251290404877   0.002656094752365012   0.0007764777015190325
-0.002343251290404877   0.002656094752365012   0.0007764777015190325
0.017838526516224553   0.0037811264793933463   -0.0012569828501638337
0.017838526516224553   0.0037811264793933463   -0.0012569828501638337
0.017838526516224553   0.0037811264793933463   -0.0012569828501638337
0.017838526516224553   0.0037811264793933463   -0.0012569828501638337
-0.024500407506371256   -0.001164688990684351   0.001091250071487774
-0.024500407506371256   -0.001164688990684351   0.001091250071487774
-0.024500407506371256   -0.001164688990684351   0.001091250071487774
-0.024500407506371256   -0.001164688990684351   0.001091250071487774
-0.028317510368398382   -0.007753798708889153   -0.002786679666636917
-0.028317510368398382   -0.007753798708889153   -0.002786679666636917
-0.028317510368398382   -0.007753798708889153   -0.002786679666636917
-0.028317510368398382   -0.007753798708889153   -0.002786679666636917
0.01706501763860181   0.005641601888551392   0.004120230766985671
0.01706501763860181   0.005641601888551392   0.004120230766985671
0.01706501763860181   0.005641601888551392   0.004120230766985671
0.01706501763860181   0.005641601888551392   0.004120230766985671
-0.004887091914933582   0.00015685879200181435   -0.0004279038999890546
-0.004887091914933582   0.00015685879200181435   -0.0004279038999890546
-0.004887091914933582   0.00015685879200181435   -0.0004279038999890546
-0.004887091914933582   0.00015685879200181435   -0.0004279038999890546
0.01522315835932268   0.0013518151848420183   -0.0007992789257008832
0.01522315835932268   0.0013518151848420183   -0.0007992789257008832
0.01522315835932268   0.0013518151848420183   -0.0007992789257008832
0.01522315835932268   0.0013518151848420183   -0.0007992789257008832
-0.02661738506841054   -0.00360574598447124   0.0015658941088848581
-0.02661738506841054   -0.00360574598447124   0.0015658941088848581
-0.02661738506841054   -0.00360574598447124   0.0015658941088848581
-0.02661738506841054   -0.00360574598447124   0.0015658941088848581
-0.030331418966485515   -0.00992758436379389   -0.0021441580712957932
-0.030331418966485515   -0.00992758436379389   -0.0021441580712957932
-0.030331418966485515   -0.00992758436379389   -0.0021441580712957932
-0.030331418966485515   -0.00992758436379389   -0.0021441580712957932
0.014729296968663838   0.0031851064390568803   0.004615980707552462
0.014729296968663838   0.0031851064390568803   0.004615980707552462
0.014729296968663838   0.0031851064390568803   0.004615980707552462
0.014729296968663838   0.0031851064390568803   0.004615980707552462
-0.00702894229073338   -0.001998573482551155   -0.001542481592783736
-0.00702894229073338   -0.001998573482551155   -0.001542481592783736
-0.00702894229073338   -0.001998573482551155   -0.001542481592783736
-0.00702894229073338   -0.001998573482551155   -0.001542481592783736
-0.021041458913323322   0.00853483309092309   0.0003536874979680727
-0.021041458913323322   0.00853483309092309   0.0003536874979680727
-0.021041458913323322   0.00853483309092309   0.0003536874979680727
-0.021041458913323322   0.00853483309092309   0.0003536874979680727
-0.06451095179060273   -0.0011463379485205736   -0.001866086204561428
-0.06451095179060273   -0.0011463379485205736   -0.001866086204561428
-0.06451095179060273   -0.0011463379485205736   -0.001866086204561428
-0.06451095179060273   -0.0011463379485205736   -0.001866086204561428
-0.06636776509862591   -0.0030514774702966197   -0.0011597484960688001
-0.06636776509862591   -0.0030514774702966197   -0.0011597484960688001
-0.06636776509862591   -0.0030514774702966197   -0.0011597484960688001
-0.06636776509862591   -0.0030514774702966197   -0.0011597484960688001
-0.023156377855791676   0.005437655773103725   0.0012090535605970066
-0.023156377855791676   0.005437655773103725   0.0012090535605970066
-0.023156377855791676   0.005437655773103725   0.0012090535605970066
-0.023156377855791676   0.005437655773103725   0.0012090535605970066
-0.0436549519599493   0.002372320911322537   0.000777021931130373
-0.0436549519599493   0.002372320911322537   0.000777021931130373
-0.0436549519599493   0.002372320911322537   0.000777021931130373
-0.0436549519599493   0.002372320911322537   0.000777021931130373
-0.02307257541462907   0.006043878728016303   0.001021842811498059
-0.02307257541462907   0.006043878728016303   0.001021842811498059
-0.02307257541462907   0.006043878728016303   0.001021842811498059
-0.02307257541462907   0.006043878728016303   0.001021842811498059
-0.06654933325555516   -0.0037554661409755965   -0.0013636006100361132
-0.06654933325555516   -0.0037554661409755965   -0.0013636006100361132
-0.06654933325555516   -0.0037554661409755965   -0.0013636006100361132
-0.06654933325555516   -0.0037554661409755965   -0.0013636006100361132
-0.06839738821823445   -0.005521002622018994   -0.0005227852373970885
-0.06839738821823445   -0.005521002622018994   -0.0005227852373970885
-0.06839738821823445   -0.005521002622018994   -0.0005227852373970885
-0.06839738821823445   -0.005521002622018994   -0.0005227852373970885
-0.025298527550879676   0.002824893209453775   0.0017295425026136843
-0.025298527550879676   0.002824893209453775   0.0017295425026136843
-0.025298527550879676   0.002824893209453775   0.0017295425026136843
-0.025298527550879676   0.002824893209453775   0.0017295425026136843
-0.04576654826548381   1.2153310870911468e-05   -0.0002933091384466906
-0.04576654826548381   1.2153310870911468e-05   -0.0002933091384466906
-0.04576654826548381   1.2153310870911468e-05   -0.0002933091384466906
-0.04576654826548381   1.2153310870911468e-05   -0.0002933091384466906
-0.0251852733636961   0.0035417656049707693   0.001578941043015072
-0.0251852733636961   0.0035417656049707693   0.001578941043015072
-0.0251852733636961   0.0035417656049707693   0.001578941043015072
-0.0251852733636961   0.0035417656049707693   0.001578941043015072
-0.06864858410811549   -0.006375816720233653   -0.0009239505885876385
-0.06864858410811549   -0.006375816720233653   -0.0009239505885876385
-0.06864858410811549   -0.006375816720233653   -0.0009239505885876385
-0.06864858410811549   -0.006375816720233653   -0.0009239505885876385
-0.07037885946187768   -0.007892631400460192   0.00010344257961322442
-0.07037885946187768   -0.007892631400460192   0.00010344257961322442
-0.07037885946187768   -0.007892631400460192   0.00010344257961322442
-0.07037885946187768   -0.007892631400460192   0.00010344257961322442
-0.027415265844386544   0.0003179633540172852   0.0021910598213873344
-0.027415265844386544   0.0003179633540172852   0.0021910598213873344
-0.027415265844386544   0.0003179633540172852   0.0021910598213873344
-0.027415265844386544   0.0003179633540172852   0.0021910598213873344
-0.04799621896007962   -0.00234859334424814   -0.001459687673244775
-0.04799621896007962   -0.00234859334424814   -0.001459687673244775
-0.04799621896007962   -0.00234859334424814   -0.001459687673244775
-0.04799621896007962   -0.00234859334424814   -0.001459687673244775
-0.061320754116270054   0.01039884585343313   0.00253971836514831
-0.061320754116270054   0.01039884585343313   0.00253971836514831
-0.061320754116270054   0.01039884585343313   0.00253971836514831
-0.061320754116270054   0.01039884585343313   0.00253971836514831
-0.10611536587608003   -0.0036229540822441467   -0.004111145685211628
-0.10611536587608003   -0.0036229540822441467   -0.004111145685211628
-0.10611536587608003   -0.0036229540822441467   -0.004111145685211628
-0.10611536587608003   -0.0036229540822441467   -0.004111145685211628
-0.10628606190391784   -0.0009682032389094694   0.0012927407784418402
-0.10628606190391784   -0.0009682032389094694   0.0012927407784418402
-0.10628606190391784   -0.0009682032389094694   0.0012927407784418402
-0.10628606190391784   -0.0009682032389094694   0.0012927407784418402
-0.0651969245214558   0.00284749173376061   -0.0012045148142758259
-0.0651969245214558   0.00284749173376061   -0.0012045148142758259
-0.0651969245214558   0.00284749173376061   -0.0012045148142758259
-0.0651969245214558   0.00284749173376061   -0.0012045148142758259
-0.08425231597385285   0.002141744488711919   0.0009721595684571782
-0.08425231597385285   0.002141744488711919   0.0009721595684571782
-0.08425231597385285   0.002141744488711919   0.0009721595684571782
-0.08425231597385285   0.002141744488711919   0.0009721595684571782
-0.06328075714015882   0.008015893602790118   0.003207920223179868
-0.06328075714015882   0.008015893602790118   0.003207920223179868
-0.06328075714015882   0.008015893602790118   0.003207920223179868
-0.06328075714015882   0.008015893602790118   0.003207920223179868
-0.10838527582612091   -0.0063196516488443905   -0.0038518804226395503
-0.10838527582612091   -0.0063196516488443905   -0.0038518804226395503
-0.10838527582612091   -0.0063196516488443905   -0.0038518804226395503
-0.10838527582612091   -0.0063196516488443905   -0.0038518804226395503
-0.1087950786635475   -0.003413857154330853   0.0016286786590639316
-0.1087950786635475   -0.003413857154330853   0.0016286786590639316
-0.1087950786635475   -0.003413857154330853   0.0016286786590639316
-0.1087950786635475   -0.003413857154330853   0.0016286786590639316
-0.06723719812422291   0.00042270247184644956   -0.0006655398612052592
-0.06723719812422291   0.00042270247184644956   -0.0006655398612052592
-0.06723719812422291   0.00042270247184644956   -0.0006655398612052592
-0.06723719812422291   0.00042270247184644956   -0.0006655398612052592
-0.08600317503738748   -3.3229189595133934e-05   -0.00014249075354285257
-0.08600317503738748   -3.3229189595133934e-05   -0.00014249075354285257
-0.08600317503738748   -3.3229189595133934e-05   -0.00014249075354285257
-0.08600317503738748   -3.3229189595133934e-05   -0.00014249075354285257
-0.0652714886074329   0.00573522263666457   0.003850487557927108
-0.0652714886074329   0.00573522263666457   0.003850487557927108
-0.0652714886074329   0.00573522263666457   0.003850487557927108
-0.0652714886074329   0.00573522263666457   0.003850487557927108
-0.1108763575514177   -0.008841946690228728   -0.003349626244390184
-0.1108763575514177   -0.008841946690228728   -0.003349626244390184
-0.1108763575514177   -0.008841946690228728   -0.003349626244390184
-0.1108763575514177   -0.008841946690228728   -0.003349626244390184
-0.11093948056431531   -0.00600134721985273   0.002298731468702127
-0.11093948056431531   -0.00600134721985273   0.002298731468702127
-0.11093948056431531   -0.00600134721985273   0.002298731468702127
-0.11093948056431531   -0.00600134721985273   0.002298731468702127
-0.06930857799201896   -0.0022141628751938362   -0.0002236185963603904
-0.06930857799201896   -0.0022141628751938362   -0.0002236185963603904
-0.06930857799201896   -0.0022141628751938362   -0.0002236185963603904
-0.06930857799201896   -0.0022141628751938362   -0.0002236185963603904
-0.08873644395838287   -0.0024765905998325767   -0.001385841687734271
-0.08873644395838287   -0.0024765905998325767   -0.001385841687734271
-0.08873644395838287   -0.0024765905998325767   -0.001385841687734271
-0.08873644395838287   -0.0024765905998325767   -0.001385841687734271
-0.10161381079041207   0.010294036676633412   0.004479638984251638
-0.10161381079041207   0.010294036676633412   0.004479638984251638
-0.10161381079041207   0.010294036676633412   0.004479638984251638
-0.10161381079041207   0.010294036676633412   0.004479638984251638
-0.14503009010876486   -0.006896100594819581   -0.005926303868728775
-0.14503009010876486   -0.006896100594819581   -0.005926303868728775
-0.14503009010876486   -0.006896100594819581   -0.005926303868728775
-0.14503009010876486   -0.006896100594819581   -0.005926303868728775
-0.1459693528048812   0.0008997518582312403   0.0046950452174616755
-0.1459693528048812   0.0008997518582312403   0.0046950452174616755
-0.1459693528048812   0.0008997518582312403   0.0046950452174616755
-0.1459693528048812   0.0008997518582312403   0.0046950452174616755
-0.10705137965963421   5.975532201892009e-05   -0.0035618065610698683
-0.10705137965963421   5.975532201892009e-05   -0.0035618065610698683
-0.10705137965963421   5.975532201892009e-05   -0.0035618065610698683
-0.10705137965963421   5.975532201892009e-05   -0.0035618065610698683
-0.11946725372634326   0.0022423870323020796   0.003064174069333598
-0.11946725372634326   0.0022423870323020796   0.003064174069333598
-0.11946725372634326   0.0022423870323020796   0.003064174069333598
-0.11946725372634326   0.0022423870323020796   0.003064174069333598
-0.1033829995691503   0.009538319420465565   0.005301529792902616
-0.1033829995691503   0.009538319420465565   0.005301529792902616
-0.1033829995691503   0.009538319420465565   0.005301529792902616
-0.1033829995691503   0.009538319420465565   0.005301529792902616
-0.14983641881438645   -0.008777498159236667   -0.004963034812595607
-0.14983641881438645   -0.008777498159236667   -0.004963034812595607
-0.14983641881438645   -0.008777498159236667   -0.004963034812595607
-0.14983641881438645   -0.008777498159236667   -0.004963034812595607
-0.14992053675999742   -0.0004988617262952563   0.005966196516866491
-0.14992053675999742   -0.0004988617262952563   0.005966196516866491
-0.14992053675999742   -0.0004988617262952563   0.005966196516866491
-0.14992053675999742   -0.0004988617262952563   0.005966196516866491
-0.10930248544184128   -0.0012923503089353125   -0.003029862077801819
-0.10930248544184128   -0.0012923503089353125   -0.003029862077801819
-0.10930248544184128   -0.0012923503089353125   -0.003029862077801819
-0.10930248544184128   -0.0012923503089353125   -0.003029862077801819
-0.12469579220397525   0.0006145640125357066   0.0013352671156157394
-0.12469579220397525   0.0006145640125357066   0.0013352671156157394
-0.12469579220397525   0.0006145640125357066   0.0013352671156157394
-0.12469579220397525   0.0006145640125357066   0.0013352671156157394
-0.10549257458614131   0.008449133152879661   0.006278208738883361
-0.10549257458614131   0.008449133152879661   0.006278208738883361
-0.10549257458614131   0.008449133152879661   0.006278208738883361
-0.10549257458614131   0.008449133152879661   0.006278208738883361
-0.15391095336894434   -0.010420850941356512   -0.004063897312804749
-0.15391095336894434   -0.010420850941356512   -0.004063897312804749
-0.15391095336894434   -0.010420850941356512   -0.004063897312804749
-0.15391095336894434   -0.010420850941356512   -0.004063897312804749
-0.15534772018489856   -0.0045840111922848675   0.006105544417714695
-0.15534772018489856   -0.0045840111922848675   0.006105544417714695
-0.15534772018489856   -0.0045840111922848675   0.006105544417714695
-0.15534772018489856   -0.0045840111922848675   0.006105544417714695
-0.11163830891762752   -0.004552608615106618   -0.002644148902607734
-0.11163830891762752   -0.004552608615106618   -0.002644148902607734
-0.11163830891762752   -0.004552608615106618   -0.002644148902607734
-0.11163830891762752   -0.004552608615106618   -0.002644148902607734
-0.12613331751996582   -0.001172803014848206   0.0003653782910970835
-0.12613331751996582   -0.001172803014848206   0.0003653782910970835
-0.12613331751996582   -0.001172803014848206   0.0003653782910970835
-0.12613331751996582   -0.001172803014848206   0.0003653782910970835
0.019862566998753484   0.0016112548668850805   -0.006844888707403121
0.019862566998753484   0.0016112548668850805   -0.006844888707403121
0.019862566998753484   0.0016112548668850805   -0.006844888707403121
0.019862566998753484   0.0016112548668850805   -0.006844888707403121
-0.006355740041819694   0.004936059559144548   0.003382028573513881
-0.006355740041819694   0.004936059559144548   0.003382028573513881
-0.006355740041819694   0.004936059559144548   0.003382028573513881
-0.006355740041819694   0.004936059559144548   0.003382028573513881
-0.011946517919510968   -0.006831496342150497   -0.005575727024109529
-0.011946517919510968   -0.006831496342150497   -0.005575727024109529
-0.011946517919510968   -0.006831496342150497   -0.005575727024109529
-0.011946517919510968   -0.006831496342150497   -0.005575727024109529
0.01901695171318009   0.007965383878317474   0.0040865692756046
0.01901695171318009   0.007965383878317474   0.0040865692756046
0.01901695171318009   0.007965383878317474   0.0040865692756046
0.01901695171318009   0.007965383878317474   0.0040865692756046
0.004573834355379216   0.0017603340070720189   0.0005479491764061977
0.004573834355379216   0.0017603340070720189   0.0005479491764061977
0.004573834355379216   0.0017603340070720189   0.0005479491764061977
0.004573834355379216   0.0017603340070720189   0.0005479491764061977
0.015056206971657856   -0.0015551333915273594   -0.006196637162161829
0.015056206971657856   -0.0015551333915273594   -0.006196637162161829
0.015056206971657856   -0.0015551333915273594   -0.006196637162161829
0.015056206971657856   -0.0015551333915273594   -0.006196637162161829
-0.008203204358576943   0.0024715897471059723   0.003837754691304128
-0.008203204358576943   0.0024715897471059723   0.003837754691304128
-0.008203204358576943   0.0024715897471059723   0.003837754691304128
-0.008203204358576943   0.0024715897471059723   0.003837754691304128
-0.013827741504944828   -0.00799815061687855   -0.0047862715628096434
-0.013827741504944828   -0.00799815061687855   -0.0047862715628096434
-0.013827741504944828   -0.00799815061687855   -0.0047862715628096434
-0.013827741504944828   -0.00799815061687855   -0.0047862715628096434
0.015238274212855112   0.006407585952002569   0.00567894802846178
0.015238274212855112   0.006407585952002569   0.00567894802846178
0.015238274212855112   0.006407585952002569   0.00567894802846178
0.015238274212855112   0.006407585952002569   0.00567894802846178
0.0017240656428700448   2.600052134667713e-06   -0.0007649274821418321
0.0017240656428700448   2.600052134667713e-06   -0.0007649274821418321
0.0017240656428700448   2.600052134667713e-06   -0.0007649274821418321
0.0017240656428700448   2.600052134667713e-06   -0.0007649274821418321
0.01116591016578631   -0.003081019350955633   -0.005194266903924253
0.01116591016578631   -0.003081019350955633   -0.005194266903924253
0.01116591016578631   -0.003081019350955633   -0.005194266903924253
0.01116591016578631   -0.003081019350955633   -0.005194266903924253
-0.010064791456280607   0.0011810406876746704   0.0048492873759580085
-0.010064791456280607   0.0011810406876746704   0.0048492873759580085
-0.010064791456280607   0.0011810406876746704   0.0048492873759580085
-0.010064791456280607   0.0011810406876746704   0.0048492873759580085
-0.01554613945304109   -0.009655216109038321   -0.004007171086407553
-0.01554613945304109   -0.009655216109038321   -0.004007171086407553
-0.01554613945304109   -0.009655216109038321   -0.004007171086407553
-0.01554613945304109   -0.009655216109038321   -0.004007171086407553
0.009986169602438292   0.0032336598009461972   0.006543480115967694
0.009986169602438292   0.0032336598009461972   0.006543480115967694
0.009986169602438292   0.0032336598009461972   0.006543480115967694
0.009986169602438292   0.0032336598009461972   0.006543480115967694
-0.0016322924259125776   -0.0017094368511957829   -0.0023355516736926754
-0.0016322924259125776   -0.0017094368511957829   -0.0023355516736926754
-0.0016322924259125776   -0.0017094368511957829   -0.0023355516736926754
-0.0016322924259125776   -0.0017094368511957829   -0.0023355516736926754
-0.007727716521976844   0.004019894340037732   -0.0025616886081650534
-0.007727716521976844   0.004019894340037732   -0.0025616886081650534
-0.007727716521976844   0.004019894340037732   -0.0025616886081650534
-0.007727716521976844   0.004019894340037732   -0.0025616886081650534
-0.031633584968238586   0.0013595638639052913   0.0008177667647132807
-0.031633584968238586   0.0013595638639052913   0.0008177667647132807
-0.031633584968238586   0.0013595638639052913   0.0008177667647132807
-0.031633584968238586   0.0013595638639052913   0.0008177667647132807
-0.03459284194888192   -0.003994354141680375   -0.0029646412409778545
-0.03459284194888192   -0.003994354141680375   -0.0029646412409778545
-0.03459284194888192   -0.003994354141680375   -0.0029646412409778545
-0.03459284194888192   -0.003994354141680375   -0.0029646412409778545
-0.008074510150573472   0.004084794032077669   0.0028680214463497502
-0.008074510150573472   0.004084794032077669   0.0028680214463497502
-0.008074510150573472   0.004084794032077669   0.0028680214463497502
-0.008074510150573472   0.004084794032077669   0.0028680214463497502
-0.02049332885169508   0.0012843936913805648   0.0007351292059994014
-0.02049332885169508   0.0012843936913805648   0.0007351292059994014
-0.02049332885169508   0.0012843936913805648   0.0007351292059994014
-0.02049332885169508   0.0012843936913805648   0.0007351292059994014
-0.009656734340885868   0.0011617787779061401   -0.002120084251040915
-0.009656734340885868   0.0011617787779061401   -0.002120084251040915
-0.009656734340885868   0.0011617787779061401   -0.002120084251040915
-0.009656734340885868   0.0011617787779061401   -0.002120084251040915
-0.03320072306631071   -0.001261444195250143   0.001263043225447932
-0.03320072306631071   -0.001261444195250143   0.001263043225447932
-0.03320072306631071   -0.001261444195250143   0.001263043225447932
-0.03320072306631071   -0.001261444195250143   0.001263043225447932
-0.036074892721410096   -0.006258925178672413   -0.0022424942091176154
-0.036074892721410096   -0.006258925178672413   -0.0022424942091176154
-0.036074892721410096   -0.006258925178672413   -0.0022424942091176154
-0.036074892721410096   -0.006258925178672413   -0.0022424942091176154
-0.010308615799944762   0.0015740432430854793   0.0032371631022264685
-0.010308615799944762   0.0015740432430854793   0.0032371631022264685
-0.010308615799944762   0.0015740432430854793   0.0032371631022264685
-0.010308615799944762   0.0015740432430854793   0.0032371631022264685
-0.02236144086625845   -0.0010322455731702727   -0.0004440106037576343
-0.02236144086625845   -0.0010322455731702727   -0.0004440106037576343
-0.02236144086625845   -0.0010322455731702727   -0.0004440106037576343
-0.02236144086625845   -0.0010322455731702727   -0.0004440106037576343
-0.01184604890071857   -0.0012832078370181201   -0.0015927513215390197
-0.01184604890071857   -0.0012832078370181201   -0.0015927513215390197
-0.01184604890071857   -0.0012832078370181201   -0.0015927513215390197
-0.01184604890071857   -0.0012832078370181201   -0.0015927513215390197
-0.03474405603525862   -0.0036082705131909236   0.0017610345561583079
-0.03474405603525862   -0.0036082705131909236   0.0017610345561583079
-0.03474405603525862   -0.0036082705131909236   0.0017610345561583079
-0.03474405603525862   -0.0036082705131909236   0.0017610345561583079
-0.037566609830202276   -0.008518574366190298   -0.0016065165198173136
-0.037566609830202276   -0.008518574366190298   -0.0016065165198173136
-0.037566609830202276   -0.008518574366190298   -0.0016065165198173136
-0.037566609830202276   -0.008518574366190298   -0.0016065165198173136
-0.012188084876750235   -0.000883779056933993   0.004011664742942352
-0.012188084876750235   -0.000883779056933993   0.004011664742942352
-0.012188084876750235   -0.000883779056933993   0.004011664742942352
-0.012188084876750235   -0.000883779056933993   0.004011664742942352
-0.0241783145263641   -0.003237352138234502   -0.001620280195111954
-0.0241783145263641   -0.003237352138234502   -0.001620280195111954
-0.0241783145263641   -0.003237352138234502   -0.001620280195111954
-0.0241783145263641   -0.003237352138234502   -0.001620280195111954
-0.030942871318945134   0.005888895968116884   -0.0002579970930310532
-0.030942871318945134   0.005888895968116884   -0.0002579970930310532
-0.030942871318945134   0.005888895968116884   -0.0002579970930310532
-0.030942871318945134   0.005888895968116884   -0.0002579970930310532
-0.05637915993406035   -0.0021008871304803826   -0.0016957689698235902
-0.05637915993406035   -0.0021008871304803826   -0.0016957689698235902
-0.05637915993406035   -0.0021008871304803826   -0.0016957689698235902
-0.05637915993406035   -0.0021008871304803826   -0.0016957689698235902
-0.057035883132692256   -0.0016754343448446198   -0.00047689175224413516
-0.057035883132692256   -0.0016754343448446198   -0.00047689175224413516
-0.057035883132692256   -0.0016754343448446198   -0.00047689175224413516
-0.057035883132692256   -0.0016754343448446198   -0.00047689175224413516
-0.03293871111756283   0.0008556916765582916   0.00045596709737903674
-0.03293871111756283   0.0008556916765582916   0.00045596709737903674
-0.03293871111756283   0.0008556916765582916   0.00045596709737903674
-0.03293871111756283   0.0008556916765582916   0.00045596709737903674
-0.04422026566111698   0.0006811638192346977   0.0003423163291766053
-0.04422026566111698   0.0006811638192346977   0.0003423163291766053
-0.04422026566111698   0.0006811638192346977   0.0003423163291766053
-0.04422026566111698   0.0006811638192346977   0.0003423163291766053
-0.032431328190655404   0.0034254747297554396   0.0004230986787188964
-0.032431328190655404   0.0034254747297554396   0.0004230986787188964
-0.032431328190655404   0.0034254747297554396   0.0004230986787188964
-0.032431328190655404   0.0034254747297554396   0.0004230986787188964
-0.05773024520179036   -0.004432196540232398   -0.0011919399023468812
-0.05773024520179036   -0.004432196540232398   -0.0011919399023468812
-0.05773024520179036   -0.004432196540232398   -0.0011919399023468812
-0.05773024520179036   -0.004432196540232398   -0.0011919399023468812
-0.05843540126413353   -0.004110764823365689   0.00018812605177021685
-0.05843540126413353   -0.004110764823365689   0.00018812605177021685
-0.05843540126413353   -0.004110764823365689   0.00018812605177021685
-0.05843540126413353   -0.004110764823365689   0.00018812605177021685
-0.034494931011835935   -0.0015484177627599974   0.0009468069228409039
-0.034494931011835935   -0.0015484177627599974   0.0009468069228409039
-0.034494931011835935   -0.0015484177627599974   0.0009468069228409039
-0.034494931011835935   -0.0015484177627599974   0.0009468069228409039
-0.045723325319737516   -0.00153457984809156   -0.0007380067919560643
-0.045723325319737516   -0.00153457984809156   -0.0007380067919560643
-0.045723325319737516   -0.00153457984809156   -0.0007380067919560643
-0.045723325319737516   -0.00153457984809156   -0.0007380067919560643
-0.03398589578801112   0.000941853431121578   0.0010017118480833021
-0.03398589578801112   0.000941853431121578   0.0010017118480833021
-0.03398589578801112   0.000941853431121578   0.0010017118480833021
-0.03398589578801112   0.000941853431121578   0.0010017118480833021
-0.05917130164941976   -0.006827901178708552   -0.0007742395193180451
-0.05917130164941976   -0.006827901178708552   -0.0007742395193180451
-0.05917130164941976   -0.006827901178708552   -0.0007742395193180451
-0.05917130164941976   -0.006827901178708552   -0.0007742395193180451
-0.059793855283191776   -0.006428682077013776   0.0008364221050411026
-0.059793855283191776   -0.006428682077013776   0.0008364221050411026
-0.059793855283191776   -0.006428682077013776   0.0008364221050411026
-0.059793855283191776   -0.006428682077013776   0.0008364221050411026
-0.03600591052100183   -0.003793260084710479   0.0014716657447057476
-0.03600591052100183   -0.003793260084710479   0.0014716657447057476
-0.03600591052100183   -0.003793260084710479   0.0014716657447057476
-0.03600591052100183   -0.003793260084710479   0.0014716657447057476
-0.04734037280037183   -0.003754512577318999   -0.001913760124559085
-0.04734037280037183   -0.003754512577318999   -0.001913760124559085
-0.04734037280037183   -0.003754512577318999   -0.001913760124559085
-0.04734037280037183   -0.003754512577318999   -0.001913760124559085
-0.05355322080075597   0.008148593319255713   0.0021844462469632095
-0.05355322080075597   0.008148593319255713   0.0021844462469632095
-0.05355322080075597   0.008148593319255713   0.0021844462469632095
-0.05355322080075597   0.008148593319255713   0.0021844462469632095
-0.08045859157657217   -0.003657335128332523   -0.003736661905821958
-0.08045859157657217   -0.003657335128332523   -0.003736661905821958
-0.08045859157657217   -0.003657335128332523   -0.003736661905821958
-0.08045859157657217   -0.003657335128332523   -0.003736661905821958
-0.07953451744611424   0.000632082369927258   0.002056031291215845
-0.07953451744611424   0.000632082369927258   0.002056031291215845
-0.07953451744611424   0.000632082369927258   0.002056031291215845
-0.07953451744611424   0.000632082369927258   0.002056031291215845
-0.05708527252957973   -0.0008187158489122714   -0.0015805572326138381
-0.05708527252957973   -0.0008187158489122714   -0.0015805572326138381
-0.05708527252957973   -0.0008187158489122714   -0.0015805572326138381
-0.05708527252957973   -0.0008187158489122714   -0.0015805572326138381
-0.06737406639440038   0.0010664265461505455   0.00043348306928343025
-0.06737406639440038   0.0010664265461505455   0.00043348306928343025
-0.06737406639440038   0.0010664265461505455   0.00043348306928343025
-0.06737406639440038   0.0010664265461505455   0.00043348306928343025
-0.05488792577303354   0.0057230721554512275   0.002864388545753594
-0.05488792577303354   0.0057230721554512275   0.002864388545753594
-0.05488792577303354   0.0057230721554512275   0.002864388545753594
-0.05488792577303354   0.0057230721554512275   0.002864388545753594
-0.08200635972792596   -0.006184201159701851   -0.0034868965882155077
-0.08200635972792596   -0.006184201159701851   -0.0034868965882155077
-0.08200635972792596   -0.006184201159701851   -0.0034868965882155077
-0.08200635972792596   -0.006184201159701851   -0.0034868965882155077
-0.08139130402173353   -0.001784210293554675   0.002454002209295904
-0.08139130402173353   -0.001784210293554675   0.002454002209295904
-0.08139130402173353   -0.001784210293554675   0.002454002209295904
-0.08139130402173353   -0.001784210293554675   0.002454002209295904
-0.058470896121193376   -0.0030387352322617557   -0.0010613778246333799
-0.058470896121193376   -0.0030387352322617557   -0.0010613778246333799
-0.058470896121193376   -0.0030387352322617557   -0.0010613778246333799
-0.058470896121193376   -0.0030387352322617557   -0.0010613778246333799
-0.06862316522729019   -0.0010618802422472078   -0.0007360900004529064
-0.06862316522729019   -0.0010618802422472078   -0.0007360900004529064
-0.06862316522729019   -0.0010618802422472078   -0.0007360900004529064
-0.06862316522729019   -0.0010618802422472078   -0.0007360900004529064
-0.05625536510923411   0.0034564045397218485   0.0035211374631797638
-0.05625536510923411   0.0034564045397218485   0.0035211374631797638
-0.05625536510923411   0.0034564045397218485   0.0035211374631797638
-0.05625536510923411   0.0034564045397218485   0.0035211374631797638
-0.08382365475571985   -0.008496169787565675   -0.002995791966626521
-0.08382365475571985   -0.008496169787565675   -0.002995791966626521
-0.08382365475571985   -0.008496169787565675   -0.002995791966626521
-0.08382365475571985   -0.008496169787565675   -0.002995791966626521
-0.08289498172414003   -0.0042538669276288976   0.0031642648735853715
-0.08289498172414003   -0.0042538669276288976   0.0031642648735853715
-0.08289498172414003   -0.0042538669276288976   0.0031642648735853715
-0.08289498172414003   -0.0042538669276288976   0.0031642648735853715
-0.059868064961164646   -0.005346080346594033   -0.0006172280152441315
-0.059868064961164646   -0.005346080346594033   -0.0006172280152441315
-0.059868064961164646   -0.005346080346594033   -0.0006172280152441315
-0.059868064961164646   -0.005346080346594033   -0.0006172280152441315
-0.07054764010330851   -0.003289460985816603   -0.001956776624019603
-0.07054764010330851   -0.003289460985816603   -0.001956776624019603
-0.07054764010330851   -0.003289460985816603   -0.001956776624019603
-0.07054764010330851   -0.003289460985816603   -0.001956776624019603
-0.07632985338106452   0.00889928859428623   0.004350405349097557
-0.07632985338106452   0.00889928859428623   0.004350405349097557
-0.07632985338106452   0.00889928859428623   0.004350405349097557
-0.07632985338106452   0.00889928859428623   0.004350405349097557
-0.10103450103242309   -0.0052728280568181615   -0.005972112918858116
-0.10103450103242309   -0.0052728280568181615   -0.005972112918858116
-0.10103450103242309   -0.0052728280568181615   -0.005972112918858116
-0.10103450103242309   -0.0052728280568181615   -0.005972112918858116
-0.10120195736449888   0.0029017808886233065   0.004798898976812892
-0.10120195736449888   0.0029017808886233065   0.004798898976812892
-0.10120195736449888   0.0029017808886233065   0.004798898976812892
-0.10120195736449888   0.0029017808886233065   0.004798898976812892
-0.08127052461295553   -0.002353617238026365   -0.0036383049350374305
-0.08127052461295553   -0.002353617238026365   -0.0036383049350374305
-0.08127052461295553   -0.002353617238026365   -0.0036383049350374305
-0.08127052461295553   -0.002353617238026365   -0.0036383049350374305
-0.08622682275480383   0.0018920759528357166   0.001879907205119288
-0.08622682275480383   0.0018920759528357166   0.001879907205119288
-0.08622682275480383   0.0018920759528357166   0.001879907205119288
-0.08622682275480383   0.0018920759528357166   0.001879907205119288
-0.07750473974301576   0.007707370877403481   0.005129631299231064
-0.07750473974301576   0.007707370877403481   0.005129631299231064
-0.07750473974301576   0.007707370877403481   0.005129631299231064
-0.07750473974301576   0.007707370877403481   0.005129631299231064
-0.1052611141934504   -0.007452579185818101   -0.005142525093501255
-0.1052611141934504   -0.007452579185818101   -0.005142525093501255
-0.1052611141934504   -0.007452579185818101   -0.005142525093501255
-0.1052611141934504   -0.007452579185818101   -0.005142525093501255
-0.10456984885354577   0.001488859569341791   0.006143550725288194
-0.10456984885354577   0.001488859569341791   0.006143550725288194
-0.10456984885354577   0.001488859569341791   0.006143550725288194
-0.10456984885354577   0.001488859569341791   0.006143550725288194
-0.08288315397554856   -0.0036367022062791677   -0.0031527556470554888
-0.08288315397554856   -0.0036367022062791677   -0.0031527556470554888
-0.08288315397554856   -0.0036367022062791677   -0.0031527556470554888
-0.08288315397554856   -0.0036367022062791677   -0.0031527556470554888
-0.09032803378679402   0.00020061058156288503   0.0001933023982461611
-0.09032803378679402   0.00020061058156288503   0.0001933023982461611
-0.09032803378679402   0.00020061058156288503   0.0001933023982461611
-0.09032803378679402   0.00020061058156288503   0.0001933023982461611
-0.07898135995016502   0.00660145804973062   0.006118054223852212
-0.07898135995016502   0.00660145804973062   0.006118054223852212
-0.07898135995016502   0.00660145804973062   0.006118054223852212
-0.07898135995016502   0.00660145804973062   0.006118054223852212
-0.10875984990445439   -0.009037507712192588   -0.004280087247720582
-0.10875984990445439   -0.009037507712192588   -0.004280087247720582
-0.10875984990445439   -0.009037507712192588   -0.004280087247720582
-0.10875984990445439   -0.009037507712192588   -0.004280087247720582
-0.10944063678875171   -0.0022931012192809047   0.00645571594764885
-0.10944063678875171   -0.0022931012192809047   0.00645571594764885
-0.10944063678875171   -0.0022931012192809047   0.00645571594764885
-0.10944063678875171   -0.0022931012192809047   0.00645571594764885
-0.08450909986792715   -0.006438788117854394   -0.002721404655125737
-0.08450909986792715   -0.006438788117854394   -0.002721404655125737
-0.08450909986792715   -0.006438788117854394   -0.002721404655125737
-0.08450909986792715   -0.006438788117854394   -0.002721404655125737
-0.09176002710302902   -0.0015211075783603083   -0.0009562125429310748
-0.09176002710302902   -0.0015211075783603083   -0.0009562125429310748
-0.09176002710302902   -0.0015211075783603083   -0.0009562125429310748
-0.09176002710302902   -0.0015211075783603083   -0.0009562125429310748
-0.02906454787006066   -0.0017777804214038264   -0.0074783635009878086
-0.02906454787006066   -0.0017777804214038264   -0.0074783635009878086
-0.02906454787006066   -0.0017777804214038264   -0.0074783635009878086
-0.02906454787006066   -0.0017777804214038264   -0.0074783635009878086
-0.03379809019959101   0.005394210798834048   0.003282424392563324
-0.03379809019959101   0.005394210798834048   0.003282424392563324
-0.03379809019959101   0.005394210798834048   0.003282424392563324
-0.03379809019959101   0.005394210798834048   0.003282424392563324
-0.03887215321335235   -0.00547025432982734   -0.0052025168385870305
-0.03887215321335235   -0.00547025432982734   -0.0052025168385870305
-0.03887215321335235   -0.00547025432982734   -0.0052025168385870305
-0.03887215321335235   -0.00547025432982734   -0.0052025168385870305
-0.030025773271783664   0.0037098701296724443   0.004710358338515233
-0.030025773271783664   0.0037098701296724443   0.004710358338515233
-0.030025773271783664   0.0037098701296724443   0.004710358338515233
-0.030025773271783664   0.0037098701296724443   0.004710358338515233
-0.03126187708607886   0.0011208348988004284   0.0033541947756276598
-0.03126187708607886   0.0011208348988004284   0.0033541947756276598
-0.03126187708607886   0.0011208348988004284   0.0033541947756276598
-0.03126187708607886   0.0011208348988004284   0.0033541947756276598
-0.0339291167182318   -0.0047170345132472695   -0.006379454250805567
-0.0339291167182318   -0.0047170345132472695   -0.006379454250805567
-0.0339291167182318   -0.0047170345132472695   -0.006379454250805567
-0.0339291167182318   -0.0047170345132472695   -0.006379454250805567
-0.0353992247981051   0.002526235281891236   0.00416563562593063
-0.0353992247981051   0.002526235281891236   0.00416563562593063
-0.0353992247981051   0.002526235281891236   0.00416563562593063
-0.0353992247981051   0.002526235281891236   0.00416563562593063
-0.040541439180796224   -0.006780196225971081   -0.004480249467755135
-0.040541439180796224   -0.006780196225971081   -0.004480249467755135
-0.040541439180796224   -0.006780196225971081   -0.004480249467755135
-0.040541439180796224   -0.006780196225971081   -0.004480249467755135
-0.03395332675917341   0.001982053676600733   0.009001935692697612
-0.03395332675917341   0.001982053676600733   0.009001935692697612
-0.03395332675917341   0.001982053676600733   0.009001935692697612
-0.03395332675917341   0.001982053676600733   0.009001935692697612
-0.0347345426155365   -0.001107048675763069   0.0014393378986620774
-0.0347345426155365   -0.001107048675763069   0.0014393378986620774
-0.0347345426155365   -0.001107048675763069   0.0014393378986620774
-0.0347345426155365   -0.001107048675763069   0.0014393378986620774
-0.03846578966475092   -0.006487234550774795   -0.005091090607814346
-0.03846578966475092   -0.006487234550774795   -0.005091090607814346
-0.03846578966475092   -0.006487234550774795   -0.005091090607814346
-0.03846578966475092   -0.006487234550774795   -0.005091090607814346
-0.037126335985884114   0.0005917322907382748   0.0052233379900960214
-0.037126335985884114   0.0005917322907382748   0.0052233379900960214
-0.037126335985884114   0.0005917322907382748   0.0052233379900960214
-0.037126335985884114   0.0005917322907382748   0.0052233379900960214
-0.041937638428647804   -0.009179266520494406   -0.0035973434601492306
-0.041937638428647804   -0.009179266520494406   -0.0035973434601492306
-0.041937638428647804   -0.009179266520494406   -0.0035973434601492306
-0.041937638428647804   -0.009179266520494406   -0.0035973434601492306
-0.039990003381809046   -0.0037320675054358923   0.008383094523612687
-0.039990003381809046   -0.0037320675054358923   0.008383094523612687
-0.039990003381809046   -0.0037320675054358923   0.008383094523612687
-0.039990003381809046   -0.0037320675054358923   0.008383094523612687
-0.038055863777041996   -0.003711055969875682   -0.0017209752716588012
-0.038055863777041996   -0.003711055969875682   -0.0017209752716588012
-0.038055863777041996   -0.003711055969875682   -0.0017209752716588012
-0.038055863777041996   -0.003711055969875682   -0.0017209752716588012
-0.036373604660228556   -0.0004934840414946087   -0.0037074530702957222
-0.036373604660228556   -0.0004934840414946087   -0.0037074530702957222
-0.036373604660228556   -0.0004934840414946087   -0.0037074530702957222
-0.036373604660228556   -0.0004934840414946087   -0.0037074530702957222
-0.04062685200906372   -0.005143858488705869   -0.00023980834092812654
-0.04062685200906372   -0.005143858488705869   -0.00023980834092812654
-0.04062685200906372   -0.005143858488705869   -0.00023980834092812654
-0.04062685200906372   -0.005143858488705869   -0.00023980834092812654
-0.04119854835208577   -0.0035281725358981076   -0.0020727731920168312
-0.04119854835208577   -0.0035281725358981076   -0.0020727731920168312
-0.04119854835208577   -0.0035281725358981076   -0.0020727731920168312
-0.04119854835208577   -0.0035281725358981076   -0.0020727731920168312
-0.03797069815228287   -0.0062787970877709815   0.00011330122470394708
-0.03797069815228287   -0.0062787970877709815   0.00011330122470394708
-0.03797069815228287   -0.0062787970877709815   0.00011330122470394708
-0.03797069815228287   -0.0062787970877709815   0.00011330122470394708
-0.03872405946163885   -0.004036456190876785   9.64562989178233e-05
-0.03872405946163885   -0.004036456190876785   9.64562989178233e-05
-0.03872405946163885   -0.004036456190876785   9.64562989178233e-05
-0.03872405946163885   -0.004036456190876785   9.64562989178233e-05
-0.038011174036710636   -0.003124765076218136   -0.0032431102089874164
-0.038011174036710636   -0.003124765076218136   -0.0032431102089874164
-0.038011174036710636   -0.003124765076218136   -0.0032431102089874164
-0.038011174036710636   -0.003124765076218136   -0.0032431102089874164
-0.04142004243188721   -0.006944174511680886   0.00023575838475876126
-0.04142004243188721   -0.006944174511680886   0.00023575838475876126
-0.04142004243188721   -0.006944174511680886   0.00023575838475876126
-0.04142004243188721   -0.006944174511680886   0.00023575838475876126
-0.042129446707539514   -0.005720456345446169   -0.0014145039328370204
-0.042129446707539514   -0.005720456345446169   -0.0014145039328370204
-0.042129446707539514   -0.005720456345446169   -0.0014145039328370204
-0.042129446707539514   -0.005720456345446169   -0.0014145039328370204
-0.03972036544914246   -0.008292697895668643   0.0011376208602111827
-0.03972036544914246   -0.008292697895668643   0.0011376208602111827
-0.03972036544914246   -0.008292697895668643   0.0011376208602111827
-0.03972036544914246   -0.008292697895668643   0.0011376208602111827
-0.03991545445971461   -0.005849885433823086   -0.0009760544848985839
-0.03991545445971461   -0.005849885433823086   -0.0009760544848985839
-0.03991545445971461   -0.005849885433823086   -0.0009760544848985839
-0.03991545445971461   -0.005849885433823086   -0.0009760544848985839
-0.039873063571082064   -0.005474993717181846   -0.002443573927973585
-0.039873063571082064   -0.005474993717181846   -0.002443573927973585
-0.039873063571082064   -0.005474993717181846   -0.002443573927973585
-0.039873063571082064   -0.005474993717181846   -0.002443573927973585
-0.042308209733976414   -0.008869621672309346   0.0008408462618416181
-0.042308209733976414   -0.008869621672309346   0.0008408462618416181
-0.042308209733976414   -0.008869621672309346   0.0008408462618416181
-0.042308209733976414   -0.008869621672309346   0.0008408462618416181
-0.042999188494550776   -0.008002083641348915   -0.0007687545613317159
-0.042999188494550776   -0.008002083641348915   -0.0007687545613317159
-0.042999188494550776   -0.008002083641348915   -0.0007687545613317159
-0.042999188494550776   -0.008002083641348915   -0.0007687545613317159
-0.04109491093175749   -0.010728540865805339   0.0021655683696126258
-0.04109491093175749   -0.010728540865805339   0.0021655683696126258
-0.04109491093175749   -0.010728540865805339   0.0021655683696126258
-0.04109491093175749   -0.010728540865805339   0.0021655683696126258
-0.041422738113239266   -0.007925279980126002   -0.0022892201919418502
-0.041422738113239266   -0.007925279980126002   -0.0022892201919418502
-0.041422738113239266   -0.007925279980126002   -0.0022892201919418502
-0.041422738113239266   -0.007925279980126002   -0.0022892201919418502
-0.03939272359351979   0.0014941241510080128   -0.0007071489029223999
-0.03939272359351979   0.0014941241510080128   -0.0007071489029223999
-0.03939272359351979   0.0014941241510080128   -0.0007071489029223999
-0.03939272359351979   0.0014941241510080128   -0.0007071489029223999
-0.047736931715774894   -0.009102706562935584   -0.0023721420951679914
-0.047736931715774894   -0.009102706562935584   -0.0023721420951679914
-0.047736931715774894   -0.009102706562935584   -0.0023721420951679914
-0.047736931715774894   -0.009102706562935584   -0.0023721420951679914
-0.04603991428467811   -0.001768011311573732   0.000438655323834193
-0.04603991428467811   -0.001768011311573732   0.000438655323834193
-0.04603991428467811   -0.001768011311573732   0.000438655323834193
-0.04603991428467811   -0.001768011311573732   0.000438655323834193
-0.042182564072673776   -0.009165704395788473   -0.0013553199350666563
-0.042182564072673776   -0.009165704395788473   -0.0013553199350666563
-0.042182564072673776   -0.009165704395788473   -0.0013553199350666563
-0.042182564072673776   -0.009165704395788473   -0.0013553199350666563
-0.043805229382789725   -0.004792001003334432   -0.0008511120968251774
-0.043805229382789725   -0.004792001003334432   -0.0008511120968251774
-0.043805229382789725   -0.004792001003334432   -0.0008511120968251774
-0.043805229382789725   -0.004792001003334432   -0.0008511120968251774
-0.040223811018793264   -0.0006983112795448561   -2.8947781907509747e-05
-0.040223811018793264   -0.0006983112795448561   -2.8947781907509747e-05
-0.040223811018793264   -0.0006983112795448561   -2.8947781907509747e-05
-0.040223811018793264   -0.0006983112795448561   -2.8947781907509747e-05
-0.04824182744245166   -0.010478564531710314   -0.0018603572448979814
-0.04824182744245166   -0.010478564531710314   -0.0018603572448979814
-0.04824182744245166   -0.010478564531710314   -0.0018603572448979814
-0.04824182744245166   -0.010478564531710314   -0.0018603572448979814
-0.04677664731269445   -0.003976123552912634   0.0010899942729362426
-0.04677664731269445   -0.003976123552912634   0.0010899942729362426
-0.04677664731269445   -0.003976123552912634   0.0010899942729362426
-0.04677664731269445   -0.003976123552912634   0.0010899942729362426
-0.0430560432490493   -0.010887780091245705   -0.0008801628945866293
-0.0430560432490493   -0.010887780091245705   -0.0008801628945866293
-0.0430560432490493   -0.010887780091245705   -0.0008801628945866293
-0.0430560432490493   -0.010887780091245705   -0.0008801628945866293
-0.044562870794922216   -0.006453334070991408   -0.0017725951797909736
-0.044562870794922216   -0.006453334070991408   -0.0017725951797909736
-0.044562870794922216   -0.006453334070991408   -0.0017725951797909736
-0.044562870794922216   -0.006453334070991408   -0.0017725951797909736
-0.04117141991295674   -0.0029517018238551717   0.0006068755184858383
-0.04117141991295674   -0.0029517018238551717   0.0006068755184858383
-0.04117141991295674   -0.0029517018238551717   0.0006068755184858383
-0.04117141991295674   -0.0029517018238551717   0.0006068755184858383
-0.04893321511955742   -0.01218414629107354   -0.0014848220232176914
-0.04893321511955742   -0.01218414629107354   -0.0014848220232176914
-0.04893321511955742   -0.01218414629107354   -0.0014848220232176914
-0.04893321511955742   -0.01218414629107354   -0.0014848220232176914
-0.04741770318531008   -0.006022437171525161   0.0017375729749405954
-0.04741770318531008   -0.006022437171525161   0.0017375729749405954
-0.04741770318531008   -0.006022437171525161   0.0017375729749405954
-0.04741770318531008   -0.006022437171525161   0.0017375729749405954
-0.04377696932842092   -0.01248396754120502   -0.0001757748308264265
-0.04377696932842092   -0.01248396754120502   -0.0001757748308264265
-0.04377696932842092   -0.01248396754120502   -0.0001757748308264265
-0.04377696932842092   -0.01248396754120502   -0.0001757748308264265
-0.045434399751756234   -0.008179894722334909   -0.0027817131488131544
-0.045434399751756234   -0.008179894722334909   -0.0027817131488131544
-0.045434399751756234   -0.008179894722334909   -0.0027817131488131544
-0.045434399751756234   -0.008179894722334909   -0.0027817131488131544
-0.044051636645940494   0.004801427980976656   0.0021501987100917925
-0.044051636645940494   0.004801427980976656   0.0021501987100917925
-0.044051636645940494   0.004801427980976656   0.0021501987100917925
-0.044051636645940494   0.004801427980976656   0.0021501987100917925
-0.05482460114029818   -0.00716801777204355   -0.0034289656464448776
-0.05482460114029818   -0.00716801777204355   -0.0034289656464448776
-0.05482460114029818   -0.00716801777204355   -0.0034289656464448776
-0.05482460114029818   -0.00716801777204355   -0.0034289656464448776
-0.052248251374061375   0.0010335150633153465   0.0028435761730097545
-0.052248251374061375   0.0010335150633153465   0.0028435761730097545
-0.052248251374061375   0.0010335150633153465   0.0028435761730097545
-0.052248251374061375   0.0010335150633153465   0.0028435761730097545
-0.047628567916540486   -0.007285580103598245   -0.001987044043453662
-0.047628567916540486   -0.007285580103598245   -0.001987044043453662
-0.047628567916540486   -0.007285580103598245   -0.001987044043453662
-0.047628567916540486   -0.007285580103598245   -0.001987044043453662
-0.049638302154403145   -0.002115401354688627   -0.0005048140237298299
-0.049638302154403145   -0.002115401354688627   -0.0005048140237298299
-0.049638302154403145   -0.002115401354688627   -0.0005048140237298299
-0.049638302154403145   -0.002115401354688627   -0.0005048140237298299
-0.04470588161081578   0.002534529381397985   0.0028062780001740866
-0.04470588161081578   0.002534529381397985   0.0028062780001740866
-0.04470588161081578   0.002534529381397985   0.0028062780001740866
-0.04470588161081578   0.002534529381397985   0.0028062780001740866
-0.05550081020232082   -0.009116466944214682   -0.0032692359607574247
-0.05550081020232082   -0.009116466944214682   -0.0032692359607574247
-0.05550081020232082   -0.009116466944214682   -0.0032692359607574247
-0.05550081020232082   -0.009116466944214682   -0.0032692359607574247
-0.05336891878834417   -0.0011568519108718662   0.003246061449466867
-0.05336891878834417   -0.0011568519108718662   0.003246061449466867
-0.05336891878834417   -0.0011568519108718662   0.003246061449466867
-0.05336891878834417   -0.0011568519108718662   0.003246061449466867
-0.0482982133896728   -0.008931698447390364   -0.0015622612174782257
-0.0482982133896728   -0.008931698447390364   -0.0015622612174782257
-0.0482982133896728   -0.008931698447390364   -0.0015622612174782257
-0.0482982133896728   -0.008931698447390364   -0.0015622612174782257
-0.050288351690336845   -0.003936594266501078   -0.0015928330538419258
-0.050288351690336845   -0.003936594266501078   -0.0015928330538419258
-0.050288351690336845   -0.003936594266501078   -0.0015928330538419258
-0.050288351690336845   -0.003936594266501078   -0.0015928330538419258
-0.045417879228773654   0.00047140494922891414   0.0034363061903986566
-0.045417879228773654   0.00047140494922891414   0.0034363061903986566
-0.045417879228773654   0.00047140494922891414   0.0034363061903986566
-0.045417879228773654   0.00047140494922891414   0.0034363061903986566
-0.0565336447820331   -0.010844347140280588   -0.0028900732895690445
-0.0565336447820331   -0.010844347140280588   -0.0028900732895690445
-0.0565336447820331   -0.010844347140280588   -0.0028900732895690445
-0.0565336447820331   -0.010844347140280588   -0.0028900732895690445
-0.054167021539770155   -0.003286950346303113   0.003977378564815963
-0.054167021539770155   -0.003286950346303113   0.003977378564815963
-0.054167021539770155   -0.003286950346303113   0.003977378564815963
-0.054167021539770155   -0.003286950346303113   0.003977378564815963
-0.0489125430754065   -0.01059600440907812   -0.0011630592379884394
-0.0489125430754065   -0.01059600440907812   -0.0011630592379884394
-0.0489125430754065   -0.01059600440907812   -0.0011630592379884394
-0.0489125430754065   -0.01059600440907812   -0.0011630592379884394
-0.05132245131134199   -0.005696997383338914   -0.002663638900432092
-0.05132245131134199   -0.005696997383338914   -0.002663638900432092
-0.05132245131134199   -0.005696997383338914   -0.002663638900432092
-0.05132245131134199   -0.005696997383338914   -0.002663638900432092
-0.05044605546050134   0.006915360531197592   0.004380384449298224
-0.05044605546050134   0.006915360531197592   0.004380384449298224
-0.05044605546050134   0.006915360531197592   0.004380384449298224
-0.05044605546050134   0.006915360531197592   0.004380384449298224
-0.05723068416282504   -0.004641871238346303   -0.004861917068488618
-0.05723068416282504   -0.004641871238346303   -0.004861917068488618
-0.05723068416282504   -0.004641871238346303   -0.004861917068488618
-0.05723068416282504   -0.004641871238346303   -0.004861917068488618
-0.056346607110760574   0.004336284942487197   0.004887288465335431
-0.056346607110760574   0.004336284942487197   0.004887288465335431
-0.056346607110760574   0.004336284942487197   0.004887288465335431
-0.056346607110760574   0.004336284942487197   0.004887288465335431
-0.054639850748442145   -0.005102078018262685   -0.002978827617317492
-0.054639850748442145   -0.005102078018262685   -0.002978827617317492
-0.054639850748442145   -0.005102078018262685   -0.002978827617317492
-0.054639850748442145   -0.005102078018262685   -0.002978827617317492
-0.05269874926914594   0.0010432350922945158   0.00046629857718720295
-0.05269874926914594   0.0010432350922945158   0.00046629857718720295
-0.05269874926914594   0.0010432350922945158   0.00046629857718720295
-0.05269874926914594   0.0010432350922945158   0.00046629857718720295
-0.05092092061789502   0.005455594626186595   0.005058150390968371
-0.05092092061789502   0.005455594626186595   0.005058150390968371
-0.05092092061789502   0.005455594626186595   0.005058150390968371
-0.05092092061789502   0.005455594626186595   0.005058150390968371
-0.06035050025996087   -0.0065063507206155795   -0.004289541617563247
-0.06035050025996087   -0.0065063507206155795   -0.004289541617563247
-0.06035050025996087   -0.0065063507206155795   -0.004289541617563247
-0.06035050025996087   -0.0065063507206155795   -0.004289541617563247
-0.05881807621677425   0.003056441815298237   0.006247886702057235
-0.05881807621677425   0.003056441815298237   0.006247886702057235
-0.05881807621677425   0.003056441815298237   0.006247886702057235
-0.05881807621677425   0.003056441815298237   0.006247886702057235
-0.055540218045497074   -0.006094552172183135   -0.0026727345749863883
-0.055540218045497074   -0.006094552172183135   -0.0026727345749863883
-0.055540218045497074   -0.006094552172183135   -0.0026727345749863883
-0.055540218045497074   -0.006094552172183135   -0.0026727345749863883
-0.05539950107745082   -0.0004832097826733047   -0.0008920741930430894
-0.05539950107745082   -0.0004832097826733047   -0.0008920741930430894
-0.05539950107745082   -0.0004832097826733047   -0.0008920741930430894
-0.05539950107745082   -0.0004832097826733047   -0.0008920741930430894
-0.051696775034438876   0.004434258644148878   0.0060156696639726195
-0.051696775034438876   0.004434258644148878   0.0060156696639726195
-0.051696775034438876   0.004434258644148878   0.0060156696639726195
-0.051696775034438876   0.004434258644148878   0.0060156696639726195
-0.06301317209862571   -0.00782402187182663   -0.0038471290200752174
-0.06301317209862571   -0.00782402187182663   -0.0038471290200752174
-0.06301317209862571   -0.00782402187182663   -0.0038471290200752174
-0.06301317209862571   -0.00782402187182663   -0.0038471290200752174
-0.0628993747849054   -0.00024235448593603812   0.006651038421440467
-0.0628993747849054   -0.00024235448593603812   0.006651038421440467
-0.0628993747849054   -0.00024235448593603812   0.006651038421440467
-0.0628993747849054   -0.00024235448593603812   0.006651038421440467
-0.05638540078936326   -0.008091594138728845   -0.0023098738907247423
-0.05638540078936326   -0.008091594138728845   -0.0023098738907247423
-0.05638540078936326   -0.008091594138728845   -0.0023098738907247423
-0.05638540078936326   -0.008091594138728845   -0.0023098738907247423
-0.05666172667573461   -0.0019323044629661473   -0.002067313416186557
-0.05666172667573461   -0.0019323044629661473   -0.002067313416186557
-0.05666172667573461   -0.0019323044629661473   -0.002067313416186557
-0.05666172667573461   -0.0019323044629661473   -0.002067313416186557
-0.08992473038820514   -0.008426962020356194   -0.009696799514774791
-0.08992473038820514   -0.008426962020356194   -0.009696799514774791
-0.08992473038820514   -0.008426962020356194   -0.009696799514774791
-0.08992473038820514   -0.008426962020356194   -0.009696799514774791
-0.05967849361172022   0.004096686200681737   0.002203097323495547
-0.05967849361172022   0.004096686200681737   0.002203097323495547
-0.05967849361172022   0.004096686200681737   0.002203097323495547
-0.05967849361172022   0.004096686200681737   0.002203097323495547
-0.06295699312062034   -0.004733422060499797   -0.0045748827635093
-0.06295699312062034   -0.004733422060499797   -0.0045748827635093
-0.06295699312062034   -0.004733422060499797   -0.0045748827635093
-0.06295699312062034   -0.004733422060499797   -0.0045748827635093
-0.09697193980204005   -0.012354083616514475   0.010269222818496352
-0.09697193980204005   -0.012354083616514475   0.010269222818496352
-0.09697193980204005   -0.012354083616514475   0.010269222818496352
-0.09697193980204005   -0.012354083616514475   0.010269222818496352
-0.07081508490872856   -0.003178751537922105   0.010267927183366568
-0.07081508490872856   -0.003178751537922105   0.010267927183366568
-0.07081508490872856   -0.003178751537922105   0.010267927183366568
-0.07081508490872856   -0.003178751537922105   0.010267927183366568
-0.10056964642894674   -0.012796379129977817   -0.007277014802572751
-0.10056964642894674   -0.012796379129977817   -0.007277014802572751
-0.10056964642894674   -0.012796379129977817   -0.007277014802572751
-0.10056964642894674   -0.012796379129977817   -0.007277014802572751
-0.06192807912024427   -0.00685991917356703   0.0026961843514377902
-0.06192807912024427   -0.00685991917356703   0.0026961843514377902
-0.06192807912024427   -0.00685991917356703   0.0026961843514377902
-0.06192807912024427   -0.00685991917356703   0.0026961843514377902
-0.06441416982991896   -0.006603148086927055   -0.0034632300541957897
-0.06441416982991896   -0.006603148086927055   -0.0034632300541957897
-0.06441416982991896   -0.006603148086927055   -0.0034632300541957897
-0.06441416982991896   -0.006603148086927055   -0.0034632300541957897
-0.10076295721614655   -0.017072120875656224   -0.00012812550198304962
-0.10076295721614655   -0.017072120875656224   -0.00012812550198304962
-0.10076295721614655   -0.017072120875656224   -0.00012812550198304962
-0.10076295721614655   -0.017072120875656224   -0.00012812550198304962
-0.07939093400798955   -0.010286669253449444   0.002507347092654
-0.07939093400798955   -0.010286669253449444   0.002507347092654
-0.07939093400798955   -0.010286669253449444   0.002507347092654
-0.07939093400798955   -0.010286669253449444   0.002507347092654
-0.10144216421431056   -0.014529464355548395   -0.006066817012910102
-0.10144216421431056   -0.014529464355548395   -0.006066817012910102
-0.10144216421431056   -0.014529464355548395   -0.006066817012910102
-0.10144216421431056   -0.014529464355548395   -0.006066817012910102
-0.0644644947338242   -0.009875336509104255   -0.00044266615154554725
-0.0644644947338242   -0.009875336509104255   -0.00044266615154554725
-0.0644644947338242   -0.009875336509104255   -0.00044266615154554725
-0.0644644947338242   -0.009875336509104255   -0.00044266615154554725
-0.06491116141058599   -0.01092011742345023   -0.0026359970376820412
-0.06491116141058599   -0.01092011742345023   -0.0026359970376820412
-0.06491116141058599   -0.01092011742345023   -0.0026359970376820412
-0.06491116141058599   -0.01092011742345023   -0.0026359970376820412
-0.10403754172019956   -0.02574981791981351   0.0011352858889912244
-0.10403754172019956   -0.02574981791981351   0.0011352858889912244
-0.10403754172019956   -0.02574981791981351   0.0011352858889912244
-0.10403754172019956   -0.02574981791981351   0.0011352858889912244
-0.07986034372351432   -0.014024044559752428   0.0003528326645638978
-0.07986034372351432   -0.014024044559752428   0.0003528326645638978
-0.07986034372351432   -0.014024044559752428   0.0003528326645638978
-0.07986034372351432   -0.014024044559752428   0.0003528326645638978
-0.06437809094783774   -0.011071487699630702   -0.006126715456778951
-0.06437809094783774   -0.011071487699630702   -0.006126715456778951
-0.06437809094783774   -0.011071487699630702   -0.006126715456778951
-0.06437809094783774   -0.011071487699630702   -0.006126715456778951
-0.04633513341215084   -0.03233993747856266   -0.005948511965076591
-0.04633513341215084   -0.03233993747856266   -0.005948511965076591
-0.04633513341215084   -0.03233993747856266   -0.005948511965076591
-0.04633513341215084   -0.03233993747856266   -0.005948511965076591
-0.04056247031770174   -0.006936920652894222   -0.0005855444354933894
-0.04056247031770174   -0.006936920652894222   -0.0005855444354933894
-0.04056247031770174   -0.006936920652894222   -0.0005855444354933894
-0.04056247031770174   -0.006936920652894222   -0.0005855444354933894
-0.06927874789525681   -0.03365065660320324   -0.007266422093988763
-0.06927874789525681   -0.03365065660320324   -0.007266422093988763
-0.06927874789525681   -0.03365065660320324   -0.007266422093988763
-0.06927874789525681   -0.03365065660320324   -0.007266422093988763
-0.054550776662227   -0.02214855942228758   -0.0016532514881782336
-0.054550776662227   -0.02214855942228758   -0.0016532514881782336
-0.054550776662227   -0.02214855942228758   -0.0016532514881782336
-0.054550776662227   -0.02214855942228758   -0.0016532514881782336
-0.06454122577676547   -0.012551213732129448   -0.004678254372605559
-0.06454122577676547   -0.012551213732129448   -0.004678254372605559
-0.06454122577676547   -0.012551213732129448   -0.004678254372605559
-0.06454122577676547   -0.012551213732129448   -0.004678254372605559
-0.04555026131120578   -0.02828663239898077   -0.004174787656927469
-0.04555026131120578   -0.02828663239898077   -0.004174787656927469
-0.04555026131120578   -0.02828663239898077   -0.004174787656927469
-0.04555026131120578   -0.02828663239898077   -0.004174787656927469
-0.04145423190623497   -0.008899421125712816   -0.00016212883291717543
-0.04145423190623497   -0.008899421125712816   -0.00016212883291717543
-0.04145423190623497   -0.008899421125712816   -0.00016212883291717543
-0.04145423190623497   -0.008899421125712816   -0.00016212883291717543
-0.06993485363947276   -0.03344717539266502   -0.00422262179622751
-0.06993485363947276   -0.03344717539266502   -0.00422262179622751
-0.06993485363947276   -0.03344717539266502   -0.00422262179622751
-0.06993485363947276   -0.03344717539266502   -0.00422262179622751
-0.0542374640286235   -0.020750637214007266   -0.0017614884948243704
-0.0542374640286235   -0.020750637214007266   -0.0017614884948243704
-0.0542374640286235   -0.020750637214007266   -0.0017614884948243704
-0.0542374640286235   -0.020750637214007266   -0.0017614884948243704
-0.06601374084875967   -0.01449311982891646   -0.0035711134064100136
-0.06601374084875967   -0.01449311982891646   -0.0035711134064100136
-0.06601374084875967   -0.01449311982891646   -0.0035711134064100136
-0.06601374084875967   -0.01449311982891646   -0.0035711134064100136
-0.045933714475755366   -0.028411846468268703   -0.0030471163379632827
-0.045933714475755366   -0.028411846468268703   -0.0030471163379632827
-0.045933714475755366   -0.028411846468268703   -0.0030471163379632827
-0.045933714475755366   -0.028411846468268703   -0.0030471163379632827
-0.041931148829181975   -0.011240484962250299   0.0004420857848123172
-0.041931148829181975   -0.011240484962250299   0.0004420857848123172
-0.041931148829181975   -0.011240484962250299   0.0004420857848123172
-0.041931148829181975   -0.011240484962250299   0.0004420857848123172
-0.07021176634140258   -0.03370173828664638   -0.006357400828569651
-0.07021176634140258   -0.03370173828664638   -0.006357400828569651
-0.07021176634140258   -0.03370173828664638   -0.006357400828569651
-0.07021176634140258   -0.03370173828664638   -0.006357400828569651
-0.05553215128215074   -0.022222684695481103   -0.0033199010436774376
-0.05553215128215074   -0.022222684695481103   -0.0033199010436774376
-0.05553215128215074   -0.022222684695481103   -0.0033199010436774376
-0.05553215128215074   -0.022222684695481103   -0.0033199010436774376
-0.04024342559328147   -0.007246299157718244   -0.0005836111915741304
-0.04024342559328147   -0.007246299157718244   -0.0005836111915741304
-0.04024342559328147   -0.007246299157718244   -0.0005836111915741304
-0.04024342559328147   -0.007246299157718244   -0.0005836111915741304
-0.03589541256810023   -0.025189169312157485   -0.0043428134853337646
-0.03589541256810023   -0.025189169312157485   -0.0043428134853337646
-0.03589541256810023   -0.025189169312157485   -0.0043428134853337646
-0.03589541256810023   -0.025189169312157485   -0.0043428134853337646
-0.031034891163296933   -0.006361817043038368   0.0015164439193070197
-0.031034891163296933   -0.006361817043038368   0.0015164439193070197
-0.031034891163296933   -0.006361817043038368   0.0015164439193070197
-0.031034891163296933   -0.006361817043038368   0.0015164439193070197
-0.04535620762960398   -0.02683867694587042   -0.004652474702028796
-0.04535620762960398   -0.02683867694587042   -0.004652474702028796
-0.04535620762960398   -0.02683867694587042   -0.004652474702028796
-0.04535620762960398   -0.02683867694587042   -0.004652474702028796
-0.037993548906653324   -0.0165629911410283   -0.001964372400158299
-0.037993548906653324   -0.0165629911410283   -0.001964372400158299
-0.037993548906653324   -0.0165629911410283   -0.001964372400158299
-0.037993548906653324   -0.0165629911410283   -0.001964372400158299
-0.04077262083912906   -0.008606079417642692   3.286172211802314e-05
-0.04077262083912906   -0.008606079417642692   3.286172211802314e-05
-0.04077262083912906   -0.008606079417642692   3.286172211802314e-05
-0.04077262083912906   -0.008606079417642692   3.286172211802314e-05
-0.035856399465334234   -0.02483233608282857   -0.004120578551089306
-0.035856399465334234   -0.02483233608282857   -0.004120578551089306
-0.035856399465334234   -0.02483233608282857   -0.004120578551089306
-0.035856399465334234   -0.02483233608282857   -0.004120578551089306
-0.03144675565655521   -0.007990641656359258   0.0019962416873515153
-0.03144675565655521   -0.007990641656359258   0.0019962416873515153
-0.03144675565655521   -0.007990641656359258   0.0019962416873515153
-0.03144675565655521   -0.007990641656359258   0.0019962416873515153
-0.04590117355726028   -0.027257178822845438   -0.004039079390911313
-0.04590117355726028   -0.027257178822845438   -0.004039079390911313
-0.04590117355726028   -0.027257178822845438   -0.004039079390911313
-0.04590117355726028   -0.027257178822845438   -0.004039079390911313
-0.03826843393595887   -0.017121122498272995   -0.0025592343982806195
-0.03826843393595887   -0.017121122498272995   -0.0025592343982806195
-0.03826843393595887   -0.017121122498272995   -0.0025592343982806195
-0.03826843393595887   -0.017121122498272995   -0.0025592343982806195
-0.04155328166040435   -0.010268795783745604   0.0007119970542687742
-0.04155328166040435   -0.010268795783745604   0.0007119970542687742
-0.04155328166040435   -0.010268795783745604   0.0007119970542687742
-0.04155328166040435   -0.010268795783745604   0.0007119970542687742
-0.035931562747095684   -0.02511593988914356   -0.0033024955325665333
-0.035931562747095684   -0.02511593988914356   -0.0033024955325665333
-0.035931562747095684   -0.02511593988914356   -0.0033024955325665333
-0.035931562747095684   -0.02511593988914356   -0.0033024955325665333
-0.031530532152362734   -0.009492725389730117   0.0025339987504899167
-0.031530532152362734   -0.009492725389730117   0.0025339987504899167
-0.031530532152362734   -0.009492725389730117   0.0025339987504899167
-0.031530532152362734   -0.009492725389730117   0.0025339987504899167
-0.045836486701728144   -0.027483155875554374   -0.0028419326646149856
-0.045836486701728144   -0.027483155875554374   -0.0028419326646149856
-0.045836486701728144   -0.027483155875554374   -0.0028419326646149856
-0.045836486701728144   -0.027483155875554374   -0.0028419326646149856
-0.0386015887111278   -0.01792399866244942   -0.0030328879347817804
-0.0386015887111278   -0.01792399866244942   -0.0030328879347817804
-0.0386015887111278   -0.01792399866244942   -0.0030328879347817804
-0.0386015887111278   -0.01792399866244942   -0.0030328879347817804
-0.029577106357924692   -0.0008506800296689413   0.002910228283055382
-0.029577106357924692   -0.0008506800296689413   0.002910228283055382
-0.029577106357924692   -0.0008506800296689413   0.002910228283055382
-0.029577106357924692   -0.0008506800296689413   0.002910228283055382
-0.03012136195585772   -0.013772379442167441   -0.0027977170471708544
-0.03012136195585772   -0.013772379442167441   -0.0027977170471708544
-0.03012136195585772   -0.013772379442167441   -0.0027977170471708544
-0.03012136195585772   -0.013772379442167441   -0.0027977170471708544
-0.02636292913988996   -0.0019746344562165934   0.0033020454168021613
-0.02636292913988996   -0.0019746344562165934   0.0033020454168021613
-0.02636292913988996   -0.0019746344562165934   0.0033020454168021613
-0.02636292913988996   -0.0019746344562165934   0.0033020454168021613
-0.03351642937290489   -0.015353234323256752   -0.0018998298485145672
-0.03351642937290489   -0.015353234323256752   -0.0018998298485145672
-0.03351642937290489   -0.015353234323256752   -0.0018998298485145672
-0.03351642937290489   -0.015353234323256752   -0.0018998298485145672
-0.0299768829992129   -0.00787844591711801   -0.0010892241931535378
-0.0299768829992129   -0.00787844591711801   -0.0010892241931535378
-0.0299768829992129   -0.00787844591711801   -0.0010892241931535378
-0.0299768829992129   -0.00787844591711801   -0.0010892241931535378
-0.029928334087740985   -0.002675535065281526   0.003362947319329912
-0.029928334087740985   -0.002675535065281526   0.003362947319329912
-0.029928334087740985   -0.002675535065281526   0.003362947319329912
-0.029928334087740985   -0.002675535065281526   0.003362947319329912
-0.030227221635113988   -0.014928530924252299   -0.003065520591283195
-0.030227221635113988   -0.014928530924252299   -0.003065520591283195
-0.030227221635113988   -0.014928530924252299   -0.003065520591283195
-0.030227221635113988   -0.014928530924252299   -0.003065520591283195
-0.02678270928947321   -0.003600635272628953   0.0035775505561292443
-0.02678270928947321   -0.003600635272628953   0.0035775505561292443
-0.02678270928947321   -0.003600635272628953   0.0035775505561292443
-0.02678270928947321   -0.003600635272628953   0.0035775505561292443
-0.03391709435651933   -0.016316535963389684   -0.0020295575054385543
-0.03391709435651933   -0.016316535963389684   -0.0020295575054385543
-0.03391709435651933   -0.016316535963389684   -0.0020295575054385543
-0.03391709435651933   -0.016316535963389684   -0.0020295575054385543
-0.030199581866155033   -0.009148586601217434   -0.0018849470814702378
-0.030199581866155033   -0.009148586601217434   -0.0018849470814702378
-0.030199581866155033   -0.009148586601217434   -0.0018849470814702378
-0.030199581866155033   -0.009148586601217434   -0.0018849470814702378
-0.030336793310574026   -0.004263233196579595   0.0038186449574777793
-0.030336793310574026   -0.004263233196579595   0.0038186449574777793
-0.030336793310574026   -0.004263233196579595   0.0038186449574777793
-0.030336793310574026   -0.004263233196579595   0.0038186449574777793
-0.030532093703441638   -0.015823021407462334   -0.0029469853788795016
-0.030532093703441638   -0.015823021407462334   -0.0029469853788795016
-0.030532093703441638   -0.015823021407462334   -0.0029469853788795016
-0.030532093703441638   -0.015823021407462334   -0.0029469853788795016
-0.026969184128307986   -0.005142065748139909   0.004163275119604094
-0.026969184128307986   -0.005142065748139909   0.004163275119604094
-0.026969184128307986   -0.005142065748139909   0.004163275119604094
-0.026969184128307986   -0.005142065748139909   0.004163275119604094
-0.033850901275544756   -0.017247830828935957   -0.0013127414262148363
-0.033850901275544756   -0.017247830828935957   -0.0013127414262148363
-0.033850901275544756   -0.017247830828935957   -0.0013127414262148363
-0.033850901275544756   -0.017247830828935957   -0.0013127414262148363
-0.030547712134622214   -0.01031100663713801   -0.0024914072047893593
-0.030547712134622214   -0.01031100663713801   -0.0024914072047893593
-0.030547712134622214   -0.01031100663713801   -0.0024914072047893593
-0.030547712134622214   -0.01031100663713801   -0.0024914072047893593
-0.025134212080005432   0.003685780974916483   0.0046798719150056844
-0.025134212080005432   0.003685780974916483   0.0046798719150056844
-0.025134212080005432   0.003685780974916483   0.0046798719150056844
-0.025134212080005432   0.003685780974916483   0.0046798719150056844
-0.019639849143841925   -0.004854578274213355   -0.001865321343943958
-0.019639849143841925   -0.004854578274213355   -0.001865321343943958
-0.019639849143841925   -0.004854578274213355   -0.001865321343943958
-0.019639849143841925   -0.004854578274213355   -0.001865321343943958
-0.017958993497333608   0.0037646021019565636   0.004673715732670209
-0.017958993497333608   0.0037646021019565636   0.004673715732670209
-0.017958993497333608   0.0037646021019565636   0.004673715732670209
-0.017958993497333608   0.0037646021019565636   0.004673715732670209
-0.02816928631899294   -0.006709624086303982   -0.000994750848625223
-0.02816928631899294   -0.006709624086303982   -0.000994750848625223
-0.02816928631899294   -0.006709624086303982   -0.000994750848625223
-0.02816928631899294   -0.006709624086303982   -0.000994750848625223
-0.022292929344933893   -0.0005337125297016042   -0.0006766451810945263
-0.022292929344933893   -0.0005337125297016042   -0.0006766451810945263
-0.022292929344933893   -0.0005337125297016042   -0.0006766451810945263
-0.022292929344933893   -0.0005337125297016042   -0.0006766451810945263
-0.02512160227905266   0.0024201218766941165   0.0051139233880779685
-0.02512160227905266   0.0024201218766941165   0.0051139233880779685
-0.02512160227905266   0.0024201218766941165   0.0051139233880779685
-0.02512160227905266   0.0024201218766941165   0.0051139233880779685
-0.02106366093642906   -0.005422127260196884   -0.00166289210065361
-0.02106366093642906   -0.005422127260196884   -0.00166289210065361
-0.02106366093642906   -0.005422127260196884   -0.00166289210065361
-0.02106366093642906   -0.005422127260196884   -0.00166289210065361
-0.01905463273831428   0.002907596052529722   0.005852421241395109
-0.01905463273831428   0.002907596052529722   0.005852421241395109
-0.01905463273831428   0.002907596052529722   0.005852421241395109
-0.01905463273831428   0.002907596052529722   0.005852421241395109
-0.028451747463143866   -0.007202963344012274   -0.0011653122408411772
-0.028451747463143866   -0.007202963344012274   -0.0011653122408411772
-0.028451747463143866   -0.007202963344012274   -0.0011653122408411772
-0.028451747463143866   -0.007202963344012274   -0.0011653122408411772
-0.023380952449639367   -0.0014583756835746566   -0.00118175255128952
-0.023380952449639367   -0.0014583756835746566   -0.00118175255128952
-0.023380952449639367   -0.0014583756835746566   -0.00118175255128952
-0.023380952449639367   -0.0014583756835746566   -0.00118175255128952
-0.025271890538301634   0.0016665517101040238   0.005864457329254156
-0.025271890538301634   0.0016665517101040238   0.005864457329254156
-0.025271890538301634   0.0016665517101040238   0.005864457329254156
-0.025271890538301634   0.0016665517101040238   0.005864457329254156
-0.022452661333849988   -0.006180090672280007   -0.002050035011473715
-0.022452661333849988   -0.006180090672280007   -0.002050035011473715
-0.022452661333849988   -0.006180090672280007   -0.002050035011473715
-0.022452661333849988   -0.006180090672280007   -0.002050035011473715
-0.02165426572877503   0.0005359364345685347   0.0060966439151739285
-0.02165426572877503   0.0005359364345685347   0.0060966439151739285
-0.02165426572877503   0.0005359364345685347   0.0060966439151739285
-0.02165426572877503   0.0005359364345685347   0.0060966439151739285
-0.028515640645752814   -0.007776652274926247   -0.0009344209408345353
-0.028515640645752814   -0.007776652274926247   -0.0009344209408345353
-0.028515640645752814   -0.007776652274926247   -0.0009344209408345353
-0.028515640645752814   -0.007776652274926247   -0.0009344209408345353
-0.02406163811590922   -0.0022026574350020303   -0.0018594550420770216
-0.02406163811590922   -0.0022026574350020303   -0.0018594550420770216
-0.02406163811590922   -0.0022026574350020303   -0.0018594550420770216
-0.02406163811590922   -0.0022026574350020303   -0.0018594550420770216
-0.2279298868016338   -0.03404637695169147   -0.020260825248457688
-0.2279298868016338   -0.03404637695169147   -0.020260825248457688
-0.2279298868016338   -0.03404637695169147   -0.020260825248457688
-0.2279298868016338   -0.03404637695169147   -0.020260825248457688
-0.08149638124191537   -0.1469075880569132   -0.015493846318404211
-0.08149638124191537   -0.1469075880569132   -0.015493846318404211
-0.08149638124191537   -0.1469075880569132   -0.015493846318404211
-0.08149638124191537   -0.1469075880569132   -0.015493846318404211
-0.06037117464454894   -0.007123677472246697   -0.00017951161765587418
-0.06037117464454894   -0.007123677472246697   -0.00017951161765587418
-0.06037117464454894   -0.007123677472246697   -0.00017951161765587418
-0.06037117464454894   -0.007123677472246697   -0.00017951161765587418
-0.24841446296878836   -0.16871275803318347   -0.08342544420039437
-0.24841446296878836   -0.16871275803318347   -0.08342544420039437
-0.24841446296878836   -0.16871275803318347   -0.08342544420039437
-0.24841446296878836   -0.16871275803318347   -0.08342544420039437
-0.15059400977772458   -0.08337136130699943   -0.012220174319587128
-0.15059400977772458   -0.08337136130699943   -0.012220174319587128
-0.15059400977772458   -0.08337136130699943   -0.012220174319587128
-0.15059400977772458   -0.08337136130699943   -0.012220174319587128
-0.21208942783103274   -0.04294502591247715   -0.027568000632324438
-0.21208942783103274   -0.04294502591247715   -0.027568000632324438
-0.21208942783103274   -0.04294502591247715   -0.027568000632324438
-0.21208942783103274   -0.04294502591247715   -0.027568000632324438
-0.08877407721405049   -0.12496927702469918   -0.024348424912710675
-0.08877407721405049   -0.12496927702469918   -0.024348424912710675
-0.08877407721405049   -0.12496927702469918   -0.024348424912710675
-0.08877407721405049   -0.12496927702469918   -0.024348424912710675
-0.062268355499593454   -0.008903700885304917   0.002219372733220389
-0.062268355499593454   -0.008903700885304917   0.002219372733220389
-0.062268355499593454   -0.008903700885304917   0.002219372733220389
-0.062268355499593454   -0.008903700885304917   0.002219372733220389
-0.23291182894821846   -0.15265603030892305   -0.07711357185142831
-0.23291182894821846   -0.15265603030892305   -0.07711357185142831
-0.23291182894821846   -0.15265603030892305   -0.07711357185142831
-0.23291182894821846   -0.15265603030892305   -0.07711357185142831
-0.14221856952190276   -0.07588028634097194   0.0052129673476394925
-0.14221856952190276   -0.07588028634097194   0.0052129673476394925
-0.14221856952190276   -0.07588028634097194   0.0052129673476394925
-0.14221856952190276   -0.07588028634097194   0.0052129673476394925
-0.19934243904989668   -0.040955768896465426   -0.020966883772278535
-0.19934243904989668   -0.040955768896465426   -0.020966883772278535
-0.19934243904989668   -0.040955768896465426   -0.020966883772278535
-0.19934243904989668   -0.040955768896465426   -0.020966883772278535
-0.08696380192093232   -0.11173001882077988   -0.01843154143799854
-0.08696380192093232   -0.11173001882077988   -0.01843154143799854
-0.08696380192093232   -0.11173001882077988   -0.01843154143799854
-0.08696380192093232   -0.11173001882077988   -0.01843154143799854
-0.07315043736430633   -0.020667095522497216   -0.004338206480320529
-0.07315043736430633   -0.020667095522497216   -0.004338206480320529
-0.07315043736430633   -0.020667095522497216   -0.004338206480320529
-0.07315043736430633   -0.020667095522497216   -0.004338206480320529
-0.21255691118103764   -0.13110235886772062   -0.06873185400975165
-0.21255691118103764   -0.13110235886772062   -0.06873185400975165
-0.21255691118103764   -0.13110235886772062   -0.06873185400975165
-0.21255691118103764   -0.13110235886772062   -0.06873185400975165
-0.13216265036692623   -0.06631388492270326   0.02511052972085736
-0.13216265036692623   -0.06631388492270326   0.02511052972085736
-0.13216265036692623   -0.06631388492270326   0.02511052972085736
-0.13216265036692623   -0.06631388492270326   0.02511052972085736
-0.05684114640689475   -0.03423040810378256   -0.004894852096432209
-0.05684114640689475   -0.03423040810378256   -0.004894852096432209
-0.05684114640689475   -0.03423040810378256   -0.004894852096432209
-0.05684114640689475   -0.03423040810378256   -0.004894852096432209
-0.0284216722444207   -0.05255905107075087   -0.0071240952927164244
-0.0284216722444207   -0.05255905107075087   -0.0071240952927164244
-0.0284216722444207   -0.05255905107075087   -0.0071240952927164244
-0.0284216722444207   -0.05255905107075087   -0.0071240952927164244
-0.023738323339747982   -0.023001583087792103   0.0004385209275580759
-0.023738323339747982   -0.023001583087792103   0.0004385209275580759
-0.023738323339747982   -0.023001583087792103   0.0004385209275580759
-0.023738323339747982   -0.023001583087792103   0.0004385209275580759
-0.07312196981658212   -0.0721830987734275   0.0011259338233595775
-0.07312196981658212   -0.0721830987734275   0.0011259338233595775
-0.07312196981658212   -0.0721830987734275   0.0011259338233595775
-0.07312196981658212   -0.0721830987734275   0.0011259338233595775
-0.038305643732192786   -0.034435313579167924   0.013031741307151946
-0.038305643732192786   -0.034435313579167924   0.013031741307151946
-0.038305643732192786   -0.034435313579167924   0.013031741307151946
-0.038305643732192786   -0.034435313579167924   0.013031741307151946
-0.06598055163928543   -0.03217312312160684   -0.0031769509419783907
-0.06598055163928543   -0.03217312312160684   -0.0031769509419783907
-0.06598055163928543   -0.03217312312160684   -0.0031769509419783907
-0.06598055163928543   -0.03217312312160684   -0.0031769509419783907
-0.03317998482720998   -0.06531180204977807   -0.0044595675477654435
-0.03317998482720998   -0.06531180204977807   -0.0044595675477654435
-0.03317998482720998   -0.06531180204977807   -0.0044595675477654435
-0.03317998482720998   -0.06531180204977807   -0.0044595675477654435
-0.026268634346754218   -0.023751702428879178   0.0005885237299831786
-0.026268634346754218   -0.023751702428879178   0.0005885237299831786
-0.026268634346754218   -0.023751702428879178   0.0005885237299831786
-0.026268634346754218   -0.023751702428879178   0.0005885237299831786
-0.07765144529859747   -0.07205811168535317   -0.011541665461750865
-0.07765144529859747   -0.07205811168535317   -0.011541665461750865
-0.07765144529859747   -0.07205811168535317   -0.011541665461750865
-0.07765144529859747   -0.07205811168535317   -0.011541665461750865
-0.046893436141583686   -0.04344469502240028   0.0053718685783296395
-0.046893436141583686   -0.04344469502240028   0.0053718685783296395
-0.046893436141583686   -0.04344469502240028   0.0053718685783296395
-0.046893436141583686   -0.04344469502240028   0.0053718685783296395
-0.06886564991255315   -0.03360247527617674   -0.006068324940705796
-0.06886564991255315   -0.03360247527617674   -0.006068324940705796
-0.06886564991255315   -0.03360247527617674   -0.006068324940705796
-0.06886564991255315   -0.03360247527617674   -0.006068324940705796
-0.03487240049268846   -0.06202530959794553   -0.004156699830621672
-0.03487240049268846   -0.06202530959794553   -0.004156699830621672
-0.03487240049268846   -0.06202530959794553   -0.004156699830621672
-0.03487240049268846   -0.06202530959794553   -0.004156699830621672
-0.030370842797649397   -0.02428386245199946   0.0008910548009117775
-0.030370842797649397   -0.02428386245199946   0.0008910548009117775
-0.030370842797649397   -0.02428386245199946   0.0008910548009117775
-0.030370842797649397   -0.02428386245199946   0.0008910548009117775
-0.08419888379214208   -0.07059581674492707   -0.009651717397069931
-0.08419888379214208   -0.07059581674492707   -0.009651717397069931
-0.08419888379214208   -0.07059581674492707   -0.009651717397069931
-0.08419888379214208   -0.07059581674492707   -0.009651717397069931
-0.04991811145831743   -0.041084279176919425   0.005566669316277166
-0.04991811145831743   -0.041084279176919425   0.005566669316277166
-0.04991811145831743   -0.041084279176919425   0.005566669316277166
-0.04991811145831743   -0.041084279176919425   0.005566669316277166
-0.020359776048698194   -0.0209068436568177   0.0015331782719629318
-0.020359776048698194   -0.0209068436568177   0.0015331782719629318
-0.020359776048698194   -0.0209068436568177   0.0015331782719629318
-0.020359776048698194   -0.0209068436568177   0.0015331782719629318
-0.014213668761729463   -0.01961773307674345   -0.003640554736183587
-0.014213668761729463   -0.01961773307674345   -0.003640554736183587
-0.014213668761729463   -0.01961773307674345   -0.003640554736183587
-0.014213668761729463   -0.01961773307674345   -0.003640554736183587
-0.013169465364965577   -0.019190407905200046   0.0014021282366846527
-0.013169465364965577   -0.019190407905200046   0.0014021282366846527
-0.013169465364965577   -0.019190407905200046   0.0014021282366846527
-0.013169465364965577   -0.019190407905200046   0.0014021282366846527
-0.024371017445980244   -0.024936982143763955   -0.0007895505476309232
-0.024371017445980244   -0.024936982143763955   -0.0007895505476309232
-0.024371017445980244   -0.024936982143763955   -0.0007895505476309232
-0.024371017445980244   -0.024936982143763955   -0.0007895505476309232
-0.01501265338836259   -0.0176751230445954   0.006676884830771471
-0.01501265338836259   -0.0176751230445954   0.006676884830771471
-0.01501265338836259   -0.0176751230445954   0.006676884830771471
-0.01501265338836259   -0.0176751230445954   0.006676884830771471
-0.02309644250701087   -0.021105800483546374   0.0017521424869983895
-0.02309644250701087   -0.021105800483546374   0.0017521424869983895
-0.02309644250701087   -0.021105800483546374   0.0017521424869983895
-0.02309644250701087   -0.021105800483546374   0.0017521424869983895
-0.014782778321480358   -0.023360327582963004   -0.002494516868126293
-0.014782778321480358   -0.023360327582963004   -0.002494516868126293
-0.014782778321480358   -0.023360327582963004   -0.002494516868126293
-0.014782778321480358   -0.023360327582963004   -0.002494516868126293
-0.013747969730134682   -0.019755424225765403   0.0013164897673632525
-0.013747969730134682   -0.019755424225765403   0.0013164897673632525
-0.013747969730134682   -0.019755424225765403   0.0013164897673632525
-0.013747969730134682   -0.019755424225765403   0.0013164897673632525
-0.026538863600353037   -0.028704451728709765   0.004190126761819623
-0.026538863600353037   -0.028704451728709765   0.004190126761819623
-0.026538863600353037   -0.028704451728709765   0.004190126761819623
-0.026538863600353037   -0.028704451728709765   0.004190126761819623
-0.0170437408657977   -0.019839555688025246   0.005228052375016763
-0.0170437408657977   -0.019839555688025246   0.005228052375016763
-0.0170437408657977   -0.019839555688025246   0.005228052375016763
-0.0170437408657977   -0.019839555688025246   0.005228052375016763
-0.025553090780630353   -0.021914032135827193   0.002328571267550039
-0.025553090780630353   -0.021914032135827193   0.002328571267550039
-0.025553090780630353   -0.021914032135827193   0.002328571267550039
-0.025553090780630353   -0.021914032135827193   0.002328571267550039
-0.0160216887038409   -0.027833789972631594   -0.0019737393543016535
-0.0160216887038409   -0.027833789972631594   -0.0019737393543016535
-0.0160216887038409   -0.027833789972631594   -0.0019737393543016535
-0.0160216887038409   -0.027833789972631594   -0.0019737393543016535
-0.01467048960808624   -0.020298946363843936   0.001913117800295295
-0.01467048960808624   -0.020298946363843936   0.001913117800295295
-0.01467048960808624   -0.020298946363843936   0.001913117800295295
-0.01467048960808624   -0.020298946363843936   0.001913117800295295
-0.032175215702911895   -0.034335392686935605   0.001920720509535635
-0.032175215702911895   -0.034335392686935605   0.001920720509535635
-0.032175215702911895   -0.034335392686935605   0.001920720509535635
-0.032175215702911895   -0.034335392686935605   0.001920720509535635
-0.019794860318389434   -0.02227144713642798   0.001873147117647361
-0.019794860318389434   -0.02227144713642798   0.001873147117647361
-0.019794860318389434   -0.02227144713642798   0.001873147117647361
-0.019794860318389434   -0.02227144713642798   0.001873147117647361
-0.010434029318727835   -0.00845615635407592   0.004096065756157025
-0.010434029318727835   -0.00845615635407592   0.004096065756157025
-0.010434029318727835   -0.00845615635407592   0.004096065756157025
-0.010434029318727835   -0.00845615635407592   0.004096065756157025
-0.008700074477794527   -0.0029840381859680297   -0.000906022749304367
-0.008700074477794527   -0.0029840381859680297   -0.000906022749304367
-0.008700074477794527   -0.0029840381859680297   -0.000906022749304367
-0.008700074477794527   -0.0029840381859680297   -0.000906022749304367
-0.008157684591163361   -0.009407938056630451   0.002467906702875412
-0.008157684591163361   -0.009407938056630451   0.002467906702875412
-0.008157684591163361   -0.009407938056630451   0.002467906702875412
-0.008157684591163361   -0.009407938056630451   0.002467906702875412
-0.010573631961643645   -0.004850093242573461   4.098059066757445e-05
-0.010573631961643645   -0.004850093242573461   4.098059066757445e-05
-0.010573631961643645   -0.004850093242573461   4.098059066757445e-05
-0.010573631961643645   -0.004850093242573461   4.098059066757445e-05
-0.008680414302478904   -0.005863334361669179   0.0020243335426071937
-0.008680414302478904   -0.005863334361669179   0.0020243335426071937
-0.008680414302478904   -0.005863334361669179   0.0020243335426071937
-0.008680414302478904   -0.005863334361669179   0.0020243335426071937
-0.010750014345966544   -0.00963182521905849   0.003940800645538265
-0.010750014345966544   -0.00963182521905849   0.003940800645538265
-0.010750014345966544   -0.00963182521905849   0.003940800645538265
-0.010750014345966544   -0.00963182521905849   0.003940800645538265
-0.007863848446017004   -0.004508752319322076   -0.0009620983087021386
-0.007863848446017004   -0.004508752319322076   -0.0009620983087021386
-0.007863848446017004   -0.004508752319322076   -0.0009620983087021386
-0.007863848446017004   -0.004508752319322076   -0.0009620983087021386
-0.007868988805384966   -0.010231913458513008   0.0023454494678104634
-0.007868988805384966   -0.010231913458513008   0.0023454494678104634
-0.007868988805384966   -0.010231913458513008   0.0023454494678104634
-0.007868988805384966   -0.010231913458513008   0.0023454494678104634
-0.011157393124090377   -0.006990564263437641   0.0015045128352567853
-0.011157393124090377   -0.006990564263437641   0.0015045128352567853
-0.011157393124090377   -0.006990564263437641   0.0015045128352567853
-0.011157393124090377   -0.006990564263437641   0.0015045128352567853
-0.008454400640030075   -0.0068276677996749625   0.002088086356977688
-0.008454400640030075   -0.0068276677996749625   0.002088086356977688
-0.008454400640030075   -0.0068276677996749625   0.002088086356977688
-0.008454400640030075   -0.0068276677996749625   0.002088086356977688
-0.011239147763926073   -0.010461666724379351   0.004566842097020244
-0.011239147763926073   -0.010461666724379351   0.004566842097020244
-0.011239147763926073   -0.010461666724379351   0.004566842097020244
-0.011239147763926073   -0.010461666724379351   0.004566842097020244
-0.007953714124479762   -0.006927290956501816   -0.0013827996296747083
-0.007953714124479762   -0.006927290956501816   -0.0013827996296747083
-0.007953714124479762   -0.006927290956501816   -0.0013827996296747083
-0.007953714124479762   -0.006927290956501816   -0.0013827996296747083
-0.007281735855150102   -0.011143657672041661   0.0026389589378629464
-0.007281735855150102   -0.011143657672041661   0.0026389589378629464
-0.007281735855150102   -0.011143657672041661   0.0026389589378629464
-0.007281735855150102   -0.011143657672041661   0.0026389589378629464
-0.012932737240371469   -0.011589896381577813   0.001892829656602988
-0.012932737240371469   -0.011589896381577813   0.001892829656602988
-0.012932737240371469   -0.011589896381577813   0.001892829656602988
-0.012932737240371469   -0.011589896381577813   0.001892829656602988
-0.008750793733558583   -0.008418541473782872   0.0014109690773756482
-0.008750793733558583   -0.008418541473782872   0.0014109690773756482
-0.008750793733558583   -0.008418541473782872   0.0014109690773756482
-0.008750793733558583   -0.008418541473782872   0.0014109690773756482
-0.007294656140883939   -0.001154224379147379   0.004291255128427916
-0.007294656140883939   -0.001154224379147379   0.004291255128427916
-0.007294656140883939   -0.001154224379147379   0.004291255128427916
-0.007294656140883939   -0.001154224379147379   0.004291255128427916
-0.002297606175225544   0.00030820375903038873   -8.75778142394048e-05
-0.002297606175225544   0.00030820375903038873   -8.75778142394048e-05
-0.002297606175225544   0.00030820375903038873   -8.75778142394048e-05
-0.002297606175225544   0.00030820375903038873   -8.75778142394048e-05
-0.0007810072035446845   -0.0004766099517683884   0.002782040708604485
-0.0007810072035446845   -0.0004766099517683884   0.002782040708604485
-0.0007810072035446845   -0.0004766099517683884   0.002782040708604485
-0.0007810072035446845   -0.0004766099517683884   0.002782040708604485
-0.0067853799816234165   -0.00012686007764951585   4.835177159355795e-05
-0.0067853799816234165   -0.00012686007764951585   4.835177159355795e-05
-0.0067853799816234165   -0.00012686007764951585   4.835177159355795e-05
-0.0067853799816234165   -0.00012686007764951585   4.835177159355795e-05
-0.004302378133881397   -0.0004368960977082603   -0.0002210178242394361
-0.004302378133881397   -0.0004368960977082603   -0.0002210178242394361
-0.004302378133881397   -0.0004368960977082603   -0.0002210178242394361
-0.004302378133881397   -0.0004368960977082603   -0.0002210178242394361
-0.006108305559399912   -0.0011975875030398975   0.004504451308102102
-0.006108305559399912   -0.0011975875030398975   0.004504451308102102
-0.006108305559399912   -0.0011975875030398975   0.004504451308102102
-0.006108305559399912   -0.0011975875030398975   0.004504451308102102
-0.0012652051520955668   0.0007869939472950525   -0.0009025529332114504
-0.0012652051520955668   0.0007869939472950525   -0.0009025529332114504
-0.0012652051520955668   0.0007869939472950525   -0.0009025529332114504
-0.0012652051520955668   0.0007869939472950525   -0.0009025529332114504
-0.0002655827309452064   -0.0006421230738622939   0.0034527243777100645
-0.0002655827309452064   -0.0006421230738622939   0.0034527243777100645
-0.0002655827309452064   -0.0006421230738622939   0.0034527243777100645
-0.0002655827309452064   -0.0006421230738622939   0.0034527243777100645
-0.006386300707150246   -0.0005901543353868989   0.00011713083585825315
-0.006386300707150246   -0.0005901543353868989   0.00011713083585825315
-0.006386300707150246   -0.0005901543353868989   0.00011713083585825315
-0.006386300707150246   -0.0005901543353868989   0.00011713083585825315
-0.0034468181971377848   -0.0003521068778184694   0.00031422965969897987
-0.0034468181971377848   -0.0003521068778184694   0.00031422965969897987
-0.0034468181971377848   -0.0003521068778184694   0.00031422965969897987
-0.0034468181971377848   -0.0003521068778184694   0.00031422965969897987
-0.0055895271635810805   -0.0014127399935568317   0.004923584211873712
-0.0055895271635810805   -0.0014127399935568317   0.004923584211873712
-0.0055895271635810805   -0.0014127399935568317   0.004923584211873712
-0.0055895271635810805   -0.0014127399935568317   0.004923584211873712
-0.0009341510114080485   0.00030866784741383506   -0.0008409079458802749
-0.0009341510114080485   0.00030866784741383506   -0.0008409079458802749
-0.0009341510114080485   0.00030866784741383506   -0.0008409079458802749
-0.0009341510114080485   0.00030866784741383506   -0.0008409079458802749
3.208034283760843e-05   -0.0011912891639346826   0.0034446736255328665
3.208034283760843e-05   -0.0011912891639346826   0.0034446736255328665
3.208034283760843e-05   -0.0011912891639346826   0.0034446736255328665
3.208034283760843e-05   -0.0011912891639346826   0.0034446736255328665
-0.005802849348844743   -0.0012859147661702655   0.0001756485635186052
-0.005802849348844743   -0.0012859147661702655   0.0001756485635186052
-0.005802849348844743   -0.0012859147661702655   0.0001756485635186052
-0.005802849348844743   -0.0012859147661702655   0.0001756485635186052
-0.0027737731525900094   -0.0004560344047334596   0.00065882263681684
-0.0027737731525900094   -0.0004560344047334596   0.00065882263681684
-0.0027737731525900094   -0.0004560344047334596   0.00065882263681684
-0.0027737731525900094   -0.0004560344047334596   0.00065882263681684
              </DataArray>   
             <DataArray type="Float64" NumberOfComponents="3" Name="Displacements" format="ascii">   
0.0   0.0   0.0
-0.000650578440586076   -0.00043827003165219523   -0.00021864750125263286
0.0   0.0   0.0
0.0   0.0   0.0
-0.000650578440586076   -0.00043827003165219523   -0.00021864750125263286
-0.0004128584478370295   -0.0003959262407094524   -0.00016077444055081957
0.0   0.0   0.0
-0.0004039217027422187   -0.00041512793925762307   -0.00013494004195116168
0.0   0.0   0.0
0.0   0.0   0.0
-0.0004039217027422187   -0.00041512793925762307   -0.00013494004195116168
0.0   0.0   0.0
0.0   0.0   0.0
-0.0004039217027422187   -0.00041512793925762307   -0.00013494004195116168
-0.0006799067892529659   -0.0004663716578652071   -0.00017591281543439505
-0.000650578440586076   -0.00043827003165219523   -0.00021864750125263286
0.0   0.0   0.0
-0.0004039217027422187   -0.00041512793925762307   -0.00013494004195116168
-0.000650578440586076   -0.00043827003165219523   -0.00021864750125263286
0.0   0.0   0.0
0.0   0.0   0.0
-0.0006799067892529659   -0.0004663716578652071   -0.00017591281543439505
0.0   0.0   0.0
0.0   0.0   0.0
-0.0006799067892529659   -0.0004663716578652071   -0.00017591281543439505
-0.0004039217027422187   -0.00041512793925762307   -0.00013494004195116168
0.0   0.0   0.0
-0.00040422632806024026   -0.00042506419584292175   -0.00010923799932533316
0.0   0.0   0.0
0.0   0.0   0.0
-0.00040422632806024026   -0.00042506419584292175   -0.00010923799932533316
0.0   0.0   0.0
0.0   0.0   0.0
-0.00040422632806024026   -0.00042506419584292175   -0.00010923799932533316
-0.0007001206963250784   -0.00048008097045965705   -0.00013514691982731902
-0.0006799067892529659   -0.0004663716578652071   -0.00017591281543439505
0.0   0.0   0.0
-0.00040422632806024026   -0.00042506419584292175   -0.00010923799932533316
-0.0006799067892529659   -0.0004663716578652071   -0.00017591281543439505
0.0   0.0   0.0
0.0   0.0   0.0
-0.0007001206963250784   -0.00048008097045965705   -0.00013514691982731902
0.0   0.0   0.0
0.0   0.0   0.0
-0.0007001206963250784   -0.00048008097045965705   -0.00013514691982731902
-0.00040422632806024026   -0.00042506419584292175   -0.00010923799932533316
0.0   0.0   0.0
-0.00040307313715880856   -0.0004277490102452688   -8.278038419800104e-05
0.0   0.0   0.0
0.0   0.0   0.0
-0.00040307313715880856   -0.0004277490102452688   -8.278038419800104e-05
0.0   0.0   0.0
0.0   0.0   0.0
-0.00040307313715880856   -0.0004277490102452688   -8.278038419800104e-05
-0.0007444951763411321   -0.0004907892909848285   -8.797017033373662e-05
-0.0007001206963250784   -0.00048008097045965705   -0.00013514691982731902
0.0   0.0   0.0
-0.00040307313715880856   -0.0004277490102452688   -8.278038419800104e-05
-0.0007001206963250784   -0.00048008097045965705   -0.00013514691982731902
0.0   0.0   0.0
0.0   0.0   0.0
-0.0004128584478370295   -0.0003959262407094524   -0.00016077444055081957
0.0   0.0   0.0
0.0   0.0   0.0
-0.0004128584478370295   -0.0003959262407094524   -0.00016077444055081957
-0.00018898301432333371   -0.0003805696935182685   -0.00012264629479310135
0.0   0.0   0.0
-0.0001809478486656884   -0.0003929687598279219   -0.00011034963190174417
0.0   0.0   0.0
0.0   0.0   0.0
-0.0001809478486656884   -0.0003929687598279219   -0.00011034963190174417
0.0   0.0   0.0
0.0   0.0   0.0
-0.0001809478486656884   -0.0003929687598279219   -0.00011034963190174417
-0.0004039217027422187   -0.00041512793925762307   -0.00013494004195116168
-0.0004128584478370295   -0.0003959262407094524   -0.00016077444055081957
0.0   0.0   0.0
-0.0001809478486656884   -0.0003929687598279219   -0.00011034963190174417
-0.0004128584478370295   -0.0003959262407094524   -0.00016077444055081957
0.0   0.0   0.0
0.0   0.0   0.0
-0.0004039217027422187   -0.00041512793925762307   -0.00013494004195116168
0.0   0.0   0.0
0.0   0.0   0.0
-0.0004039217027422187   -0.00041512793925762307   -0.00013494004195116168
-0.0001809478486656884   -0.0003929687598279219   -0.00011034963190174417
0.0   0.0   0.0
-0.00017609392742931978   -0.00039772900093236664   -9.846781357174606e-05
0.0   0.0   0.0
0.0   0.0   0.0
-0.00017609392742931978   -0.00039772900093236664   -9.846781357174606e-05
0.0   0.0   0.0
0.0   0.0   0.0
-0.00017609392742931978   -0.00039772900093236664   -9.846781357174606e-05
-0.00040422632806024026   -0.00042506419584292175   -0.00010923799932533316
-0.0004039217027422187   -0.00041512793925762307   -0.00013494004195116168
0.0   0.0   0.0
-0.00017609392742931978   -0.00039772900093236664   -9.846781357174606e-05
-0.0004039217027422187   -0.00041512793925762307   -0.00013494004195116168
0.0   0.0   0.0
0.0   0.0   0.0
-0.00040422632806024026   -0.00042506419584292175   -0.00010923799932533316
0.0   0.0   0.0
0.0   0.0   0.0
-0.00040422632806024026   -0.00042506419584292175   -0.00010923799932533316
-0.00017609392742931978   -0.00039772900093236664   -9.846781357174606e-05
0.0   0.0   0.0
-0.00017153619635212934   -0.00039582255446985517   -8.628192250434031e-05
0.0   0.0   0.0
0.0   0.0   0.0
-0.00017153619635212934   -0.00039582255446985517   -8.628192250434031e-05
0.0   0.0   0.0
0.0   0.0   0.0
-0.00017153619635212934   -0.00039582255446985517   -8.628192250434031e-05
-0.00040307313715880856   -0.0004277490102452688   -8.278038419800104e-05
-0.00040422632806024026   -0.00042506419584292175   -0.00010923799932533316
0.0   0.0   0.0
-0.00017153619635212934   -0.00039582255446985517   -8.628192250434031e-05
-0.00040422632806024026   -0.00042506419584292175   -0.00010923799932533316
0.0   0.0   0.0
0.0   0.0   0.0
-0.00018898301432333371   -0.0003805696935182685   -0.00012264629479310135
0.0   0.0   0.0
0.0   0.0   0.0
-0.00018898301432333371   -0.0003805696935182685   -0.00012264629479310135
2.182401807312564e-05   -0.00038266767032429596   -9.859201623557211e-05
0.0   0.0   0.0
2.7339690966296932e-05   -0.0003889829371280602   -0.00010005276819629338
0.0   0.0   0.0
0.0   0.0   0.0
2.7339690966296932e-05   -0.0003889829371280602   -0.00010005276819629338
0.0   0.0   0.0
0.0   0.0   0.0
2.7339690966296932e-05   -0.0003889829371280602   -0.00010005276819629338
-0.0001809478486656884   -0.0003929687598279219   -0.00011034963190174417
-0.00018898301432333371   -0.0003805696935182685   -0.00012264629479310135
0.0   0.0   0.0
2.7339690966296932e-05   -0.0003889829371280602   -0.00010005276819629338
-0.00018898301432333371   -0.0003805696935182685   -0.00012264629479310135
0.0   0.0   0.0
0.0   0.0   0.0
-0.0001809478486656884   -0.0003929687598279219   -0.00011034963190174417
0.0   0.0   0.0
0.0   0.0   0.0
-0.0001809478486656884   -0.0003929687598279219   -0.00011034963190174417
2.7339690966296932e-05   -0.0003889829371280602   -0.00010005276819629338
0.0   0.0   0.0
3.1803309850112995e-05   -0.000388362353936939   -0.00010145307376440221
0.0   0.0   0.0
0.0   0.0   0.0
3.1803309850112995e-05   -0.000388362353936939   -0.00010145307376440221
0.0   0.0   0.0
0.0   0.0   0.0
3.1803309850112995e-05   -0.000388362353936939   -0.00010145307376440221
-0.00017609392742931978   -0.00039772900093236664   -9.846781357174606e-05
-0.0001809478486656884   -0.0003929687598279219   -0.00011034963190174417
0.0   0.0   0.0
3.1803309850112995e-05   -0.000388362353936939   -0.00010145307376440221
-0.0001809478486656884   -0.0003929687598279219   -0.00011034963190174417
0.0   0.0   0.0
0.0   0.0   0.0
-0.00017609392742931978   -0.00039772900093236664   -9.846781357174606e-05
0.0   0.0   0.0
0.0   0.0   0.0
-0.00017609392742931978   -0.00039772900093236664   -9.846781357174606e-05
3.1803309850112995e-05   -0.000388362353936939   -0.00010145307376440221
0.0   0.0   0.0
3.7532111234984235e-05   -0.0003802533116028905   -0.0001029899880101651
0.0   0.0   0.0
0.0   0.0   0.0
3.7532111234984235e-05   -0.0003802533116028905   -0.0001029899880101651
0.0   0.0   0.0
0.0   0.0   0.0
3.7532111234984235e-05   -0.0003802533116028905   -0.0001029899880101651
-0.00017153619635212934   -0.00039582255446985517   -8.628192250434031e-05
-0.00017609392742931978   -0.00039772900093236664   -9.846781357174606e-05
0.0   0.0   0.0
3.7532111234984235e-05   -0.0003802533116028905   -0.0001029899880101651
-0.00017609392742931978   -0.00039772900093236664   -9.846781357174606e-05
0.0   0.0   0.0
0.0   0.0   0.0
2.182401807312564e-05   -0.00038266767032429596   -9.859201623557211e-05
0.0   0.0   0.0
0.0   0.0   0.0
2.182401807312564e-05   -0.00038266767032429596   -9.859201623557211e-05
0.00025136183855541393   -0.0004003596142658524   -8.701329867909994e-05
0.0   0.0   0.0
0.0002528532587596149   -0.00040217918793765693   -0.00010295752805501411
0.0   0.0   0.0
0.0   0.0   0.0
0.0002528532587596149   -0.00040217918793765693   -0.00010295752805501411
0.0   0.0   0.0
0.0   0.0   0.0
0.0002528532587596149   -0.00040217918793765693   -0.00010295752805501411
2.7339690966296932e-05   -0.0003889829371280602   -0.00010005276819629338
2.182401807312564e-05   -0.00038266767032429596   -9.859201623557211e-05
0.0   0.0   0.0
0.0002528532587596149   -0.00040217918793765693   -0.00010295752805501411
2.182401807312564e-05   -0.00038266767032429596   -9.859201623557211e-05
0.0   0.0   0.0
0.0   0.0   0.0
2.7339690966296932e-05   -0.0003889829371280602   -0.00010005276819629338
0.0   0.0   0.0
0.0   0.0   0.0
2.7339690966296932e-05   -0.0003889829371280602   -0.00010005276819629338
0.0002528532587596149   -0.00040217918793765693   -0.00010295752805501411
0.0   0.0   0.0
0.00025267041774821355   -0.00039644370361400697   -0.0001183694829247572
0.0   0.0   0.0
0.0   0.0   0.0
0.00025267041774821355   -0.00039644370361400697   -0.0001183694829247572
0.0   0.0   0.0
0.0   0.0   0.0
0.00025267041774821355   -0.00039644370361400697   -0.0001183694829247572
3.1803309850112995e-05   -0.000388362353936939   -0.00010145307376440221
2.7339690966296932e-05   -0.0003889829371280602   -0.00010005276819629338
0.0   0.0   0.0
0.00025267041774821355   -0.00039644370361400697   -0.0001183694829247572
2.7339690966296932e-05   -0.0003889829371280602   -0.00010005276819629338
0.0   0.0   0.0
0.0   0.0   0.0
3.1803309850112995e-05   -0.000388362353936939   -0.00010145307376440221
0.0   0.0   0.0
0.0   0.0   0.0
3.1803309850112995e-05   -0.000388362353936939   -0.00010145307376440221
0.00025267041774821355   -0.00039644370361400697   -0.0001183694829247572
0.0   0.0   0.0
0.000258428753129462   -0.0003814942863597334   -0.00013358010704084372
0.0   0.0   0.0
0.0   0.0   0.0
0.000258428753129462   -0.0003814942863597334   -0.00013358010704084372
0.0   0.0   0.0
0.0   0.0   0.0
0.000258428753129462   -0.0003814942863597334   -0.00013358010704084372
3.7532111234984235e-05   -0.0003802533116028905   -0.0001029899880101651
3.1803309850112995e-05   -0.000388362353936939   -0.00010145307376440221
0.0   0.0   0.0
0.000258428753129462   -0.0003814942863597334   -0.00013358010704084372
3.1803309850112995e-05   -0.000388362353936939   -0.00010145307376440221
0.0   0.0   0.0
0.0   0.0   0.0
0.00025136183855541393   -0.0004003596142658524   -8.701329867909994e-05
0.0   0.0   0.0
0.0   0.0   0.0
0.00025136183855541393   -0.0004003596142658524   -8.701329867909994e-05
0.0005730076917639457   -0.000445630198090065   -8.290178415812859e-05
0.0   0.0   0.0
0.0005395033669335633   -0.00044036625814542873   -0.00011937947274551568
0.0   0.0   0.0
0.0   0.0   0.0
0.0005395033669335633   -0.00044036625814542873   -0.00011937947274551568
0.0   0.0   0.0
0.0   0.0   0.0
0.0005395033669335633   -0.00044036625814542873   -0.00011937947274551568
0.0002528532587596149   -0.00040217918793765693   -0.00010295752805501411
0.00025136183855541393   -0.0004003596142658524   -8.701329867909994e-05
0.0   0.0   0.0
0.0005395033669335633   -0.00044036625814542873   -0.00011937947274551568
0.00025136183855541393   -0.0004003596142658524   -8.701329867909994e-05
0.0   0.0   0.0
0.0   0.0   0.0
0.0002528532587596149   -0.00040217918793765693   -0.00010295752805501411
0.0   0.0   0.0
0.0   0.0   0.0
0.0002528532587596149   -0.00040217918793765693   -0.00010295752805501411
0.0005395033669335633   -0.00044036625814542873   -0.00011937947274551568
0.0   0.0   0.0
0.0005244597459310783   -0.00043122066946547596   -0.00015031811641736648
0.0   0.0   0.0
0.0   0.0   0.0
0.0005244597459310783   -0.00043122066946547596   -0.00015031811641736648
0.0   0.0   0.0
0.0   0.0   0.0
0.0005244597459310783   -0.00043122066946547596   -0.00015031811641736648
0.00025267041774821355   -0.00039644370361400697   -0.0001183694829247572
0.0002528532587596149   -0.00040217918793765693   -0.00010295752805501411
0.0   0.0   0.0
0.0005244597459310783   -0.00043122066946547596   -0.00015031811641736648
0.0002528532587596149   -0.00040217918793765693   -0.00010295752805501411
0.0   0.0   0.0
0.0   0.0   0.0
0.00025267041774821355   -0.00039644370361400697   -0.0001183694829247572
0.0   0.0   0.0
0.0   0.0   0.0
0.00025267041774821355   -0.00039644370361400697   -0.0001183694829247572
0.0005244597459310783   -0.00043122066946547596   -0.00015031811641736648
0.0   0.0   0.0
0.0005014349116758757   -0.00040813473355007723   -0.00018326135714776714
0.0   0.0   0.0
0.0   0.0   0.0
0.0005014349116758757   -0.00040813473355007723   -0.00018326135714776714
0.0   0.0   0.0
0.0   0.0   0.0
0.0005014349116758757   -0.00040813473355007723   -0.00018326135714776714
0.000258428753129462   -0.0003814942863597334   -0.00013358010704084372
0.00025267041774821355   -0.00039644370361400697   -0.0001183694829247572
0.0   0.0   0.0
0.0005014349116758757   -0.00040813473355007723   -0.00018326135714776714
0.00025267041774821355   -0.00039644370361400697   -0.0001183694829247572
0.0   0.0   0.0
-0.000650578440586076   -0.00043827003165219523   -0.00021864750125263286
-0.0012066865029285658   -0.0012068599124683145   -0.00029498769609369866
-0.0004128584478370295   -0.0003959262407094524   -0.00016077444055081957
-0.0006799067892529659   -0.0004663716578652071   -0.00017591281543439505
-0.0012066865029285658   -0.0012068599124683145   -0.00029498769609369866
-0.0007697929521460398   -0.0011690846021331143   -0.00024367769490067618
-0.0004128584478370295   -0.0003959262407094524   -0.00016077444055081957
-0.0007693872005737862   -0.0011885636530048677   -0.00022000776158085655
-0.0006799067892529659   -0.0004663716578652071   -0.00017591281543439505
-0.0004039217027422187   -0.00041512793925762307   -0.00013494004195116168
-0.0007693872005737862   -0.0011885636530048677   -0.00022000776158085655
-0.0004128584478370295   -0.0003959262407094524   -0.00016077444055081957
-0.0006799067892529659   -0.0004663716578652071   -0.00017591281543439505
-0.0007693872005737862   -0.0011885636530048677   -0.00022000776158085655
-0.0012410931240958343   -0.0012341789918794406   -0.0002567493655135662
-0.0012066865029285658   -0.0012068599124683145   -0.00029498769609369866
-0.0006799067892529659   -0.0004663716578652071   -0.00017591281543439505
-0.0007693872005737862   -0.0011885636530048677   -0.00022000776158085655
-0.0012066865029285658   -0.0012068599124683145   -0.00029498769609369866
-0.0004128584478370295   -0.0003959262407094524   -0.00016077444055081957
-0.0006799067892529659   -0.0004663716578652071   -0.00017591281543439505
-0.0012410931240958343   -0.0012341789918794406   -0.0002567493655135662
-0.0004039217027422187   -0.00041512793925762307   -0.00013494004195116168
-0.0007001206963250784   -0.00048008097045965705   -0.00013514691982731902
-0.0012410931240958343   -0.0012341789918794406   -0.0002567493655135662
-0.0007693872005737862   -0.0011885636530048677   -0.00022000776158085655
-0.0004039217027422187   -0.00041512793925762307   -0.00013494004195116168
-0.0007710039291110501   -0.0012005589429056752   -0.00019734757887593542
-0.0007001206963250784   -0.00048008097045965705   -0.00013514691982731902
-0.00040422632806024026   -0.00042506419584292175   -0.00010923799932533316
-0.0007710039291110501   -0.0012005589429056752   -0.00019734757887593542
-0.0004039217027422187   -0.00041512793925762307   -0.00013494004195116168
-0.0007001206963250784   -0.00048008097045965705   -0.00013514691982731902
-0.0007710039291110501   -0.0012005589429056752   -0.00019734757887593542
-0.0012644436059521488   -0.001249723393408508   -0.00021942581485017186
-0.0012410931240958343   -0.0012341789918794406   -0.0002567493655135662
-0.0007001206963250784   -0.00048008097045965705   -0.00013514691982731902
-0.0007710039291110501   -0.0012005589429056752   -0.00019734757887593542
-0.0012410931240958343   -0.0012341789918794406   -0.0002567493655135662
-0.0004039217027422187   -0.00041512793925762307   -0.00013494004195116168
-0.0007001206963250784   -0.00048008097045965705   -0.00013514691982731902
-0.0012644436059521488   -0.001249723393408508   -0.00021942581485017186
-0.00040422632806024026   -0.00042506419584292175   -0.00010923799932533316
-0.0007444951763411321   -0.0004907892909848285   -8.797017033373662e-05
-0.0012644436059521488   -0.001249723393408508   -0.00021942581485017186
-0.0007710039291110501   -0.0012005589429056752   -0.00019734757887593542
-0.00040422632806024026   -0.00042506419584292175   -0.00010923799932533316
-0.0007672406963524916   -0.0012069842381975404   -0.00017622241641233598
-0.0007444951763411321   -0.0004907892909848285   -8.797017033373662e-05
-0.00040307313715880856   -0.0004277490102452688   -8.278038419800104e-05
-0.0007672406963524916   -0.0012069842381975404   -0.00017622241641233598
-0.00040422632806024026   -0.00042506419584292175   -0.00010923799932533316
-0.0007444951763411321   -0.0004907892909848285   -8.797017033373662e-05
-0.0007672406963524916   -0.0012069842381975404   -0.00017622241641233598
-0.0012919826839464944   -0.0012591191590970198   -0.00018565829387003627
-0.0012644436059521488   -0.001249723393408508   -0.00021942581485017186
-0.0007444951763411321   -0.0004907892909848285   -8.797017033373662e-05
-0.0007672406963524916   -0.0012069842381975404   -0.00017622241641233598
-0.0012644436059521488   -0.001249723393408508   -0.00021942581485017186
-0.00040422632806024026   -0.00042506419584292175   -0.00010923799932533316
-0.0004128584478370295   -0.0003959262407094524   -0.00016077444055081957
-0.0007697929521460398   -0.0011690846021331143   -0.00024367769490067618
-0.00018898301432333371   -0.0003805696935182685   -0.00012264629479310135
-0.0004039217027422187   -0.00041512793925762307   -0.00013494004195116168
-0.0007697929521460398   -0.0011690846021331143   -0.00024367769490067618
-0.00035946051743301964   -0.001151497636602409   -0.00020877640713821163
-0.00018898301432333371   -0.0003805696935182685   -0.00012264629479310135
-0.00035501943287072867   -0.0011637737736922503   -0.00019652320540902886
-0.0004039217027422187   -0.00041512793925762307   -0.00013494004195116168
-0.0001809478486656884   -0.0003929687598279219   -0.00011034963190174417
-0.00035501943287072867   -0.0011637737736922503   -0.00019652320540902886
-0.00018898301432333371   -0.0003805696935182685   -0.00012264629479310135
-0.0004039217027422187   -0.00041512793925762307   -0.00013494004195116168
-0.00035501943287072867   -0.0011637737736922503   -0.00019652320540902886
-0.0007693872005737862   -0.0011885636530048677   -0.00022000776158085655
-0.0007697929521460398   -0.0011690846021331143   -0.00024367769490067618
-0.0004039217027422187   -0.00041512793925762307   -0.00013494004195116168
-0.00035501943287072867   -0.0011637737736922503   -0.00019652320540902886
-0.0007697929521460398   -0.0011690846021331143   -0.00024367769490067618
-0.00018898301432333371   -0.0003805696935182685   -0.00012264629479310135
-0.0004039217027422187   -0.00041512793925762307   -0.00013494004195116168
-0.0007693872005737862   -0.0011885636530048677   -0.00022000776158085655
-0.0001809478486656884   -0.0003929687598279219   -0.00011034963190174417
-0.00040422632806024026   -0.00042506419584292175   -0.00010923799932533316
-0.0007693872005737862   -0.0011885636530048677   -0.00022000776158085655
-0.00035501943287072867   -0.0011637737736922503   -0.00019652320540902886
-0.0001809478486656884   -0.0003929687598279219   -0.00011034963190174417
-0.00035093298919849306   -0.0011697732136111952   -0.0001854727333989098
-0.00040422632806024026   -0.00042506419584292175   -0.00010923799932533316
-0.00017609392742931978   -0.00039772900093236664   -9.846781357174606e-05
-0.00035093298919849306   -0.0011697732136111952   -0.0001854727333989098
-0.0001809478486656884   -0.0003929687598279219   -0.00011034963190174417
-0.00040422632806024026   -0.00042506419584292175   -0.00010923799932533316
-0.00035093298919849306   -0.0011697732136111952   -0.0001854727333989098
-0.0007710039291110501   -0.0012005589429056752   -0.00019734757887593542
-0.0007693872005737862   -0.0011885636530048677   -0.00022000776158085655
-0.00040422632806024026   -0.00042506419584292175   -0.00010923799932533316
-0.00035093298919849306   -0.0011697732136111952   -0.0001854727333989098
-0.0007693872005737862   -0.0011885636530048677   -0.00022000776158085655
-0.0001809478486656884   -0.0003929687598279219   -0.00011034963190174417
-0.00040422632806024026   -0.00042506419584292175   -0.00010923799932533316
-0.0007710039291110501   -0.0012005589429056752   -0.00019734757887593542
-0.00017609392742931978   -0.00039772900093236664   -9.846781357174606e-05
-0.00040307313715880856   -0.0004277490102452688   -8.278038419800104e-05
-0.0007710039291110501   -0.0012005589429056752   -0.00019734757887593542
-0.00035093298919849306   -0.0011697732136111952   -0.0001854727333989098
-0.00017609392742931978   -0.00039772900093236664   -9.846781357174606e-05
-0.00034545987811658764   -0.0011697187032782112   -0.0001759199006529579
-0.00040307313715880856   -0.0004277490102452688   -8.278038419800104e-05
-0.00017153619635212934   -0.00039582255446985517   -8.628192250434031e-05
-0.00034545987811658764   -0.0011697187032782112   -0.0001759199006529579
-0.00017609392742931978   -0.00039772900093236664   -9.846781357174606e-05
-0.00040307313715880856   -0.0004277490102452688   -8.278038419800104e-05
-0.00034545987811658764   -0.0011697187032782112   -0.0001759199006529579
-0.0007672406963524916   -0.0012069842381975404   -0.00017622241641233598
-0.0007710039291110501   -0.0012005589429056752   -0.00019734757887593542
-0.00040307313715880856   -0.0004277490102452688   -8.278038419800104e-05
-0.00034545987811658764   -0.0011697187032782112   -0.0001759199006529579
-0.0007710039291110501   -0.0012005589429056752   -0.00019734757887593542
-0.00017609392742931978   -0.00039772900093236664   -9.846781357174606e-05
-0.00018898301432333371   -0.0003805696935182685   -0.00012264629479310135
-0.00035946051743301964   -0.001151497636602409   -0.00020877640713821163
2.182401807312564e-05   -0.00038266767032429596   -9.859201623557211e-05
-0.0001809478486656884   -0.0003929687598279219   -0.00011034963190174417
-0.00035946051743301964   -0.001151497636602409   -0.00020877640713821163
3.536943739093147e-05   -0.0011521016480994769   -0.00018700925598598366
2.182401807312564e-05   -0.00038266767032429596   -9.859201623557211e-05
4.0595129844866846e-05   -0.0011577258834685072   -0.00018595005959512302
-0.0001809478486656884   -0.0003929687598279219   -0.00011034963190174417
2.7339690966296932e-05   -0.0003889829371280602   -0.00010005276819629338
4.0595129844866846e-05   -0.0011577258834685072   -0.00018595005959512302
2.182401807312564e-05   -0.00038266767032429596   -9.859201623557211e-05
-0.0001809478486656884   -0.0003929687598279219   -0.00011034963190174417
4.0595129844866846e-05   -0.0011577258834685072   -0.00018595005959512302
-0.00035501943287072867   -0.0011637737736922503   -0.00019652320540902886
-0.00035946051743301964   -0.001151497636602409   -0.00020877640713821163
-0.0001809478486656884   -0.0003929687598279219   -0.00011034963190174417
4.0595129844866846e-05   -0.0011577258834685072   -0.00018595005959512302
-0.00035946051743301964   -0.001151497636602409   -0.00020877640713821163
2.182401807312564e-05   -0.00038266767032429596   -9.859201623557211e-05
-0.0001809478486656884   -0.0003929687598279219   -0.00011034963190174417
-0.00035501943287072867   -0.0011637737736922503   -0.00019652320540902886
2.7339690966296932e-05   -0.0003889829371280602   -0.00010005276819629338
-0.00017609392742931978   -0.00039772900093236664   -9.846781357174606e-05
-0.00035501943287072867   -0.0011637737736922503   -0.00019652320540902886
4.0595129844866846e-05   -0.0011577258834685072   -0.00018595005959512302
2.7339690966296932e-05   -0.0003889829371280602   -0.00010005276819629338
4.453669562577163e-05   -0.001157215903136969   -0.00018625083970501665
-0.00017609392742931978   -0.00039772900093236664   -9.846781357174606e-05
3.1803309850112995e-05   -0.000388362353936939   -0.00010145307376440221
4.453669562577163e-05   -0.001157215903136969   -0.00018625083970501665
2.7339690966296932e-05   -0.0003889829371280602   -0.00010005276819629338
-0.00017609392742931978   -0.00039772900093236664   -9.846781357174606e-05
4.453669562577163e-05   -0.001157215903136969   -0.00018625083970501665
-0.00035093298919849306   -0.0011697732136111952   -0.0001854727333989098
-0.00035501943287072867   -0.0011637737736922503   -0.00019652320540902886
-0.00017609392742931978   -0.00039772900093236664   -9.846781357174606e-05
4.453669562577163e-05   -0.001157215903136969   -0.00018625083970501665
-0.00035501943287072867   -0.0011637737736922503   -0.00019652320540902886
2.7339690966296932e-05   -0.0003889829371280602   -0.00010005276819629338
-0.00017609392742931978   -0.00039772900093236664   -9.846781357174606e-05
-0.00035093298919849306   -0.0011697732136111952   -0.0001854727333989098
3.1803309850112995e-05   -0.000388362353936939   -0.00010145307376440221
-0.00017153619635212934   -0.00039582255446985517   -8.628192250434031e-05
-0.00035093298919849306   -0.0011697732136111952   -0.0001854727333989098
4.453669562577163e-05   -0.001157215903136969   -0.00018625083970501665
3.1803309850112995e-05   -0.000388362353936939   -0.00010145307376440221
4.8665559404618354e-05   -0.0011503910577842491   -0.00018793141195095706
-0.00017153619635212934   -0.00039582255446985517   -8.628192250434031e-05
3.7532111234984235e-05   -0.0003802533116028905   -0.0001029899880101651
4.8665559404618354e-05   -0.0011503910577842491   -0.00018793141195095706
3.1803309850112995e-05   -0.000388362353936939   -0.00010145307376440221
-0.00017153619635212934   -0.00039582255446985517   -8.628192250434031e-05
4.8665559404618354e-05   -0.0011503910577842491   -0.00018793141195095706
-0.00034545987811658764   -0.0011697187032782112   -0.0001759199006529579
-0.00035093298919849306   -0.0011697732136111952   -0.0001854727333989098
-0.00017153619635212934   -0.00039582255446985517   -8.628192250434031e-05
4.8665559404618354e-05   -0.0011503910577842491   -0.00018793141195095706
-0.00035093298919849306   -0.0011697732136111952   -0.0001854727333989098
3.1803309850112995e-05   -0.000388362353936939   -0.00010145307376440221
2.182401807312564e-05   -0.00038266767032429596   -9.859201623557211e-05
3.536943739093147e-05   -0.0011521016480994769   -0.00018700925598598366
0.00025136183855541393   -0.0004003596142658524   -8.701329867909994e-05
2.7339690966296932e-05   -0.0003889829371280602   -0.00010005276819629338
3.536943739093147e-05   -0.0011521016480994769   -0.00018700925598598366
0.000454522787318476   -0.0011702661866492998   -0.00017732907854827487
0.00025136183855541393   -0.0004003596142658524   -8.701329867909994e-05
0.00045824400556969636   -0.001169790716572568   -0.00018781756616820467
2.7339690966296932e-05   -0.0003889829371280602   -0.00010005276819629338
0.0002528532587596149   -0.00040217918793765693   -0.00010295752805501411
0.00045824400556969636   -0.001169790716572568   -0.00018781756616820467
0.00025136183855541393   -0.0004003596142658524   -8.701329867909994e-05
2.7339690966296932e-05   -0.0003889829371280602   -0.00010005276819629338
0.00045824400556969636   -0.001169790716572568   -0.00018781756616820467
4.0595129844866846e-05   -0.0011577258834685072   -0.00018595005959512302
3.536943739093147e-05   -0.0011521016480994769   -0.00018700925598598366
2.7339690966296932e-05   -0.0003889829371280602   -0.00010005276819629338
0.00045824400556969636   -0.001169790716572568   -0.00018781756616820467
3.536943739093147e-05   -0.0011521016480994769   -0.00018700925598598366
0.00025136183855541393   -0.0004003596142658524   -8.701329867909994e-05
2.7339690966296932e-05   -0.0003889829371280602   -0.00010005276819629338
4.0595129844866846e-05   -0.0011577258834685072   -0.00018595005959512302
0.0002528532587596149   -0.00040217918793765693   -0.00010295752805501411
3.1803309850112995e-05   -0.000388362353936939   -0.00010145307376440221
4.0595129844866846e-05   -0.0011577258834685072   -0.00018595005959512302
0.00045824400556969636   -0.001169790716572568   -0.00018781756616820467
0.0002528532587596149   -0.00040217918793765693   -0.00010295752805501411
0.00045763854722222544   -0.0011633406560238701   -0.00019984358475797927
3.1803309850112995e-05   -0.000388362353936939   -0.00010145307376440221
0.00025267041774821355   -0.00039644370361400697   -0.0001183694829247572
0.00045763854722222544   -0.0011633406560238701   -0.00019984358475797927
0.0002528532587596149   -0.00040217918793765693   -0.00010295752805501411
3.1803309850112995e-05   -0.000388362353936939   -0.00010145307376440221
0.00045763854722222544   -0.0011633406560238701   -0.00019984358475797927
4.453669562577163e-05   -0.001157215903136969   -0.00018625083970501665
4.0595129844866846e-05   -0.0011577258834685072   -0.00018595005959512302
3.1803309850112995e-05   -0.000388362353936939   -0.00010145307376440221
0.00045763854722222544   -0.0011633406560238701   -0.00019984358475797927
4.0595129844866846e-05   -0.0011577258834685072   -0.00018595005959512302
0.0002528532587596149   -0.00040217918793765693   -0.00010295752805501411
3.1803309850112995e-05   -0.000388362353936939   -0.00010145307376440221
4.453669562577163e-05   -0.001157215903136969   -0.00018625083970501665
0.00025267041774821355   -0.00039644370361400697   -0.0001183694829247572
3.7532111234984235e-05   -0.0003802533116028905   -0.0001029899880101651
4.453669562577163e-05   -0.001157215903136969   -0.00018625083970501665
0.00045763854722222544   -0.0011633406560238701   -0.00019984358475797927
0.00025267041774821355   -0.00039644370361400697   -0.0001183694829247572
0.0004578400371334373   -0.0011492122198847928   -0.00021295701741514626
3.7532111234984235e-05   -0.0003802533116028905   -0.0001029899880101651
0.000258428753129462   -0.0003814942863597334   -0.00013358010704084372
0.0004578400371334373   -0.0011492122198847928   -0.00021295701741514626
0.00025267041774821355   -0.00039644370361400697   -0.0001183694829247572
3.7532111234984235e-05   -0.0003802533116028905   -0.0001029899880101651
0.0004578400371334373   -0.0011492122198847928   -0.00021295701741514626
4.8665559404618354e-05   -0.0011503910577842491   -0.00018793141195095706
4.453669562577163e-05   -0.001157215903136969   -0.00018625083970501665
3.7532111234984235e-05   -0.0003802533116028905   -0.0001029899880101651
0.0004578400371334373   -0.0011492122198847928   -0.00021295701741514626
4.453669562577163e-05   -0.001157215903136969   -0.00018625083970501665
0.00025267041774821355   -0.00039644370361400697   -0.0001183694829247572
0.00025136183855541393   -0.0004003596142658524   -8.701329867909994e-05
0.000454522787318476   -0.0011702661866492998   -0.00017732907854827487
0.0005730076917639457   -0.000445630198090065   -8.290178415812859e-05
0.0002528532587596149   -0.00040217918793765693   -0.00010295752805501411
0.000454522787318476   -0.0011702661866492998   -0.00017732907854827487
0.0009622831993388718   -0.0012037620523181606   -0.0001756729812460488
0.0005730076917639457   -0.000445630198090065   -8.290178415812859e-05
0.0009449391664144394   -0.0011999137787122892   -0.0001994730798261835
0.0002528532587596149   -0.00040217918793765693   -0.00010295752805501411
0.0005395033669335633   -0.00044036625814542873   -0.00011937947274551568
0.0009449391664144394   -0.0011999137787122892   -0.0001994730798261835
0.0005730076917639457   -0.000445630198090065   -8.290178415812859e-05
0.0002528532587596149   -0.00040217918793765693   -0.00010295752805501411
0.0009449391664144394   -0.0011999137787122892   -0.0001994730798261835
0.00045824400556969636   -0.001169790716572568   -0.00018781756616820467
0.000454522787318476   -0.0011702661866492998   -0.00017732907854827487
0.0002528532587596149   -0.00040217918793765693   -0.00010295752805501411
0.0009449391664144394   -0.0011999137787122892   -0.0001994730798261835
0.000454522787318476   -0.0011702661866492998   -0.00017732907854827487
0.0005730076917639457   -0.000445630198090065   -8.290178415812859e-05
0.0002528532587596149   -0.00040217918793765693   -0.00010295752805501411
0.00045824400556969636   -0.001169790716572568   -0.00018781756616820467
0.0005395033669335633   -0.00044036625814542873   -0.00011937947274551568
0.00025267041774821355   -0.00039644370361400697   -0.0001183694829247572
0.00045824400556969636   -0.001169790716572568   -0.00018781756616820467
0.0009449391664144394   -0.0011999137787122892   -0.0001994730798261835
0.0005395033669335633   -0.00044036625814542873   -0.00011937947274551568
0.0009292485300166076   -0.00119005260222307   -0.0002264902999235272
0.00025267041774821355   -0.00039644370361400697   -0.0001183694829247572
0.0005244597459310783   -0.00043122066946547596   -0.00015031811641736648
0.0009292485300166076   -0.00119005260222307   -0.0002264902999235272
0.0005395033669335633   -0.00044036625814542873   -0.00011937947274551568
0.00025267041774821355   -0.00039644370361400697   -0.0001183694829247572
0.0009292485300166076   -0.00119005260222307   -0.0002264902999235272
0.00045763854722222544   -0.0011633406560238701   -0.00019984358475797927
0.00045824400556969636   -0.001169790716572568   -0.00018781756616820467
0.00025267041774821355   -0.00039644370361400697   -0.0001183694829247572
0.0009292485300166076   -0.00119005260222307   -0.0002264902999235272
0.00045824400556969636   -0.001169790716572568   -0.00018781756616820467
0.0005395033669335633   -0.00044036625814542873   -0.00011937947274551568
0.00025267041774821355   -0.00039644370361400697   -0.0001183694829247572
0.00045763854722222544   -0.0011633406560238701   -0.00019984358475797927
0.0005244597459310783   -0.00043122066946547596   -0.00015031811641736648
0.000258428753129462   -0.0003814942863597334   -0.00013358010704084372
0.00045763854722222544   -0.0011633406560238701   -0.00019984358475797927
0.0009292485300166076   -0.00119005260222307   -0.0002264902999235272
0.0005244597459310783   -0.00043122066946547596   -0.00015031811641736648
0.000904786601343184   -0.001168607638886228   -0.0002547618529398053
0.000258428753129462   -0.0003814942863597334   -0.00013358010704084372
0.0005014349116758757   -0.00040813473355007723   -0.00018326135714776714
0.000904786601343184   -0.001168607638886228   -0.0002547618529398053
0.0005244597459310783   -0.00043122066946547596   -0.00015031811641736648
0.000258428753129462   -0.0003814942863597334   -0.00013358010704084372
0.000904786601343184   -0.001168607638886228   -0.0002547618529398053
0.0004578400371334373   -0.0011492122198847928   -0.00021295701741514626
0.00045763854722222544   -0.0011633406560238701   -0.00019984358475797927
0.000258428753129462   -0.0003814942863597334   -0.00013358010704084372
0.000904786601343184   -0.001168607638886228   -0.0002547618529398053
0.00045763854722222544   -0.0011633406560238701   -0.00019984358475797927
0.0005244597459310783   -0.00043122066946547596   -0.00015031811641736648
-0.0012066865029285658   -0.0012068599124683145   -0.00029498769609369866
-0.0016427991971861868   -0.002241184924617283   -0.00033723075186325926
-0.0007697929521460398   -0.0011690846021331143   -0.00024367769490067618
-0.0012410931240958343   -0.0012341789918794406   -0.0002567493655135662
-0.0016427991971861868   -0.002241184924617283   -0.00033723075186325926
-0.0010573656630542792   -0.0022126787479842098   -0.000296265657731423
-0.0007697929521460398   -0.0011690846021331143   -0.00024367769490067618
-0.0010580810590284343   -0.0022292615496094345   -0.0002781186486537289
-0.0012410931240958343   -0.0012341789918794406   -0.0002567493655135662
-0.0007693872005737862   -0.0011885636530048677   -0.00022000776158085655
-0.0010580810590284343   -0.0022292615496094345   -0.0002781186486537289
-0.0007697929521460398   -0.0011690846021331143   -0.00024367769490067618
-0.0012410931240958343   -0.0012341789918794406   -0.0002567493655135662
-0.0010580810590284343   -0.0022292615496094345   -0.0002781186486537289
-0.0016698099623518614   -0.002263939726110908   -0.00030920641588284923
-0.0016427991971861868   -0.002241184924617283   -0.00033723075186325926
-0.0012410931240958343   -0.0012341789918794406   -0.0002567493655135662
-0.0010580810590284343   -0.0022292615496094345   -0.0002781186486537289
-0.0016427991971861868   -0.002241184924617283   -0.00033723075186325926
-0.0007697929521460398   -0.0011690846021331143   -0.00024367769490067618
-0.0012410931240958343   -0.0012341789918794406   -0.0002567493655135662
-0.0016698099623518614   -0.002263939726110908   -0.00030920641588284923
-0.0007693872005737862   -0.0011885636530048677   -0.00022000776158085655
-0.0012644436059521488   -0.001249723393408508   -0.00021942581485017186
-0.0016698099623518614   -0.002263939726110908   -0.00030920641588284923
-0.0010580810590284343   -0.0022292615496094345   -0.0002781186486537289
-0.0007693872005737862   -0.0011885636530048677   -0.00022000776158085655
-0.0010591189906561298   -0.0022409317676880796   -0.00026134312527068123
-0.0012644436059521488   -0.001249723393408508   -0.00021942581485017186
-0.0007710039291110501   -0.0012005589429056752   -0.00019734757887593542
-0.0010591189906561298   -0.0022409317676880796   -0.00026134312527068123
-0.0007693872005737862   -0.0011885636530048677   -0.00022000776158085655
-0.0012644436059521488   -0.001249723393408508   -0.00021942581485017186
-0.0010591189906561298   -0.0022409317676880796   -0.00026134312527068123
-0.0016861024146990408   -0.0022783554389759694   -0.00028318682442374227
-0.0016698099623518614   -0.002263939726110908   -0.00030920641588284923
-0.0012644436059521488   -0.001249723393408508   -0.00021942581485017186
-0.0010591189906561298   -0.0022409317676880796   -0.00026134312527068123
-0.0016698099623518614   -0.002263939726110908   -0.00030920641588284923
-0.0007693872005737862   -0.0011885636530048677   -0.00022000776158085655
-0.0012644436059521488   -0.001249723393408508   -0.00021942581485017186
-0.0016861024146990408   -0.0022783554389759694   -0.00028318682442374227
-0.0007710039291110501   -0.0012005589429056752   -0.00019734757887593542
-0.0012919826839464944   -0.0012591191590970198   -0.00018565829387003627
-0.0016861024146990408   -0.0022783554389759694   -0.00028318682442374227
-0.0010591189906561298   -0.0022409317676880796   -0.00026134312527068123
-0.0007710039291110501   -0.0012005589429056752   -0.00019734757887593542
-0.001055438095899086   -0.0022488090108987203   -0.0002456429501610059
-0.0012919826839464944   -0.0012591191590970198   -0.00018565829387003627
-0.0007672406963524916   -0.0012069842381975404   -0.00017622241641233598
-0.001055438095899086   -0.0022488090108987203   -0.0002456429501610059
-0.0007710039291110501   -0.0012005589429056752   -0.00019734757887593542
-0.0012919826839464944   -0.0012591191590970198   -0.00018565829387003627
-0.001055438095899086   -0.0022488090108987203   -0.0002456429501610059
-0.0017046386485467095   -0.0022890460932289166   -0.00025936089638347817
-0.0016861024146990408   -0.0022783554389759694   -0.00028318682442374227
-0.0012919826839464944   -0.0012591191590970198   -0.00018565829387003627
-0.001055438095899086   -0.0022488090108987203   -0.0002456429501610059
-0.0016861024146990408   -0.0022783554389759694   -0.00028318682442374227
-0.0007710039291110501   -0.0012005589429056752   -0.00019734757887593542
-0.0007697929521460398   -0.0011690846021331143   -0.00024367769490067618
-0.0010573656630542792   -0.0022126787479842098   -0.000296265657731423
-0.00035946051743301964   -0.001151497636602409   -0.00020877640713821163
-0.0007693872005737862   -0.0011885636530048677   -0.00022000776158085655
-0.0010573656630542792   -0.0022126787479842098   -0.000296265657731423
-0.0005076300092328834   -0.0021983293596679375   -0.00026787530065737513
-0.00035946051743301964   -0.001151497636602409   -0.00020877640713821163
-0.0005047668163480343   -0.0022088132145275663   -0.0002574643187528154
-0.0007693872005737862   -0.0011885636530048677   -0.00022000776158085655
-0.00035501943287072867   -0.0011637737736922503   -0.00019652320540902886
-0.0005047668163480343   -0.0022088132145275663   -0.0002574643187528154
-0.00035946051743301964   -0.001151497636602409   -0.00020877640713821163
-0.0007693872005737862   -0.0011885636530048677   -0.00022000776158085655
-0.0005047668163480343   -0.0022088132145275663   -0.0002574643187528154
-0.0010580810590284343   -0.0022292615496094345   -0.0002781186486537289
-0.0010573656630542792   -0.0022126787479842098   -0.000296265657731423
-0.0007693872005737862   -0.0011885636530048677   -0.00022000776158085655
-0.0005047668163480343   -0.0022088132145275663   -0.0002574643187528154
-0.0010573656630542792   -0.0022126787479842098   -0.000296265657731423
-0.00035946051743301964   -0.001151497636602409   -0.00020877640713821163
-0.0007693872005737862   -0.0011885636530048677   -0.00022000776158085655
-0.0010580810590284343   -0.0022292615496094345   -0.0002781186486537289
-0.00035501943287072867   -0.0011637737736922503   -0.00019652320540902886
-0.0007710039291110501   -0.0012005589429056752   -0.00019734757887593542
-0.0010580810590284343   -0.0022292615496094345   -0.0002781186486537289
-0.0005047668163480343   -0.0022088132145275663   -0.0002574643187528154
-0.00035501943287072867   -0.0011637737736922503   -0.00019652320540902886
-0.0005016271318942811   -0.0022150222335287654   -0.000248349407086153
-0.0007710039291110501   -0.0012005589429056752   -0.00019734757887593542
-0.00035093298919849306   -0.0011697732136111952   -0.0001854727333989098
-0.0005016271318942811   -0.0022150222335287654   -0.000248349407086153
-0.00035501943287072867   -0.0011637737736922503   -0.00019652320540902886
-0.0007710039291110501   -0.0012005589429056752   -0.00019734757887593542
-0.0005016271318942811   -0.0022150222335287654   -0.000248349407086153
-0.0010591189906561298   -0.0022409317676880796   -0.00026134312527068123
-0.0010580810590284343   -0.0022292615496094345   -0.0002781186486537289
-0.0007710039291110501   -0.0012005589429056752   -0.00019734757887593542
-0.0005016271318942811   -0.0022150222335287654   -0.000248349407086153
-0.0010580810590284343   -0.0022292615496094345   -0.0002781186486537289
-0.00035501943287072867   -0.0011637737736922503   -0.00019652320540902886
-0.0007710039291110501   -0.0012005589429056752   -0.00019734757887593542
-0.0010591189906561298   -0.0022409317676880796   -0.00026134312527068123
-0.00035093298919849306   -0.0011697732136111952   -0.0001854727333989098
-0.0007672406963524916   -0.0012069842381975404   -0.00017622241641233598
-0.0010591189906561298   -0.0022409317676880796   -0.00026134312527068123
-0.0005016271318942811   -0.0022150222335287654   -0.000248349407086153
-0.00035093298919849306   -0.0011697732136111952   -0.0001854727333989098
-0.0004974613787798544   -0.0022170448396091683   -0.00024053131582076973
-0.0007672406963524916   -0.0012069842381975404   -0.00017622241641233598
-0.00034545987811658764   -0.0011697187032782112   -0.0001759199006529579
-0.0004974613787798544   -0.0022170448396091683   -0.00024053131582076973
-0.00035093298919849306   -0.0011697732136111952   -0.0001854727333989098
-0.0007672406963524916   -0.0012069842381975404   -0.00017622241641233598
-0.0004974613787798544   -0.0022170448396091683   -0.00024053131582076973
-0.001055438095899086   -0.0022488090108987203   -0.0002456429501610059
-0.0010591189906561298   -0.0022409317676880796   -0.00026134312527068123
-0.0007672406963524916   -0.0012069842381975404   -0.00017622241641233598
-0.0004974613787798544   -0.0022170448396091683   -0.00024053131582076973
-0.0010591189906561298   -0.0022409317676880796   -0.00026134312527068123
-0.00035093298919849306   -0.0011697732136111952   -0.0001854727333989098
-0.00035946051743301964   -0.001151497636602409   -0.00020877640713821163
-0.0005076300092328834   -0.0021983293596679375   -0.00026787530065737513
3.536943739093147e-05   -0.0011521016480994769   -0.00018700925598598366
-0.00035501943287072867   -0.0011637737736922503   -0.00019652320540902886
-0.0005076300092328834   -0.0021983293596679375   -0.00026787530065737513
2.5281350929655714e-05   -0.0021975388521814523   -0.000250590492639275
3.536943739093147e-05   -0.0011521016480994769   -0.00018700925598598366
2.926901771429261e-05   -0.0022019799602140816   -0.000247884334263961
-0.00035501943287072867   -0.0011637737736922503   -0.00019652320540902886
4.0595129844866846e-05   -0.0011577258834685072   -0.00018595005959512302
2.926901771429261e-05   -0.0022019799602140816   -0.000247884334263961
3.536943739093147e-05   -0.0011521016480994769   -0.00018700925598598366
-0.00035501943287072867   -0.0011637737736922503   -0.00019652320540902886
2.926901771429261e-05   -0.0022019799602140816   -0.000247884334263961
-0.0005047668163480343   -0.0022088132145275663   -0.0002574643187528154
-0.0005076300092328834   -0.0021983293596679375   -0.00026787530065737513
-0.00035501943287072867   -0.0011637737736922503   -0.00019652320540902886
2.926901771429261e-05   -0.0022019799602140816   -0.000247884334263961
-0.0005076300092328834   -0.0021983293596679375   -0.00026787530065737513
3.536943739093147e-05   -0.0011521016480994769   -0.00018700925598598366
-0.00035501943287072867   -0.0011637737736922503   -0.00019652320540902886
-0.0005047668163480343   -0.0022088132145275663   -0.0002574643187528154
4.0595129844866846e-05   -0.0011577258834685072   -0.00018595005959512302
-0.00035093298919849306   -0.0011697732136111952   -0.0001854727333989098
-0.0005047668163480343   -0.0022088132145275663   -0.0002574643187528154
2.926901771429261e-05   -0.0022019799602140816   -0.000247884334263961
4.0595129844866846e-05   -0.0011577258834685072   -0.00018595005959512302
3.239316206841273e-05   -0.0022021602202883634   -0.0002464457881874793
-0.00035093298919849306   -0.0011697732136111952   -0.0001854727333989098
4.453669562577163e-05   -0.001157215903136969   -0.00018625083970501665
3.239316206841273e-05   -0.0022021602202883634   -0.0002464457881874793
4.0595129844866846e-05   -0.0011577258834685072   -0.00018595005959512302
-0.00035093298919849306   -0.0011697732136111952   -0.0001854727333989098
3.239316206841273e-05   -0.0022021602202883634   -0.0002464457881874793
-0.0005016271318942811   -0.0022150222335287654   -0.000248349407086153
-0.0005047668163480343   -0.0022088132145275663   -0.0002574643187528154
-0.00035093298919849306   -0.0011697732136111952   -0.0001854727333989098
3.239316206841273e-05   -0.0022021602202883634   -0.0002464457881874793
-0.0005047668163480343   -0.0022088132145275663   -0.0002574643187528154
4.0595129844866846e-05   -0.0011577258834685072   -0.00018595005959512302
-0.00035093298919849306   -0.0011697732136111952   -0.0001854727333989098
-0.0005016271318942811   -0.0022150222335287654   -0.000248349407086153
4.453669562577163e-05   -0.001157215903136969   -0.00018625083970501665
-0.00034545987811658764   -0.0011697187032782112   -0.0001759199006529579
-0.0005016271318942811   -0.0022150222335287654   -0.000248349407086153
3.239316206841273e-05   -0.0022021602202883634   -0.0002464457881874793
4.453669562577163e-05   -0.001157215903136969   -0.00018625083970501665
3.511131888683983e-05   -0.0021980182606749746   -0.00024634584295323654
-0.00034545987811658764   -0.0011697187032782112   -0.0001759199006529579
4.8665559404618354e-05   -0.0011503910577842491   -0.00018793141195095706
3.511131888683983e-05   -0.0021980182606749746   -0.00024634584295323654
4.453669562577163e-05   -0.001157215903136969   -0.00018625083970501665
-0.00034545987811658764   -0.0011697187032782112   -0.0001759199006529579
3.511131888683983e-05   -0.0021980182606749746   -0.00024634584295323654
-0.0004974613787798544   -0.0022170448396091683   -0.00024053131582076973
-0.0005016271318942811   -0.0022150222335287654   -0.000248349407086153
-0.00034545987811658764   -0.0011697187032782112   -0.0001759199006529579
3.511131888683983e-05   -0.0021980182606749746   -0.00024634584295323654
-0.0005016271318942811   -0.0022150222335287654   -0.000248349407086153
4.453669562577163e-05   -0.001157215903136969   -0.00018625083970501665
3.536943739093147e-05   -0.0011521016480994769   -0.00018700925598598366
2.5281350929655714e-05   -0.0021975388521814523   -0.000250590492639275
0.000454522787318476   -0.0011702661866492998   -0.00017732907854827487
4.0595129844866846e-05   -0.0011577258834685072   -0.00018595005959512302
2.5281350929655714e-05   -0.0021975388521814523   -0.000250590492639275
0.0005813876489098491   -0.00220948694848128   -0.000244162432709664
0.000454522787318476   -0.0011702661866492998   -0.00017732907854827487
0.0005852320421639661   -0.00220833343435308   -0.0002493082194618622
4.0595129844866846e-05   -0.0011577258834685072   -0.00018595005959512302
0.00045824400556969636   -0.001169790716572568   -0.00018781756616820467
0.0005852320421639661   -0.00220833343435308   -0.0002493082194618622
0.000454522787318476   -0.0011702661866492998   -0.00017732907854827487
4.0595129844866846e-05   -0.0011577258834685072   -0.00018595005959512302
0.0005852320421639661   -0.00220833343435308   -0.0002493082194618622
2.926901771429261e-05   -0.0022019799602140816   -0.000247884334263961
2.5281350929655714e-05   -0.0021975388521814523   -0.000250590492639275
4.0595129844866846e-05   -0.0011577258834685072   -0.00018595005959512302
0.0005852320421639661   -0.00220833343435308   -0.0002493082194618622
2.5281350929655714e-05   -0.0021975388521814523   -0.000250590492639275
0.000454522787318476   -0.0011702661866492998   -0.00017732907854827487
4.0595129844866846e-05   -0.0011577258834685072   -0.00018595005959512302
2.926901771429261e-05   -0.0022019799602140816   -0.000247884334263961
0.00045824400556969636   -0.001169790716572568   -0.00018781756616820467
4.453669562577163e-05   -0.001157215903136969   -0.00018625083970501665
2.926901771429261e-05   -0.0022019799602140816   -0.000247884334263961
0.0005852320421639661   -0.00220833343435308   -0.0002493082194618622
0.00045824400556969636   -0.001169790716572568   -0.00018781756616820467
0.0005855559033274849   -0.002203063852318056   -0.0002556284983077264
4.453669562577163e-05   -0.001157215903136969   -0.00018625083970501665
0.00045763854722222544   -0.0011633406560238701   -0.00019984358475797927
0.0005855559033274849   -0.002203063852318056   -0.0002556284983077264
0.00045824400556969636   -0.001169790716572568   -0.00018781756616820467
4.453669562577163e-05   -0.001157215903136969   -0.00018625083970501665
0.0005855559033274849   -0.002203063852318056   -0.0002556284983077264
3.239316206841273e-05   -0.0022021602202883634   -0.0002464457881874793
2.926901771429261e-05   -0.0022019799602140816   -0.000247884334263961
4.453669562577163e-05   -0.001157215903136969   -0.00018625083970501665
0.0005855559033274849   -0.002203063852318056   -0.0002556284983077264
2.926901771429261e-05   -0.0022019799602140816   -0.000247884334263961
0.00045824400556969636   -0.001169790716572568   -0.00018781756616820467
4.453669562577163e-05   -0.001157215903136969   -0.00018625083970501665
3.239316206841273e-05   -0.0022021602202883634   -0.0002464457881874793
0.00045763854722222544   -0.0011633406560238701   -0.00019984358475797927
4.8665559404618354e-05   -0.0011503910577842491   -0.00018793141195095706
3.239316206841273e-05   -0.0022021602202883634   -0.0002464457881874793
0.0005855559033274849   -0.002203063852318056   -0.0002556284983077264
0.00045763854722222544   -0.0011633406560238701   -0.00019984358475797927
0.000585027600117331   -0.0021925996596730145   -0.0002632672784108461
4.8665559404618354e-05   -0.0011503910577842491   -0.00018793141195095706
0.0004578400371334373   -0.0011492122198847928   -0.00021295701741514626
0.000585027600117331   -0.0021925996596730145   -0.0002632672784108461
0.00045763854722222544   -0.0011633406560238701   -0.00019984358475797927
4.8665559404618354e-05   -0.0011503910577842491   -0.00018793141195095706
0.000585027600117331   -0.0021925996596730145   -0.0002632672784108461
3.511131888683983e-05   -0.0021980182606749746   -0.00024634584295323654
3.239316206841273e-05   -0.0022021602202883634   -0.0002464457881874793
4.8665559404618354e-05   -0.0011503910577842491   -0.00018793141195095706
0.000585027600117331   -0.0021925996596730145   -0.0002632672784108461
3.239316206841273e-05   -0.0022021602202883634   -0.0002464457881874793
0.00045763854722222544   -0.0011633406560238701   -0.00019984358475797927
0.000454522787318476   -0.0011702661866492998   -0.00017732907854827487
0.0005813876489098491   -0.00220948694848128   -0.000244162432709664
0.0009622831993388718   -0.0012037620523181606   -0.0001756729812460488
0.00045824400556969636   -0.001169790716572568   -0.00018781756616820467
0.0005813876489098491   -0.00220948694848128   -0.000244162432709664
0.001215646400279043   -0.002230801859728585   -0.0002455710004053636
0.0009622831993388718   -0.0012037620523181606   -0.0001756729812460488
0.0012077090444888102   -0.0022263367140315017   -0.000259405217027976
0.00045824400556969636   -0.001169790716572568   -0.00018781756616820467
0.0009449391664144394   -0.0011999137787122892   -0.0001994730798261835
0.0012077090444888102   -0.0022263367140315017   -0.000259405217027976
0.0009622831993388718   -0.0012037620523181606   -0.0001756729812460488
0.00045824400556969636   -0.001169790716572568   -0.00018781756616820467
0.0012077090444888102   -0.0022263367140315017   -0.000259405217027976
0.0005852320421639661   -0.00220833343435308   -0.0002493082194618622
0.0005813876489098491   -0.00220948694848128   -0.000244162432709664
0.00045824400556969636   -0.001169790716572568   -0.00018781756616820467
0.0012077090444888102   -0.0022263367140315017   -0.000259405217027976
0.0005813876489098491   -0.00220948694848128   -0.000244162432709664
0.0009622831993388718   -0.0012037620523181606   -0.0001756729812460488
0.00045824400556969636   -0.001169790716572568   -0.00018781756616820467
0.0005852320421639661   -0.00220833343435308   -0.0002493082194618622
0.0009449391664144394   -0.0011999137787122892   -0.0001994730798261835
0.00045763854722222544   -0.0011633406560238701   -0.00019984358475797927
0.0005852320421639661   -0.00220833343435308   -0.0002493082194618622
0.0012077090444888102   -0.0022263367140315017   -0.000259405217027976
0.0009449391664144394   -0.0011999137787122892   -0.0001994730798261835
0.0011994150675913653   -0.0022183276501902844   -0.0002753587160668216
0.00045763854722222544   -0.0011633406560238701   -0.00019984358475797927
0.0009292485300166076   -0.00119005260222307   -0.0002264902999235272
0.0011994150675913653   -0.0022183276501902844   -0.0002753587160668216
0.0009449391664144394   -0.0011999137787122892   -0.0001994730798261835
0.00045763854722222544   -0.0011633406560238701   -0.00019984358475797927
0.0011994150675913653   -0.0022183276501902844   -0.0002753587160668216
0.0005855559033274849   -0.002203063852318056   -0.0002556284983077264
0.0005852320421639661   -0.00220833343435308   -0.0002493082194618622
0.00045763854722222544   -0.0011633406560238701   -0.00019984358475797927
0.0011994150675913653   -0.0022183276501902844   -0.0002753587160668216
0.0005852320421639661   -0.00220833343435308   -0.0002493082194618622
0.0009449391664144394   -0.0011999137787122892   -0.0001994730798261835
0.00045763854722222544   -0.0011633406560238701   -0.00019984358475797927
0.0005855559033274849   -0.002203063852318056   -0.0002556284983077264
0.0009292485300166076   -0.00119005260222307   -0.0002264902999235272
0.0004578400371334373   -0.0011492122198847928   -0.00021295701741514626
0.0005855559033274849   -0.002203063852318056   -0.0002556284983077264
0.0011994150675913653   -0.0022183276501902844   -0.0002753587160668216
0.0009292485300166076   -0.00119005260222307   -0.0002264902999235272
0.0011829771749186872   -0.0022020928199393535   -0.0002934343894982726
0.0004578400371334373   -0.0011492122198847928   -0.00021295701741514626
0.000904786601343184   -0.001168607638886228   -0.0002547618529398053
0.0011829771749186872   -0.0022020928199393535   -0.0002934343894982726
0.0009292485300166076   -0.00119005260222307   -0.0002264902999235272
0.0004578400371334373   -0.0011492122198847928   -0.00021295701741514626
0.0011829771749186872   -0.0022020928199393535   -0.0002934343894982726
0.000585027600117331   -0.0021925996596730145   -0.0002632672784108461
0.0005855559033274849   -0.002203063852318056   -0.0002556284983077264
0.0004578400371334373   -0.0011492122198847928   -0.00021295701741514626
0.0011829771749186872   -0.0022020928199393535   -0.0002934343894982726
0.0005855559033274849   -0.002203063852318056   -0.0002556284983077264
0.0009292485300166076   -0.00119005260222307   -0.0002264902999235272
-0.0016427991971861868   -0.002241184924617283   -0.00033723075186325926
-0.0019503327825907888   -0.0034546845750741254   -0.00036135488427541893
-0.0010573656630542792   -0.0022126787479842098   -0.000296265657731423
-0.0016698099623518614   -0.002263939726110908   -0.00030920641588284923
-0.0019503327825907888   -0.0034546845750741254   -0.00036135488427541893
-0.0012690458524409712   -0.0034368871241056797   -0.00032853598774339345
-0.0010573656630542792   -0.0022126787479842098   -0.000296265657731423
-0.001268945804888102   -0.0034509213370705937   -0.0003157175797512135
-0.0016698099623518614   -0.002263939726110908   -0.00030920641588284923
-0.0010580810590284343   -0.0022292615496094345   -0.0002781186486537289
-0.001268945804888102   -0.0034509213370705937   -0.0003157175797512135
-0.0010573656630542792   -0.0022126787479842098   -0.000296265657731423
-0.0016698099623518614   -0.002263939726110908   -0.00030920641588284923
-0.001268945804888102   -0.0034509213370705937   -0.0003157175797512135
-0.001967600663838687   -0.003473751287254305   -0.0003431576961677928
-0.0019503327825907888   -0.0034546845750741254   -0.00036135488427541893
-0.0016698099623518614   -0.002263939726110908   -0.00030920641588284923
-0.001268945804888102   -0.0034509213370705937   -0.0003157175797512135
-0.0019503327825907888   -0.0034546845750741254   -0.00036135488427541893
-0.0010573656630542792   -0.0022126787479842098   -0.000296265657731423
-0.0016698099623518614   -0.002263939726110908   -0.00030920641588284923
-0.001967600663838687   -0.003473751287254305   -0.0003431576961677928
-0.0010580810590284343   -0.0022292615496094345   -0.0002781186486537289
-0.0016861024146990408   -0.0022783554389759694   -0.00028318682442374227
-0.001967600663838687   -0.003473751287254305   -0.0003431576961677928
-0.001268945804888102   -0.0034509213370705937   -0.0003157175797512135
-0.0010580810590284343   -0.0022292615496094345   -0.0002781186486537289
-0.0012683542474465244   -0.0034621853580657173   -0.0003042050818851361
-0.0016861024146990408   -0.0022783554389759694   -0.00028318682442374227
-0.0010591189906561298   -0.0022409317676880796   -0.00026134312527068123
-0.0012683542474465244   -0.0034621853580657173   -0.0003042050818851361
-0.0010580810590284343   -0.0022292615496094345   -0.0002781186486537289
-0.0016861024146990408   -0.0022783554389759694   -0.00028318682442374227
-0.0012683542474465244   -0.0034621853580657173   -0.0003042050818851361
-0.0019767060092077903   -0.0034874072374774627   -0.0003267760506595309
-0.001967600663838687   -0.003473751287254305   -0.0003431576961677928
-0.0016861024146990408   -0.0022783554389759694   -0.00028318682442374227
-0.0012683542474465244   -0.0034621853580657173   -0.0003042050818851361
-0.001967600663838687   -0.003473751287254305   -0.0003431576961677928
-0.0010580810590284343   -0.0022292615496094345   -0.0002781186486537289
-0.0016861024146990408   -0.0022783554389759694   -0.00028318682442374227
-0.0019767060092077903   -0.0034874072374774627   -0.0003267760506595309
-0.0010591189906561298   -0.0022409317676880796   -0.00026134312527068123
-0.0017046386485467095   -0.0022890460932289166   -0.00025936089638347817
-0.0019767060092077903   -0.0034874072374774627   -0.0003267760506595309
-0.0012683542474465244   -0.0034621853580657173   -0.0003042050818851361
-0.0010591189906561298   -0.0022409317676880796   -0.00026134312527068123
-0.0012640837285494866   -0.003471628378930116   -0.0002938146429299749
-0.0017046386485467095   -0.0022890460932289166   -0.00025936089638347817
-0.001055438095899086   -0.0022488090108987203   -0.0002456429501610059
-0.0012640837285494866   -0.003471628378930116   -0.0002938146429299749
-0.0010591189906561298   -0.0022409317676880796   -0.00026134312527068123
-0.0017046386485467095   -0.0022890460932289166   -0.00025936089638347817
-0.0012640837285494866   -0.003471628378930116   -0.0002938146429299749
-0.001985950052148662   -0.0034999305389421947   -0.00031243517719231964
-0.0019767060092077903   -0.0034874072374774627   -0.0003267760506595309
-0.0017046386485467095   -0.0022890460932289166   -0.00025936089638347817
-0.0012640837285494866   -0.003471628378930116   -0.0002938146429299749
-0.0019767060092077903   -0.0034874072374774627   -0.0003267760506595309
-0.0010591189906561298   -0.0022409317676880796   -0.00026134312527068123
-0.0010573656630542792   -0.0022126787479842098   -0.000296265657731423
-0.0012690458524409712   -0.0034368871241056797   -0.00032853598774339345
-0.0005076300092328834   -0.0021983293596679375   -0.00026787530065737513
-0.0010580810590284343   -0.0022292615496094345   -0.0002781186486537289
-0.0012690458524409712   -0.0034368871241056797   -0.00032853598774339345
-0.0006317182461200075   -0.00342746113394449   -0.00030586181909390787
-0.0005076300092328834   -0.0021983293596679375   -0.00026787530065737513
-0.0006289373519733953   -0.0034361500090807962   -0.0002972127399154947
-0.0010580810590284343   -0.0022292615496094345   -0.0002781186486537289
-0.0005047668163480343   -0.0022088132145275663   -0.0002574643187528154
-0.0006289373519733953   -0.0034361500090807962   -0.0002972127399154947
-0.0005076300092328834   -0.0021983293596679375   -0.00026787530065737513
-0.0010580810590284343   -0.0022292615496094345   -0.0002781186486537289
-0.0006289373519733953   -0.0034361500090807962   -0.0002972127399154947
-0.001268945804888102   -0.0034509213370705937   -0.0003157175797512135
-0.0012690458524409712   -0.0034368871241056797   -0.00032853598774339345
-0.0010580810590284343   -0.0022292615496094345   -0.0002781186486537289
-0.0006289373519733953   -0.0034361500090807962   -0.0002972127399154947
-0.0012690458524409712   -0.0034368871241056797   -0.00032853598774339345
-0.0005076300092328834   -0.0021983293596679375   -0.00026787530065737513
-0.0010580810590284343   -0.0022292615496094345   -0.0002781186486537289
-0.001268945804888102   -0.0034509213370705937   -0.0003157175797512135
-0.0005047668163480343   -0.0022088132145275663   -0.0002574643187528154
-0.0010591189906561298   -0.0022409317676880796   -0.00026134312527068123
-0.001268945804888102   -0.0034509213370705937   -0.0003157175797512135
-0.0006289373519733953   -0.0034361500090807962   -0.0002972127399154947
-0.0005047668163480343   -0.0022088132145275663   -0.0002574643187528154
-0.0006257384195018488   -0.0034425030052032727   -0.0002898417523533555
-0.0010591189906561298   -0.0022409317676880796   -0.00026134312527068123
-0.0005016271318942811   -0.0022150222335287654   -0.000248349407086153
-0.0006257384195018488   -0.0034425030052032727   -0.0002898417523533555
-0.0005047668163480343   -0.0022088132145275663   -0.0002574643187528154
-0.0010591189906561298   -0.0022409317676880796   -0.00026134312527068123
-0.0006257384195018488   -0.0034425030052032727   -0.0002898417523533555
-0.0012683542474465244   -0.0034621853580657173   -0.0003042050818851361
-0.001268945804888102   -0.0034509213370705937   -0.0003157175797512135
-0.0010591189906561298   -0.0022409317676880796   -0.00026134312527068123
-0.0006257384195018488   -0.0034425030052032727   -0.0002898417523533555
-0.001268945804888102   -0.0034509213370705937   -0.0003157175797512135
-0.0005047668163480343   -0.0022088132145275663   -0.0002574643187528154
-0.0010591189906561298   -0.0022409317676880796   -0.00026134312527068123
-0.0012683542474465244   -0.0034621853580657173   -0.0003042050818851361
-0.0005016271318942811   -0.0022150222335287654   -0.000248349407086153
-0.001055438095899086   -0.0022488090108987203   -0.0002456429501610059
-0.0012683542474465244   -0.0034621853580657173   -0.0003042050818851361
-0.0006257384195018488   -0.0034425030052032727   -0.0002898417523533555
-0.0005016271318942811   -0.0022150222335287654   -0.000248349407086153
-0.0006217201723777875   -0.0034465634855334057   -0.0002837759759982934
-0.001055438095899086   -0.0022488090108987203   -0.0002456429501610059
-0.0004974613787798544   -0.0022170448396091683   -0.00024053131582076973
-0.0006217201723777875   -0.0034465634855334057   -0.0002837759759982934
-0.0005016271318942811   -0.0022150222335287654   -0.000248349407086153
-0.001055438095899086   -0.0022488090108987203   -0.0002456429501610059
-0.0006217201723777875   -0.0034465634855334057   -0.0002837759759982934
-0.0012640837285494866   -0.003471628378930116   -0.0002938146429299749
-0.0012683542474465244   -0.0034621853580657173   -0.0003042050818851361
-0.001055438095899086   -0.0022488090108987203   -0.0002456429501610059
-0.0006217201723777875   -0.0034465634855334057   -0.0002837759759982934
-0.0012683542474465244   -0.0034621853580657173   -0.0003042050818851361
-0.0005016271318942811   -0.0022150222335287654   -0.000248349407086153
-0.0005076300092328834   -0.0021983293596679375   -0.00026787530065737513
-0.0006317182461200075   -0.00342746113394449   -0.00030586181909390787
2.5281350929655714e-05   -0.0021975388521814523   -0.000250590492639275
-0.0005047668163480343   -0.0022088132145275663   -0.0002574643187528154
-0.0006317182461200075   -0.00342746113394449   -0.00030586181909390787
-1.2087653511667612e-05   -0.0034256983084143254   -0.0002929931373343682
2.5281350929655714e-05   -0.0021975388521814523   -0.000250590492639275
-8.208105604831337e-06   -0.003428963568712855   -0.0002885651738882323
-0.0005047668163480343   -0.0022088132145275663   -0.0002574643187528154
2.926901771429261e-05   -0.0022019799602140816   -0.000247884334263961
-8.208105604831337e-06   -0.003428963568712855   -0.0002885651738882323
2.5281350929655714e-05   -0.0021975388521814523   -0.000250590492639275
-0.0005047668163480343   -0.0022088132145275663   -0.0002574643187528154
-8.208105604831337e-06   -0.003428963568712855   -0.0002885651738882323
-0.0006289373519733953   -0.0034361500090807962   -0.0002972127399154947
-0.0006317182461200075   -0.00342746113394449   -0.00030586181909390787
-0.0005047668163480343   -0.0022088132145275663   -0.0002574643187528154
-8.208105604831337e-06   -0.003428963568712855   -0.0002885651738882323
-0.0006317182461200075   -0.00342746113394449   -0.00030586181909390787
2.5281350929655714e-05   -0.0021975388521814523   -0.000250590492639275
-0.0005047668163480343   -0.0022088132145275663   -0.0002574643187528154
-0.0006289373519733953   -0.0034361500090807962   -0.0002972127399154947
2.926901771429261e-05   -0.0022019799602140816   -0.000247884334263961
-0.0005016271318942811   -0.0022150222335287654   -0.000248349407086153
-0.0006289373519733953   -0.0034361500090807962   -0.0002972127399154947
-8.208105604831337e-06   -0.003428963568712855   -0.0002885651738882323
2.926901771429261e-05   -0.0022019799602140816   -0.000247884334263961
-4.99359973284298e-06   -0.0034298748356805927   -0.0002854048050029437
-0.0005016271318942811   -0.0022150222335287654   -0.000248349407086153
3.239316206841273e-05   -0.0022021602202883634   -0.0002464457881874793
-4.99359973284298e-06   -0.0034298748356805927   -0.0002854048050029437
2.926901771429261e-05   -0.0022019799602140816   -0.000247884334263961
-0.0005016271318942811   -0.0022150222335287654   -0.000248349407086153
-4.99359973284298e-06   -0.0034298748356805927   -0.0002854048050029437
-0.0006257384195018488   -0.0034425030052032727   -0.0002898417523533555
-0.0006289373519733953   -0.0034361500090807962   -0.0002972127399154947
-0.0005016271318942811   -0.0022150222335287654   -0.000248349407086153
-4.99359973284298e-06   -0.0034298748356805927   -0.0002854048050029437
-0.0006289373519733953   -0.0034361500090807962   -0.0002972127399154947
2.926901771429261e-05   -0.0022019799602140816   -0.000247884334263961
-0.0005016271318942811   -0.0022150222335287654   -0.000248349407086153
-0.0006257384195018488   -0.0034425030052032727   -0.0002898417523533555
3.239316206841273e-05   -0.0022021602202883634   -0.0002464457881874793
-0.0004974613787798544   -0.0022170448396091683   -0.00024053131582076973
-0.0006257384195018488   -0.0034425030052032727   -0.0002898417523533555
-4.99359973284298e-06   -0.0034298748356805927   -0.0002854048050029437
3.239316206841273e-05   -0.0022021602202883634   -0.0002464457881874793
-2.346947959511824e-06   -0.003428398471659456   -0.00028356330868419097
-0.0004974613787798544   -0.0022170448396091683   -0.00024053131582076973
3.511131888683983e-05   -0.0021980182606749746   -0.00024634584295323654
-2.346947959511824e-06   -0.003428398471659456   -0.00028356330868419097
3.239316206841273e-05   -0.0022021602202883634   -0.0002464457881874793
-0.0004974613787798544   -0.0022170448396091683   -0.00024053131582076973
-2.346947959511824e-06   -0.003428398471659456   -0.00028356330868419097
-0.0006217201723777875   -0.0034465634855334057   -0.0002837759759982934
-0.0006257384195018488   -0.0034425030052032727   -0.0002898417523533555
-0.0004974613787798544   -0.0022170448396091683   -0.00024053131582076973
-2.346947959511824e-06   -0.003428398471659456   -0.00028356330868419097
-0.0006257384195018488   -0.0034425030052032727   -0.0002898417523533555
3.239316206841273e-05   -0.0022021602202883634   -0.0002464457881874793
2.5281350929655714e-05   -0.0021975388521814523   -0.000250590492639275
-1.2087653511667612e-05   -0.0034256983084143254   -0.0002929931373343682
0.0005813876489098491   -0.00220948694848128   -0.000244162432709664
2.926901771429261e-05   -0.0022019799602140816   -0.000247884334263961
-1.2087653511667612e-05   -0.0034256983084143254   -0.0002929931373343682
0.0006289433106861926   -0.0034309045125077314   -0.000289937506929791
0.0005813876489098491   -0.00220948694848128   -0.000244162432709664
0.0006334619904869999   -0.003429011469487292   -0.0002898070032916395
2.926901771429261e-05   -0.0022019799602140816   -0.000247884334263961
0.0005852320421639661   -0.00220833343435308   -0.0002493082194618622
0.0006334619904869999   -0.003429011469487292   -0.0002898070032916395
0.0005813876489098491   -0.00220948694848128   -0.000244162432709664
2.926901771429261e-05   -0.0022019799602140816   -0.000247884334263961
0.0006334619904869999   -0.003429011469487292   -0.0002898070032916395
-8.208105604831337e-06   -0.003428963568712855   -0.0002885651738882323
-1.2087653511667612e-05   -0.0034256983084143254   -0.0002929931373343682
2.926901771429261e-05   -0.0022019799602140816   -0.000247884334263961
0.0006334619904869999   -0.003429011469487292   -0.0002898070032916395
-1.2087653511667612e-05   -0.0034256983084143254   -0.0002929931373343682
0.0005813876489098491   -0.00220948694848128   -0.000244162432709664
2.926901771429261e-05   -0.0022019799602140816   -0.000247884334263961
-8.208105604831337e-06   -0.003428963568712855   -0.0002885651738882323
0.0005852320421639661   -0.00220833343435308   -0.0002493082194618622
3.239316206841273e-05   -0.0022021602202883634   -0.0002464457881874793
-8.208105604831337e-06   -0.003428963568712855   -0.0002885651738882323
0.0006334619904869999   -0.003429011469487292   -0.0002898070032916395
0.0005852320421639661   -0.00220833343435308   -0.0002493082194618622
0.000635508956241604   -0.003425006353156417   -0.00029087159584285997
3.239316206841273e-05   -0.0022021602202883634   -0.0002464457881874793
0.0005855559033274849   -0.002203063852318056   -0.0002556284983077264
0.000635508956241604   -0.003425006353156417   -0.00029087159584285997
0.0005852320421639661   -0.00220833343435308   -0.0002493082194618622
3.239316206841273e-05   -0.0022021602202883634   -0.0002464457881874793
0.000635508956241604   -0.003425006353156417   -0.00029087159584285997
-4.99359973284298e-06   -0.0034298748356805927   -0.0002854048050029437
-8.208105604831337e-06   -0.003428963568712855   -0.0002885651738882323
3.239316206841273e-05   -0.0022021602202883634   -0.0002464457881874793
0.000635508956241604   -0.003425006353156417   -0.00029087159584285997
-8.208105604831337e-06   -0.003428963568712855   -0.0002885651738882323
0.0005852320421639661   -0.00220833343435308   -0.0002493082194618622
3.239316206841273e-05   -0.0022021602202883634   -0.0002464457881874793
-4.99359973284298e-06   -0.0034298748356805927   -0.0002854048050029437
0.0005855559033274849   -0.002203063852318056   -0.0002556284983077264
3.511131888683983e-05   -0.0021980182606749746   -0.00024634584295323654
-4.99359973284298e-06   -0.0034298748356805927   -0.0002854048050029437
0.000635508956241604   -0.003425006353156417   -0.00029087159584285997
0.0005855559033274849   -0.002203063852318056   -0.0002556284983077264
0.0006358580417995563   -0.0034179466906153083   -0.00029318243152831385
3.511131888683983e-05   -0.0021980182606749746   -0.00024634584295323654
0.000585027600117331   -0.0021925996596730145   -0.0002632672784108461
0.0006358580417995563   -0.0034179466906153083   -0.00029318243152831385
0.0005855559033274849   -0.002203063852318056   -0.0002556284983077264
3.511131888683983e-05   -0.0021980182606749746   -0.00024634584295323654
0.0006358580417995563   -0.0034179466906153083   -0.00029318243152831385
-2.346947959511824e-06   -0.003428398471659456   -0.00028356330868419097
-4.99359973284298e-06   -0.0034298748356805927   -0.0002854048050029437
3.511131888683983e-05   -0.0021980182606749746   -0.00024634584295323654
0.0006358580417995563   -0.0034179466906153083   -0.00029318243152831385
-4.99359973284298e-06   -0.0034298748356805927   -0.0002854048050029437
0.0005855559033274849   -0.002203063852318056   -0.0002556284983077264
0.0005813876489098491   -0.00220948694848128   -0.000244162432709664
0.0006289433106861926   -0.0034309045125077314   -0.000289937506929791
0.001215646400279043   -0.002230801859728585   -0.0002455710004053636
0.0005852320421639661   -0.00220833343435308   -0.0002493082194618622
0.0006289433106861926   -0.0034309045125077314   -0.000289937506929791
0.001336631174285379   -0.003440186335965596   -0.00029484230682000465
0.001215646400279043   -0.002230801859728585   -0.0002455710004053636
0.0013381266004980654   -0.0034347350468588544   -0.00029916242114112805
0.0005852320421639661   -0.00220833343435308   -0.0002493082194618622
0.0012077090444888102   -0.0022263367140315017   -0.000259405217027976
0.0013381266004980654   -0.0034347350468588544   -0.00029916242114112805
0.001215646400279043   -0.002230801859728585   -0.0002455710004053636
0.0005852320421639661   -0.00220833343435308   -0.0002493082194618622
0.0013381266004980654   -0.0034347350468588544   -0.00029916242114112805
0.0006334619904869999   -0.003429011469487292   -0.0002898070032916395
0.0006289433106861926   -0.0034309045125077314   -0.000289937506929791
0.0005852320421639661   -0.00220833343435308   -0.0002493082194618622
0.0013381266004980654   -0.0034347350468588544   -0.00029916242114112805
0.0006289433106861926   -0.0034309045125077314   -0.000289937506929791
0.001215646400279043   -0.002230801859728585   -0.0002455710004053636
0.0005852320421639661   -0.00220833343435308   -0.0002493082194618622
0.0006334619904869999   -0.003429011469487292   -0.0002898070032916395
0.0012077090444888102   -0.0022263367140315017   -0.000259405217027976
0.0005855559033274849   -0.002203063852318056   -0.0002556284983077264
0.0006334619904869999   -0.003429011469487292   -0.0002898070032916395
0.0013381266004980654   -0.0034347350468588544   -0.00029916242114112805
0.0012077090444888102   -0.0022263367140315017   -0.000259405217027976
0.0013371796557651858   -0.0034283308394767492   -0.00030543304458105475
0.0005855559033274849   -0.002203063852318056   -0.0002556284983077264
0.0011994150675913653   -0.0022183276501902844   -0.0002753587160668216
0.0013371796557651858   -0.0034283308394767492   -0.00030543304458105475
0.0012077090444888102   -0.0022263367140315017   -0.000259405217027976
0.0005855559033274849   -0.002203063852318056   -0.0002556284983077264
0.0013371796557651858   -0.0034283308394767492   -0.00030543304458105475
0.000635508956241604   -0.003425006353156417   -0.00029087159584285997
0.0006334619904869999   -0.003429011469487292   -0.0002898070032916395
0.0005855559033274849   -0.002203063852318056   -0.0002556284983077264
0.0013371796557651858   -0.0034283308394767492   -0.00030543304458105475
0.0006334619904869999   -0.003429011469487292   -0.0002898070032916395
0.0012077090444888102   -0.0022263367140315017   -0.000259405217027976
0.0005855559033274849   -0.002203063852318056   -0.0002556284983077264
0.000635508956241604   -0.003425006353156417   -0.00029087159584285997
0.0011994150675913653   -0.0022183276501902844   -0.0002753587160668216
0.000585027600117331   -0.0021925996596730145   -0.0002632672784108461
0.000635508956241604   -0.003425006353156417   -0.00029087159584285997
0.0013371796557651858   -0.0034283308394767492   -0.00030543304458105475
0.0011994150675913653   -0.0022183276501902844   -0.0002753587160668216
0.001330628092244714   -0.0034166637059434807   -0.0003136397878627141
0.000585027600117331   -0.0021925996596730145   -0.0002632672784108461
0.0011829771749186872   -0.0022020928199393535   -0.0002934343894982726
0.001330628092244714   -0.0034166637059434807   -0.0003136397878627141
0.0011994150675913653   -0.0022183276501902844   -0.0002753587160668216
0.000585027600117331   -0.0021925996596730145   -0.0002632672784108461
0.001330628092244714   -0.0034166637059434807   -0.0003136397878627141
0.0006358580417995563   -0.0034179466906153083   -0.00029318243152831385
0.000635508956241604   -0.003425006353156417   -0.00029087159584285997
0.000585027600117331   -0.0021925996596730145   -0.0002632672784108461
0.001330628092244714   -0.0034166637059434807   -0.0003136397878627141
0.000635508956241604   -0.003425006353156417   -0.00029087159584285997
0.0011994150675913653   -0.0022183276501902844   -0.0002753587160668216
-0.0019503327825907888   -0.0034546845750741254   -0.00036135488427541893
-0.0021313087490208533   -0.004763224332305915   -0.000369849478468368
-0.0012690458524409712   -0.0034368871241056797   -0.00032853598774339345
-0.001967600663838687   -0.003473751287254305   -0.0003431576961677928
-0.0021313087490208533   -0.004763224332305915   -0.000369849478468368
-0.0014057159958374653   -0.004756277957115929   -0.0003442214777125748
-0.0012690458524409712   -0.0034368871241056797   -0.00032853598774339345
-0.0014037745596639486   -0.004768037282711302   -0.0003364782062600129
-0.001967600663838687   -0.003473751287254305   -0.0003431576961677928
-0.001268945804888102   -0.0034509213370705937   -0.0003157175797512135
-0.0014037745596639486   -0.004768037282711302   -0.0003364782062600129
-0.0012690458524409712   -0.0034368871241056797   -0.00032853598774339345
-0.001967600663838687   -0.003473751287254305   -0.0003431576961677928
-0.0014037745596639486   -0.004768037282711302   -0.0003364782062600129
-0.0021383677135611385   -0.0047791059397559385   -0.0003608390152892837
-0.0021313087490208533   -0.004763224332305915   -0.000369849478468368
-0.001967600663838687   -0.003473751287254305   -0.0003431576961677928
-0.0014037745596639486   -0.004768037282711302   -0.0003364782062600129
-0.0021313087490208533   -0.004763224332305915   -0.000369849478468368
-0.0012690458524409712   -0.0034368871241056797   -0.00032853598774339345
-0.001967600663838687   -0.003473751287254305   -0.0003431576961677928
-0.0021383677135611385   -0.0047791059397559385   -0.0003608390152892837
-0.001268945804888102   -0.0034509213370705937   -0.0003157175797512135
-0.0019767060092077903   -0.0034874072374774627   -0.0003267760506595309
-0.0021383677135611385   -0.0047791059397559385   -0.0003608390152892837
-0.0014037745596639486   -0.004768037282711302   -0.0003364782062600129
-0.001268945804888102   -0.0034509213370705937   -0.0003157175797512135
-0.0014005030655547242   -0.004779045395869062   -0.00033002572646701335
-0.0019767060092077903   -0.0034874072374774627   -0.0003267760506595309
-0.0012683542474465244   -0.0034621853580657173   -0.0003042050818851361
-0.0014005030655547242   -0.004779045395869062   -0.00033002572646701335
-0.001268945804888102   -0.0034509213370705937   -0.0003157175797512135
-0.0019767060092077903   -0.0034874072374774627   -0.0003267760506595309
-0.0014005030655547242   -0.004779045395869062   -0.00033002572646701335
-0.00213948105348176   -0.0047922538053173005   -0.0003536815769002757
-0.0021383677135611385   -0.0047791059397559385   -0.0003608390152892837
-0.0019767060092077903   -0.0034874072374774627   -0.0003267760506595309
-0.0014005030655547242   -0.004779045395869062   -0.00033002572646701335
-0.0021383677135611385   -0.0047791059397559385   -0.0003608390152892837
-0.001268945804888102   -0.0034509213370705937   -0.0003157175797512135
-0.0019767060092077903   -0.0034874072374774627   -0.0003267760506595309
-0.00213948105348176   -0.0047922538053173005   -0.0003536815769002757
-0.0012683542474465244   -0.0034621853580657173   -0.0003042050818851361
-0.001985950052148662   -0.0034999305389421947   -0.00031243517719231964
-0.00213948105348176   -0.0047922538053173005   -0.0003536815769002757
-0.0014005030655547242   -0.004779045395869062   -0.00033002572646701335
-0.0012683542474465244   -0.0034621853580657173   -0.0003042050818851361
-0.0013945426630850046   -0.004790156454540733   -0.00032475990513301117
-0.001985950052148662   -0.0034999305389421947   -0.00031243517719231964
-0.0012640837285494866   -0.003471628378930116   -0.0002938146429299749
-0.0013945426630850046   -0.004790156454540733   -0.00032475990513301117
-0.0012683542474465244   -0.0034621853580657173   -0.0003042050818851361
-0.001985950052148662   -0.0034999305389421947   -0.00031243517719231964
-0.0013945426630850046   -0.004790156454540733   -0.00032475990513301117
-0.002138585341359621   -0.004806782346861644   -0.00034855167702814395
-0.00213948105348176   -0.0047922538053173005   -0.0003536815769002757
-0.001985950052148662   -0.0034999305389421947   -0.00031243517719231964
-0.0013945426630850046   -0.004790156454540733   -0.00032475990513301117
-0.00213948105348176   -0.0047922538053173005   -0.0003536815769002757
-0.0012683542474465244   -0.0034621853580657173   -0.0003042050818851361
-0.0012690458524409712   -0.0034368871241056797   -0.00032853598774339345
-0.0014057159958374653   -0.004756277957115929   -0.0003442214777125748
-0.0006317182461200075   -0.00342746113394449   -0.00030586181909390787
-0.001268945804888102   -0.0034509213370705937   -0.0003157175797512135
-0.0014057159958374653   -0.004756277957115929   -0.0003442214777125748
-0.0007320165109878981   -0.004751982552556617   -0.00032682198378846484
-0.0006317182461200075   -0.00342746113394449   -0.00030586181909390787
-0.0007281461912278818   -0.004758983914915757   -0.000319848100069062
-0.001268945804888102   -0.0034509213370705937   -0.0003157175797512135
-0.0006289373519733953   -0.0034361500090807962   -0.0002972127399154947
-0.0007281461912278818   -0.004758983914915757   -0.000319848100069062
-0.0006317182461200075   -0.00342746113394449   -0.00030586181909390787
-0.001268945804888102   -0.0034509213370705937   -0.0003157175797512135
-0.0007281461912278818   -0.004758983914915757   -0.000319848100069062
-0.0014037745596639486   -0.004768037282711302   -0.0003364782062600129
-0.0014057159958374653   -0.004756277957115929   -0.0003442214777125748
-0.001268945804888102   -0.0034509213370705937   -0.0003157175797512135
-0.0007281461912278818   -0.004758983914915757   -0.000319848100069062
-0.0014057159958374653   -0.004756277957115929   -0.0003442214777125748
-0.0006317182461200075   -0.00342746113394449   -0.00030586181909390787
-0.001268945804888102   -0.0034509213370705937   -0.0003157175797512135
-0.0014037745596639486   -0.004768037282711302   -0.0003364782062600129
-0.0006289373519733953   -0.0034361500090807962   -0.0002972127399154947
-0.0012683542474465244   -0.0034621853580657173   -0.0003042050818851361
-0.0014037745596639486   -0.004768037282711302   -0.0003364782062600129
-0.0007281461912278818   -0.004758983914915757   -0.000319848100069062
-0.0006289373519733953   -0.0034361500090807962   -0.0002972127399154947
-0.0007237281947898384   -0.004765520024244241   -0.0003141587562080508
-0.0012683542474465244   -0.0034621853580657173   -0.0003042050818851361
-0.0006257384195018488   -0.0034425030052032727   -0.0002898417523533555
-0.0007237281947898384   -0.004765520024244241   -0.0003141587562080508
-0.0006289373519733953   -0.0034361500090807962   -0.0002972127399154947
-0.0012683542474465244   -0.0034621853580657173   -0.0003042050818851361
-0.0007237281947898384   -0.004765520024244241   -0.0003141587562080508
-0.0014005030655547242   -0.004779045395869062   -0.00033002572646701335
-0.0014037745596639486   -0.004768037282711302   -0.0003364782062600129
-0.0012683542474465244   -0.0034621853580657173   -0.0003042050818851361
-0.0007237281947898384   -0.004765520024244241   -0.0003141587562080508
-0.0014037745596639486   -0.004768037282711302   -0.0003364782062600129
-0.0006289373519733953   -0.0034361500090807962   -0.0002972127399154947
-0.0012683542474465244   -0.0034621853580657173   -0.0003042050818851361
-0.0014005030655547242   -0.004779045395869062   -0.00033002572646701335
-0.0006257384195018488   -0.0034425030052032727   -0.0002898417523533555
-0.0012640837285494866   -0.003471628378930116   -0.0002938146429299749
-0.0014005030655547242   -0.004779045395869062   -0.00033002572646701335
-0.0007237281947898384   -0.004765520024244241   -0.0003141587562080508
-0.0006257384195018488   -0.0034425030052032727   -0.0002898417523533555
-0.0007186711070260967   -0.004771615085209169   -0.0003097918320608904
-0.0012640837285494866   -0.003471628378930116   -0.0002938146429299749
-0.0006217201723777875   -0.0034465634855334057   -0.0002837759759982934
-0.0007186711070260967   -0.004771615085209169   -0.0003097918320608904
-0.0006257384195018488   -0.0034425030052032727   -0.0002898417523533555
-0.0012640837285494866   -0.003471628378930116   -0.0002938146429299749
-0.0007186711070260967   -0.004771615085209169   -0.0003097918320608904
-0.0013945426630850046   -0.004790156454540733   -0.00032475990513301117
-0.0014005030655547242   -0.004779045395869062   -0.00033002572646701335
-0.0012640837285494866   -0.003471628378930116   -0.0002938146429299749
-0.0007186711070260967   -0.004771615085209169   -0.0003097918320608904
-0.0014005030655547242   -0.004779045395869062   -0.00033002572646701335
-0.0006257384195018488   -0.0034425030052032727   -0.0002898417523533555
-0.0006317182461200075   -0.00342746113394449   -0.00030586181909390787
-0.0007320165109878981   -0.004751982552556617   -0.00032682198378846484
-1.2087653511667612e-05   -0.0034256983084143254   -0.0002929931373343682
-0.0006289373519733953   -0.0034361500090807962   -0.0002972127399154947
-0.0007320165109878981   -0.004751982552556617   -0.00032682198378846484
-7.662615502497821e-05   -0.004749316974333044   -0.0003181901700463182
-1.2087653511667612e-05   -0.0034256983084143254   -0.0002929931373343682
-7.17126947644967e-05   -0.0047514185604879515   -0.0003120718395585714
-0.0006289373519733953   -0.0034361500090807962   -0.0002972127399154947
-8.208105604831337e-06   -0.003428963568712855   -0.0002885651738882323
-7.17126947644967e-05   -0.0047514185604879515   -0.0003120718395585714
-1.2087653511667612e-05   -0.0034256983084143254   -0.0002929931373343682
-0.0006289373519733953   -0.0034361500090807962   -0.0002972127399154947
-7.17126947644967e-05   -0.0047514185604879515   -0.0003120718395585714
-0.0007281461912278818   -0.004758983914915757   -0.000319848100069062
-0.0007320165109878981   -0.004751982552556617   -0.00032682198378846484
-0.0006289373519733953   -0.0034361500090807962   -0.0002972127399154947
-7.17126947644967e-05   -0.0047514185604879515   -0.0003120718395585714
-0.0007320165109878981   -0.004751982552556617   -0.00032682198378846484
-1.2087653511667612e-05   -0.0034256983084143254   -0.0002929931373343682
-0.0006289373519733953   -0.0034361500090807962   -0.0002972127399154947
-0.0007281461912278818   -0.004758983914915757   -0.000319848100069062
-8.208105604831337e-06   -0.003428963568712855   -0.0002885651738882323
-0.0006257384195018488   -0.0034425030052032727   -0.0002898417523533555
-0.0007281461912278818   -0.004758983914915757   -0.000319848100069062
-7.17126947644967e-05   -0.0047514185604879515   -0.0003120718395585714
-8.208105604831337e-06   -0.003428963568712855   -0.0002885651738882323
-6.728449322016935e-05   -0.004753014427324146   -0.0003072329700056151
-0.0006257384195018488   -0.0034425030052032727   -0.0002898417523533555
-4.99359973284298e-06   -0.0034298748356805927   -0.0002854048050029437
-6.728449322016935e-05   -0.004753014427324146   -0.0003072329700056151
-8.208105604831337e-06   -0.003428963568712855   -0.0002885651738882323
-0.0006257384195018488   -0.0034425030052032727   -0.0002898417523533555
-6.728449322016935e-05   -0.004753014427324146   -0.0003072329700056151
-0.0007237281947898384   -0.004765520024244241   -0.0003141587562080508
-0.0007281461912278818   -0.004758983914915757   -0.000319848100069062
-0.0006257384195018488   -0.0034425030052032727   -0.0002898417523533555
-6.728449322016935e-05   -0.004753014427324146   -0.0003072329700056151
-0.0007281461912278818   -0.004758983914915757   -0.000319848100069062
-8.208105604831337e-06   -0.003428963568712855   -0.0002885651738882323
-0.0006257384195018488   -0.0034425030052032727   -0.0002898417523533555
-0.0007237281947898384   -0.004765520024244241   -0.0003141587562080508
-4.99359973284298e-06   -0.0034298748356805927   -0.0002854048050029437
-0.0006217201723777875   -0.0034465634855334057   -0.0002837759759982934
-0.0007237281947898384   -0.004765520024244241   -0.0003141587562080508
-6.728449322016935e-05   -0.004753014427324146   -0.0003072329700056151
-4.99359973284298e-06   -0.0034298748356805927   -0.0002854048050029437
-6.35619746181931e-05   -0.004754091838844195   -0.0003037163971209002
-0.0006217201723777875   -0.0034465634855334057   -0.0002837759759982934
-2.346947959511824e-06   -0.003428398471659456   -0.00028356330868419097
-6.35619746181931e-05   -0.004754091838844195   -0.0003037163971209002
-4.99359973284298e-06   -0.0034298748356805927   -0.0002854048050029437
-0.0006217201723777875   -0.0034465634855334057   -0.0002837759759982934
-6.35619746181931e-05   -0.004754091838844195   -0.0003037163971209002
-0.0007186711070260967   -0.004771615085209169   -0.0003097918320608904
-0.0007237281947898384   -0.004765520024244241   -0.0003141587562080508
-0.0006217201723777875   -0.0034465634855334057   -0.0002837759759982934
-6.35619746181931e-05   -0.004754091838844195   -0.0003037163971209002
-0.0007237281947898384   -0.004765520024244241   -0.0003141587562080508
-4.99359973284298e-06   -0.0034298748356805927   -0.0002854048050029437
-1.2087653511667612e-05   -0.0034256983084143254   -0.0002929931373343682
-7.662615502497821e-05   -0.004749316974333044   -0.0003181901700463182
0.0006289433106861926   -0.0034309045125077314   -0.000289937506929791
-8.208105604831337e-06   -0.003428963568712855   -0.0002885651738882323
-7.662615502497821e-05   -0.004749316974333044   -0.0003181901700463182
0.0005984665273769531   -0.00474781117405171   -0.00031846241788332103
0.0006289433106861926   -0.0034309045125077314   -0.000289937506929791
0.0006046510366880815   -0.004745125000481839   -0.00031323551895236153
-8.208105604831337e-06   -0.003428963568712855   -0.0002885651738882323
0.0006334619904869999   -0.003429011469487292   -0.0002898070032916395
0.0006046510366880815   -0.004745125000481839   -0.00031323551895236153
0.0006289433106861926   -0.0034309045125077314   -0.000289937506929791
-8.208105604831337e-06   -0.003428963568712855   -0.0002885651738882323
0.0006046510366880815   -0.004745125000481839   -0.00031323551895236153
-7.17126947644967e-05   -0.0047514185604879515   -0.0003120718395585714
-7.662615502497821e-05   -0.004749316974333044   -0.0003181901700463182
-8.208105604831337e-06   -0.003428963568712855   -0.0002885651738882323
0.0006046510366880815   -0.004745125000481839   -0.00031323551895236153
-7.662615502497821e-05   -0.004749316974333044   -0.0003181901700463182
0.0006289433106861926   -0.0034309045125077314   -0.000289937506929791
-8.208105604831337e-06   -0.003428963568712855   -0.0002885651738882323
-7.17126947644967e-05   -0.0047514185604879515   -0.0003120718395585714
0.0006334619904869999   -0.003429011469487292   -0.0002898070032916395
-4.99359973284298e-06   -0.0034298748356805927   -0.0002854048050029437
-7.17126947644967e-05   -0.0047514185604879515   -0.0003120718395585714
0.0006046510366880815   -0.004745125000481839   -0.00031323551895236153
0.0006334619904869999   -0.003429011469487292   -0.0002898070032916395
0.0006093677898149202   -0.004742250272843963   -0.00030924669094158644
-4.99359973284298e-06   -0.0034298748356805927   -0.0002854048050029437
0.000635508956241604   -0.003425006353156417   -0.00029087159584285997
0.0006093677898149202   -0.004742250272843963   -0.00030924669094158644
0.0006334619904869999   -0.003429011469487292   -0.0002898070032916395
-4.99359973284298e-06   -0.0034298748356805927   -0.0002854048050029437
0.0006093677898149202   -0.004742250272843963   -0.00030924669094158644
-6.728449322016935e-05   -0.004753014427324146   -0.0003072329700056151
-7.17126947644967e-05   -0.0047514185604879515   -0.0003120718395585714
-4.99359973284298e-06   -0.0034298748356805927   -0.0002854048050029437
0.0006093677898149202   -0.004742250272843963   -0.00030924669094158644
-7.17126947644967e-05   -0.0047514185604879515   -0.0003120718395585714
0.0006334619904869999   -0.003429011469487292   -0.0002898070032916395
-4.99359973284298e-06   -0.0034298748356805927   -0.0002854048050029437
-6.728449322016935e-05   -0.004753014427324146   -0.0003072329700056151
0.000635508956241604   -0.003425006353156417   -0.00029087159584285997
-2.346947959511824e-06   -0.003428398471659456   -0.00028356330868419097
-6.728449322016935e-05   -0.004753014427324146   -0.0003072329700056151
0.0006093677898149202   -0.004742250272843963   -0.00030924669094158644
0.000635508956241604   -0.003425006353156417   -0.00029087159584285997
0.0006115475624285934   -0.004738325061951319   -0.00030647404666616577
-2.346947959511824e-06   -0.003428398471659456   -0.00028356330868419097
0.0006358580417995563   -0.0034179466906153083   -0.00029318243152831385
0.0006115475624285934   -0.004738325061951319   -0.00030647404666616577
0.000635508956241604   -0.003425006353156417   -0.00029087159584285997
-2.346947959511824e-06   -0.003428398471659456   -0.00028356330868419097
0.0006115475624285934   -0.004738325061951319   -0.00030647404666616577
-6.35619746181931e-05   -0.004754091838844195   -0.0003037163971209002
-6.728449322016935e-05   -0.004753014427324146   -0.0003072329700056151
-2.346947959511824e-06   -0.003428398471659456   -0.00028356330868419097
0.0006115475624285934   -0.004738325061951319   -0.00030647404666616577
-6.728449322016935e-05   -0.004753014427324146   -0.0003072329700056151
0.000635508956241604   -0.003425006353156417   -0.00029087159584285997
0.0006289433106861926   -0.0034309045125077314   -0.000289937506929791
0.0005984665273769531   -0.00474781117405171   -0.00031846241788332103
0.001336631174285379   -0.003440186335965596   -0.00029484230682000465
0.0006334619904869999   -0.003429011469487292   -0.0002898070032916395
0.0005984665273769531   -0.00474781117405171   -0.00031846241788332103
0.0013288334841642818   -0.004745313704638719   -0.000326984299436759
0.001336631174285379   -0.003440186335965596   -0.00029484230682000465
0.0013403931106055428   -0.004738791566411143   -0.00032215888580591393
0.0006334619904869999   -0.003429011469487292   -0.0002898070032916395
0.0013381266004980654   -0.0034347350468588544   -0.00029916242114112805
0.0013403931106055428   -0.004738791566411143   -0.00032215888580591393
0.001336631174285379   -0.003440186335965596   -0.00029484230682000465
0.0006334619904869999   -0.003429011469487292   -0.0002898070032916395
0.0013403931106055428   -0.004738791566411143   -0.00032215888580591393
0.0006046510366880815   -0.004745125000481839   -0.00031323551895236153
0.0005984665273769531   -0.00474781117405171   -0.00031846241788332103
0.0006334619904869999   -0.003429011469487292   -0.0002898070032916395
0.0013403931106055428   -0.004738791566411143   -0.00032215888580591393
0.0005984665273769531   -0.00474781117405171   -0.00031846241788332103
0.001336631174285379   -0.003440186335965596   -0.00029484230682000465
0.0006334619904869999   -0.003429011469487292   -0.0002898070032916395
0.0006046510366880815   -0.004745125000481839   -0.00031323551895236153
0.0013381266004980654   -0.0034347350468588544   -0.00029916242114112805
0.000635508956241604   -0.003425006353156417   -0.00029087159584285997
0.0006046510366880815   -0.004745125000481839   -0.00031323551895236153
0.0013403931106055428   -0.004738791566411143   -0.00032215888580591393
0.0013381266004980654   -0.0034347350468588544   -0.00029916242114112805
0.0013474223101788132   -0.004733786312619271   -0.0003192312794400547
0.000635508956241604   -0.003425006353156417   -0.00029087159584285997
0.0013371796557651858   -0.0034283308394767492   -0.00030543304458105475
0.0013474223101788132   -0.004733786312619271   -0.0003192312794400547
0.0013381266004980654   -0.0034347350468588544   -0.00029916242114112805
0.000635508956241604   -0.003425006353156417   -0.00029087159584285997
0.0013474223101788132   -0.004733786312619271   -0.0003192312794400547
0.0006093677898149202   -0.004742250272843963   -0.00030924669094158644
0.0006046510366880815   -0.004745125000481839   -0.00031323551895236153
0.000635508956241604   -0.003425006353156417   -0.00029087159584285997
0.0013474223101788132   -0.004733786312619271   -0.0003192312794400547
0.0006046510366880815   -0.004745125000481839   -0.00031323551895236153
0.0013381266004980654   -0.0034347350468588544   -0.00029916242114112805
0.000635508956241604   -0.003425006353156417   -0.00029087159584285997
0.0006093677898149202   -0.004742250272843963   -0.00030924669094158644
0.0013371796557651858   -0.0034283308394767492   -0.00030543304458105475
0.0006358580417995563   -0.0034179466906153083   -0.00029318243152831385
0.0006093677898149202   -0.004742250272843963   -0.00030924669094158644
0.0013474223101788132   -0.004733786312619271   -0.0003192312794400547
0.0013371796557651858   -0.0034283308394767492   -0.00030543304458105475
0.0013511151519023622   -0.004726208067002008   -0.0003182345538843326
0.0006358580417995563   -0.0034179466906153083   -0.00029318243152831385
0.001330628092244714   -0.0034166637059434807   -0.0003136397878627141
0.0013511151519023622   -0.004726208067002008   -0.0003182345538843326
0.0013371796557651858   -0.0034283308394767492   -0.00030543304458105475
0.0006358580417995563   -0.0034179466906153083   -0.00029318243152831385
0.0013511151519023622   -0.004726208067002008   -0.0003182345538843326
0.0006115475624285934   -0.004738325061951319   -0.00030647404666616577
0.0006093677898149202   -0.004742250272843963   -0.00030924669094158644
0.0006358580417995563   -0.0034179466906153083   -0.00029318243152831385
0.0013511151519023622   -0.004726208067002008   -0.0003182345538843326
0.0006093677898149202   -0.004742250272843963   -0.00030924669094158644
0.0013371796557651858   -0.0034283308394767492   -0.00030543304458105475
-0.0021313087490208533   -0.004763224332305915   -0.000369849478468368
-0.002188838439099969   -0.00608367862762759   -0.00036539152801343556
-0.0014057159958374653   -0.004756277957115929   -0.0003442214777125748
-0.0021383677135611385   -0.0047791059397559385   -0.0003608390152892837
-0.002188838439099969   -0.00608367862762759   -0.00036539152801343556
-0.001469334903022023   -0.0060873947676940285   -0.0003468813913516353
-0.0014057159958374653   -0.004756277957115929   -0.0003442214777125748
-0.0014645163421347126   -0.006096907468570561   -0.00034402182316494313
-0.0021383677135611385   -0.0047791059397559385   -0.0003608390152892837
-0.0014037745596639486   -0.004768037282711302   -0.0003364782062600129
-0.0014645163421347126   -0.006096907468570561   -0.00034402182316494313
-0.0014057159958374653   -0.004756277957115929   -0.0003442214777125748
-0.0021383677135611385   -0.0047791059397559385   -0.0003608390152892837
-0.0014645163421347126   -0.006096907468570561   -0.00034402182316494313
-0.002184911381342931   -0.006096463379989491   -0.0003653070540803031
-0.002188838439099969   -0.00608367862762759   -0.00036539152801343556
-0.0021383677135611385   -0.0047791059397559385   -0.0003608390152892837
-0.0014645163421347126   -0.006096907468570561   -0.00034402182316494313
-0.002188838439099969   -0.00608367862762759   -0.00036539152801343556
-0.0014057159958374653   -0.004756277957115929   -0.0003442214777125748
-0.0021383677135611385   -0.0047791059397559385   -0.0003608390152892837
-0.002184911381342931   -0.006096463379989491   -0.0003653070540803031
-0.0014037745596639486   -0.004768037282711302   -0.0003364782062600129
-0.00213948105348176   -0.0047922538053173005   -0.0003536815769002757
-0.002184911381342931   -0.006096463379989491   -0.0003653070540803031
-0.0014645163421347126   -0.006096907468570561   -0.00034402182316494313
-0.0014037745596639486   -0.004768037282711302   -0.0003364782062600129
-0.0014575513050147902   -0.006107648235538386   -0.0003424510617647732
-0.00213948105348176   -0.0047922538053173005   -0.0003536815769002757
-0.0014005030655547242   -0.004779045395869062   -0.00033002572646701335
-0.0014575513050147902   -0.006107648235538386   -0.0003424510617647732
-0.0014037745596639486   -0.004768037282711302   -0.0003364782062600129
-0.00213948105348176   -0.0047922538053173005   -0.0003536815769002757
-0.0014575513050147902   -0.006107648235538386   -0.0003424510617647732
-0.002177119788158571   -0.006109120772762085   -0.00036714364606002547
-0.002184911381342931   -0.006096463379989491   -0.0003653070540803031
-0.00213948105348176   -0.0047922538053173005   -0.0003536815769002757
-0.0014575513050147902   -0.006107648235538386   -0.0003424510617647732
-0.002184911381342931   -0.006096463379989491   -0.0003653070540803031
-0.0014037745596639486   -0.004768037282711302   -0.0003364782062600129
-0.00213948105348176   -0.0047922538053173005   -0.0003536815769002757
-0.002177119788158571   -0.006109120772762085   -0.00036714364606002547
-0.0014005030655547242   -0.004779045395869062   -0.00033002572646701335
-0.002138585341359621   -0.004806782346861644   -0.00034855167702814395
-0.002177119788158571   -0.006109120772762085   -0.00036714364606002547
-0.0014575513050147902   -0.006107648235538386   -0.0003424510617647732
-0.0014005030655547242   -0.004779045395869062   -0.00033002572646701335
-0.0014488591518253325   -0.006120370778829864   -0.00034213360593036296
-0.002138585341359621   -0.004806782346861644   -0.00034855167702814395
-0.0013945426630850046   -0.004790156454540733   -0.00032475990513301117
-0.0014488591518253325   -0.006120370778829864   -0.00034213360593036296
-0.0014005030655547242   -0.004779045395869062   -0.00033002572646701335
-0.002138585341359621   -0.004806782346861644   -0.00034855167702814395
-0.0014488591518253325   -0.006120370778829864   -0.00034213360593036296
-0.002165229101560686   -0.006125643126940033   -0.00037101688542608054
-0.002177119788158571   -0.006109120772762085   -0.00036714364606002547
-0.002138585341359621   -0.004806782346861644   -0.00034855167702814395
-0.0014488591518253325   -0.006120370778829864   -0.00034213360593036296
-0.002177119788158571   -0.006109120772762085   -0.00036714364606002547
-0.0014005030655547242   -0.004779045395869062   -0.00033002572646701335
-0.0014057159958374653   -0.004756277957115929   -0.0003442214777125748
-0.001469334903022023   -0.0060873947676940285   -0.0003468813913516353
-0.0007320165109878981   -0.004751982552556617   -0.00032682198378846484
-0.0014037745596639486   -0.004768037282711302   -0.0003364782062600129
-0.001469334903022023   -0.0060873947676940285   -0.0003468813913516353
-0.0008094358850486115   -0.006087985319103059   -0.0003346339155754718
-0.0007320165109878981   -0.004751982552556617   -0.00032682198378846484
-0.0008033595332319674   -0.006093326769414166   -0.00032925307980278114
-0.0014037745596639486   -0.004768037282711302   -0.0003364782062600129
-0.0007281461912278818   -0.004758983914915757   -0.000319848100069062
-0.0008033595332319674   -0.006093326769414166   -0.00032925307980278114
-0.0007320165109878981   -0.004751982552556617   -0.00032682198378846484
-0.0014037745596639486   -0.004768037282711302   -0.0003364782062600129
-0.0008033595332319674   -0.006093326769414166   -0.00032925307980278114
-0.0014645163421347126   -0.006096907468570561   -0.00034402182316494313
-0.001469334903022023   -0.0060873947676940285   -0.0003468813913516353
-0.0014037745596639486   -0.004768037282711302   -0.0003364782062600129
-0.0008033595332319674   -0.006093326769414166   -0.00032925307980278114
-0.001469334903022023   -0.0060873947676940285   -0.0003468813913516353
-0.0007320165109878981   -0.004751982552556617   -0.00032682198378846484
-0.0014037745596639486   -0.004768037282711302   -0.0003364782062600129
-0.0014645163421347126   -0.006096907468570561   -0.00034402182316494313
-0.0007281461912278818   -0.004758983914915757   -0.000319848100069062
-0.0014005030655547242   -0.004779045395869062   -0.00033002572646701335
-0.0014645163421347126   -0.006096907468570561   -0.00034402182316494313
-0.0008033595332319674   -0.006093326769414166   -0.00032925307980278114
-0.0007281461912278818   -0.004758983914915757   -0.000319848100069062
-0.0007966366957779843   -0.006100008243486746   -0.0003251603585015794
-0.0014005030655547242   -0.004779045395869062   -0.00033002572646701335
-0.0007237281947898384   -0.004765520024244241   -0.0003141587562080508
-0.0007966366957779843   -0.006100008243486746   -0.0003251603585015794
-0.0007281461912278818   -0.004758983914915757   -0.000319848100069062
-0.0014005030655547242   -0.004779045395869062   -0.00033002572646701335
-0.0007966366957779843   -0.006100008243486746   -0.0003251603585015794
-0.0014575513050147902   -0.006107648235538386   -0.0003424510617647732
-0.0014645163421347126   -0.006096907468570561   -0.00034402182316494313
-0.0014005030655547242   -0.004779045395869062   -0.00033002572646701335
-0.0007966366957779843   -0.006100008243486746   -0.0003251603585015794
-0.0014645163421347126   -0.006096907468570561   -0.00034402182316494313
-0.0007281461912278818   -0.004758983914915757   -0.000319848100069062
-0.0014005030655547242   -0.004779045395869062   -0.00033002572646701335
-0.0014575513050147902   -0.006107648235538386   -0.0003424510617647732
-0.0007237281947898384   -0.004765520024244241   -0.0003141587562080508
-0.0013945426630850046   -0.004790156454540733   -0.00032475990513301117
-0.0014575513050147902   -0.006107648235538386   -0.0003424510617647732
-0.0007966366957779843   -0.006100008243486746   -0.0003251603585015794
-0.0007237281947898384   -0.004765520024244241   -0.0003141587562080508
-0.0007894503167181244   -0.0061080510003519405   -0.00032240518538451216
-0.0013945426630850046   -0.004790156454540733   -0.00032475990513301117
-0.0007186711070260967   -0.004771615085209169   -0.0003097918320608904
-0.0007894503167181244   -0.0061080510003519405   -0.00032240518538451216
-0.0007237281947898384   -0.004765520024244241   -0.0003141587562080508
-0.0013945426630850046   -0.004790156454540733   -0.00032475990513301117
-0.0007894503167181244   -0.0061080510003519405   -0.00032240518538451216
-0.0014488591518253325   -0.006120370778829864   -0.00034213360593036296
-0.0014575513050147902   -0.006107648235538386   -0.0003424510617647732
-0.0013945426630850046   -0.004790156454540733   -0.00032475990513301117
-0.0007894503167181244   -0.0061080510003519405   -0.00032240518538451216
-0.0014575513050147902   -0.006107648235538386   -0.0003424510617647732
-0.0007237281947898384   -0.004765520024244241   -0.0003141587562080508
-0.0007320165109878981   -0.004751982552556617   -0.00032682198378846484
-0.0008094358850486115   -0.006087985319103059   -0.0003346339155754718
-7.662615502497821e-05   -0.004749316974333044   -0.0003181901700463182
-0.0007281461912278818   -0.004758983914915757   -0.000319848100069062
-0.0008094358850486115   -0.006087985319103059   -0.0003346339155754718
-0.0001680164356108399   -0.0060842282942414365   -0.000330054966419995
-7.662615502497821e-05   -0.004749316974333044   -0.0003181901700463182
-0.00016096298933821732   -0.006085202521707475   -0.0003222810601710548
-0.0007281461912278818   -0.004758983914915757   -0.000319848100069062
-7.17126947644967e-05   -0.0047514185604879515   -0.0003120718395585714
-0.00016096298933821732   -0.006085202521707475   -0.0003222810601710548
-7.662615502497821e-05   -0.004749316974333044   -0.0003181901700463182
-0.0007281461912278818   -0.004758983914915757   -0.000319848100069062
-0.00016096298933821732   -0.006085202521707475   -0.0003222810601710548
-0.0008033595332319674   -0.006093326769414166   -0.00032925307980278114
-0.0008094358850486115   -0.006087985319103059   -0.0003346339155754718
-0.0007281461912278818   -0.004758983914915757   -0.000319848100069062
-0.00016096298933821732   -0.006085202521707475   -0.0003222810601710548
-0.0008094358850486115   -0.006087985319103059   -0.0003346339155754718
-7.662615502497821e-05   -0.004749316974333044   -0.0003181901700463182
-0.0007281461912278818   -0.004758983914915757   -0.000319848100069062
-0.0008033595332319674   -0.006093326769414166   -0.00032925307980278114
-7.17126947644967e-05   -0.0047514185604879515   -0.0003120718395585714
-0.0007237281947898384   -0.004765520024244241   -0.0003141587562080508
-0.0008033595332319674   -0.006093326769414166   -0.00032925307980278114
-0.00016096298933821732   -0.006085202521707475   -0.0003222810601710548
-7.17126947644967e-05   -0.0047514185604879515   -0.0003120718395585714
-0.00015424170820879969   -0.006087429629289329   -0.00031579247240512876
-0.0007237281947898384   -0.004765520024244241   -0.0003141587562080508
-6.728449322016935e-05   -0.004753014427324146   -0.0003072329700056151
-0.00015424170820879969   -0.006087429629289329   -0.00031579247240512876
-7.17126947644967e-05   -0.0047514185604879515   -0.0003120718395585714
-0.0007237281947898384   -0.004765520024244241   -0.0003141587562080508
-0.00015424170820879969   -0.006087429629289329   -0.00031579247240512876
-0.0007966366957779843   -0.006100008243486746   -0.0003251603585015794
-0.0008033595332319674   -0.006093326769414166   -0.00032925307980278114
-0.0007237281947898384   -0.004765520024244241   -0.0003141587562080508
-0.00015424170820879969   -0.006087429629289329   -0.00031579247240512876
-0.0008033595332319674   -0.006093326769414166   -0.00032925307980278114
-7.17126947644967e-05   -0.0047514185604879515   -0.0003120718395585714
-0.0007237281947898384   -0.004765520024244241   -0.0003141587562080508
-0.0007966366957779843   -0.006100008243486746   -0.0003251603585015794
-6.728449322016935e-05   -0.004753014427324146   -0.0003072329700056151
-0.0007186711070260967   -0.004771615085209169   -0.0003097918320608904
-0.0007966366957779843   -0.006100008243486746   -0.0003251603585015794
-0.00015424170820879969   -0.006087429629289329   -0.00031579247240512876
-6.728449322016935e-05   -0.004753014427324146   -0.0003072329700056151
-0.00014836754430783237   -0.006090952074792083   -0.00031063066186214923
-0.0007186711070260967   -0.004771615085209169   -0.0003097918320608904
-6.35619746181931e-05   -0.004754091838844195   -0.0003037163971209002
-0.00014836754430783237   -0.006090952074792083   -0.00031063066186214923
-6.728449322016935e-05   -0.004753014427324146   -0.0003072329700056151
-0.0007186711070260967   -0.004771615085209169   -0.0003097918320608904
-0.00014836754430783237   -0.006090952074792083   -0.00031063066186214923
-0.0007894503167181244   -0.0061080510003519405   -0.00032240518538451216
-0.0007966366957779843   -0.006100008243486746   -0.0003251603585015794
-0.0007186711070260967   -0.004771615085209169   -0.0003097918320608904
-0.00014836754430783237   -0.006090952074792083   -0.00031063066186214923
-0.0007966366957779843   -0.006100008243486746   -0.0003251603585015794
-6.728449322016935e-05   -0.004753014427324146   -0.0003072329700056151
-7.662615502497821e-05   -0.004749316974333044   -0.0003181901700463182
-0.0001680164356108399   -0.0060842282942414365   -0.000330054966419995
0.0005984665273769531   -0.00474781117405171   -0.00031846241788332103
-7.17126947644967e-05   -0.0047514185604879515   -0.0003120718395585714
-0.0001680164356108399   -0.0060842282942414365   -0.000330054966419995
0.000491927968136527   -0.006075997331261073   -0.0003334299174080836
0.0005984665273769531   -0.00474781117405171   -0.00031846241788332103
0.0005007846601916757   -0.006072560032513674   -0.0003232802799270663
-7.17126947644967e-05   -0.0047514185604879515   -0.0003120718395585714
0.0006046510366880815   -0.004745125000481839   -0.00031323551895236153
0.0005007846601916757   -0.006072560032513674   -0.0003232802799270663
0.0005984665273769531   -0.00474781117405171   -0.00031846241788332103
-7.17126947644967e-05   -0.0047514185604879515   -0.0003120718395585714
0.0005007846601916757   -0.006072560032513674   -0.0003232802799270663
-0.00016096298933821732   -0.006085202521707475   -0.0003222810601710548
-0.0001680164356108399   -0.0060842282942414365   -0.000330054966419995
-7.17126947644967e-05   -0.0047514185604879515   -0.0003120718395585714
0.0005007846601916757   -0.006072560032513674   -0.0003232802799270663
-0.0001680164356108399   -0.0060842282942414365   -0.000330054966419995
0.0005984665273769531   -0.00474781117405171   -0.00031846241788332103
-7.17126947644967e-05   -0.0047514185604879515   -0.0003120718395585714
-0.00016096298933821732   -0.006085202521707475   -0.0003222810601710548
0.0006046510366880815   -0.004745125000481839   -0.00031323551895236153
-6.728449322016935e-05   -0.004753014427324146   -0.0003072329700056151
-0.00016096298933821732   -0.006085202521707475   -0.0003222810601710548
0.0005007846601916757   -0.006072560032513674   -0.0003232802799270663
0.0006046510366880815   -0.004745125000481839   -0.00031323551895236153
0.0005091449365356675   -0.006070753257220665   -0.00031440809698843043
-6.728449322016935e-05   -0.004753014427324146   -0.0003072329700056151
0.0006093677898149202   -0.004742250272843963   -0.00030924669094158644
0.0005091449365356675   -0.006070753257220665   -0.00031440809698843043
0.0006046510366880815   -0.004745125000481839   -0.00031323551895236153
-6.728449322016935e-05   -0.004753014427324146   -0.0003072329700056151
0.0005091449365356675   -0.006070753257220665   -0.00031440809698843043
-0.00015424170820879969   -0.006087429629289329   -0.00031579247240512876
-0.00016096298933821732   -0.006085202521707475   -0.0003222810601710548
-6.728449322016935e-05   -0.004753014427324146   -0.0003072329700056151
0.0005091449365356675   -0.006070753257220665   -0.00031440809698843043
-0.00016096298933821732   -0.006085202521707475   -0.0003222810601710548
0.0006046510366880815   -0.004745125000481839   -0.00031323551895236153
-6.728449322016935e-05   -0.004753014427324146   -0.0003072329700056151
-0.00015424170820879969   -0.006087429629289329   -0.00031579247240512876
0.0006093677898149202   -0.004742250272843963   -0.00030924669094158644
-6.35619746181931e-05   -0.004754091838844195   -0.0003037163971209002
-0.00015424170820879969   -0.006087429629289329   -0.00031579247240512876
0.0005091449365356675   -0.006070753257220665   -0.00031440809698843043
0.0006093677898149202   -0.004742250272843963   -0.00030924669094158644
0.0005141388225534287   -0.006069811290009739   -0.0003067298862411294
-6.35619746181931e-05   -0.004754091838844195   -0.0003037163971209002
0.0006115475624285934   -0.004738325061951319   -0.00030647404666616577
0.0005141388225534287   -0.006069811290009739   -0.0003067298862411294
0.0006093677898149202   -0.004742250272843963   -0.00030924669094158644
-6.35619746181931e-05   -0.004754091838844195   -0.0003037163971209002
0.0005141388225534287   -0.006069811290009739   -0.0003067298862411294
-0.00014836754430783237   -0.006090952074792083   -0.00031063066186214923
-0.00015424170820879969   -0.006087429629289329   -0.00031579247240512876
-6.35619746181931e-05   -0.004754091838844195   -0.0003037163971209002
0.0005141388225534287   -0.006069811290009739   -0.0003067298862411294
-0.00015424170820879969   -0.006087429629289329   -0.00031579247240512876
0.0006093677898149202   -0.004742250272843963   -0.00030924669094158644
0.0005984665273769531   -0.00474781117405171   -0.00031846241788332103
0.000491927968136527   -0.006075997331261073   -0.0003334299174080836
0.0013288334841642818   -0.004745313704638719   -0.000326984299436759
0.0006046510366880815   -0.004745125000481839   -0.00031323551895236153
0.000491927968136527   -0.006075997331261073   -0.0003334299174080836
0.0011962564004160405   -0.006061944860972478   -0.00034534407120589923
0.0013288334841642818   -0.004745313704638719   -0.000326984299436759
0.0012185292185830873   -0.006054458516224253   -0.0003317724355496561
0.0006046510366880815   -0.004745125000481839   -0.00031323551895236153
0.0013403931106055428   -0.004738791566411143   -0.00032215888580591393
0.0012185292185830873   -0.006054458516224253   -0.0003317724355496561
0.0013288334841642818   -0.004745313704638719   -0.000326984299436759
0.0006046510366880815   -0.004745125000481839   -0.00031323551895236153
0.0012185292185830873   -0.006054458516224253   -0.0003317724355496561
0.0005007846601916757   -0.006072560032513674   -0.0003232802799270663
0.000491927968136527   -0.006075997331261073   -0.0003334299174080836
0.0006046510366880815   -0.004745125000481839   -0.00031323551895236153
0.0012185292185830873   -0.006054458516224253   -0.0003317724355496561
0.000491927968136527   -0.006075997331261073   -0.0003334299174080836
0.0013288334841642818   -0.004745313704638719   -0.000326984299436759
0.0006046510366880815   -0.004745125000481839   -0.00031323551895236153
0.0005007846601916757   -0.006072560032513674   -0.0003232802799270663
0.0013403931106055428   -0.004738791566411143   -0.00032215888580591393
0.0006093677898149202   -0.004742250272843963   -0.00030924669094158644
0.0005007846601916757   -0.006072560032513674   -0.0003232802799270663
0.0012185292185830873   -0.006054458516224253   -0.0003317724355496561
0.0013403931106055428   -0.004738791566411143   -0.00032215888580591393
0.0012342719678478573   -0.00605080232175153   -0.0003200382070514563
0.0006093677898149202   -0.004742250272843963   -0.00030924669094158644
0.0013474223101788132   -0.004733786312619271   -0.0003192312794400547
0.0012342719678478573   -0.00605080232175153   -0.0003200382070514563
0.0013403931106055428   -0.004738791566411143   -0.00032215888580591393
0.0006093677898149202   -0.004742250272843963   -0.00030924669094158644
0.0012342719678478573   -0.00605080232175153   -0.0003200382070514563
0.0005091449365356675   -0.006070753257220665   -0.00031440809698843043
0.0005007846601916757   -0.006072560032513674   -0.0003232802799270663
0.0006093677898149202   -0.004742250272843963   -0.00030924669094158644
0.0012342719678478573   -0.00605080232175153   -0.0003200382070514563
0.0005007846601916757   -0.006072560032513674   -0.0003232802799270663
0.0013403931106055428   -0.004738791566411143   -0.00032215888580591393
0.0006093677898149202   -0.004742250272843963   -0.00030924669094158644
0.0005091449365356675   -0.006070753257220665   -0.00031440809698843043
0.0013474223101788132   -0.004733786312619271   -0.0003192312794400547
0.0006115475624285934   -0.004738325061951319   -0.00030647404666616577
0.0005091449365356675   -0.006070753257220665   -0.00031440809698843043
0.0012342719678478573   -0.00605080232175153   -0.0003200382070514563
0.0013474223101788132   -0.004733786312619271   -0.0003192312794400547
0.0012488280796066323   -0.006047132235401271   -0.0003102221477808763
0.0006115475624285934   -0.004738325061951319   -0.00030647404666616577
0.0013511151519023622   -0.004726208067002008   -0.0003182345538843326
0.0012488280796066323   -0.006047132235401271   -0.0003102221477808763
0.0013474223101788132   -0.004733786312619271   -0.0003192312794400547
0.0006115475624285934   -0.004738325061951319   -0.00030647404666616577
0.0012488280796066323   -0.006047132235401271   -0.0003102221477808763
0.0005141388225534287   -0.006069811290009739   -0.0003067298862411294
0.0005091449365356675   -0.006070753257220665   -0.00031440809698843043
0.0006115475624285934   -0.004738325061951319   -0.00030647404666616577
0.0012488280796066323   -0.006047132235401271   -0.0003102221477808763
0.0005091449365356675   -0.006070753257220665   -0.00031440809698843043
0.0013474223101788132   -0.004733786312619271   -0.0003192312794400547
-0.002188838439099969   -0.00608367862762759   -0.00036539152801343556
-0.002125110954891688   -0.00733417101089846   -0.0003508357887548744
-0.001469334903022023   -0.0060873947676940285   -0.0003468813913516353
-0.002184911381342931   -0.006096463379989491   -0.0003653070540803031
-0.002125110954891688   -0.00733417101089846   -0.0003508357887548744
-0.001461816175555757   -0.007348445165144204   -0.00034002358391617106
-0.001469334903022023   -0.0060873947676940285   -0.0003468813913516353
-0.0014531268513811044   -0.007355428635383465   -0.00034181316208232787
-0.002184911381342931   -0.006096463379989491   -0.0003653070540803031
-0.0014645163421347126   -0.006096907468570561   -0.00034402182316494313
-0.0014531268513811044   -0.007355428635383465   -0.00034181316208232787
-0.001469334903022023   -0.0060873947676940285   -0.0003468813913516353
-0.002184911381342931   -0.006096463379989491   -0.0003653070540803031
-0.0014531268513811044   -0.007355428635383465   -0.00034181316208232787
-0.0021093585866460663   -0.0073436197474181135   -0.00035946935358503697
-0.002125110954891688   -0.00733417101089846   -0.0003508357887548744
-0.002184911381342931   -0.006096463379989491   -0.0003653070540803031
-0.0014531268513811044   -0.007355428635383465   -0.00034181316208232787
-0.002125110954891688   -0.00733417101089846   -0.0003508357887548744
-0.001469334903022023   -0.0060873947676940285   -0.0003468813913516353
-0.002184911381342931   -0.006096463379989491   -0.0003653070540803031
-0.0021093585866460663   -0.0073436197474181135   -0.00035946935358503697
-0.0014645163421347126   -0.006096907468570561   -0.00034402182316494313
-0.002177119788158571   -0.006109120772762085   -0.00036714364606002547
-0.0021093585866460663   -0.0073436197474181135   -0.00035946935358503697
-0.0014531268513811044   -0.007355428635383465   -0.00034181316208232787
-0.0014645163421347126   -0.006096907468570561   -0.00034402182316494313
-0.0014415419871012046   -0.007365623496429721   -0.0003448856908432916
-0.002177119788158571   -0.006109120772762085   -0.00036714364606002547
-0.0014575513050147902   -0.006107648235538386   -0.0003424510617647732
-0.0014415419871012046   -0.007365623496429721   -0.0003448856908432916
-0.0014645163421347126   -0.006096907468570561   -0.00034402182316494313
-0.002177119788158571   -0.006109120772762085   -0.00036714364606002547
-0.0014415419871012046   -0.007365623496429721   -0.0003448856908432916
-0.00209176103856021   -0.007355534415459777   -0.00037011389715731907
-0.0021093585866460663   -0.0073436197474181135   -0.00035946935358503697
-0.002177119788158571   -0.006109120772762085   -0.00036714364606002547
-0.0014415419871012046   -0.007365623496429721   -0.0003448856908432916
-0.0021093585866460663   -0.0073436197474181135   -0.00035946935358503697
-0.0014645163421347126   -0.006096907468570561   -0.00034402182316494313
-0.002177119788158571   -0.006109120772762085   -0.00036714364606002547
-0.00209176103856021   -0.007355534415459777   -0.00037011389715731907
-0.0014575513050147902   -0.006107648235538386   -0.0003424510617647732
-0.002165229101560686   -0.006125643126940033   -0.00037101688542608054
-0.00209176103856021   -0.007355534415459777   -0.00037011389715731907
-0.0014415419871012046   -0.007365623496429721   -0.0003448856908432916
-0.0014575513050147902   -0.006107648235538386   -0.0003424510617647732
-0.0014291928305698765   -0.007379663915189177   -0.00034926639295632404
-0.002165229101560686   -0.006125643126940033   -0.00037101688542608054
-0.0014488591518253325   -0.006120370778829864   -0.00034213360593036296
-0.0014291928305698765   -0.007379663915189177   -0.00034926639295632404
-0.0014575513050147902   -0.006107648235538386   -0.0003424510617647732
-0.002165229101560686   -0.006125643126940033   -0.00037101688542608054
-0.0014291928305698765   -0.007379663915189177   -0.00034926639295632404
-0.0020680745524050137   -0.007373833885313525   -0.00038282596187695303
-0.00209176103856021   -0.007355534415459777   -0.00037011389715731907
-0.002165229101560686   -0.006125643126940033   -0.00037101688542608054
-0.0014291928305698765   -0.007379663915189177   -0.00034926639295632404
-0.00209176103856021   -0.007355534415459777   -0.00037011389715731907
-0.0014575513050147902   -0.006107648235538386   -0.0003424510617647732
-0.001469334903022023   -0.0060873947676940285   -0.0003468813913516353
-0.001461816175555757   -0.007348445165144204   -0.00034002358391617106
-0.0008094358850486115   -0.006087985319103059   -0.0003346339155754718
-0.0014645163421347126   -0.006096907468570561   -0.00034402182316494313
-0.001461816175555757   -0.007348445165144204   -0.00034002358391617106
-0.0008651583346923099   -0.007353777716871613   -0.00033318127810079347
-0.0008094358850486115   -0.006087985319103059   -0.0003346339155754718
-0.0008557963379094076   -0.007357298039826265   -0.00032924824497047167
-0.0014645163421347126   -0.006096907468570561   -0.00034402182316494313
-0.0008033595332319674   -0.006093326769414166   -0.00032925307980278114
-0.0008557963379094076   -0.007357298039826265   -0.00032924824497047167
-0.0008094358850486115   -0.006087985319103059   -0.0003346339155754718
-0.0014645163421347126   -0.006096907468570561   -0.00034402182316494313
-0.0008557963379094076   -0.007357298039826265   -0.00032924824497047167
-0.0014531268513811044   -0.007355428635383465   -0.00034181316208232787
-0.001461816175555757   -0.007348445165144204   -0.00034002358391617106
-0.0014645163421347126   -0.006096907468570561   -0.00034402182316494313
-0.0008557963379094076   -0.007357298039826265   -0.00032924824497047167
-0.001461816175555757   -0.007348445165144204   -0.00034002358391617106
-0.0008094358850486115   -0.006087985319103059   -0.0003346339155754718
-0.0014645163421347126   -0.006096907468570561   -0.00034402182316494313
-0.0014531268513811044   -0.007355428635383465   -0.00034181316208232787
-0.0008033595332319674   -0.006093326769414166   -0.00032925307980278114
-0.0014575513050147902   -0.006107648235538386   -0.0003424510617647732
-0.0014531268513811044   -0.007355428635383465   -0.00034181316208232787
-0.0008557963379094076   -0.007357298039826265   -0.00032924824497047167
-0.0008033595332319674   -0.006093326769414166   -0.00032925307980278114
-0.0008457645045136159   -0.0073638851305954205   -0.00032658015007531517
-0.0014575513050147902   -0.006107648235538386   -0.0003424510617647732
-0.0007966366957779843   -0.006100008243486746   -0.0003251603585015794
-0.0008457645045136159   -0.0073638851305954205   -0.00032658015007531517
-0.0008033595332319674   -0.006093326769414166   -0.00032925307980278114
-0.0014575513050147902   -0.006107648235538386   -0.0003424510617647732
-0.0008457645045136159   -0.0073638851305954205   -0.00032658015007531517
-0.0014415419871012046   -0.007365623496429721   -0.0003448856908432916
-0.0014531268513811044   -0.007355428635383465   -0.00034181316208232787
-0.0014575513050147902   -0.006107648235538386   -0.0003424510617647732
-0.0008457645045136159   -0.0073638851305954205   -0.00032658015007531517
-0.0014531268513811044   -0.007355428635383465   -0.00034181316208232787
-0.0008033595332319674   -0.006093326769414166   -0.00032925307980278114
-0.0014575513050147902   -0.006107648235538386   -0.0003424510617647732
-0.0014415419871012046   -0.007365623496429721   -0.0003448856908432916
-0.0007966366957779843   -0.006100008243486746   -0.0003251603585015794
-0.0014488591518253325   -0.006120370778829864   -0.00034213360593036296
-0.0014415419871012046   -0.007365623496429721   -0.0003448856908432916
-0.0008457645045136159   -0.0073638851305954205   -0.00032658015007531517
-0.0007966366957779843   -0.006100008243486746   -0.0003251603585015794
-0.0008354550299946145   -0.007373611830950769   -0.0003252468719475579
-0.0014488591518253325   -0.006120370778829864   -0.00034213360593036296
-0.0007894503167181244   -0.0061080510003519405   -0.00032240518538451216
-0.0008354550299946145   -0.007373611830950769   -0.0003252468719475579
-0.0007966366957779843   -0.006100008243486746   -0.0003251603585015794
-0.0014488591518253325   -0.006120370778829864   -0.00034213360593036296
-0.0008354550299946145   -0.007373611830950769   -0.0003252468719475579
-0.0014291928305698765   -0.007379663915189177   -0.00034926639295632404
-0.0014415419871012046   -0.007365623496429721   -0.0003448856908432916
-0.0014488591518253325   -0.006120370778829864   -0.00034213360593036296
-0.0008354550299946145   -0.007373611830950769   -0.0003252468719475579
-0.0014415419871012046   -0.007365623496429721   -0.0003448856908432916
-0.0007966366957779843   -0.006100008243486746   -0.0003251603585015794
-0.0008094358850486115   -0.006087985319103059   -0.0003346339155754718
-0.0008651583346923099   -0.007353777716871613   -0.00033318127810079347
-0.0001680164356108399   -0.0060842282942414365   -0.000330054966419995
-0.0008033595332319674   -0.006093326769414166   -0.00032925307980278114
-0.0008651583346923099   -0.007353777716871613   -0.00033318127810079347
-0.0002862287129624379   -0.007349060939170057   -0.00033259579122811133
-0.0001680164356108399   -0.0060842282942414365   -0.000330054966419995
-0.0002758908976521254   -0.007348863589462378   -0.00032313639800381753
-0.0008033595332319674   -0.006093326769414166   -0.00032925307980278114
-0.00016096298933821732   -0.006085202521707475   -0.0003222810601710548
-0.0002758908976521254   -0.007348863589462378   -0.00032313639800381753
-0.0001680164356108399   -0.0060842282942414365   -0.000330054966419995
-0.0008033595332319674   -0.006093326769414166   -0.00032925307980278114
-0.0002758908976521254   -0.007348863589462378   -0.00032313639800381753
-0.0008557963379094076   -0.007357298039826265   -0.00032924824497047167
-0.0008651583346923099   -0.007353777716871613   -0.00033318127810079347
-0.0008033595332319674   -0.006093326769414166   -0.00032925307980278114
-0.0002758908976521254   -0.007348863589462378   -0.00032313639800381753
-0.0008651583346923099   -0.007353777716871613   -0.00033318127810079347
-0.0001680164356108399   -0.0060842282942414365   -0.000330054966419995
-0.0008033595332319674   -0.006093326769414166   -0.00032925307980278114
-0.0008557963379094076   -0.007357298039826265   -0.00032924824497047167
-0.00016096298933821732   -0.006085202521707475   -0.0003222810601710548
-0.0007966366957779843   -0.006100008243486746   -0.0003251603585015794
-0.0008557963379094076   -0.007357298039826265   -0.00032924824497047167
-0.0002758908976521254   -0.007348863589462378   -0.00032313639800381753
-0.00016096298933821732   -0.006085202521707475   -0.0003222810601710548
-0.0002657974790516679   -0.007351539113982716   -0.00031495048518876805
-0.0007966366957779843   -0.006100008243486746   -0.0003251603585015794
-0.00015424170820879969   -0.006087429629289329   -0.00031579247240512876
-0.0002657974790516679   -0.007351539113982716   -0.00031495048518876805
-0.00016096298933821732   -0.006085202521707475   -0.0003222810601710548
-0.0007966366957779843   -0.006100008243486746   -0.0003251603585015794
-0.0002657974790516679   -0.007351539113982716   -0.00031495048518876805
-0.0008457645045136159   -0.0073638851305954205   -0.00032658015007531517
-0.0008557963379094076   -0.007357298039826265   -0.00032924824497047167
-0.0007966366957779843   -0.006100008243486746   -0.0003251603585015794
-0.0002657974790516679   -0.007351539113982716   -0.00031495048518876805
-0.0008557963379094076   -0.007357298039826265   -0.00032924824497047167
-0.00016096298933821732   -0.006085202521707475   -0.0003222810601710548
-0.0007966366957779843   -0.006100008243486746   -0.0003251603585015794
-0.0008457645045136159   -0.0073638851305954205   -0.00032658015007531517
-0.00015424170820879969   -0.006087429629289329   -0.00031579247240512876
-0.0007894503167181244   -0.0061080510003519405   -0.00032240518538451216
-0.0008457645045136159   -0.0073638851305954205   -0.00032658015007531517
-0.0002657974790516679   -0.007351539113982716   -0.00031495048518876805
-0.00015424170820879969   -0.006087429629289329   -0.00031579247240512876
-0.00025671444999278816   -0.007357283899938781   -0.00030807986938263934
-0.0007894503167181244   -0.0061080510003519405   -0.00032240518538451216
-0.00014836754430783237   -0.006090952074792083   -0.00031063066186214923
-0.00025671444999278816   -0.007357283899938781   -0.00030807986938263934
-0.00015424170820879969   -0.006087429629289329   -0.00031579247240512876
-0.0007894503167181244   -0.0061080510003519405   -0.00032240518538451216
-0.00025671444999278816   -0.007357283899938781   -0.00030807986938263934
-0.0008354550299946145   -0.007373611830950769   -0.0003252468719475579
-0.0008457645045136159   -0.0073638851305954205   -0.00032658015007531517
-0.0007894503167181244   -0.0061080510003519405   -0.00032240518538451216
-0.00025671444999278816   -0.007357283899938781   -0.00030807986938263934
-0.0008457645045136159   -0.0073638851305954205   -0.00032658015007531517
-0.00015424170820879969   -0.006087429629289329   -0.00031579247240512876
-0.0001680164356108399   -0.0060842282942414365   -0.000330054966419995
-0.0002862287129624379   -0.007349060939170057   -0.00033259579122811133
0.000491927968136527   -0.006075997331261073   -0.0003334299174080836
-0.00016096298933821732   -0.006085202521707475   -0.0003222810601710548
-0.0002862287129624379   -0.007349060939170057   -0.00033259579122811133
0.0003111869286595389   -0.007334454327786386   -0.0003387479483874989
0.000491927968136527   -0.006075997331261073   -0.0003334299174080836
0.00032385783640748525   -0.007330284444132093   -0.0003237860828777513
-0.00016096298933821732   -0.006085202521707475   -0.0003222810601710548
0.0005007846601916757   -0.006072560032513674   -0.0003232802799270663
0.00032385783640748525   -0.007330284444132093   -0.0003237860828777513
0.000491927968136527   -0.006075997331261073   -0.0003334299174080836
-0.00016096298933821732   -0.006085202521707475   -0.0003222810601710548
0.00032385783640748525   -0.007330284444132093   -0.0003237860828777513
-0.0002758908976521254   -0.007348863589462378   -0.00032313639800381753
-0.0002862287129624379   -0.007349060939170057   -0.00033259579122811133
-0.00016096298933821732   -0.006085202521707475   -0.0003222810601710548
0.00032385783640748525   -0.007330284444132093   -0.0003237860828777513
-0.0002862287129624379   -0.007349060939170057   -0.00033259579122811133
0.000491927968136527   -0.006075997331261073   -0.0003334299174080836
-0.00016096298933821732   -0.006085202521707475   -0.0003222810601710548
-0.0002758908976521254   -0.007348863589462378   -0.00032313639800381753
0.0005007846601916757   -0.006072560032513674   -0.0003232802799270663
-0.00015424170820879969   -0.006087429629289329   -0.00031579247240512876
-0.0002758908976521254   -0.007348863589462378   -0.00032313639800381753
0.00032385783640748525   -0.007330284444132093   -0.0003237860828777513
0.0005007846601916757   -0.006072560032513674   -0.0003232802799270663
0.00033695717349674234   -0.007329410515533624   -0.0003101717823577008
-0.00015424170820879969   -0.006087429629289329   -0.00031579247240512876
0.0005091449365356675   -0.006070753257220665   -0.00031440809698843043
0.00033695717349674234   -0.007329410515533624   -0.0003101717823577008
0.0005007846601916757   -0.006072560032513674   -0.0003232802799270663
-0.00015424170820879969   -0.006087429629289329   -0.00031579247240512876
0.00033695717349674234   -0.007329410515533624   -0.0003101717823577008
-0.0002657974790516679   -0.007351539113982716   -0.00031495048518876805
-0.0002758908976521254   -0.007348863589462378   -0.00032313639800381753
-0.00015424170820879969   -0.006087429629289329   -0.00031579247240512876
0.00033695717349674234   -0.007329410515533624   -0.0003101717823577008
-0.0002758908976521254   -0.007348863589462378   -0.00032313639800381753
0.0005007846601916757   -0.006072560032513674   -0.0003232802799270663
-0.00015424170820879969   -0.006087429629289329   -0.00031579247240512876
-0.0002657974790516679   -0.007351539113982716   -0.00031495048518876805
0.0005091449365356675   -0.006070753257220665   -0.00031440809698843043
-0.00014836754430783237   -0.006090952074792083   -0.00031063066186214923
-0.0002657974790516679   -0.007351539113982716   -0.00031495048518876805
0.00033695717349674234   -0.007329410515533624   -0.0003101717823577008
0.0005091449365356675   -0.006070753257220665   -0.00031440809698843043
0.000345854959188462   -0.00733124681478529   -0.00029772498627804895
-0.00014836754430783237   -0.006090952074792083   -0.00031063066186214923
0.0005141388225534287   -0.006069811290009739   -0.0003067298862411294
0.000345854959188462   -0.00733124681478529   -0.00029772498627804895
0.0005091449365356675   -0.006070753257220665   -0.00031440809698843043
-0.00014836754430783237   -0.006090952074792083   -0.00031063066186214923
0.000345854959188462   -0.00733124681478529   -0.00029772498627804895
-0.00025671444999278816   -0.007357283899938781   -0.00030807986938263934
-0.0002657974790516679   -0.007351539113982716   -0.00031495048518876805
-0.00014836754430783237   -0.006090952074792083   -0.00031063066186214923
0.000345854959188462   -0.00733124681478529   -0.00029772498627804895
-0.0002657974790516679   -0.007351539113982716   -0.00031495048518876805
0.0005091449365356675   -0.006070753257220665   -0.00031440809698843043
0.000491927968136527   -0.006075997331261073   -0.0003334299174080836
0.0003111869286595389   -0.007334454327786386   -0.0003387479483874989
0.0011962564004160405   -0.006061944860972478   -0.00034534407120589923
0.0005007846601916757   -0.006072560032513674   -0.0003232802799270663
0.0003111869286595389   -0.007334454327786386   -0.0003387479483874989
0.0009433981307185854   -0.007309252452583783   -0.0003536298268414719
0.0011962564004160405   -0.006061944860972478   -0.00034534407120589923
0.0009772287370866275   -0.0073009070332732805   -0.00033169731509038943
0.0005007846601916757   -0.006072560032513674   -0.0003232802799270663
0.0012185292185830873   -0.006054458516224253   -0.0003317724355496561
0.0009772287370866275   -0.0073009070332732805   -0.00033169731509038943
0.0011962564004160405   -0.006061944860972478   -0.00034534407120589923
0.0005007846601916757   -0.006072560032513674   -0.0003232802799270663
0.0009772287370866275   -0.0073009070332732805   -0.00033169731509038943
0.00032385783640748525   -0.007330284444132093   -0.0003237860828777513
0.0003111869286595389   -0.007334454327786386   -0.0003387479483874989
0.0005007846601916757   -0.006072560032513674   -0.0003232802799270663
0.0009772287370866275   -0.0073009070332732805   -0.00033169731509038943
0.0003111869286595389   -0.007334454327786386   -0.0003387479483874989
0.0011962564004160405   -0.006061944860972478   -0.00034534407120589923
0.0005007846601916757   -0.006072560032513674   -0.0003232802799270663
0.00032385783640748525   -0.007330284444132093   -0.0003237860828777513
0.0012185292185830873   -0.006054458516224253   -0.0003317724355496561
0.0005091449365356675   -0.006070753257220665   -0.00031440809698843043
0.00032385783640748525   -0.007330284444132093   -0.0003237860828777513
0.0009772287370866275   -0.0073009070332732805   -0.00033169731509038943
0.0012185292185830873   -0.006054458516224253   -0.0003317724355496561
0.0010025169782284413   -0.007298520131401501   -0.0003115729220122457
0.0005091449365356675   -0.006070753257220665   -0.00031440809698843043
0.0012342719678478573   -0.00605080232175153   -0.0003200382070514563
0.0010025169782284413   -0.007298520131401501   -0.0003115729220122457
0.0012185292185830873   -0.006054458516224253   -0.0003317724355496561
0.0005091449365356675   -0.006070753257220665   -0.00031440809698843043
0.0010025169782284413   -0.007298520131401501   -0.0003115729220122457
0.00033695717349674234   -0.007329410515533624   -0.0003101717823577008
0.00032385783640748525   -0.007330284444132093   -0.0003237860828777513
0.0005091449365356675   -0.006070753257220665   -0.00031440809698843043
0.0010025169782284413   -0.007298520131401501   -0.0003115729220122457
0.00032385783640748525   -0.007330284444132093   -0.0003237860828777513
0.0012185292185830873   -0.006054458516224253   -0.0003317724355496561
0.0005091449365356675   -0.006070753257220665   -0.00031440809698843043
0.00033695717349674234   -0.007329410515533624   -0.0003101717823577008
0.0012342719678478573   -0.00605080232175153   -0.0003200382070514563
0.0005141388225534287   -0.006069811290009739   -0.0003067298862411294
0.00033695717349674234   -0.007329410515533624   -0.0003101717823577008
0.0010025169782284413   -0.007298520131401501   -0.0003115729220122457
0.0012342719678478573   -0.00605080232175153   -0.0003200382070514563
0.00102858520807277   -0.007298586603102336   -0.0002933508192017957
0.0005141388225534287   -0.006069811290009739   -0.0003067298862411294
0.0012488280796066323   -0.006047132235401271   -0.0003102221477808763
0.00102858520807277   -0.007298586603102336   -0.0002933508192017957
0.0012342719678478573   -0.00605080232175153   -0.0003200382070514563
0.0005141388225534287   -0.006069811290009739   -0.0003067298862411294
0.00102858520807277   -0.007298586603102336   -0.0002933508192017957
0.000345854959188462   -0.00733124681478529   -0.00029772498627804895
0.00033695717349674234   -0.007329410515533624   -0.0003101717823577008
0.0005141388225534287   -0.006069811290009739   -0.0003067298862411294
0.00102858520807277   -0.007298586603102336   -0.0002933508192017957
0.00033695717349674234   -0.007329410515533624   -0.0003101717823577008
0.0012342719678478573   -0.00605080232175153   -0.0003200382070514563
-0.002125110954891688   -0.00733417101089846   -0.0003508357887548744
-0.0019410626465598173   -0.00843254013720298   -0.00032829324423768114
-0.001461816175555757   -0.007348445165144204   -0.00034002358391617106
-0.0021093585866460663   -0.0073436197474181135   -0.00035946935358503697
-0.0019410626465598173   -0.00843254013720298   -0.00032829324423768114
-0.0013848624562989786   -0.008457610828243988   -0.00032678822642655334
-0.001461816175555757   -0.007348445165144204   -0.00034002358391617106
-0.00137150640843804   -0.008461191855785867   -0.0003328142246090478
-0.0021093585866460663   -0.0073436197474181135   -0.00035946935358503697
-0.0014531268513811044   -0.007355428635383465   -0.00034181316208232787
-0.00137150640843804   -0.008461191855785867   -0.0003328142246090478
-0.001461816175555757   -0.007348445165144204   -0.00034002358391617106
-0.0021093585866460663   -0.0073436197474181135   -0.00035946935358503697
-0.00137150640843804   -0.008461191855785867   -0.0003328142246090478
-0.0019127341588864553   -0.008437798115922133   -0.00034539833353064767
-0.0019410626465598173   -0.00843254013720298   -0.00032829324423768114
-0.0021093585866460663   -0.0073436197474181135   -0.00035946935358503697
-0.00137150640843804   -0.008461191855785867   -0.0003328142246090478
-0.0019410626465598173   -0.00843254013720298   -0.00032829324423768114
-0.001461816175555757   -0.007348445165144204   -0.00034002358391617106
-0.0021093585866460663   -0.0073436197474181135   -0.00035946935358503697
-0.0019127341588864553   -0.008437798115922133   -0.00034539833353064767
-0.0014531268513811044   -0.007355428635383465   -0.00034181316208232787
-0.00209176103856021   -0.007355534415459777   -0.00037011389715731907
-0.0019127341588864553   -0.008437798115922133   -0.00034539833353064767
-0.00137150640843804   -0.008461191855785867   -0.0003328142246090478
-0.0014531268513811044   -0.007355428635383465   -0.00034181316208232787
-0.001354709369151405   -0.008469998539194062   -0.0003401055837126767
-0.00209176103856021   -0.007355534415459777   -0.00037011389715731907
-0.0014415419871012046   -0.007365623496429721   -0.0003448856908432916
-0.001354709369151405   -0.008469998539194062   -0.0003401055837126767
-0.0014531268513811044   -0.007355428635383465   -0.00034181316208232787
-0.00209176103856021   -0.007355534415459777   -0.00037011389715731907
-0.001354709369151405   -0.008469998539194062   -0.0003401055837126767
-0.0018847435901692413   -0.00844814339748779   -0.00036456044853878586
-0.0019127341588864553   -0.008437798115922133   -0.00034539833353064767
-0.00209176103856021   -0.007355534415459777   -0.00037011389715731907
-0.001354709369151405   -0.008469998539194062   -0.0003401055837126767
-0.0019127341588864553   -0.008437798115922133   -0.00034539833353064767
-0.0014531268513811044   -0.007355428635383465   -0.00034181316208232787
-0.00209176103856021   -0.007355534415459777   -0.00037011389715731907
-0.0018847435901692413   -0.00844814339748779   -0.00036456044853878586
-0.0014415419871012046   -0.007365623496429721   -0.0003448856908432916
-0.0020680745524050137   -0.007373833885313525   -0.00038282596187695303
-0.0018847435901692413   -0.00844814339748779   -0.00036456044853878586
-0.001354709369151405   -0.008469998539194062   -0.0003401055837126767
-0.0014415419871012046   -0.007365623496429721   -0.0003448856908432916
-0.001338186707679061   -0.008484535684039068   -0.0003486496238332801
-0.0020680745524050137   -0.007373833885313525   -0.00038282596187695303
-0.0014291928305698765   -0.007379663915189177   -0.00034926639295632404
-0.001338186707679061   -0.008484535684039068   -0.0003486496238332801
-0.0014415419871012046   -0.007365623496429721   -0.0003448856908432916
-0.0020680745524050137   -0.007373833885313525   -0.00038282596187695303
-0.001338186707679061   -0.008484535684039068   -0.0003486496238332801
-0.00184896524659888   -0.008467436753987423   -0.0003857627409524369
-0.0018847435901692413   -0.00844814339748779   -0.00036456044853878586
-0.0020680745524050137   -0.007373833885313525   -0.00038282596187695303
-0.001338186707679061   -0.008484535684039068   -0.0003486496238332801
-0.0018847435901692413   -0.00844814339748779   -0.00036456044853878586
-0.0014415419871012046   -0.007365623496429721   -0.0003448856908432916
-0.001461816175555757   -0.007348445165144204   -0.00034002358391617106
-0.0013848624562989786   -0.008457610828243988   -0.00032678822642655334
-0.0008651583346923099   -0.007353777716871613   -0.00033318127810079347
-0.0014531268513811044   -0.007355428635383465   -0.00034181316208232787
-0.0013848624562989786   -0.008457610828243988   -0.00032678822642655334
-0.0008999820769054783   -0.008468845398856877   -0.0003263464876629221
-0.0008651583346923099   -0.007353777716871613   -0.00033318127810079347
-0.0008863742331361534   -0.008469940851435832   -0.00032352481225912964
-0.0014531268513811044   -0.007355428635383465   -0.00034181316208232787
-0.0008557963379094076   -0.007357298039826265   -0.00032924824497047167
-0.0008863742331361534   -0.008469940851435832   -0.00032352481225912964
-0.0008651583346923099   -0.007353777716871613   -0.00033318127810079347
-0.0014531268513811044   -0.007355428635383465   -0.00034181316208232787
-0.0008863742331361534   -0.008469940851435832   -0.00032352481225912964
-0.00137150640843804   -0.008461191855785867   -0.0003328142246090478
-0.0013848624562989786   -0.008457610828243988   -0.00032678822642655334
-0.0014531268513811044   -0.007355428635383465   -0.00034181316208232787
-0.0008863742331361534   -0.008469940851435832   -0.00032352481225912964
-0.0013848624562989786   -0.008457610828243988   -0.00032678822642655334
-0.0008651583346923099   -0.007353777716871613   -0.00033318127810079347
-0.0014531268513811044   -0.007355428635383465   -0.00034181316208232787
-0.00137150640843804   -0.008461191855785867   -0.0003328142246090478
-0.0008557963379094076   -0.007357298039826265   -0.00032924824497047167
-0.0014415419871012046   -0.007365623496429721   -0.0003448856908432916
-0.00137150640843804   -0.008461191855785867   -0.0003328142246090478
-0.0008863742331361534   -0.008469940851435832   -0.00032352481225912964
-0.0008557963379094076   -0.007357298039826265   -0.00032924824497047167
-0.0008722919783783853   -0.008475723831909393   -0.00032193049805572286
-0.0014415419871012046   -0.007365623496429721   -0.0003448856908432916
-0.0008457645045136159   -0.0073638851305954205   -0.00032658015007531517
-0.0008722919783783853   -0.008475723831909393   -0.00032193049805572286
-0.0008557963379094076   -0.007357298039826265   -0.00032924824497047167
-0.0014415419871012046   -0.007365623496429721   -0.0003448856908432916
-0.0008722919783783853   -0.008475723831909393   -0.00032193049805572286
-0.001354709369151405   -0.008469998539194062   -0.0003401055837126767
-0.00137150640843804   -0.008461191855785867   -0.0003328142246090478
-0.0014415419871012046   -0.007365623496429721   -0.0003448856908432916
-0.0008722919783783853   -0.008475723831909393   -0.00032193049805572286
-0.00137150640843804   -0.008461191855785867   -0.0003328142246090478
-0.0008557963379094076   -0.007357298039826265   -0.00032924824497047167
-0.0014415419871012046   -0.007365623496429721   -0.0003448856908432916
-0.001354709369151405   -0.008469998539194062   -0.0003401055837126767
-0.0008457645045136159   -0.0073638851305954205   -0.00032658015007531517
-0.0014291928305698765   -0.007379663915189177   -0.00034926639295632404
-0.001354709369151405   -0.008469998539194062   -0.0003401055837126767
-0.0008722919783783853   -0.008475723831909393   -0.00032193049805572286
-0.0008457645045136159   -0.0073638851305954205   -0.00032658015007531517
-0.0008582128060023054   -0.008486422872101222   -0.00032156315673490264
-0.0014291928305698765   -0.007379663915189177   -0.00034926639295632404
-0.0008354550299946145   -0.007373611830950769   -0.0003252468719475579
-0.0008582128060023054   -0.008486422872101222   -0.00032156315673490264
-0.0008457645045136159   -0.0073638851305954205   -0.00032658015007531517
-0.0014291928305698765   -0.007379663915189177   -0.00034926639295632404
-0.0008582128060023054   -0.008486422872101222   -0.00032156315673490264
-0.001338186707679061   -0.008484535684039068   -0.0003486496238332801
-0.001354709369151405   -0.008469998539194062   -0.0003401055837126767
-0.0014291928305698765   -0.007379663915189177   -0.00034926639295632404
-0.0008582128060023054   -0.008486422872101222   -0.00032156315673490264
-0.001354709369151405   -0.008469998539194062   -0.0003401055837126767
-0.0008457645045136159   -0.0073638851305954205   -0.00032658015007531517
-0.0008651583346923099   -0.007353777716871613   -0.00033318127810079347
-0.0008999820769054783   -0.008468845398856877   -0.0003263464876629221
-0.0002862287129624379   -0.007349060939170057   -0.00033259579122811133
-0.0008557963379094076   -0.007357298039826265   -0.00032924824497047167
-0.0008999820769054783   -0.008468845398856877   -0.0003263464876629221
-0.00043085459140477573   -0.008465800649875494   -0.0003302260418513061
-0.0002862287129624379   -0.007349060939170057   -0.00033259579122811133
-0.00041595929213209237   -0.008464066572358254   -0.0003188567943455477
-0.0008557963379094076   -0.007357298039826265   -0.00032924824497047167
-0.0002758908976521254   -0.007348863589462378   -0.00032313639800381753
-0.00041595929213209237   -0.008464066572358254   -0.0003188567943455477
-0.0002862287129624379   -0.007349060939170057   -0.00033259579122811133
-0.0008557963379094076   -0.007357298039826265   -0.00032924824497047167
-0.00041595929213209237   -0.008464066572358254   -0.0003188567943455477
-0.0008863742331361534   -0.008469940851435832   -0.00032352481225912964
-0.0008999820769054783   -0.008468845398856877   -0.0003263464876629221
-0.0008557963379094076   -0.007357298039826265   -0.00032924824497047167
-0.00041595929213209237   -0.008464066572358254   -0.0003188567943455477
-0.0008999820769054783   -0.008468845398856877   -0.0003263464876629221
-0.0002862287129624379   -0.007349060939170057   -0.00033259579122811133
-0.0008557963379094076   -0.007357298039826265   -0.00032924824497047167
-0.0008863742331361534   -0.008469940851435832   -0.00032352481225912964
-0.0002758908976521254   -0.007348863589462378   -0.00032313639800381753
-0.0008457645045136159   -0.0073638851305954205   -0.00032658015007531517
-0.0008863742331361534   -0.008469940851435832   -0.00032352481225912964
-0.00041595929213209237   -0.008464066572358254   -0.0003188567943455477
-0.0002758908976521254   -0.007348863589462378   -0.00032313639800381753
-0.00040144801769415376   -0.008466628218720696   -0.0003087980480874251
-0.0008457645045136159   -0.0073638851305954205   -0.00032658015007531517
-0.0002657974790516679   -0.007351539113982716   -0.00031495048518876805
-0.00040144801769415376   -0.008466628218720696   -0.0003087980480874251
-0.0002758908976521254   -0.007348863589462378   -0.00032313639800381753
-0.0008457645045136159   -0.0073638851305954205   -0.00032658015007531517
-0.00040144801769415376   -0.008466628218720696   -0.0003087980480874251
-0.0008722919783783853   -0.008475723831909393   -0.00032193049805572286
-0.0008863742331361534   -0.008469940851435832   -0.00032352481225912964
-0.0008457645045136159   -0.0073638851305954205   -0.00032658015007531517
-0.00040144801769415376   -0.008466628218720696   -0.0003087980480874251
-0.0008863742331361534   -0.008469940851435832   -0.00032352481225912964
-0.0002758908976521254   -0.007348863589462378   -0.00032313639800381753
-0.0008457645045136159   -0.0073638851305954205   -0.00032658015007531517
-0.0008722919783783853   -0.008475723831909393   -0.00032193049805572286
-0.0002657974790516679   -0.007351539113982716   -0.00031495048518876805
-0.0008354550299946145   -0.007373611830950769   -0.0003252468719475579
-0.0008722919783783853   -0.008475723831909393   -0.00032193049805572286
-0.00040144801769415376   -0.008466628218720696   -0.0003087980480874251
-0.0002657974790516679   -0.007351539113982716   -0.00031495048518876805
-0.0003882864385694087   -0.008474008591666447   -0.00029994439918403637
-0.0008354550299946145   -0.007373611830950769   -0.0003252468719475579
-0.00025671444999278816   -0.007357283899938781   -0.00030807986938263934
-0.0003882864385694087   -0.008474008591666447   -0.00029994439918403637
-0.0002657974790516679   -0.007351539113982716   -0.00031495048518876805
-0.0008354550299946145   -0.007373611830950769   -0.0003252468719475579
-0.0003882864385694087   -0.008474008591666447   -0.00029994439918403637
-0.0008582128060023054   -0.008486422872101222   -0.00032156315673490264
-0.0008722919783783853   -0.008475723831909393   -0.00032193049805572286
-0.0008354550299946145   -0.007373611830950769   -0.0003252468719475579
-0.0003882864385694087   -0.008474008591666447   -0.00029994439918403637
-0.0008722919783783853   -0.008475723831909393   -0.00032193049805572286
-0.0002657974790516679   -0.007351539113982716   -0.00031495048518876805
-0.0002862287129624379   -0.007349060939170057   -0.00033259579122811133
-0.00043085459140477573   -0.008465800649875494   -0.0003302260418513061
0.0003111869286595389   -0.007334454327786386   -0.0003387479483874989
-0.0002758908976521254   -0.007348863589462378   -0.00032313639800381753
-0.00043085459140477573   -0.008465800649875494   -0.0003302260418513061
5.783225228181655e-05   -0.008447945615723786   -0.00033912163579496454
0.0003111869286595389   -0.007334454327786386   -0.0003387479483874989
7.605704368468134e-05   -0.008442687667401024   -0.0003192042514613528
-0.0002758908976521254   -0.007348863589462378   -0.00032313639800381753
0.00032385783640748525   -0.007330284444132093   -0.0003237860828777513
7.605704368468134e-05   -0.008442687667401024   -0.0003192042514613528
0.0003111869286595389   -0.007334454327786386   -0.0003387479483874989
-0.0002758908976521254   -0.007348863589462378   -0.00032313639800381753
7.605704368468134e-05   -0.008442687667401024   -0.0003192042514613528
-0.00041595929213209237   -0.008464066572358254   -0.0003188567943455477
-0.00043085459140477573   -0.008465800649875494   -0.0003302260418513061
-0.0002758908976521254   -0.007348863589462378   -0.00032313639800381753
7.605704368468134e-05   -0.008442687667401024   -0.0003192042514613528
-0.00043085459140477573   -0.008465800649875494   -0.0003302260418513061
0.0003111869286595389   -0.007334454327786386   -0.0003387479483874989
-0.0002758908976521254   -0.007348863589462378   -0.00032313639800381753
-0.00041595929213209237   -0.008464066572358254   -0.0003188567943455477
0.00032385783640748525   -0.007330284444132093   -0.0003237860828777513
-0.0002657974790516679   -0.007351539113982716   -0.00031495048518876805
-0.00041595929213209237   -0.008464066572358254   -0.0003188567943455477
7.605704368468134e-05   -0.008442687667401024   -0.0003192042514613528
0.00032385783640748525   -0.007330284444132093   -0.0003237860828777513
9.543587553322851e-05   -0.00844222508049895   -0.0003009339109812726
-0.0002657974790516679   -0.007351539113982716   -0.00031495048518876805
0.00033695717349674234   -0.007329410515533624   -0.0003101717823577008
9.543587553322851e-05   -0.00844222508049895   -0.0003009339109812726
0.00032385783640748525   -0.007330284444132093   -0.0003237860828777513
-0.0002657974790516679   -0.007351539113982716   -0.00031495048518876805
9.543587553322851e-05   -0.00844222508049895   -0.0003009339109812726
-0.00040144801769415376   -0.008466628218720696   -0.0003087980480874251
-0.00041595929213209237   -0.008464066572358254   -0.0003188567943455477
-0.0002657974790516679   -0.007351539113982716   -0.00031495048518876805
9.543587553322851e-05   -0.00844222508049895   -0.0003009339109812726
-0.00041595929213209237   -0.008464066572358254   -0.0003188567943455477
0.00032385783640748525   -0.007330284444132093   -0.0003237860828777513
-0.0002657974790516679   -0.007351539113982716   -0.00031495048518876805
-0.00040144801769415376   -0.008466628218720696   -0.0003087980480874251
0.00033695717349674234   -0.007329410515533624   -0.0003101717823577008
-0.00025671444999278816   -0.007357283899938781   -0.00030807986938263934
-0.00040144801769415376   -0.008466628218720696   -0.0003087980480874251
9.543587553322851e-05   -0.00844222508049895   -0.0003009339109812726
0.00033695717349674234   -0.007329410515533624   -0.0003101717823577008
0.00010960462878715748   -0.008446314589407552   -0.00028379100802109885
-0.00025671444999278816   -0.007357283899938781   -0.00030807986938263934
0.000345854959188462   -0.00733124681478529   -0.00029772498627804895
0.00010960462878715748   -0.008446314589407552   -0.00028379100802109885
0.00033695717349674234   -0.007329410515533624   -0.0003101717823577008
-0.00025671444999278816   -0.007357283899938781   -0.00030807986938263934
0.00010960462878715748   -0.008446314589407552   -0.00028379100802109885
-0.0003882864385694087   -0.008474008591666447   -0.00029994439918403637
-0.00040144801769415376   -0.008466628218720696   -0.0003087980480874251
-0.00025671444999278816   -0.007357283899938781   -0.00030807986938263934
0.00010960462878715748   -0.008446314589407552   -0.00028379100802109885
-0.00040144801769415376   -0.008466628218720696   -0.0003087980480874251
0.00033695717349674234   -0.007329410515533624   -0.0003101717823577008
0.0003111869286595389   -0.007334454327786386   -0.0003387479483874989
5.783225228181655e-05   -0.008447945615723786   -0.00033912163579496454
0.0009433981307185854   -0.007309252452583783   -0.0003536298268414719
0.00032385783640748525   -0.007330284444132093   -0.0003237860828777513
5.783225228181655e-05   -0.008447945615723786   -0.00033912163579496454
0.0005742026462681051   -0.008413661013945025   -0.0003573088505426346
0.0009433981307185854   -0.007309252452583783   -0.0003536298268414719
0.0006217250509322379   -0.00840371064742681   -0.0003267477273657766
0.00032385783640748525   -0.007330284444132093   -0.0003237860828777513
0.0009772287370866275   -0.0073009070332732805   -0.00033169731509038943
0.0006217250509322379   -0.00840371064742681   -0.0003267477273657766
0.0009433981307185854   -0.007309252452583783   -0.0003536298268414719
0.00032385783640748525   -0.007330284444132093   -0.0003237860828777513
0.0006217250509322379   -0.00840371064742681   -0.0003267477273657766
7.605704368468134e-05   -0.008442687667401024   -0.0003192042514613528
5.783225228181655e-05   -0.008447945615723786   -0.00033912163579496454
0.00032385783640748525   -0.007330284444132093   -0.0003237860828777513
0.0006217250509322379   -0.00840371064742681   -0.0003267477273657766
5.783225228181655e-05   -0.008447945615723786   -0.00033912163579496454
0.0009433981307185854   -0.007309252452583783   -0.0003536298268414719
0.00032385783640748525   -0.007330284444132093   -0.0003237860828777513
7.605704368468134e-05   -0.008442687667401024   -0.0003192042514613528
0.0009772287370866275   -0.0073009070332732805   -0.00033169731509038943
0.00033695717349674234   -0.007329410515533624   -0.0003101717823577008
7.605704368468134e-05   -0.008442687667401024   -0.0003192042514613528
0.0006217250509322379   -0.00840371064742681   -0.0003267477273657766
0.0009772287370866275   -0.0073009070332732805   -0.00033169731509038943
0.0006582613770875222   -0.00840198236514636   -0.00029823473842562146
0.00033695717349674234   -0.007329410515533624   -0.0003101717823577008
0.0010025169782284413   -0.007298520131401501   -0.0003115729220122457
0.0006582613770875222   -0.00840198236514636   -0.00029823473842562146
0.0009772287370866275   -0.0073009070332732805   -0.00033169731509038943
0.00033695717349674234   -0.007329410515533624   -0.0003101717823577008
0.0006582613770875222   -0.00840198236514636   -0.00029823473842562146
9.543587553322851e-05   -0.00844222508049895   -0.0003009339109812726
7.605704368468134e-05   -0.008442687667401024   -0.0003192042514613528
0.00033695717349674234   -0.007329410515533624   -0.0003101717823577008
0.0006582613770875222   -0.00840198236514636   -0.00029823473842562146
7.605704368468134e-05   -0.008442687667401024   -0.0003192042514613528
0.0009772287370866275   -0.0073009070332732805   -0.00033169731509038943
0.00033695717349674234   -0.007329410515533624   -0.0003101717823577008
9.543587553322851e-05   -0.00844222508049895   -0.0003009339109812726
0.0010025169782284413   -0.007298520131401501   -0.0003115729220122457
0.000345854959188462   -0.00733124681478529   -0.00029772498627804895
9.543587553322851e-05   -0.00844222508049895   -0.0003009339109812726
0.0006582613770875222   -0.00840198236514636   -0.00029823473842562146
0.0010025169782284413   -0.007298520131401501   -0.0003115729220122457
0.0006967008478521379   -0.008405150160915219   -0.0002719923067770978
0.000345854959188462   -0.00733124681478529   -0.00029772498627804895
0.00102858520807277   -0.007298586603102336   -0.0002933508192017957
0.0006967008478521379   -0.008405150160915219   -0.0002719923067770978
0.0010025169782284413   -0.007298520131401501   -0.0003115729220122457
0.000345854959188462   -0.00733124681478529   -0.00029772498627804895
0.0006967008478521379   -0.008405150160915219   -0.0002719923067770978
0.00010960462878715748   -0.008446314589407552   -0.00028379100802109885
9.543587553322851e-05   -0.00844222508049895   -0.0003009339109812726
0.000345854959188462   -0.00733124681478529   -0.00029772498627804895
0.0006967008478521379   -0.008405150160915219   -0.0002719923067770978
9.543587553322851e-05   -0.00844222508049895   -0.0003009339109812726
0.0010025169782284413   -0.007298520131401501   -0.0003115729220122457
-0.0019410626465598173   -0.00843254013720298   -0.00032829324423768114
-0.0016378832419621755   -0.009291003452879214   -0.000298819638944039
-0.0013848624562989786   -0.008457610828243988   -0.00032678822642655334
-0.0019127341588864553   -0.008437798115922133   -0.00034539833353064767
-0.0016378832419621755   -0.009291003452879214   -0.000298819638944039
-0.0012406429325197642   -0.009327360583148177   -0.0003095632943833803
-0.0013848624562989786   -0.008457610828243988   -0.00032678822642655334
-0.0012221671879337123   -0.009325749537175325   -0.0003187952033289673
-0.0019127341588864553   -0.008437798115922133   -0.00034539833353064767
-0.00137150640843804   -0.008461191855785867   -0.0003328142246090478
-0.0012221671879337123   -0.009325749537175325   -0.0003187952033289673
-0.0013848624562989786   -0.008457610828243988   -0.00032678822642655334
-0.0019127341588864553   -0.008437798115922133   -0.00034539833353064767
-0.0012221671879337123   -0.009325749537175325   -0.0003187952033289673
-0.0015969215239410423   -0.009290151299602364   -0.0003236617555092641
-0.0016378832419621755   -0.009291003452879214   -0.000298819638944039
-0.0019127341588864553   -0.008437798115922133   -0.00034539833353064767
-0.0012221671879337123   -0.009325749537175325   -0.0003187952033289673
-0.0016378832419621755   -0.009291003452879214   -0.000298819638944039
-0.0013848624562989786   -0.008457610828243988   -0.00032678822642655334
-0.0019127341588864553   -0.008437798115922133   -0.00034539833353064767
-0.0015969215239410423   -0.009290151299602364   -0.0003236617555092641
-0.00137150640843804   -0.008461191855785867   -0.0003328142246090478
-0.0018847435901692413   -0.00844814339748779   -0.00036456044853878586
-0.0015969215239410423   -0.009290151299602364   -0.0003236617555092641
-0.0012221671879337123   -0.009325749537175325   -0.0003187952033289673
-0.00137150640843804   -0.008461191855785867   -0.0003328142246090478
-0.0012002568386270214   -0.009331442282673536   -0.00032928619757939016
-0.0018847435901692413   -0.00844814339748779   -0.00036456044853878586
-0.001354709369151405   -0.008469998539194062   -0.0003401055837126767
-0.0012002568386270214   -0.009331442282673536   -0.00032928619757939016
-0.00137150640843804   -0.008461191855785867   -0.0003328142246090478
-0.0018847435901692413   -0.00844814339748779   -0.00036456044853878586
-0.0012002568386270214   -0.009331442282673536   -0.00032928619757939016
-0.0015593485299163167   -0.00929711027564856   -0.00035029046197428284
-0.0015969215239410423   -0.009290151299602364   -0.0003236617555092641
-0.0018847435901692413   -0.00844814339748779   -0.00036456044853878586
-0.0012002568386270214   -0.009331442282673536   -0.00032928619757939016
-0.0015969215239410423   -0.009290151299602364   -0.0003236617555092641
-0.00137150640843804   -0.008461191855785867   -0.0003328142246090478
-0.0018847435901692413   -0.00844814339748779   -0.00036456044853878586
-0.0015593485299163167   -0.00929711027564856   -0.00035029046197428284
-0.001354709369151405   -0.008469998539194062   -0.0003401055837126767
-0.00184896524659888   -0.008467436753987423   -0.0003857627409524369
-0.0015593485299163167   -0.00929711027564856   -0.00035029046197428284
-0.0012002568386270214   -0.009331442282673536   -0.00032928619757939016
-0.001354709369151405   -0.008469998539194062   -0.0003401055837126767
-0.0011803897882389721   -0.009344595833325439   -0.00034095948921620184
-0.00184896524659888   -0.008467436753987423   -0.0003857627409524369
-0.001338186707679061   -0.008484535684039068   -0.0003486496238332801
-0.0011803897882389721   -0.009344595833325439   -0.00034095948921620184
-0.001354709369151405   -0.008469998539194062   -0.0003401055837126767
-0.00184896524659888   -0.008467436753987423   -0.0003857627409524369
-0.0011803897882389721   -0.009344595833325439   -0.00034095948921620184
-0.0015133950578522489   -0.00931509256983183   -0.00037862120138369286
-0.0015593485299163167   -0.00929711027564856   -0.00035029046197428284
-0.00184896524659888   -0.008467436753987423   -0.0003857627409524369
-0.0011803897882389721   -0.009344595833325439   -0.00034095948921620184
-0.0015593485299163167   -0.00929711027564856   -0.00035029046197428284
-0.001354709369151405   -0.008469998539194062   -0.0003401055837126767
-0.0013848624562989786   -0.008457610828243988   -0.00032678822642655334
-0.0012406429325197642   -0.009327360583148177   -0.0003095632943833803
-0.0008999820769054783   -0.008468845398856877   -0.0003263464876629221
-0.00137150640843804   -0.008461191855785867   -0.0003328142246090478
-0.0012406429325197642   -0.009327360583148177   -0.0003095632943833803
-0.0009121032452364464   -0.009349696247988442   -0.0003180136062393512
-0.0008999820769054783   -0.008468845398856877   -0.0003263464876629221
-0.0008933140890923807   -0.009346845249492938   -0.00031522020957035907
-0.00137150640843804   -0.008461191855785867   -0.0003328142246090478
-0.0008863742331361534   -0.008469940851435832   -0.00032352481225912964
-0.0008933140890923807   -0.009346845249492938   -0.00031522020957035907
-0.0008999820769054783   -0.008468845398856877   -0.0003263464876629221
-0.00137150640843804   -0.008461191855785867   -0.0003328142246090478
-0.0008933140890923807   -0.009346845249492938   -0.00031522020957035907
-0.0012221671879337123   -0.009325749537175325   -0.0003187952033289673
-0.0012406429325197642   -0.009327360583148177   -0.0003095632943833803
-0.00137150640843804   -0.008461191855785867   -0.0003328142246090478
-0.0008933140890923807   -0.009346845249492938   -0.00031522020957035907
-0.0012406429325197642   -0.009327360583148177   -0.0003095632943833803
-0.0008999820769054783   -0.008468845398856877   -0.0003263464876629221
-0.00137150640843804   -0.008461191855785867   -0.0003328142246090478
-0.0012221671879337123   -0.009325749537175325   -0.0003187952033289673
-0.0008863742331361534   -0.008469940851435832   -0.00032352481225912964
-0.001354709369151405   -0.008469998539194062   -0.0003401055837126767
-0.0012221671879337123   -0.009325749537175325   -0.0003187952033289673
-0.0008933140890923807   -0.009346845249492938   -0.00031522020957035907
-0.0008863742331361534   -0.008469940851435832   -0.00032352481225912964
-0.0008746855429828493   -0.009350354718930313   -0.0003136620534674376
-0.001354709369151405   -0.008469998539194062   -0.0003401055837126767
-0.0008722919783783853   -0.008475723831909393   -0.00032193049805572286
-0.0008746855429828493   -0.009350354718930313   -0.0003136620534674376
-0.0008863742331361534   -0.008469940851435832   -0.00032352481225912964
-0.001354709369151405   -0.008469998539194062   -0.0003401055837126767
-0.0008746855429828493   -0.009350354718930313   -0.0003136620534674376
-0.0012002568386270214   -0.009331442282673536   -0.00032928619757939016
-0.0012221671879337123   -0.009325749537175325   -0.0003187952033289673
-0.001354709369151405   -0.008469998539194062   -0.0003401055837126767
-0.0008746855429828493   -0.009350354718930313   -0.0003136620534674376
-0.0012221671879337123   -0.009325749537175325   -0.0003187952033289673
-0.0008863742331361534   -0.008469940851435832   -0.00032352481225912964
-0.001354709369151405   -0.008469998539194062   -0.0003401055837126767
-0.0012002568386270214   -0.009331442282673536   -0.00032928619757939016
-0.0008722919783783853   -0.008475723831909393   -0.00032193049805572286
-0.001338186707679061   -0.008484535684039068   -0.0003486496238332801
-0.0012002568386270214   -0.009331442282673536   -0.00032928619757939016
-0.0008746855429828493   -0.009350354718930313   -0.0003136620534674376
-0.0008722919783783853   -0.008475723831909393   -0.00032193049805572286
-0.0008574342323578913   -0.009360392229304862   -0.0003135795818935437
-0.001338186707679061   -0.008484535684039068   -0.0003486496238332801
-0.0008582128060023054   -0.008486422872101222   -0.00032156315673490264
-0.0008574342323578913   -0.009360392229304862   -0.0003135795818935437
-0.0008722919783783853   -0.008475723831909393   -0.00032193049805572286
-0.001338186707679061   -0.008484535684039068   -0.0003486496238332801
-0.0008574342323578913   -0.009360392229304862   -0.0003135795818935437
-0.0011803897882389721   -0.009344595833325439   -0.00034095948921620184
-0.0012002568386270214   -0.009331442282673536   -0.00032928619757939016
-0.001338186707679061   -0.008484535684039068   -0.0003486496238332801
-0.0008574342323578913   -0.009360392229304862   -0.0003135795818935437
-0.0012002568386270214   -0.009331442282673536   -0.00032928619757939016
-0.0008722919783783853   -0.008475723831909393   -0.00032193049805572286
-0.0008999820769054783   -0.008468845398856877   -0.0003263464876629221
-0.0009121032452364464   -0.009349696247988442   -0.0003180136062393512
-0.00043085459140477573   -0.008465800649875494   -0.0003302260418513061
-0.0008863742331361534   -0.008469940851435832   -0.00032352481225912964
-0.0009121032452364464   -0.009349696247988442   -0.0003180136062393512
-0.0005970168304874815   -0.009359522782163638   -0.00032841775214874775
-0.00043085459140477573   -0.008465800649875494   -0.0003302260418513061
-0.0005758773910427435   -0.009355157345950481   -0.0003142096734474887
-0.0008863742331361534   -0.008469940851435832   -0.00032352481225912964
-0.00041595929213209237   -0.008464066572358254   -0.0003188567943455477
-0.0005758773910427435   -0.009355157345950481   -0.0003142096734474887
-0.00043085459140477573   -0.008465800649875494   -0.0003302260418513061
-0.0008863742331361534   -0.008469940851435832   -0.00032352481225912964
-0.0005758773910427435   -0.009355157345950481   -0.0003142096734474887
-0.0008933140890923807   -0.009346845249492938   -0.00031522020957035907
-0.0009121032452364464   -0.009349696247988442   -0.0003180136062393512
-0.0008863742331361534   -0.008469940851435832   -0.00032352481225912964
-0.0005758773910427435   -0.009355157345950481   -0.0003142096734474887
-0.0009121032452364464   -0.009349696247988442   -0.0003180136062393512
-0.00043085459140477573   -0.008465800649875494   -0.0003302260418513061
-0.0008863742331361534   -0.008469940851435832   -0.00032352481225912964
-0.0008933140890923807   -0.009346845249492938   -0.00031522020957035907
-0.00041595929213209237   -0.008464066572358254   -0.0003188567943455477
-0.0008722919783783853   -0.008475723831909393   -0.00032193049805572286
-0.0008933140890923807   -0.009346845249492938   -0.00031522020957035907
-0.0005758773910427435   -0.009355157345950481   -0.0003142096734474887
-0.00041595929213209237   -0.008464066572358254   -0.0003188567943455477
-0.0005556407738619232   -0.00935648952987129   -0.0003011383444865754
-0.0008722919783783853   -0.008475723831909393   -0.00032193049805572286
-0.00040144801769415376   -0.008466628218720696   -0.0003087980480874251
-0.0005556407738619232   -0.00935648952987129   -0.0003011383444865754
-0.00041595929213209237   -0.008464066572358254   -0.0003188567943455477
-0.0008722919783783853   -0.008475723831909393   -0.00032193049805572286
-0.0005556407738619232   -0.00935648952987129   -0.0003011383444865754
-0.0008746855429828493   -0.009350354718930313   -0.0003136620534674376
-0.0008933140890923807   -0.009346845249492938   -0.00031522020957035907
-0.0008722919783783853   -0.008475723831909393   -0.00032193049805572286
-0.0005556407738619232   -0.00935648952987129   -0.0003011383444865754
-0.0008933140890923807   -0.009346845249492938   -0.00031522020957035907
-0.00041595929213209237   -0.008464066572358254   -0.0003188567943455477
-0.0008722919783783853   -0.008475723831909393   -0.00032193049805572286
-0.0008746855429828493   -0.009350354718930313   -0.0003136620534674376
-0.00040144801769415376   -0.008466628218720696   -0.0003087980480874251
-0.0008582128060023054   -0.008486422872101222   -0.00032156315673490264
-0.0008746855429828493   -0.009350354718930313   -0.0003136620534674376
-0.0005556407738619232   -0.00935648952987129   -0.0003011383444865754
-0.00040144801769415376   -0.008466628218720696   -0.0003087980480874251
-0.0005386442968333597   -0.009364436877558188   -0.00028981057124003714
-0.0008582128060023054   -0.008486422872101222   -0.00032156315673490264
-0.0003882864385694087   -0.008474008591666447   -0.00029994439918403637
-0.0005386442968333597   -0.009364436877558188   -0.00028981057124003714
-0.00040144801769415376   -0.008466628218720696   -0.0003087980480874251
-0.0008582128060023054   -0.008486422872101222   -0.00032156315673490264
-0.0005386442968333597   -0.009364436877558188   -0.00028981057124003714
-0.0008574342323578913   -0.009360392229304862   -0.0003135795818935437
-0.0008746855429828493   -0.009350354718930313   -0.0003136620534674376
-0.0008582128060023054   -0.008486422872101222   -0.00032156315673490264
-0.0005386442968333597   -0.009364436877558188   -0.00028981057124003714
-0.0008746855429828493   -0.009350354718930313   -0.0003136620534674376
-0.00040144801769415376   -0.008466628218720696   -0.0003087980480874251
-0.00043085459140477573   -0.008465800649875494   -0.0003302260418513061
-0.0005970168304874815   -0.009359522782163638   -0.00032841775214874775
5.783225228181655e-05   -0.008447945615723786   -0.00033912163579496454
-0.00041595929213209237   -0.008464066572358254   -0.0003188567943455477
-0.0005970168304874815   -0.009359522782163638   -0.00032841775214874775
-0.00026493826499546274   -0.009352949190077736   -0.0003410291823413393
5.783225228181655e-05   -0.008447945615723786   -0.00033912163579496454
-0.0002377905749447578   -0.009346036578524569   -0.0003157964270028346
-0.00041595929213209237   -0.008464066572358254   -0.0003188567943455477
7.605704368468134e-05   -0.008442687667401024   -0.0003192042514613528
-0.0002377905749447578   -0.009346036578524569   -0.0003157964270028346
5.783225228181655e-05   -0.008447945615723786   -0.00033912163579496454
-0.00041595929213209237   -0.008464066572358254   -0.0003188567943455477
-0.0002377905749447578   -0.009346036578524569   -0.0003157964270028346
-0.0005758773910427435   -0.009355157345950481   -0.0003142096734474887
-0.0005970168304874815   -0.009359522782163638   -0.00032841775214874775
-0.00041595929213209237   -0.008464066572358254   -0.0003188567943455477
-0.0002377905749447578   -0.009346036578524569   -0.0003157964270028346
-0.0005970168304874815   -0.009359522782163638   -0.00032841775214874775
5.783225228181655e-05   -0.008447945615723786   -0.00033912163579496454
-0.00041595929213209237   -0.008464066572358254   -0.0003188567943455477
-0.0005758773910427435   -0.009355157345950481   -0.0003142096734474887
7.605704368468134e-05   -0.008442687667401024   -0.0003192042514613528
-0.00040144801769415376   -0.008466628218720696   -0.0003087980480874251
-0.0005758773910427435   -0.009355157345950481   -0.0003142096734474887
-0.0002377905749447578   -0.009346036578524569   -0.0003157964270028346
7.605704368468134e-05   -0.008442687667401024   -0.0003192042514613528
-0.00020964418745858393   -0.009345050361271921   -0.0002917529265557342
-0.00040144801769415376   -0.008466628218720696   -0.0003087980480874251
9.543587553322851e-05   -0.00844222508049895   -0.0003009339109812726
-0.00020964418745858393   -0.009345050361271921   -0.0002917529265557342
7.605704368468134e-05   -0.008442687667401024   -0.0003192042514613528
-0.00040144801769415376   -0.008466628218720696   -0.0003087980480874251
-0.00020964418745858393   -0.009345050361271921   -0.0002917529265557342
-0.0005556407738619232   -0.00935648952987129   -0.0003011383444865754
-0.0005758773910427435   -0.009355157345950481   -0.0003142096734474887
-0.00040144801769415376   -0.008466628218720696   -0.0003087980480874251
-0.00020964418745858393   -0.009345050361271921   -0.0002917529265557342
-0.0005758773910427435   -0.009355157345950481   -0.0003142096734474887
7.605704368468134e-05   -0.008442687667401024   -0.0003192042514613528
-0.00040144801769415376   -0.008466628218720696   -0.0003087980480874251
-0.0005556407738619232   -0.00935648952987129   -0.0003011383444865754
9.543587553322851e-05   -0.00844222508049895   -0.0003009339109812726
-0.0003882864385694087   -0.008474008591666447   -0.00029994439918403637
-0.0005556407738619232   -0.00935648952987129   -0.0003011383444865754
-0.00020964418745858393   -0.009345050361271921   -0.0002917529265557342
9.543587553322851e-05   -0.00844222508049895   -0.0003009339109812726
-0.0001890308286284588   -0.009351093224922018   -0.000269716704311127
-0.0003882864385694087   -0.008474008591666447   -0.00029994439918403637
0.00010960462878715748   -0.008446314589407552   -0.00028379100802109885
-0.0001890308286284588   -0.009351093224922018   -0.000269716704311127
9.543587553322851e-05   -0.00844222508049895   -0.0003009339109812726
-0.0003882864385694087   -0.008474008591666447   -0.00029994439918403637
-0.0001890308286284588   -0.009351093224922018   -0.000269716704311127
-0.0005386442968333597   -0.009364436877558188   -0.00028981057124003714
-0.0005556407738619232   -0.00935648952987129   -0.0003011383444865754
-0.0003882864385694087   -0.008474008591666447   -0.00029994439918403637
-0.0001890308286284588   -0.009351093224922018   -0.000269716704311127
-0.0005556407738619232   -0.00935648952987129   -0.0003011383444865754
9.543587553322851e-05   -0.00844222508049895   -0.0003009339109812726
5.783225228181655e-05   -0.008447945615723786   -0.00033912163579496454
-0.00026493826499546274   -0.009352949190077736   -0.0003410291823413393
0.0005742026462681051   -0.008413661013945025   -0.0003573088505426346
7.605704368468134e-05   -0.008442687667401024   -0.0003192042514613528
-0.00026493826499546274   -0.009352949190077736   -0.0003410291823413393
8.65874473607955e-05   -0.009319790296515765   -0.00036563973878824533
0.0005742026462681051   -0.008413661013945025   -0.0003573088505426346
0.0001528454402421975   -0.009305141844730648   -0.00032457337732315854
7.605704368468134e-05   -0.008442687667401024   -0.0003192042514613528
0.0006217250509322379   -0.00840371064742681   -0.0003267477273657766
0.0001528454402421975   -0.009305141844730648   -0.00032457337732315854
0.0005742026462681051   -0.008413661013945025   -0.0003573088505426346
7.605704368468134e-05   -0.008442687667401024   -0.0003192042514613528
0.0001528454402421975   -0.009305141844730648   -0.00032457337732315854
-0.0002377905749447578   -0.009346036578524569   -0.0003157964270028346
-0.00026493826499546274   -0.009352949190077736   -0.0003410291823413393
7.605704368468134e-05   -0.008442687667401024   -0.0003192042514613528
0.0001528454402421975   -0.009305141844730648   -0.00032457337732315854
-0.00026493826499546274   -0.009352949190077736   -0.0003410291823413393
0.0005742026462681051   -0.008413661013945025   -0.0003573088505426346
7.605704368468134e-05   -0.008442687667401024   -0.0003192042514613528
-0.0002377905749447578   -0.009346036578524569   -0.0003157964270028346
0.0006217250509322379   -0.00840371064742681   -0.0003267477273657766
9.543587553322851e-05   -0.00844222508049895   -0.0003009339109812726
-0.0002377905749447578   -0.009346036578524569   -0.0003157964270028346
0.0001528454402421975   -0.009305141844730648   -0.00032457337732315854
0.0006217250509322379   -0.00840371064742681   -0.0003267477273657766
0.00020474973691739587   -0.00930236803353154   -0.0002857639258185162
9.543587553322851e-05   -0.00844222508049895   -0.0003009339109812726
0.0006582613770875222   -0.00840198236514636   -0.00029823473842562146
0.00020474973691739587   -0.00930236803353154   -0.0002857639258185162
0.0006217250509322379   -0.00840371064742681   -0.0003267477273657766
9.543587553322851e-05   -0.00844222508049895   -0.0003009339109812726
0.00020474973691739587   -0.00930236803353154   -0.0002857639258185162
-0.00020964418745858393   -0.009345050361271921   -0.0002917529265557342
-0.0002377905749447578   -0.009346036578524569   -0.0003157964270028346
9.543587553322851e-05   -0.00844222508049895   -0.0003009339109812726
0.00020474973691739587   -0.00930236803353154   -0.0002857639258185162
-0.0002377905749447578   -0.009346036578524569   -0.0003157964270028346
0.0006217250509322379   -0.00840371064742681   -0.0003267477273657766
9.543587553322851e-05   -0.00844222508049895   -0.0003009339109812726
-0.00020964418745858393   -0.009345050361271921   -0.0002917529265557342
0.0006582613770875222   -0.00840198236514636   -0.00029823473842562146
0.00010960462878715748   -0.008446314589407552   -0.00028379100802109885
-0.00020964418745858393   -0.009345050361271921   -0.0002917529265557342
0.00020474973691739587   -0.00930236803353154   -0.0002857639258185162
0.0006582613770875222   -0.00840198236514636   -0.00029823473842562146
0.0002594436102966474   -0.009305664969045115   -0.0002500179480805581
0.00010960462878715748   -0.008446314589407552   -0.00028379100802109885
0.0006967008478521379   -0.008405150160915219   -0.0002719923067770978
0.0002594436102966474   -0.009305664969045115   -0.0002500179480805581
0.0006582613770875222   -0.00840198236514636   -0.00029823473842562146
0.00010960462878715748   -0.008446314589407552   -0.00028379100802109885
0.0002594436102966474   -0.009305664969045115   -0.0002500179480805581
-0.0001890308286284588   -0.009351093224922018   -0.000269716704311127
-0.00020964418745858393   -0.009345050361271921   -0.0002917529265557342
0.00010960462878715748   -0.008446314589407552   -0.00028379100802109885
0.0002594436102966474   -0.009305664969045115   -0.0002500179480805581
-0.00020964418745858393   -0.009345050361271921   -0.0002917529265557342
0.0006582613770875222   -0.00840198236514636   -0.00029823473842562146
-0.0016378832419621755   -0.009291003452879214   -0.000298819638944039
-0.0012282272965983777   -0.009806657188465774   -0.00026384360096688383
-0.0012406429325197642   -0.009327360583148177   -0.0003095632943833803
-0.0015969215239410423   -0.009290151299602364   -0.0003236617555092641
-0.0012282272965983777   -0.009806657188465774   -0.00026384360096688383
-0.0010367494855010094   -0.009852038692300119   -0.00029027245365478507
-0.0012406429325197642   -0.009327360583148177   -0.0003095632943833803
-0.0010139651065575429   -0.009843682368789842   -0.0003003117961849815
-0.0015969215239410423   -0.009290151299602364   -0.0003236617555092641
-0.0012221671879337123   -0.009325749537175325   -0.0003187952033289673
-0.0010139651065575429   -0.009843682368789842   -0.0003003117961849815
-0.0012406429325197642   -0.009327360583148177   -0.0003095632943833803
-0.0015969215239410423   -0.009290151299602364   -0.0003236617555092641
-0.0010139651065575429   -0.009843682368789842   -0.0003003117961849815
-0.0011779301862314955   -0.009797161471020607   -0.00029349714978271616
-0.0012282272965983777   -0.009806657188465774   -0.00026384360096688383
-0.0015969215239410423   -0.009290151299602364   -0.0003236617555092641
-0.0010139651065575429   -0.009843682368789842   -0.0003003117961849815
-0.0012282272965983777   -0.009806657188465774   -0.00026384360096688383
-0.0012406429325197642   -0.009327360583148177   -0.0003095632943833803
-0.0015969215239410423   -0.009290151299602364   -0.0003236617555092641
-0.0011779301862314955   -0.009797161471020607   -0.00029349714978271616
-0.0012221671879337123   -0.009325749537175325   -0.0003187952033289673
-0.0015593485299163167   -0.00929711027564856   -0.00035029046197428284
-0.0011779301862314955   -0.009797161471020607   -0.00029349714978271616
-0.0010139651065575429   -0.009843682368789842   -0.0003003117961849815
-0.0012221671879337123   -0.009325749537175325   -0.0003187952033289673
-0.000988428701373477   -0.00984490770213391   -0.00031046700611636624
-0.0015593485299163167   -0.00929711027564856   -0.00035029046197428284
-0.0012002568386270214   -0.009331442282673536   -0.00032928619757939016
-0.000988428701373477   -0.00984490770213391   -0.00031046700611636624
-0.0012221671879337123   -0.009325749537175325   -0.0003187952033289673
-0.0015593485299163167   -0.00929711027564856   -0.00035029046197428284
-0.000988428701373477   -0.00984490770213391   -0.00031046700611636624
-0.0011346077943701308   -0.009798887062407599   -0.00032310810901369343
-0.0011779301862314955   -0.009797161471020607   -0.00029349714978271616
-0.0015593485299163167   -0.00929711027564856   -0.00035029046197428284
-0.000988428701373477   -0.00984490770213391   -0.00031046700611636624
-0.0011779301862314955   -0.009797161471020607   -0.00029349714978271616
-0.0012221671879337123   -0.009325749537175325   -0.0003187952033289673
-0.0015593485299163167   -0.00929711027564856   -0.00035029046197428284
-0.0011346077943701308   -0.009798887062407599   -0.00032310810901369343
-0.0012002568386270214   -0.009331442282673536   -0.00032928619757939016
-0.0015133950578522489   -0.00931509256983183   -0.00037862120138369286
-0.0011346077943701308   -0.009798887062407599   -0.00032310810901369343
-0.000988428701373477   -0.00984490770213391   -0.00031046700611636624
-0.0012002568386270214   -0.009331442282673536   -0.00032928619757939016
-0.0009648721950449101   -0.009855797202054832   -0.0003207786915671929
-0.0015133950578522489   -0.00931509256983183   -0.00037862120138369286
-0.0011803897882389721   -0.009344595833325439   -0.00034095948921620184
-0.0009648721950449101   -0.009855797202054832   -0.0003207786915671929
-0.0012002568386270214   -0.009331442282673536   -0.00032928619757939016
-0.0015133950578522489   -0.00931509256983183   -0.00037862120138369286
-0.0009648721950449101   -0.009855797202054832   -0.0003207786915671929
-0.0010829850748652061   -0.009812565753406277   -0.00035333411868451525
-0.0011346077943701308   -0.009798887062407599   -0.00032310810901369343
-0.0015133950578522489   -0.00931509256983183   -0.00037862120138369286
-0.0009648721950449101   -0.009855797202054832   -0.0003207786915671929
-0.0011346077943701308   -0.009798887062407599   -0.00032310810901369343
-0.0012002568386270214   -0.009331442282673536   -0.00032928619757939016
-0.0012406429325197642   -0.009327360583148177   -0.0003095632943833803
-0.0010367494855010094   -0.009852038692300119   -0.00029027245365478507
-0.0009121032452364464   -0.009349696247988442   -0.0003180136062393512
-0.0012221671879337123   -0.009325749537175325   -0.0003187952033289673
-0.0010367494855010094   -0.009852038692300119   -0.00029027245365478507
-0.000893334328780522   -0.009894624006560876   -0.0003134238573635536
-0.0009121032452364464   -0.009349696247988442   -0.0003180136062393512
-0.0008695877610633547   -0.009885892969262346   -0.00030724534485142003
-0.0012221671879337123   -0.009325749537175325   -0.0003187952033289673
-0.0008933140890923807   -0.009346845249492938   -0.00031522020957035907
-0.0008695877610633547   -0.009885892969262346   -0.00030724534485142003
-0.0009121032452364464   -0.009349696247988442   -0.0003180136062393512
-0.0012221671879337123   -0.009325749537175325   -0.0003187952033289673
-0.0008695877610633547   -0.009885892969262346   -0.00030724534485142003
-0.0010139651065575429   -0.009843682368789842   -0.0003003117961849815
-0.0010367494855010094   -0.009852038692300119   -0.00029027245365478507
-0.0012221671879337123   -0.009325749537175325   -0.0003187952033289673
-0.0008695877610633547   -0.009885892969262346   -0.00030724534485142003
-0.0010367494855010094   -0.009852038692300119   -0.00029027245365478507
-0.0009121032452364464   -0.009349696247988442   -0.0003180136062393512
-0.0012221671879337123   -0.009325749537175325   -0.0003187952033289673
-0.0010139651065575429   -0.009843682368789842   -0.0003003117961849815
-0.0008933140890923807   -0.009346845249492938   -0.00031522020957035907
-0.0012002568386270214   -0.009331442282673536   -0.00032928619757939016
-0.0010139651065575429   -0.009843682368789842   -0.0003003117961849815
-0.0008695877610633547   -0.009885892969262346   -0.00030724534485142003
-0.0008933140890923807   -0.009346845249492938   -0.00031522020957035907
-0.0008464924177640793   -0.009886341189447374   -0.000301010629876554
-0.0012002568386270214   -0.009331442282673536   -0.00032928619757939016
-0.0008746855429828493   -0.009350354718930313   -0.0003136620534674376
-0.0008464924177640793   -0.009886341189447374   -0.000301010629876554
-0.0008933140890923807   -0.009346845249492938   -0.00031522020957035907
-0.0012002568386270214   -0.009331442282673536   -0.00032928619757939016
-0.0008464924177640793   -0.009886341189447374   -0.000301010629876554
-0.000988428701373477   -0.00984490770213391   -0.00031046700611636624
-0.0010139651065575429   -0.009843682368789842   -0.0003003117961849815
-0.0012002568386270214   -0.009331442282673536   -0.00032928619757939016
-0.0008464924177640793   -0.009886341189447374   -0.000301010629876554
-0.0010139651065575429   -0.009843682368789842   -0.0003003117961849815
-0.0008933140890923807   -0.009346845249492938   -0.00031522020957035907
-0.0012002568386270214   -0.009331442282673536   -0.00032928619757939016
-0.000988428701373477   -0.00984490770213391   -0.00031046700611636624
-0.0008746855429828493   -0.009350354718930313   -0.0003136620534674376
-0.0011803897882389721   -0.009344595833325439   -0.00034095948921620184
-0.000988428701373477   -0.00984490770213391   -0.00031046700611636624
-0.0008464924177640793   -0.009886341189447374   -0.000301010629876554
-0.0008746855429828493   -0.009350354718930313   -0.0003136620534674376
-0.000822520221002573   -0.00989581459493798   -0.00029507262387013736
-0.0011803897882389721   -0.009344595833325439   -0.00034095948921620184
-0.0008574342323578913   -0.009360392229304862   -0.0003135795818935437
-0.000822520221002573   -0.00989581459493798   -0.00029507262387013736
-0.0008746855429828493   -0.009350354718930313   -0.0003136620534674376
-0.0011803897882389721   -0.009344595833325439   -0.00034095948921620184
-0.000822520221002573   -0.00989581459493798   -0.00029507262387013736
-0.0009648721950449101   -0.009855797202054832   -0.0003207786915671929
-0.000988428701373477   -0.00984490770213391   -0.00031046700611636624
-0.0011803897882389721   -0.009344595833325439   -0.00034095948921620184
-0.000822520221002573   -0.00989581459493798   -0.00029507262387013736
-0.000988428701373477   -0.00984490770213391   -0.00031046700611636624
-0.0008746855429828493   -0.009350354718930313   -0.0003136620534674376
-0.0009121032452364464   -0.009349696247988442   -0.0003180136062393512
-0.000893334328780522   -0.009894624006560876   -0.0003134238573635536
-0.0005970168304874815   -0.009359522782163638   -0.00032841775214874775
-0.0008933140890923807   -0.009346845249492938   -0.00031522020957035907
-0.000893334328780522   -0.009894624006560876   -0.0003134238573635536
-0.0007612321487878428   -0.00994287861915357   -0.0003393443273472109
-0.0005970168304874815   -0.009359522782163638   -0.00032841775214874775
-0.0007323115899965014   -0.00993497523617799   -0.0003161016522744306
-0.0008933140890923807   -0.009346845249492938   -0.00031522020957035907
-0.0005758773910427435   -0.009355157345950481   -0.0003142096734474887
-0.0007323115899965014   -0.00993497523617799   -0.0003161016522744306
-0.0005970168304874815   -0.009359522782163638   -0.00032841775214874775
-0.0008933140890923807   -0.009346845249492938   -0.00031522020957035907
-0.0007323115899965014   -0.00993497523617799   -0.0003161016522744306
-0.0008695877610633547   -0.009885892969262346   -0.00030724534485142003
-0.000893334328780522   -0.009894624006560876   -0.0003134238573635536
-0.0008933140890923807   -0.009346845249492938   -0.00031522020957035907
-0.0007323115899965014   -0.00993497523617799   -0.0003161016522744306
-0.000893334328780522   -0.009894624006560876   -0.0003134238573635536
-0.0005970168304874815   -0.009359522782163638   -0.00032841775214874775
-0.0008933140890923807   -0.009346845249492938   -0.00031522020957035907
-0.0008695877610633547   -0.009885892969262346   -0.00030724534485142003
-0.0005758773910427435   -0.009355157345950481   -0.0003142096734474887
-0.0008746855429828493   -0.009350354718930313   -0.0003136620534674376
-0.0008695877610633547   -0.009885892969262346   -0.00030724534485142003
-0.0007323115899965014   -0.00993497523617799   -0.0003161016522744306
-0.0005758773910427435   -0.009355157345950481   -0.0003142096734474887
-0.0007053021313478535   -0.009934904890565944   -0.0002928108118847967
-0.0008746855429828493   -0.009350354718930313   -0.0003136620534674376
-0.0005556407738619232   -0.00935648952987129   -0.0003011383444865754
-0.0007053021313478535   -0.009934904890565944   -0.0002928108118847967
-0.0005758773910427435   -0.009355157345950481   -0.0003142096734474887
-0.0008746855429828493   -0.009350354718930313   -0.0003136620534674376
-0.0007053021313478535   -0.009934904890565944   -0.0002928108118847967
-0.0008464924177640793   -0.009886341189447374   -0.000301010629876554
-0.0008695877610633547   -0.009885892969262346   -0.00030724534485142003
-0.0008746855429828493   -0.009350354718930313   -0.0003136620534674376
-0.0007053021313478535   -0.009934904890565944   -0.0002928108118847967
-0.0008695877610633547   -0.009885892969262346   -0.00030724534485142003
-0.0005758773910427435   -0.009355157345950481   -0.0003142096734474887
-0.0008746855429828493   -0.009350354718930313   -0.0003136620534674376
-0.0008464924177640793   -0.009886341189447374   -0.000301010629876554
-0.0005556407738619232   -0.00935648952987129   -0.0003011383444865754
-0.0008574342323578913   -0.009360392229304862   -0.0003135795818935437
-0.0008464924177640793   -0.009886341189447374   -0.000301010629876554
-0.0007053021313478535   -0.009934904890565944   -0.0002928108118847967
-0.0005556407738619232   -0.00935648952987129   -0.0003011383444865754
-0.0006765776410234371   -0.009942336946444665   -0.0002696832529110029
-0.0008574342323578913   -0.009360392229304862   -0.0003135795818935437
-0.0005386442968333597   -0.009364436877558188   -0.00028981057124003714
-0.0006765776410234371   -0.009942336946444665   -0.0002696832529110029
-0.0005556407738619232   -0.00935648952987129   -0.0003011383444865754
-0.0008574342323578913   -0.009360392229304862   -0.0003135795818935437
-0.0006765776410234371   -0.009942336946444665   -0.0002696832529110029
-0.000822520221002573   -0.00989581459493798   -0.00029507262387013736
-0.0008464924177640793   -0.009886341189447374   -0.000301010629876554
-0.0008574342323578913   -0.009360392229304862   -0.0003135795818935437
-0.0006765776410234371   -0.009942336946444665   -0.0002696832529110029
-0.0008464924177640793   -0.009886341189447374   -0.000301010629876554
-0.0005556407738619232   -0.00935648952987129   -0.0003011383444865754
-0.0005970168304874815   -0.009359522782163638   -0.00032841775214874775
-0.0007612321487878428   -0.00994287861915357   -0.0003393443273472109
-0.00026493826499546274   -0.009352949190077736   -0.0003410291823413393
-0.0005758773910427435   -0.009355157345950481   -0.0003142096734474887
-0.0007612321487878428   -0.00994287861915357   -0.0003393443273472109
-0.0006312127902451052   -0.01   -0.00036090235798990147
-0.00026493826499546274   -0.009352949190077736   -0.0003410291823413393
-0.0005943720969585933   -0.01   -0.0003243034799792671
-0.0005758773910427435   -0.009355157345950481   -0.0003142096734474887
-0.0002377905749447578   -0.009346036578524569   -0.0003157964270028346
-0.0005943720969585933   -0.01   -0.0003243034799792671
-0.00026493826499546274   -0.009352949190077736   -0.0003410291823413393
-0.0005758773910427435   -0.009355157345950481   -0.0003142096734474887
-0.0005943720969585933   -0.01   -0.0003243034799792671
-0.0007323115899965014   -0.00993497523617799   -0.0003161016522744306
-0.0007612321487878428   -0.00994287861915357   -0.0003393443273472109
-0.0005758773910427435   -0.009355157345950481   -0.0003142096734474887
-0.0005943720969585933   -0.01   -0.0003243034799792671
-0.0007612321487878428   -0.00994287861915357   -0.0003393443273472109
-0.00026493826499546274   -0.009352949190077736   -0.0003410291823413393
-0.0005758773910427435   -0.009355157345950481   -0.0003142096734474887
-0.0007323115899965014   -0.00993497523617799   -0.0003161016522744306
-0.0002377905749447578   -0.009346036578524569   -0.0003157964270028346
-0.0005556407738619232   -0.00935648952987129   -0.0003011383444865754
-0.0007323115899965014   -0.00993497523617799   -0.0003161016522744306
-0.0005943720969585933   -0.01   -0.0003243034799792671
-0.0002377905749447578   -0.009346036578524569   -0.0003157964270028346
-0.0005569787059891571   -0.01   -0.00028728340221250277
-0.0005556407738619232   -0.00935648952987129   -0.0003011383444865754
-0.00020964418745858393   -0.009345050361271921   -0.0002917529265557342
-0.0005569787059891571   -0.01   -0.00028728340221250277
-0.0002377905749447578   -0.009346036578524569   -0.0003157964270028346
-0.0005556407738619232   -0.00935648952987129   -0.0003011383444865754
-0.0005569787059891571   -0.01   -0.00028728340221250277
-0.0007053021313478535   -0.009934904890565944   -0.0002928108118847967
-0.0007323115899965014   -0.00993497523617799   -0.0003161016522744306
-0.0005556407738619232   -0.00935648952987129   -0.0003011383444865754
-0.0005569787059891571   -0.01   -0.00028728340221250277
-0.0007323115899965014   -0.00993497523617799   -0.0003161016522744306
-0.0002377905749447578   -0.009346036578524569   -0.0003157964270028346
-0.0005556407738619232   -0.00935648952987129   -0.0003011383444865754
-0.0007053021313478535   -0.009934904890565944   -0.0002928108118847967
-0.00020964418745858393   -0.009345050361271921   -0.0002917529265557342
-0.0005386442968333597   -0.009364436877558188   -0.00028981057124003714
-0.0007053021313478535   -0.009934904890565944   -0.0002928108118847967
-0.0005569787059891571   -0.01   -0.00028728340221250277
-0.00020964418745858393   -0.009345050361271921   -0.0002917529265557342
-0.0005208993696719367   -0.01   -0.0002507852354878465
-0.0005386442968333597   -0.009364436877558188   -0.00028981057124003714
-0.0001890308286284588   -0.009351093224922018   -0.000269716704311127
-0.0005208993696719367   -0.01   -0.0002507852354878465
-0.00020964418745858393   -0.009345050361271921   -0.0002917529265557342
-0.0005386442968333597   -0.009364436877558188   -0.00028981057124003714
-0.0005208993696719367   -0.01   -0.0002507852354878465
-0.0006765776410234371   -0.009942336946444665   -0.0002696832529110029
-0.0007053021313478535   -0.009934904890565944   -0.0002928108118847967
-0.0005386442968333597   -0.009364436877558188   -0.00028981057124003714
-0.0005208993696719367   -0.01   -0.0002507852354878465
-0.0007053021313478535   -0.009934904890565944   -0.0002928108118847967
-0.00020964418745858393   -0.009345050361271921   -0.0002917529265557342
-0.00026493826499546274   -0.009352949190077736   -0.0003410291823413393
-0.0006312127902451052   -0.01   -0.00036090235798990147
8.65874473607955e-05   -0.009319790296515765   -0.00036563973878824533
-0.0002377905749447578   -0.009346036578524569   -0.0003157964270028346
-0.0006312127902451052   -0.01   -0.00036090235798990147
-0.0005327729907871247   -0.01   -0.00038699934029218306
8.65874473607955e-05   -0.009319790296515765   -0.00036563973878824533
-0.00045269873999988707   -0.01   -0.0003333686138700953
-0.0002377905749447578   -0.009346036578524569   -0.0003157964270028346
0.0001528454402421975   -0.009305141844730648   -0.00032457337732315854
-0.00045269873999988707   -0.01   -0.0003333686138700953
8.65874473607955e-05   -0.009319790296515765   -0.00036563973878824533
-0.0002377905749447578   -0.009346036578524569   -0.0003157964270028346
-0.00045269873999988707   -0.01   -0.0003333686138700953
-0.0005943720969585933   -0.01   -0.0003243034799792671
-0.0006312127902451052   -0.01   -0.00036090235798990147
-0.0002377905749447578   -0.009346036578524569   -0.0003157964270028346
-0.00045269873999988707   -0.01   -0.0003333686138700953
-0.0006312127902451052   -0.01   -0.00036090235798990147
8.65874473607955e-05   -0.009319790296515765   -0.00036563973878824533
-0.0002377905749447578   -0.009346036578524569   -0.0003157964270028346
-0.0005943720969585933   -0.01   -0.0003243034799792671
0.0001528454402421975   -0.009305141844730648   -0.00032457337732315854
-0.00020964418745858393   -0.009345050361271921   -0.0002917529265557342
-0.0005943720969585933   -0.01   -0.0003243034799792671
-0.00045269873999988707   -0.01   -0.0003333686138700953
0.0001528454402421975   -0.009305141844730648   -0.00032457337732315854
-0.00038887155533310903   -0.01   -0.00028210276159798607
-0.00020964418745858393   -0.009345050361271921   -0.0002917529265557342
0.00020474973691739587   -0.00930236803353154   -0.0002857639258185162
-0.00038887155533310903   -0.01   -0.00028210276159798607
0.0001528454402421975   -0.009305141844730648   -0.00032457337732315854
-0.00020964418745858393   -0.009345050361271921   -0.0002917529265557342
-0.00038887155533310903   -0.01   -0.00028210276159798607
-0.0005569787059891571   -0.01   -0.00028728340221250277
-0.0005943720969585933   -0.01   -0.0003243034799792671
-0.00020964418745858393   -0.009345050361271921   -0.0002917529265557342
-0.00038887155533310903   -0.01   -0.00028210276159798607
-0.0005943720969585933   -0.01   -0.0003243034799792671
0.0001528454402421975   -0.009305141844730648   -0.00032457337732315854
-0.00020964418745858393   -0.009345050361271921   -0.0002917529265557342
-0.0005569787059891571   -0.01   -0.00028728340221250277
0.00020474973691739587   -0.00930236803353154   -0.0002857639258185162
-0.0001890308286284588   -0.009351093224922018   -0.000269716704311127
-0.0005569787059891571   -0.01   -0.00028728340221250277
-0.00038887155533310903   -0.01   -0.00028210276159798607
0.00020474973691739587   -0.00930236803353154   -0.0002857639258185162
-0.00031014917746902837   -0.01   -0.0002288495119467384
-0.0001890308286284588   -0.009351093224922018   -0.000269716704311127
0.0002594436102966474   -0.009305664969045115   -0.0002500179480805581
-0.00031014917746902837   -0.01   -0.0002288495119467384
0.00020474973691739587   -0.00930236803353154   -0.0002857639258185162
-0.0001890308286284588   -0.009351093224922018   -0.000269716704311127
-0.00031014917746902837   -0.01   -0.0002288495119467384
-0.0005208993696719367   -0.01   -0.0002507852354878465
-0.0005569787059891571   -0.01   -0.00028728340221250277
-0.0001890308286284588   -0.009351093224922018   -0.000269716704311127
-0.00031014917746902837   -0.01   -0.0002288495119467384
-0.0005569787059891571   -0.01   -0.00028728340221250277
0.00020474973691739587   -0.00930236803353154   -0.0002857639258185162
-0.0012282272965983777   -0.009806657188465774   -0.00026384360096688383
-0.0007751788961179965   -0.009859315507468958   -0.00022640380932221894
-0.0010367494855010094   -0.009852038692300119   -0.00029027245365478507
-0.0011779301862314955   -0.009797161471020607   -0.00029349714978271616
-0.0007751788961179965   -0.009859315507468958   -0.00022640380932221894
-0.0008042601157529691   -0.009895474915529369   -0.00026051584992386757
-0.0010367494855010094   -0.009852038692300119   -0.00029027245365478507
-0.0007868007997981155   -0.009883926347188935   -0.0002738018846844156
-0.0011779301862314955   -0.009797161471020607   -0.00029349714978271616
-0.0010139651065575429   -0.009843682368789842   -0.0003003117961849815
-0.0007868007997981155   -0.009883926347188935   -0.0002738018846844156
-0.0010367494855010094   -0.009852038692300119   -0.00029027245365478507
-0.0011779301862314955   -0.009797161471020607   -0.00029349714978271616
-0.0007868007997981155   -0.009883926347188935   -0.0002738018846844156
-0.0007290015544042257   -0.009844392785719316   -0.0002576459560062573
-0.0007751788961179965   -0.009859315507468958   -0.00022640380932221894
-0.0011779301862314955   -0.009797161471020607   -0.00029349714978271616
-0.0007868007997981155   -0.009883926347188935   -0.0002738018846844156
-0.0007751788961179965   -0.009859315507468958   -0.00022640380932221894
-0.0010367494855010094   -0.009852038692300119   -0.00029027245365478507
-0.0011779301862314955   -0.009797161471020607   -0.00029349714978271616
-0.0007290015544042257   -0.009844392785719316   -0.0002576459560062573
-0.0010139651065575429   -0.009843682368789842   -0.0003003117961849815
-0.0011346077943701308   -0.009798887062407599   -0.00032310810901369343
-0.0007290015544042257   -0.009844392785719316   -0.0002576459560062573
-0.0007868007997981155   -0.009883926347188935   -0.0002738018846844156
-0.0010139651065575429   -0.009843682368789842   -0.0003003117961849815
-0.0007661306630084627   -0.009880485873950469   -0.0002861912303560536
-0.0011346077943701308   -0.009798887062407599   -0.00032310810901369343
-0.000988428701373477   -0.00984490770213391   -0.00031046700611636624
-0.0007661306630084627   -0.009880485873950469   -0.0002861912303560536
-0.0010139651065575429   -0.009843682368789842   -0.0003003117961849815
-0.0011346077943701308   -0.009798887062407599   -0.00032310810901369343
-0.0007661306630084627   -0.009880485873950469   -0.0002861912303560536
-0.000690632465310094   -0.00984073188968722   -0.00028778274065215846
-0.0007290015544042257   -0.009844392785719316   -0.0002576459560062573
-0.0011346077943701308   -0.009798887062407599   -0.00032310810901369343
-0.0007661306630084627   -0.009880485873950469   -0.0002861912303560536
-0.0007290015544042257   -0.009844392785719316   -0.0002576459560062573
-0.0010139651065575429   -0.009843682368789842   -0.0003003117961849815
-0.0011346077943701308   -0.009798887062407599   -0.00032310810901369343
-0.000690632465310094   -0.00984073188968722   -0.00028778274065215846
-0.000988428701373477   -0.00984490770213391   -0.00031046700611636624
-0.0010829850748652061   -0.009812565753406277   -0.00035333411868451525
-0.000690632465310094   -0.00984073188968722   -0.00028778274065215846
-0.0007661306630084627   -0.009880485873950469   -0.0002861912303560536
-0.000988428701373477   -0.00984490770213391   -0.00031046700611636624
-0.0007485376497812326   -0.009885240605540213   -0.0002976329925597491
-0.0010829850748652061   -0.009812565753406277   -0.00035333411868451525
-0.0009648721950449101   -0.009855797202054832   -0.0003207786915671929
-0.0007485376497812326   -0.009885240605540213   -0.0002976329925597491
-0.000988428701373477   -0.00984490770213391   -0.00031046700611636624
-0.0010829850748652061   -0.009812565753406277   -0.00035333411868451525
-0.0007485376497812326   -0.009885240605540213   -0.0002976329925597491
-0.0006467880292463129   -0.00984662239204988   -0.00031670886188733875
-0.000690632465310094   -0.00984073188968722   -0.00028778274065215846
-0.0010829850748652061   -0.009812565753406277   -0.00035333411868451525
-0.0007485376497812326   -0.009885240605540213   -0.0002976329925597491
-0.000690632465310094   -0.00984073188968722   -0.00028778274065215846
-0.000988428701373477   -0.00984490770213391   -0.00031046700611636624
-0.0010367494855010094   -0.009852038692300119   -0.00029027245365478507
-0.0008042601157529691   -0.009895474915529369   -0.00026051584992386757
-0.000893334328780522   -0.009894624006560876   -0.0003134238573635536
-0.0010139651065575429   -0.009843682368789842   -0.0003003117961849815
-0.0008042601157529691   -0.009895474915529369   -0.00026051584992386757
-0.0008510737997001492   -0.009916469301601673   -0.00028758501069580045
-0.000893334328780522   -0.009894624006560876   -0.0003134238573635536
-0.0008357432071779215   -0.0099060987485013   -0.0002877404145068705
-0.0010139651065575429   -0.009843682368789842   -0.0003003117961849815
-0.0008695877610633547   -0.009885892969262346   -0.00030724534485142003
-0.0008357432071779215   -0.0099060987485013   -0.0002877404145068705
-0.000893334328780522   -0.009894624006560876   -0.0003134238573635536
-0.0010139651065575429   -0.009843682368789842   -0.0003003117961849815
-0.0008357432071779215   -0.0099060987485013   -0.0002877404145068705
-0.0007868007997981155   -0.009883926347188935   -0.0002738018846844156
-0.0008042601157529691   -0.009895474915529369   -0.00026051584992386757
-0.0010139651065575429   -0.009843682368789842   -0.0003003117961849815
-0.0008357432071779215   -0.0099060987485013   -0.0002877404145068705
-0.0008042601157529691   -0.009895474915529369   -0.00026051584992386757
-0.000893334328780522   -0.009894624006560876   -0.0003134238573635536
-0.0010139651065575429   -0.009843682368789842   -0.0003003117961849815
-0.0007868007997981155   -0.009883926347188935   -0.0002738018846844156
-0.0008695877610633547   -0.009885892969262346   -0.00030724534485142003
-0.000988428701373477   -0.00984490770213391   -0.00031046700611636624
-0.0007868007997981155   -0.009883926347188935   -0.0002738018846844156
-0.0008357432071779215   -0.0099060987485013   -0.0002877404145068705
-0.0008695877610633547   -0.009885892969262346   -0.00030724534485142003
-0.0008187293742733279   -0.009903062010242046   -0.0002867350649617297
-0.000988428701373477   -0.00984490770213391   -0.00031046700611636624
-0.0008464924177640793   -0.009886341189447374   -0.000301010629876554
-0.0008187293742733279   -0.009903062010242046   -0.0002867350649617297
-0.0008695877610633547   -0.009885892969262346   -0.00030724534485142003
-0.000988428701373477   -0.00984490770213391   -0.00031046700611636624
-0.0008187293742733279   -0.009903062010242046   -0.0002867350649617297
-0.0007661306630084627   -0.009880485873950469   -0.0002861912303560536
-0.0007868007997981155   -0.009883926347188935   -0.0002738018846844156
-0.000988428701373477   -0.00984490770213391   -0.00031046700611636624
-0.0008187293742733279   -0.009903062010242046   -0.0002867350649617297
-0.0007868007997981155   -0.009883926347188935   -0.0002738018846844156
-0.0008695877610633547   -0.009885892969262346   -0.00030724534485142003
-0.000988428701373477   -0.00984490770213391   -0.00031046700611636624
-0.0007661306630084627   -0.009880485873950469   -0.0002861912303560536
-0.0008464924177640793   -0.009886341189447374   -0.000301010629876554
-0.0009648721950449101   -0.009855797202054832   -0.0003207786915671929
-0.0007661306630084627   -0.009880485873950469   -0.0002861912303560536
-0.0008187293742733279   -0.009903062010242046   -0.0002867350649617297
-0.0008464924177640793   -0.009886341189447374   -0.000301010629876554
-0.0008014893148036967   -0.009907093889882057   -0.0002848157698910807
-0.0009648721950449101   -0.009855797202054832   -0.0003207786915671929
-0.000822520221002573   -0.00989581459493798   -0.00029507262387013736
-0.0008014893148036967   -0.009907093889882057   -0.0002848157698910807
-0.0008464924177640793   -0.009886341189447374   -0.000301010629876554
-0.0009648721950449101   -0.009855797202054832   -0.0003207786915671929
-0.0008014893148036967   -0.009907093889882057   -0.0002848157698910807
-0.0007485376497812326   -0.009885240605540213   -0.0002976329925597491
-0.0007661306630084627   -0.009880485873950469   -0.0002861912303560536
-0.0009648721950449101   -0.009855797202054832   -0.0003207786915671929
-0.0008014893148036967   -0.009907093889882057   -0.0002848157698910807
-0.0007661306630084627   -0.009880485873950469   -0.0002861912303560536
-0.0008464924177640793   -0.009886341189447374   -0.000301010629876554
-0.000893334328780522   -0.009894624006560876   -0.0003134238573635536
-0.0008510737997001492   -0.009916469301601673   -0.00028758501069580045
-0.0007612321487878428   -0.00994287861915357   -0.0003393443273472109
-0.0008695877610633547   -0.009885892969262346   -0.00030724534485142003
-0.0008510737997001492   -0.009916469301601673   -0.00028758501069580045
-0.0009022303786187033   -0.009923192324276771   -0.0003144460568880255
-0.0007612321487878428   -0.00994287861915357   -0.0003393443273472109
-0.0008863417765479747   -0.009913131010524934   -0.00030195698750597953
-0.0008695877610633547   -0.009885892969262346   -0.00030724534485142003
-0.0007323115899965014   -0.00993497523617799   -0.0003161016522744306
-0.0008863417765479747   -0.009913131010524934   -0.00030195698750597953
-0.0007612321487878428   -0.00994287861915357   -0.0003393443273472109
-0.0008695877610633547   -0.009885892969262346   -0.00030724534485142003
-0.0008863417765479747   -0.009913131010524934   -0.00030195698750597953
-0.0008357432071779215   -0.0099060987485013   -0.0002877404145068705
-0.0008510737997001492   -0.009916469301601673   -0.00028758501069580045
-0.0008695877610633547   -0.009885892969262346   -0.00030724534485142003
-0.0008863417765479747   -0.009913131010524934   -0.00030195698750597953
-0.0008510737997001492   -0.009916469301601673   -0.00028758501069580045
-0.0007612321487878428   -0.00994287861915357   -0.0003393443273472109
-0.0008695877610633547   -0.009885892969262346   -0.00030724534485142003
-0.0008357432071779215   -0.0099060987485013   -0.0002877404145068705
-0.0007323115899965014   -0.00993497523617799   -0.0003161016522744306
-0.0008464924177640793   -0.009886341189447374   -0.000301010629876554
-0.0008357432071779215   -0.0099060987485013   -0.0002877404145068705
-0.0008863417765479747   -0.009913131010524934   -0.00030195698750597953
-0.0007323115899965014   -0.00993497523617799   -0.0003161016522744306
-0.0008674302281869187   -0.009910505448787205   -0.0002880493096724712
-0.0008464924177640793   -0.009886341189447374   -0.000301010629876554
-0.0007053021313478535   -0.009934904890565944   -0.0002928108118847967
-0.0008674302281869187   -0.009910505448787205   -0.0002880493096724712
-0.0007323115899965014   -0.00993497523617799   -0.0003161016522744306
-0.0008464924177640793   -0.009886341189447374   -0.000301010629876554
-0.0008674302281869187   -0.009910505448787205   -0.0002880493096724712
-0.0008187293742733279   -0.009903062010242046   -0.0002867350649617297
-0.0008357432071779215   -0.0099060987485013   -0.0002877404145068705
-0.0008464924177640793   -0.009886341189447374   -0.000301010629876554
-0.0008674302281869187   -0.009910505448787205   -0.0002880493096724712
-0.0008357432071779215   -0.0099060987485013   -0.0002877404145068705
-0.0007323115899965014   -0.00993497523617799   -0.0003161016522744306
-0.0008464924177640793   -0.009886341189447374   -0.000301010629876554
-0.0008187293742733279   -0.009903062010242046   -0.0002867350649617297
-0.0007053021313478535   -0.009934904890565944   -0.0002928108118847967
-0.000822520221002573   -0.00989581459493798   -0.00029507262387013736
-0.0008187293742733279   -0.009903062010242046   -0.0002867350649617297
-0.0008674302281869187   -0.009910505448787205   -0.0002880493096724712
-0.0007053021313478535   -0.009934904890565944   -0.0002928108118847967
-0.000848072289326298   -0.00991432119382944   -0.0002733238360459348
-0.000822520221002573   -0.00989581459493798   -0.00029507262387013736
-0.0006765776410234371   -0.009942336946444665   -0.0002696832529110029
-0.000848072289326298   -0.00991432119382944   -0.0002733238360459348
-0.0007053021313478535   -0.009934904890565944   -0.0002928108118847967
-0.000822520221002573   -0.00989581459493798   -0.00029507262387013736
-0.000848072289326298   -0.00991432119382944   -0.0002733238360459348
-0.0008014893148036967   -0.009907093889882057   -0.0002848157698910807
-0.0008187293742733279   -0.009903062010242046   -0.0002867350649617297
-0.000822520221002573   -0.00989581459493798   -0.00029507262387013736
-0.000848072289326298   -0.00991432119382944   -0.0002733238360459348
-0.0008187293742733279   -0.009903062010242046   -0.0002867350649617297
-0.0007053021313478535   -0.009934904890565944   -0.0002928108118847967
-0.0007612321487878428   -0.00994287861915357   -0.0003393443273472109
-0.0009022303786187033   -0.009923192324276771   -0.0003144460568880255
-0.0006312127902451052   -0.01   -0.00036090235798990147
-0.0007323115899965014   -0.00993497523617799   -0.0003161016522744306
-0.0009022303786187033   -0.009923192324276771   -0.0003144460568880255
-0.0009769556587001437   -0.009909947056141061   -0.000340538654284846
-0.0006312127902451052   -0.01   -0.00036090235798990147
-0.0009562693632497311   -0.009900130027678103   -0.00031587931345384565
-0.0007323115899965014   -0.00993497523617799   -0.0003161016522744306
-0.0005943720969585933   -0.01   -0.0003243034799792671
-0.0009562693632497311   -0.009900130027678103   -0.00031587931345384565
-0.0006312127902451052   -0.01   -0.00036090235798990147
-0.0007323115899965014   -0.00993497523617799   -0.0003161016522744306
-0.0009562693632497311   -0.009900130027678103   -0.00031587931345384565
-0.0008863417765479747   -0.009913131010524934   -0.00030195698750597953
-0.0009022303786187033   -0.009923192324276771   -0.0003144460568880255
-0.0007323115899965014   -0.00993497523617799   -0.0003161016522744306
-0.0009562693632497311   -0.009900130027678103   -0.00031587931345384565
-0.0009022303786187033   -0.009923192324276771   -0.0003144460568880255
-0.0006312127902451052   -0.01   -0.00036090235798990147
-0.0007323115899965014   -0.00993497523617799   -0.0003161016522744306
-0.0008863417765479747   -0.009913131010524934   -0.00030195698750597953
-0.0005943720969585933   -0.01   -0.0003243034799792671
-0.0007053021313478535   -0.009934904890565944   -0.0002928108118847967
-0.0008863417765479747   -0.009913131010524934   -0.00030195698750597953
-0.0009562693632497311   -0.009900130027678103   -0.00031587931345384565
-0.0005943720969585933   -0.01   -0.0003243034799792671
-0.0009286239162509044   -0.009898333997730902   -0.00028958655567753815
-0.0007053021313478535   -0.009934904890565944   -0.0002928108118847967
-0.0005569787059891571   -0.01   -0.00028728340221250277
-0.0009286239162509044   -0.009898333997730902   -0.00028958655567753815
-0.0005943720969585933   -0.01   -0.0003243034799792671
-0.0007053021313478535   -0.009934904890565944   -0.0002928108118847967
-0.0009286239162509044   -0.009898333997730902   -0.00028958655567753815
-0.0008674302281869187   -0.009910505448787205   -0.0002880493096724712
-0.0008863417765479747   -0.009913131010524934   -0.00030195698750597953
-0.0007053021313478535   -0.009934904890565944   -0.0002928108118847967
-0.0009286239162509044   -0.009898333997730902   -0.00028958655567753815
-0.0008863417765479747   -0.009913131010524934   -0.00030195698750597953
-0.0005943720969585933   -0.01   -0.0003243034799792671
-0.0007053021313478535   -0.009934904890565944   -0.0002928108118847967
-0.0008674302281869187   -0.009910505448787205   -0.0002880493096724712
-0.0005569787059891571   -0.01   -0.00028728340221250277
-0.0006765776410234371   -0.009942336946444665   -0.0002696832529110029
-0.0008674302281869187   -0.009910505448787205   -0.0002880493096724712
-0.0009286239162509044   -0.009898333997730902   -0.00028958655567753815
-0.0005569787059891571   -0.01   -0.00028728340221250277
-0.0009031610403347167   -0.00990313821016887   -0.000262397860136613
-0.0006765776410234371   -0.009942336946444665   -0.0002696832529110029
-0.0005208993696719367   -0.01   -0.0002507852354878465
-0.0009031610403347167   -0.00990313821016887   -0.000262397860136613
-0.0005569787059891571   -0.01   -0.00028728340221250277
-0.0006765776410234371   -0.009942336946444665   -0.0002696832529110029
-0.0009031610403347167   -0.00990313821016887   -0.000262397860136613
-0.000848072289326298   -0.00991432119382944   -0.0002733238360459348
-0.0008674302281869187   -0.009910505448787205   -0.0002880493096724712
-0.0006765776410234371   -0.009942336946444665   -0.0002696832529110029
-0.0009031610403347167   -0.00990313821016887   -0.000262397860136613
-0.0008674302281869187   -0.009910505448787205   -0.0002880493096724712
-0.0005569787059891571   -0.01   -0.00028728340221250277
-0.0006312127902451052   -0.01   -0.00036090235798990147
-0.0009769556587001437   -0.009909947056141061   -0.000340538654284846
-0.0005327729907871247   -0.01   -0.00038699934029218306
-0.0005943720969585933   -0.01   -0.0003243034799792671
-0.0009769556587001437   -0.009909947056141061   -0.000340538654284846
-0.0011299903506690927   -0.009862155095487176   -0.0003692970057365095
-0.0005327729907871247   -0.01   -0.00038699934029218306
-0.0010712622316144795   -0.009853334822317953   -0.00032891661815883635
-0.0005943720969585933   -0.01   -0.0003243034799792671
-0.00045269873999988707   -0.01   -0.0003333686138700953
-0.0010712622316144795   -0.009853334822317953   -0.00032891661815883635
-0.0005327729907871247   -0.01   -0.00038699934029218306
-0.0005943720969585933   -0.01   -0.0003243034799792671
-0.0010712622316144795   -0.009853334822317953   -0.00032891661815883635
-0.0009562693632497311   -0.009900130027678103   -0.00031587931345384565
-0.0009769556587001437   -0.009909947056141061   -0.000340538654284846
-0.0005943720969585933   -0.01   -0.0003243034799792671
-0.0010712622316144795   -0.009853334822317953   -0.00032891661815883635
-0.0009769556587001437   -0.009909947056141061   -0.000340538654284846
-0.0005327729907871247   -0.01   -0.00038699934029218306
-0.0005943720969585933   -0.01   -0.0003243034799792671
-0.0009562693632497311   -0.009900130027678103   -0.00031587931345384565
-0.00045269873999988707   -0.01   -0.0003333686138700953
-0.0005569787059891571   -0.01   -0.00028728340221250277
-0.0009562693632497311   -0.009900130027678103   -0.00031587931345384565
-0.0010712622316144795   -0.009853334822317953   -0.00032891661815883635
-0.00045269873999988707   -0.01   -0.0003333686138700953
-0.0010180710230061557   -0.00985249068392172   -0.00028616597280538557
-0.0005569787059891571   -0.01   -0.00028728340221250277
-0.00038887155533310903   -0.01   -0.00028210276159798607
-0.0010180710230061557   -0.00985249068392172   -0.00028616597280538557
-0.00045269873999988707   -0.01   -0.0003333686138700953
-0.0005569787059891571   -0.01   -0.00028728340221250277
-0.0010180710230061557   -0.00985249068392172   -0.00028616597280538557
-0.0009286239162509044   -0.009898333997730902   -0.00028958655567753815
-0.0009562693632497311   -0.009900130027678103   -0.00031587931345384565
-0.0005569787059891571   -0.01   -0.00028728340221250277
-0.0010180710230061557   -0.00985249068392172   -0.00028616597280538557
-0.0009562693632497311   -0.009900130027678103   -0.00031587931345384565
-0.00045269873999988707   -0.01   -0.0003333686138700953
-0.0005569787059891571   -0.01   -0.00028728340221250277
-0.0009286239162509044   -0.009898333997730902   -0.00028958655567753815
-0.00038887155533310903   -0.01   -0.00028210276159798607
-0.0005208993696719367   -0.01   -0.0002507852354878465
-0.0009286239162509044   -0.009898333997730902   -0.00028958655567753815
-0.0010180710230061557   -0.00985249068392172   -0.00028616597280538557
-0.00038887155533310903   -0.01   -0.00028210276159798607
-0.0009507535263747182   -0.009863918176697618   -0.00024175685844182244
-0.0005208993696719367   -0.01   -0.0002507852354878465
-0.00031014917746902837   -0.01   -0.0002288495119467384
-0.0009507535263747182   -0.009863918176697618   -0.00024175685844182244
-0.00038887155533310903   -0.01   -0.00028210276159798607
-0.0005208993696719367   -0.01   -0.0002507852354878465
-0.0009507535263747182   -0.009863918176697618   -0.00024175685844182244
-0.0009031610403347167   -0.00990313821016887   -0.000262397860136613
-0.0009286239162509044   -0.009898333997730902   -0.00028958655567753815
-0.0005208993696719367   -0.01   -0.0002507852354878465
-0.0009507535263747182   -0.009863918176697618   -0.00024175685844182244
-0.0009286239162509044   -0.009898333997730902   -0.00028958655567753815
-0.00038887155533310903   -0.01   -0.00028210276159798607
-0.0007751788961179965   -0.009859315507468958   -0.00022640380932221894
-0.0003680544935160939   -0.00952938452824978   -0.00019410556154901025
-0.0008042601157529691   -0.009895474915529369   -0.00026051584992386757
-0.0007290015544042257   -0.009844392785719316   -0.0002576459560062573
-0.0003680544935160939   -0.00952938452824978   -0.00019410556154901025
-0.000600155953565291   -0.009557632606315165   -0.00023059300034400723
-0.0008042601157529691   -0.009895474915529369   -0.00026051584992386757
-0.0005875783646539693   -0.009543593165919791   -0.0002426649802232936
-0.0007290015544042257   -0.009844392785719316   -0.0002576459560062573
-0.0007868007997981155   -0.009883926347188935   -0.0002738018846844156
-0.0005875783646539693   -0.009543593165919791   -0.0002426649802232936
-0.0008042601157529691   -0.009895474915529369   -0.00026051584992386757
-0.0007290015544042257   -0.009844392785719316   -0.0002576459560062573
-0.0005875783646539693   -0.009543593165919791   -0.0002426649802232936
-0.0003303719350545931   -0.009511838616276276   -0.00022172880782292585
-0.0003680544935160939   -0.00952938452824978   -0.00019410556154901025
-0.0007290015544042257   -0.009844392785719316   -0.0002576459560062573
-0.0005875783646539693   -0.009543593165919791   -0.0002426649802232936
-0.0003680544935160939   -0.00952938452824978   -0.00019410556154901025
-0.0008042601157529691   -0.009895474915529369   -0.00026051584992386757
-0.0007290015544042257   -0.009844392785719316   -0.0002576459560062573
-0.0003303719350545931   -0.009511838616276276   -0.00022172880782292585
-0.0007868007997981155   -0.009883926347188935   -0.0002738018846844156
-0.000690632465310094   -0.00984073188968722   -0.00028778274065215846
-0.0003303719350545931   -0.009511838616276276   -0.00022172880782292585
-0.0005875783646539693   -0.009543593165919791   -0.0002426649802232936
-0.0007868007997981155   -0.009883926347188935   -0.0002738018846844156
-0.0005731887820910107   -0.00953666327541332   -0.000253772330755473
-0.000690632465310094   -0.00984073188968722   -0.00028778274065215846
-0.0007661306630084627   -0.009880485873950469   -0.0002861912303560536
-0.0005731887820910107   -0.00953666327541332   -0.000253772330755473
-0.0007868007997981155   -0.009883926347188935   -0.0002738018846844156
-0.000690632465310094   -0.00984073188968722   -0.00028778274065215846
-0.0005731887820910107   -0.00953666327541332   -0.000253772330755473
-0.00030069746414677277   -0.009504450465422228   -0.00024792965569764996
-0.0003303719350545931   -0.009511838616276276   -0.00022172880782292585
-0.000690632465310094   -0.00984073188968722   -0.00028778274065215846
-0.0005731887820910107   -0.00953666327541332   -0.000253772330755473
-0.0003303719350545931   -0.009511838616276276   -0.00022172880782292585
-0.0007868007997981155   -0.009883926347188935   -0.0002738018846844156
-0.000690632465310094   -0.00984073188968722   -0.00028778274065215846
-0.00030069746414677277   -0.009504450465422228   -0.00024792965569764996
-0.0007661306630084627   -0.009880485873950469   -0.0002861912303560536
-0.0006467880292463129   -0.00984662239204988   -0.00031670886188733875
-0.00030069746414677277   -0.009504450465422228   -0.00024792965569764996
-0.0005731887820910107   -0.00953666327541332   -0.000253772330755473
-0.0007661306630084627   -0.009880485873950469   -0.0002861912303560536
-0.0005622234141986702   -0.009536638576697263   -0.00026395365849855536
-0.0006467880292463129   -0.00984662239204988   -0.00031670886188733875
-0.0007485376497812326   -0.009885240605540213   -0.0002976329925597491
-0.0005622234141986702   -0.009536638576697263   -0.00026395365849855536
-0.0007661306630084627   -0.009880485873950469   -0.0002861912303560536
-0.0006467880292463129   -0.00984662239204988   -0.00031670886188733875
-0.0005622234141986702   -0.009536638576697263   -0.00026395365849855536
-0.0002677685883188452   -0.009504909188752787   -0.000272657859102462
-0.00030069746414677277   -0.009504450465422228   -0.00024792965569764996
-0.0006467880292463129   -0.00984662239204988   -0.00031670886188733875
-0.0005622234141986702   -0.009536638576697263   -0.00026395365849855536
-0.00030069746414677277   -0.009504450465422228   -0.00024792965569764996
-0.0007661306630084627   -0.009880485873950469   -0.0002861912303560536
-0.0008042601157529691   -0.009895474915529369   -0.00026051584992386757
-0.000600155953565291   -0.009557632606315165   -0.00023059300034400723
-0.0008510737997001492   -0.009916469301601673   -0.00028758501069580045
-0.0007868007997981155   -0.009883926347188935   -0.0002738018846844156
-0.000600155953565291   -0.009557632606315165   -0.00023059300034400723
-0.000833060067344129   -0.009567259103208397   -0.0002599847455906324
-0.0008510737997001492   -0.009916469301601673   -0.00028758501069580045
-0.0008226301279783722   -0.009555042620487507   -0.00026044295586286303
-0.0007868007997981155   -0.009883926347188935   -0.0002738018846844156
-0.0008357432071779215   -0.0099060987485013   -0.0002877404145068705
-0.0008226301279783722   -0.009555042620487507   -0.00026044295586286303
-0.0008510737997001492   -0.009916469301601673   -0.00028758501069580045
-0.0007868007997981155   -0.009883926347188935   -0.0002738018846844156
-0.0008226301279783722   -0.009555042620487507   -0.00026044295586286303
-0.0005875783646539693   -0.009543593165919791   -0.0002426649802232936
-0.000600155953565291   -0.009557632606315165   -0.00023059300034400723
-0.0007868007997981155   -0.009883926347188935   -0.0002738018846844156
-0.0008226301279783722   -0.009555042620487507   -0.00026044295586286303
-0.000600155953565291   -0.009557632606315165   -0.00023059300034400723
-0.0008510737997001492   -0.009916469301601673   -0.00028758501069580045
-0.0007868007997981155   -0.009883926347188935   -0.0002738018846844156
-0.0005875783646539693   -0.009543593165919791   -0.0002426649802232936
-0.0008357432071779215   -0.0099060987485013   -0.0002877404145068705
-0.0007661306630084627   -0.009880485873950469   -0.0002861912303560536
-0.0005875783646539693   -0.009543593165919791   -0.0002426649802232936
-0.0008226301279783722   -0.009555042620487507   -0.00026044295586286303
-0.0008357432071779215   -0.0099060987485013   -0.0002877404145068705
-0.0008118170279530842   -0.00954922373109932   -0.00026000443653249324
-0.0007661306630084627   -0.009880485873950469   -0.0002861912303560536
-0.0008187293742733279   -0.009903062010242046   -0.0002867350649617297
-0.0008118170279530842   -0.00954922373109932   -0.00026000443653249324
-0.0008357432071779215   -0.0099060987485013   -0.0002877404145068705
-0.0007661306630084627   -0.009880485873950469   -0.0002861912303560536
-0.0008118170279530842   -0.00954922373109932   -0.00026000443653249324
-0.0005731887820910107   -0.00953666327541332   -0.000253772330755473
-0.0005875783646539693   -0.009543593165919791   -0.0002426649802232936
-0.0007661306630084627   -0.009880485873950469   -0.0002861912303560536
-0.0008118170279530842   -0.00954922373109932   -0.00026000443653249324
-0.0005875783646539693   -0.009543593165919791   -0.0002426649802232936
-0.0008357432071779215   -0.0099060987485013   -0.0002877404145068705
-0.0007661306630084627   -0.009880485873950469   -0.0002861912303560536
-0.0005731887820910107   -0.00953666327541332   -0.000253772330755473
-0.0008187293742733279   -0.009903062010242046   -0.0002867350649617297
-0.0007485376497812326   -0.009885240605540213   -0.0002976329925597491
-0.0005731887820910107   -0.00953666327541332   -0.000253772330755473
-0.0008118170279530842   -0.00954922373109932   -0.00026000443653249324
-0.0008187293742733279   -0.009903062010242046   -0.0002867350649617297
-0.0008014205785384636   -0.009549552073244913   -0.00025867620066545816
-0.0007485376497812326   -0.009885240605540213   -0.0002976329925597491
-0.0008014893148036967   -0.009907093889882057   -0.0002848157698910807
-0.0008014205785384636   -0.009549552073244913   -0.00025867620066545816
-0.0008187293742733279   -0.009903062010242046   -0.0002867350649617297
-0.0007485376497812326   -0.009885240605540213   -0.0002976329925597491
-0.0008014205785384636   -0.009549552073244913   -0.00025867620066545816
-0.0005622234141986702   -0.009536638576697263   -0.00026395365849855536
-0.0005731887820910107   -0.00953666327541332   -0.000253772330755473
-0.0007485376497812326   -0.009885240605540213   -0.0002976329925597491
-0.0008014205785384636   -0.009549552073244913   -0.00025867620066545816
-0.0005731887820910107   -0.00953666327541332   -0.000253772330755473
-0.0008187293742733279   -0.009903062010242046   -0.0002867350649617297
-0.0008510737997001492   -0.009916469301601673   -0.00028758501069580045
-0.000833060067344129   -0.009567259103208397   -0.0002599847455906324
-0.0009022303786187033   -0.009923192324276771   -0.0003144460568880255
-0.0008357432071779215   -0.0099060987485013   -0.0002877404145068705
-0.000833060067344129   -0.009567259103208397   -0.0002599847455906324
-0.0010649186484347273   -0.009557964285114023   -0.00028758529314074397
-0.0009022303786187033   -0.009923192324276771   -0.0003144460568880255
-0.0010545725800658026   -0.00954703179246962   -0.0002768736066723077
-0.0008357432071779215   -0.0099060987485013   -0.0002877404145068705
-0.0008863417765479747   -0.009913131010524934   -0.00030195698750597953
-0.0010545725800658026   -0.00954703179246962   -0.0002768736066723077
-0.0009022303786187033   -0.009923192324276771   -0.0003144460568880255
-0.0008357432071779215   -0.0099060987485013   -0.0002877404145068705
-0.0010545725800658026   -0.00954703179246962   -0.0002768736066723077
-0.0008226301279783722   -0.009555042620487507   -0.00026044295586286303
-0.000833060067344129   -0.009567259103208397   -0.0002599847455906324
-0.0008357432071779215   -0.0099060987485013   -0.0002877404145068705
-0.0010545725800658026   -0.00954703179246962   -0.0002768736066723077
-0.000833060067344129   -0.009567259103208397   -0.0002599847455906324
-0.0009022303786187033   -0.009923192324276771   -0.0003144460568880255
-0.0008357432071779215   -0.0099060987485013   -0.0002877404145068705
-0.0008226301279783722   -0.009555042620487507   -0.00026044295586286303
-0.0008863417765479747   -0.009913131010524934   -0.00030195698750597953
-0.0008187293742733279   -0.009903062010242046   -0.0002867350649617297
-0.0008226301279783722   -0.009555042620487507   -0.00026044295586286303
-0.0010545725800658026   -0.00954703179246962   -0.0002768736066723077
-0.0008863417765479747   -0.009913131010524934   -0.00030195698750597953
-0.00104296713792396   -0.009542407244167649   -0.00026528546435861285
-0.0008187293742733279   -0.009903062010242046   -0.0002867350649617297
-0.0008674302281869187   -0.009910505448787205   -0.0002880493096724712
-0.00104296713792396   -0.009542407244167649   -0.00026528546435861285
-0.0008863417765479747   -0.009913131010524934   -0.00030195698750597953
-0.0008187293742733279   -0.009903062010242046   -0.0002867350649617297
-0.00104296713792396   -0.009542407244167649   -0.00026528546435861285
-0.0008118170279530842   -0.00954922373109932   -0.00026000443653249324
-0.0008226301279783722   -0.009555042620487507   -0.00026044295586286303
-0.0008187293742733279   -0.009903062010242046   -0.0002867350649617297
-0.00104296713792396   -0.009542407244167649   -0.00026528546435861285
-0.0008226301279783722   -0.009555042620487507   -0.00026044295586286303
-0.0008863417765479747   -0.009913131010524934   -0.00030195698750597953
-0.0008187293742733279   -0.009903062010242046   -0.0002867350649617297
-0.0008118170279530842   -0.00954922373109932   -0.00026000443653249324
-0.0008674302281869187   -0.009910505448787205   -0.0002880493096724712
-0.0008014893148036967   -0.009907093889882057   -0.0002848157698910807
-0.0008118170279530842   -0.00954922373109932   -0.00026000443653249324
-0.00104296713792396   -0.009542407244167649   -0.00026528546435861285
-0.0008674302281869187   -0.009910505448787205   -0.0002880493096724712
-0.0010313901712314898   -0.009543568231195839   -0.00025271535799542257
-0.0008014893148036967   -0.009907093889882057   -0.0002848157698910807
-0.000848072289326298   -0.00991432119382944   -0.0002733238360459348
-0.0010313901712314898   -0.009543568231195839   -0.00025271535799542257
-0.0008674302281869187   -0.009910505448787205   -0.0002880493096724712
-0.0008014893148036967   -0.009907093889882057   -0.0002848157698910807
-0.0010313901712314898   -0.009543568231195839   -0.00025271535799542257
-0.0008014205785384636   -0.009549552073244913   -0.00025867620066545816
-0.0008118170279530842   -0.00954922373109932   -0.00026000443653249324
-0.0008014893148036967   -0.009907093889882057   -0.0002848157698910807
-0.0010313901712314898   -0.009543568231195839   -0.00025271535799542257
-0.0008118170279530842   -0.00954922373109932   -0.00026000443653249324
-0.0008674302281869187   -0.009910505448787205   -0.0002880493096724712
-0.0009022303786187033   -0.009923192324276771   -0.0003144460568880255
-0.0010649186484347273   -0.009557964285114023   -0.00028758529314074397
-0.0009769556587001437   -0.009909947056141061   -0.000340538654284846
-0.0008863417765479747   -0.009913131010524934   -0.00030195698750597953
-0.0010649186484347273   -0.009557964285114023   -0.00028758529314074397
-0.001318109118159636   -0.009528649188090939   -0.0003132365111035466
-0.0009769556587001437   -0.009909947056141061   -0.000340538654284846
-0.0013052305860994894   -0.009518942033782729   -0.0002915221594226668
-0.0008863417765479747   -0.009913131010524934   -0.00030195698750597953
-0.0009562693632497311   -0.009900130027678103   -0.00031587931345384565
-0.0013052305860994894   -0.009518942033782729   -0.0002915221594226668
-0.0009769556587001437   -0.009909947056141061   -0.000340538654284846
-0.0008863417765479747   -0.009913131010524934   -0.00030195698750597953
-0.0013052305860994894   -0.009518942033782729   -0.0002915221594226668
-0.0010545725800658026   -0.00954703179246962   -0.0002768736066723077
-0.0010649186484347273   -0.009557964285114023   -0.00028758529314074397
-0.0008863417765479747   -0.009913131010524934   -0.00030195698750597953
-0.0013052305860994894   -0.009518942033782729   -0.0002915221594226668
-0.0010649186484347273   -0.009557964285114023   -0.00028758529314074397
-0.0009769556587001437   -0.009909947056141061   -0.000340538654284846
-0.0008863417765479747   -0.009913131010524934   -0.00030195698750597953
-0.0010545725800658026   -0.00954703179246962   -0.0002768736066723077
-0.0009562693632497311   -0.009900130027678103   -0.00031587931345384565
-0.0008674302281869187   -0.009910505448787205   -0.0002880493096724712
-0.0010545725800658026   -0.00954703179246962   -0.0002768736066723077
-0.0013052305860994894   -0.009518942033782729   -0.0002915221594226668
-0.0009562693632497311   -0.009900130027678103   -0.00031587931345384565
-0.0012872444236776347   -0.009515507601346744   -0.0002690172055301821
-0.0008674302281869187   -0.009910505448787205   -0.0002880493096724712
-0.0009286239162509044   -0.009898333997730902   -0.00028958655567753815
-0.0012872444236776347   -0.009515507601346744   -0.0002690172055301821
-0.0009562693632497311   -0.009900130027678103   -0.00031587931345384565
-0.0008674302281869187   -0.009910505448787205   -0.0002880493096724712
-0.0012872444236776347   -0.009515507601346744   -0.0002690172055301821
-0.00104296713792396   -0.009542407244167649   -0.00026528546435861285
-0.0010545725800658026   -0.00954703179246962   -0.0002768736066723077
-0.0008674302281869187   -0.009910505448787205   -0.0002880493096724712
-0.0012872444236776347   -0.009515507601346744   -0.0002690172055301821
-0.0010545725800658026   -0.00954703179246962   -0.0002768736066723077
-0.0009562693632497311   -0.009900130027678103   -0.00031587931345384565
-0.0008674302281869187   -0.009910505448787205   -0.0002880493096724712
-0.00104296713792396   -0.009542407244167649   -0.00026528546435861285
-0.0009286239162509044   -0.009898333997730902   -0.00028958655567753815
-0.000848072289326298   -0.00991432119382944   -0.0002733238360459348
-0.00104296713792396   -0.009542407244167649   -0.00026528546435861285
-0.0012872444236776347   -0.009515507601346744   -0.0002690172055301821
-0.0009286239162509044   -0.009898333997730902   -0.00028958655567753815
-0.0012718997332806501   -0.009518333353344762   -0.00024515151962408127
-0.000848072289326298   -0.00991432119382944   -0.0002733238360459348
-0.0009031610403347167   -0.00990313821016887   -0.000262397860136613
-0.0012718997332806501   -0.009518333353344762   -0.00024515151962408127
-0.0009286239162509044   -0.009898333997730902   -0.00028958655567753815
-0.000848072289326298   -0.00991432119382944   -0.0002733238360459348
-0.0012718997332806501   -0.009518333353344762   -0.00024515151962408127
-0.0010313901712314898   -0.009543568231195839   -0.00025271535799542257
-0.00104296713792396   -0.009542407244167649   -0.00026528546435861285
-0.000848072289326298   -0.00991432119382944   -0.0002733238360459348
-0.0012718997332806501   -0.009518333353344762   -0.00024515151962408127
-0.00104296713792396   -0.009542407244167649   -0.00026528546435861285
-0.0009286239162509044   -0.009898333997730902   -0.00028958655567753815
-0.0009769556587001437   -0.009909947056141061   -0.000340538654284846
-0.001318109118159636   -0.009528649188090939   -0.0003132365111035466
-0.0011299903506690927   -0.009862155095487176   -0.0003692970057365095
-0.0009562693632497311   -0.009900130027678103   -0.00031587931345384565
-0.001318109118159636   -0.009528649188090939   -0.0003132365111035466
-0.0016438373038297515   -0.009480970678366089   -0.0003387658398309564
-0.0011299903506690927   -0.009862155095487176   -0.0003692970057365095
-0.0015992771020673696   -0.009470061561204106   -0.00030438554595323906
-0.0009562693632497311   -0.009900130027678103   -0.00031587931345384565
-0.0010712622316144795   -0.009853334822317953   -0.00032891661815883635
-0.0015992771020673696   -0.009470061561204106   -0.00030438554595323906
-0.0011299903506690927   -0.009862155095487176   -0.0003692970057365095
-0.0009562693632497311   -0.009900130027678103   -0.00031587931345384565
-0.0015992771020673696   -0.009470061561204106   -0.00030438554595323906
-0.0013052305860994894   -0.009518942033782729   -0.0002915221594226668
-0.001318109118159636   -0.009528649188090939   -0.0003132365111035466
-0.0009562693632497311   -0.009900130027678103   -0.00031587931345384565
-0.0015992771020673696   -0.009470061561204106   -0.00030438554595323906
-0.001318109118159636   -0.009528649188090939   -0.0003132365111035466
-0.0011299903506690927   -0.009862155095487176   -0.0003692970057365095
-0.0009562693632497311   -0.009900130027678103   -0.00031587931345384565
-0.0013052305860994894   -0.009518942033782729   -0.0002915221594226668
-0.0010712622316144795   -0.009853334822317953   -0.00032891661815883635
-0.0009286239162509044   -0.009898333997730902   -0.00028958655567753815
-0.0013052305860994894   -0.009518942033782729   -0.0002915221594226668
-0.0015992771020673696   -0.009470061561204106   -0.00030438554595323906
-0.0010712622316144795   -0.009853334822317953   -0.00032891661815883635
-0.0015599688883388939   -0.00946688497075668   -0.0002682997276087906
-0.0009286239162509044   -0.009898333997730902   -0.00028958655567753815
-0.0010180710230061557   -0.00985249068392172   -0.00028616597280538557
-0.0015599688883388939   -0.00946688497075668   -0.0002682997276087906
-0.0010712622316144795   -0.009853334822317953   -0.00032891661815883635
-0.0009286239162509044   -0.009898333997730902   -0.00028958655567753815
-0.0015599688883388939   -0.00946688497075668   -0.0002682997276087906
-0.0012872444236776347   -0.009515507601346744   -0.0002690172055301821
-0.0013052305860994894   -0.009518942033782729   -0.0002915221594226668
-0.0009286239162509044   -0.009898333997730902   -0.00028958655567753815
-0.0015599688883388939   -0.00946688497075668   -0.0002682997276087906
-0.0013052305860994894   -0.009518942033782729   -0.0002915221594226668
-0.0010712622316144795   -0.009853334822317953   -0.00032891661815883635
-0.0009286239162509044   -0.009898333997730902   -0.00028958655567753815
-0.0012872444236776347   -0.009515507601346744   -0.0002690172055301821
-0.0010180710230061557   -0.00985249068392172   -0.00028616597280538557
-0.0009031610403347167   -0.00990313821016887   -0.000262397860136613
-0.0012872444236776347   -0.009515507601346744   -0.0002690172055301821
-0.0015599688883388939   -0.00946688497075668   -0.0002682997276087906
-0.0010180710230061557   -0.00985249068392172   -0.00028616597280538557
-0.0015091048483474817   -0.00947328583231654   -0.00023082631194433256
-0.0009031610403347167   -0.00990313821016887   -0.000262397860136613
-0.0009507535263747182   -0.009863918176697618   -0.00024175685844182244
-0.0015091048483474817   -0.00947328583231654   -0.00023082631194433256
-0.0010180710230061557   -0.00985249068392172   -0.00028616597280538557
-0.0009031610403347167   -0.00990313821016887   -0.000262397860136613
-0.0015091048483474817   -0.00947328583231654   -0.00023082631194433256
-0.0012718997332806501   -0.009518333353344762   -0.00024515151962408127
-0.0012872444236776347   -0.009515507601346744   -0.0002690172055301821
-0.0009031610403347167   -0.00990313821016887   -0.000262397860136613
-0.0015091048483474817   -0.00947328583231654   -0.00023082631194433256
-0.0012872444236776347   -0.009515507601346744   -0.0002690172055301821
-0.0010180710230061557   -0.00985249068392172   -0.00028616597280538557
-0.0003680544935160939   -0.00952938452824978   -0.00019410556154901025
-2.8358707207185142e-05   -0.008888232168605409   -0.00015926099493710833
-0.000600155953565291   -0.009557632606315165   -0.00023059300034400723
-0.0003303719350545931   -0.009511838616276276   -0.00022172880782292585
-2.8358707207185142e-05   -0.008888232168605409   -0.00015926099493710833
-0.0004334437528864383   -0.008909699624150863   -0.00019531508515639717
-0.000600155953565291   -0.009557632606315165   -0.00023059300034400723
-0.00042651689002371255   -0.008894932671268053   -0.00020516863459851822
-0.0003303719350545931   -0.009511838616276276   -0.00022172880782292585
-0.0005875783646539693   -0.009543593165919791   -0.0002426649802232936
-0.00042651689002371255   -0.008894932671268053   -0.00020516863459851822
-0.000600155953565291   -0.009557632606315165   -0.00023059300034400723
-0.0003303719350545931   -0.009511838616276276   -0.00022172880782292585
-0.00042651689002371255   -0.008894932671268053   -0.00020516863459851822
-9.982553684240852e-07   -0.00887025939383517   -0.00018194081722958385
-2.8358707207185142e-05   -0.008888232168605409   -0.00015926099493710833
-0.0003303719350545931   -0.009511838616276276   -0.00022172880782292585
-0.00042651689002371255   -0.008894932671268053   -0.00020516863459851822
-2.8358707207185142e-05   -0.008888232168605409   -0.00015926099493710833
-0.000600155953565291   -0.009557632606315165   -0.00023059300034400723
-0.0003303719350545931   -0.009511838616276276   -0.00022172880782292585
-9.982553684240852e-07   -0.00887025939383517   -0.00018194081722958385
-0.0005875783646539693   -0.009543593165919791   -0.0002426649802232936
-0.00030069746414677277   -0.009504450465422228   -0.00024792965569764996
-9.982553684240852e-07   -0.00887025939383517   -0.00018194081722958385
-0.00042651689002371255   -0.008894932671268053   -0.00020516863459851822
-0.0005875783646539693   -0.009543593165919791   -0.0002426649802232936
-0.00041844902258140944   -0.008886135211671906   -0.00021400456207716474
-0.00030069746414677277   -0.009504450465422228   -0.00024792965569764996
-0.0005731887820910107   -0.00953666327541332   -0.000253772330755473
-0.00041844902258140944   -0.008886135211671906   -0.00021400456207716474
-0.0005875783646539693   -0.009543593165919791   -0.0002426649802232936
-0.00030069746414677277   -0.009504450465422228   -0.00024792965569764996
-0.00041844902258140944   -0.008886135211671906   -0.00021400456207716474
1.9240136686519727e-05   -0.0088608607206538   -0.00020319530943260284
-9.982553684240852e-07   -0.00887025939383517   -0.00018194081722958385
-0.00030069746414677277   -0.009504450465422228   -0.00024792965569764996
-0.00041844902258140944   -0.008886135211671906   -0.00021400456207716474
-9.982553684240852e-07   -0.00887025939383517   -0.00018194081722958385
-0.0005875783646539693   -0.009543593165919791   -0.0002426649802232936
-0.00030069746414677277   -0.009504450465422228   -0.00024792965569764996
1.9240136686519727e-05   -0.0088608607206538   -0.00020319530943260284
-0.0005731887820910107   -0.00953666327541332   -0.000253772330755473
-0.0002677685883188452   -0.009504909188752787   -0.000272657859102462
1.9240136686519727e-05   -0.0088608607206538   -0.00020319530943260284
-0.00041844902258140944   -0.008886135211671906   -0.00021400456207716474
-0.0005731887820910107   -0.00953666327541332   -0.000253772330755473
-0.00041360373697501277   -0.008883017352110506   -0.0002219245775906175
-0.0002677685883188452   -0.009504909188752787   -0.000272657859102462
-0.0005622234141986702   -0.009536638576697263   -0.00026395365849855536
-0.00041360373697501277   -0.008883017352110506   -0.0002219245775906175
-0.0005731887820910107   -0.00953666327541332   -0.000253772330755473
-0.0002677685883188452   -0.009504909188752787   -0.000272657859102462
-0.00041360373697501277   -0.008883017352110506   -0.0002219245775906175
4.13978747374718e-05   -0.00885771805586915   -0.00022302561206442254
1.9240136686519727e-05   -0.0088608607206538   -0.00020319530943260284
-0.0002677685883188452   -0.009504909188752787   -0.000272657859102462
-0.00041360373697501277   -0.008883017352110506   -0.0002219245775906175
1.9240136686519727e-05   -0.0088608607206538   -0.00020319530943260284
-0.0005731887820910107   -0.00953666327541332   -0.000253772330755473
-0.000600155953565291   -0.009557632606315165   -0.00023059300034400723
-0.0004334437528864383   -0.008909699624150863   -0.00019531508515639717
-0.000833060067344129   -0.009567259103208397   -0.0002599847455906324
-0.0005875783646539693   -0.009543593165919791   -0.0002426649802232936
-0.0004334437528864383   -0.008909699624150863   -0.00019531508515639717
-0.000828792143866888   -0.008913891833975932   -0.00022448673923639457
-0.000833060067344129   -0.009567259103208397   -0.0002599847455906324
-0.000823831825609521   -0.008901343326638167   -0.00022458835134249434
-0.0005875783646539693   -0.009543593165919791   -0.0002426649802232936
-0.0008226301279783722   -0.009555042620487507   -0.00026044295586286303
-0.000823831825609521   -0.008901343326638167   -0.00022458835134249434
-0.000833060067344129   -0.009567259103208397   -0.0002599847455906324
-0.0005875783646539693   -0.009543593165919791   -0.0002426649802232936
-0.000823831825609521   -0.008901343326638167   -0.00022458835134249434
-0.00042651689002371255   -0.008894932671268053   -0.00020516863459851822
-0.0004334437528864383   -0.008909699624150863   -0.00019531508515639717
-0.0005875783646539693   -0.009543593165919791   -0.0002426649802232936
-0.000823831825609521   -0.008901343326638167   -0.00022458835134249434
-0.0004334437528864383   -0.008909699624150863   -0.00019531508515639717
-0.000833060067344129   -0.009567259103208397   -0.0002599847455906324
-0.0005875783646539693   -0.009543593165919791   -0.0002426649802232936
-0.00042651689002371255   -0.008894932671268053   -0.00020516863459851822
-0.0008226301279783722   -0.009555042620487507   -0.00026044295586286303
-0.0005731887820910107   -0.00953666327541332   -0.000253772330755473
-0.00042651689002371255   -0.008894932671268053   -0.00020516863459851822
-0.000823831825609521   -0.008901343326638167   -0.00022458835134249434
-0.0008226301279783722   -0.009555042620487507   -0.00026044295586286303
-0.000818707390035944   -0.008894124676773963   -0.00022370760304500262
-0.0005731887820910107   -0.00953666327541332   -0.000253772330755473
-0.0008118170279530842   -0.00954922373109932   -0.00026000443653249324
-0.000818707390035944   -0.008894124676773963   -0.00022370760304500262
-0.0008226301279783722   -0.009555042620487507   -0.00026044295586286303
-0.0005731887820910107   -0.00953666327541332   -0.000253772330755473
-0.000818707390035944   -0.008894124676773963   -0.00022370760304500262
-0.00041844902258140944   -0.008886135211671906   -0.00021400456207716474
-0.00042651689002371255   -0.008894932671268053   -0.00020516863459851822
-0.0005731887820910107   -0.00953666327541332   -0.000253772330755473
-0.000818707390035944   -0.008894124676773963   -0.00022370760304500262
-0.00042651689002371255   -0.008894932671268053   -0.00020516863459851822
-0.0008226301279783722   -0.009555042620487507   -0.00026044295586286303
-0.0005731887820910107   -0.00953666327541332   -0.000253772330755473
-0.00041844902258140944   -0.008886135211671906   -0.00021400456207716474
-0.0008118170279530842   -0.00954922373109932   -0.00026000443653249324
-0.0005622234141986702   -0.009536638576697263   -0.00026395365849855536
-0.00041844902258140944   -0.008886135211671906   -0.00021400456207716474
-0.000818707390035944   -0.008894124676773963   -0.00022370760304500262
-0.0008118170279530842   -0.00954922373109932   -0.00026000443653249324
-0.0008142345092037697   -0.008892169094470413   -0.00022192137539681338
-0.0005622234141986702   -0.009536638576697263   -0.00026395365849855536
-0.0008014205785384636   -0.009549552073244913   -0.00025867620066545816
-0.0008142345092037697   -0.008892169094470413   -0.00022192137539681338
-0.0008118170279530842   -0.00954922373109932   -0.00026000443653249324
-0.0005622234141986702   -0.009536638576697263   -0.00026395365849855536
-0.0008142345092037697   -0.008892169094470413   -0.00022192137539681338
-0.00041360373697501277   -0.008883017352110506   -0.0002219245775906175
-0.00041844902258140944   -0.008886135211671906   -0.00021400456207716474
-0.0005622234141986702   -0.009536638576697263   -0.00026395365849855536
-0.0008142345092037697   -0.008892169094470413   -0.00022192137539681338
-0.00041844902258140944   -0.008886135211671906   -0.00021400456207716474
-0.0008118170279530842   -0.00954922373109932   -0.00026000443653249324
-0.000833060067344129   -0.009567259103208397   -0.0002599847455906324
-0.000828792143866888   -0.008913891833975932   -0.00022448673923639457
-0.0010649186484347273   -0.009557964285114023   -0.00028758529314074397
-0.0008226301279783722   -0.009555042620487507   -0.00026044295586286303
-0.000828792143866888   -0.008913891833975932   -0.00022448673923639457
-0.0012186629490859374   -0.008900957203399295   -0.00025076486130214565
-0.0010649186484347273   -0.009557964285114023   -0.00028758529314074397
-0.0012140582251590714   -0.00889017491859863   -0.00024134029437706267
-0.0008226301279783722   -0.009555042620487507   -0.00026044295586286303
-0.0010545725800658026   -0.00954703179246962   -0.0002768736066723077
-0.0012140582251590714   -0.00889017491859863   -0.00024134029437706267
-0.0010649186484347273   -0.009557964285114023   -0.00028758529314074397
-0.0008226301279783722   -0.009555042620487507   -0.00026044295586286303
-0.0012140582251590714   -0.00889017491859863   -0.00024134029437706267
-0.000823831825609521   -0.008901343326638167   -0.00022458835134249434
-0.000828792143866888   -0.008913891833975932   -0.00022448673923639457
-0.0008226301279783722   -0.009555042620487507   -0.00026044295586286303
-0.0012140582251590714   -0.00889017491859863   -0.00024134029437706267
-0.000828792143866888   -0.008913891833975932   -0.00022448673923639457
-0.0010649186484347273   -0.009557964285114023   -0.00028758529314074397
-0.0008226301279783722   -0.009555042620487507   -0.00026044295586286303
-0.000823831825609521   -0.008901343326638167   -0.00022458835134249434
-0.0010545725800658026   -0.00954703179246962   -0.0002768736066723077
-0.0008118170279530842   -0.00954922373109932   -0.00026000443653249324
-0.000823831825609521   -0.008901343326638167   -0.00022458835134249434
-0.0012140582251590714   -0.00889017491859863   -0.00024134029437706267
-0.0010545725800658026   -0.00954703179246962   -0.0002768736066723077
-0.0012084802468671503   -0.008884667659791574   -0.0002309610574492912
-0.0008118170279530842   -0.00954922373109932   -0.00026000443653249324
-0.00104296713792396   -0.009542407244167649   -0.00026528546435861285
-0.0012084802468671503   -0.008884667659791574   -0.0002309610574492912
-0.0010545725800658026   -0.00954703179246962   -0.0002768736066723077
-0.0008118170279530842   -0.00954922373109932   -0.00026000443653249324
-0.0012084802468671503   -0.008884667659791574   -0.0002309610574492912
-0.000818707390035944   -0.008894124676773963   -0.00022370760304500262
-0.000823831825609521   -0.008901343326638167   -0.00022458835134249434
-0.0008118170279530842   -0.00954922373109932   -0.00026000443653249324
-0.0012084802468671503   -0.008884667659791574   -0.0002309610574492912
-0.000823831825609521   -0.008901343326638167   -0.00022458835134249434
-0.0010545725800658026   -0.00954703179246962   -0.0002768736066723077
-0.0008118170279530842   -0.00954922373109932   -0.00026000443653249324
-0.000818707390035944   -0.008894124676773963   -0.00022370760304500262
-0.00104296713792396   -0.009542407244167649   -0.00026528546435861285
-0.0008014205785384636   -0.009549552073244913   -0.00025867620066545816
-0.000818707390035944   -0.008894124676773963   -0.00022370760304500262
-0.0012084802468671503   -0.008884667659791574   -0.0002309610574492912
-0.00104296713792396   -0.009542407244167649   -0.00026528546435861285
-0.0012031030208035196   -0.008884230403596469   -0.00021965499512228688
-0.0008014205785384636   -0.009549552073244913   -0.00025867620066545816
-0.0010313901712314898   -0.009543568231195839   -0.00025271535799542257
-0.0012031030208035196   -0.008884230403596469   -0.00021965499512228688
-0.00104296713792396   -0.009542407244167649   -0.00026528546435861285
-0.0008014205785384636   -0.009549552073244913   -0.00025867620066545816
-0.0012031030208035196   -0.008884230403596469   -0.00021965499512228688
-0.0008142345092037697   -0.008892169094470413   -0.00022192137539681338
-0.000818707390035944   -0.008894124676773963   -0.00022370760304500262
-0.0008014205785384636   -0.009549552073244913   -0.00025867620066545816
-0.0012031030208035196   -0.008884230403596469   -0.00021965499512228688
-0.000818707390035944   -0.008894124676773963   -0.00022370760304500262
-0.00104296713792396   -0.009542407244167649   -0.00026528546435861285
-0.0010649186484347273   -0.009557964285114023   -0.00028758529314074397
-0.0012186629490859374   -0.008900957203399295   -0.00025076486130214565
-0.001318109118159636   -0.009528649188090939   -0.0003132365111035466
-0.0010545725800658026   -0.00954703179246962   -0.0002768736066723077
-0.0012186629490859374   -0.008900957203399295   -0.00025076486130214565
-0.0016262472350132657   -0.008871251992625808   -0.0002741814351386747
-0.001318109118159636   -0.009528649188090939   -0.0003132365111035466
-0.0016200166686660747   -0.008862085234951354   -0.0002551838500506867
-0.0010545725800658026   -0.00954703179246962   -0.0002768736066723077
-0.0013052305860994894   -0.009518942033782729   -0.0002915221594226668
-0.0016200166686660747   -0.008862085234951354   -0.0002551838500506867
-0.001318109118159636   -0.009528649188090939   -0.0003132365111035466
-0.0010545725800658026   -0.00954703179246962   -0.0002768736066723077
-0.0016200166686660747   -0.008862085234951354   -0.0002551838500506867
-0.0012140582251590714   -0.00889017491859863   -0.00024134029437706267
-0.0012186629490859374   -0.008900957203399295   -0.00025076486130214565
-0.0010545725800658026   -0.00954703179246962   -0.0002768736066723077
-0.0016200166686660747   -0.008862085234951354   -0.0002551838500506867
-0.0012186629490859374   -0.008900957203399295   -0.00025076486130214565
-0.001318109118159636   -0.009528649188090939   -0.0003132365111035466
-0.0010545725800658026   -0.00954703179246962   -0.0002768736066723077
-0.0012140582251590714   -0.00889017491859863   -0.00024134029437706267
-0.0013052305860994894   -0.009518942033782729   -0.0002915221594226668
-0.00104296713792396   -0.009542407244167649   -0.00026528546435861285
-0.0012140582251590714   -0.00889017491859863   -0.00024134029437706267
-0.0016200166686660747   -0.008862085234951354   -0.0002551838500506867
-0.0013052305860994894   -0.009518942033782729   -0.0002915221594226668
-0.001609332896700066   -0.008858128456268852   -0.00023538845054734604
-0.00104296713792396   -0.009542407244167649   -0.00026528546435861285
-0.0012872444236776347   -0.009515507601346744   -0.0002690172055301821
-0.001609332896700066   -0.008858128456268852   -0.00023538845054734604
-0.0013052305860994894   -0.009518942033782729   -0.0002915221594226668
-0.00104296713792396   -0.009542407244167649   -0.00026528546435861285
-0.001609332896700066   -0.008858128456268852   -0.00023538845054734604
-0.0012084802468671503   -0.008884667659791574   -0.0002309610574492912
-0.0012140582251590714   -0.00889017491859863   -0.00024134029437706267
-0.00104296713792396   -0.009542407244167649   -0.00026528546435861285
-0.001609332896700066   -0.008858128456268852   -0.00023538845054734604
-0.0012140582251590714   -0.00889017491859863   -0.00024134029437706267
-0.0013052305860994894   -0.009518942033782729   -0.0002915221594226668
-0.00104296713792396   -0.009542407244167649   -0.00026528546435861285
-0.0012084802468671503   -0.008884667659791574   -0.0002309610574492912
-0.0012872444236776347   -0.009515507601346744   -0.0002690172055301821
-0.0010313901712314898   -0.009543568231195839   -0.00025271535799542257
-0.0012084802468671503   -0.008884667659791574   -0.0002309610574492912
-0.001609332896700066   -0.008858128456268852   -0.00023538845054734604
-0.0012872444236776347   -0.009515507601346744   -0.0002690172055301821
-0.001600908475633453   -0.008859640184618578   -0.00021452514846629934
-0.0010313901712314898   -0.009543568231195839   -0.00025271535799542257
-0.0012718997332806501   -0.009518333353344762   -0.00024515151962408127
-0.001600908475633453   -0.008859640184618578   -0.00021452514846629934
-0.0012872444236776347   -0.009515507601346744   -0.0002690172055301821
-0.0010313901712314898   -0.009543568231195839   -0.00025271535799542257
-0.001600908475633453   -0.008859640184618578   -0.00021452514846629934
-0.0012031030208035196   -0.008884230403596469   -0.00021965499512228688
-0.0012084802468671503   -0.008884667659791574   -0.0002309610574492912
-0.0010313901712314898   -0.009543568231195839   -0.00025271535799542257
-0.001600908475633453   -0.008859640184618578   -0.00021452514846629934
-0.0012084802468671503   -0.008884667659791574   -0.0002309610574492912
-0.0012872444236776347   -0.009515507601346744   -0.0002690172055301821
-0.001318109118159636   -0.009528649188090939   -0.0003132365111035466
-0.0016262472350132657   -0.008871251992625808   -0.0002741814351386747
-0.0016438373038297515   -0.009480970678366089   -0.0003387658398309564
-0.0013052305860994894   -0.009518942033782729   -0.0002915221594226668
-0.0016262472350132657   -0.008871251992625808   -0.0002741814351386747
-0.0021010828977016723   -0.008827786470581895   -0.00029665113609623285
-0.0016438373038297515   -0.009480970678366089   -0.0003387658398309564
-0.0020670201010457748   -0.008817934215088228   -0.00026676667971377494
-0.0013052305860994894   -0.009518942033782729   -0.0002915221594226668
-0.0015992771020673696   -0.009470061561204106   -0.00030438554595323906
-0.0020670201010457748   -0.008817934215088228   -0.00026676667971377494
-0.0016438373038297515   -0.009480970678366089   -0.0003387658398309564
-0.0013052305860994894   -0.009518942033782729   -0.0002915221594226668
-0.0020670201010457748   -0.008817934215088228   -0.00026676667971377494
-0.0016200166686660747   -0.008862085234951354   -0.0002551838500506867
-0.0016262472350132657   -0.008871251992625808   -0.0002741814351386747
-0.0013052305860994894   -0.009518942033782729   -0.0002915221594226668
-0.0020670201010457748   -0.008817934215088228   -0.00026676667971377494
-0.0016262472350132657   -0.008871251992625808   -0.0002741814351386747
-0.0016438373038297515   -0.009480970678366089   -0.0003387658398309564
-0.0013052305860994894   -0.009518942033782729   -0.0002915221594226668
-0.0016200166686660747   -0.008862085234951354   -0.0002551838500506867
-0.0015992771020673696   -0.009470061561204106   -0.00030438554595323906
-0.0012872444236776347   -0.009515507601346744   -0.0002690172055301821
-0.0016200166686660747   -0.008862085234951354   -0.0002551838500506867
-0.0020670201010457748   -0.008817934215088228   -0.00026676667971377494
-0.0015992771020673696   -0.009470061561204106   -0.00030438554595323906
-0.002037864344939877   -0.008814400439744605   -0.0002355368835988835
-0.0012872444236776347   -0.009515507601346744   -0.0002690172055301821
-0.0015599688883388939   -0.00946688497075668   -0.0002682997276087906
-0.002037864344939877   -0.008814400439744605   -0.0002355368835988835
-0.0015992771020673696   -0.009470061561204106   -0.00030438554595323906
-0.0012872444236776347   -0.009515507601346744   -0.0002690172055301821
-0.002037864344939877   -0.008814400439744605   -0.0002355368835988835
-0.001609332896700066   -0.008858128456268852   -0.00023538845054734604
-0.0016200166686660747   -0.008862085234951354   -0.0002551838500506867
-0.0012872444236776347   -0.009515507601346744   -0.0002690172055301821
-0.002037864344939877   -0.008814400439744605   -0.0002355368835988835
-0.0016200166686660747   -0.008862085234951354   -0.0002551838500506867
-0.0015992771020673696   -0.009470061561204106   -0.00030438554595323906
-0.0012872444236776347   -0.009515507601346744   -0.0002690172055301821
-0.001609332896700066   -0.008858128456268852   -0.00023538845054734604
-0.0015599688883388939   -0.00946688497075668   -0.0002682997276087906
-0.0012718997332806501   -0.009518333353344762   -0.00024515151962408127
-0.001609332896700066   -0.008858128456268852   -0.00023538845054734604
-0.002037864344939877   -0.008814400439744605   -0.0002355368835988835
-0.0015599688883388939   -0.00946688497075668   -0.0002682997276087906
-0.0019987588137413428   -0.008819124022378994   -0.00020315508001478836
-0.0012718997332806501   -0.009518333353344762   -0.00024515151962408127
-0.0015091048483474817   -0.00947328583231654   -0.00023082631194433256
-0.0019987588137413428   -0.008819124022378994   -0.00020315508001478836
-0.0015599688883388939   -0.00946688497075668   -0.0002682997276087906
-0.0012718997332806501   -0.009518333353344762   -0.00024515151962408127
-0.0019987588137413428   -0.008819124022378994   -0.00020315508001478836
-0.001600908475633453   -0.008859640184618578   -0.00021452514846629934
-0.001609332896700066   -0.008858128456268852   -0.00023538845054734604
-0.0012718997332806501   -0.009518333353344762   -0.00024515151962408127
-0.0019987588137413428   -0.008819124022378994   -0.00020315508001478836
-0.001609332896700066   -0.008858128456268852   -0.00023538845054734604
-0.0015599688883388939   -0.00946688497075668   -0.0002682997276087906
-2.8358707207185142e-05   -0.008888232168605409   -0.00015926099493710833
0.000238554415967826   -0.007994263916538194   -0.00012090492890359626
-0.0004334437528864383   -0.008909699624150863   -0.00019531508515639717
-9.982553684240852e-07   -0.00887025939383517   -0.00018194081722958385
0.000238554415967826   -0.007994263916538194   -0.00012090492890359626
-0.0003085972188151164   -0.008009119949031324   -0.00015542555507522807
-0.0004334437528864383   -0.008909699624150863   -0.00019531508515639717
-0.00030679372209208575   -0.007994420883639157   -0.00016255559222938575
-9.982553684240852e-07   -0.00887025939383517   -0.00018194081722958385
-0.00042651689002371255   -0.008894932671268053   -0.00020516863459851822
-0.00030679372209208575   -0.007994420883639157   -0.00016255559222938575
-0.0004334437528864383   -0.008909699624150863   -0.00019531508515639717
-9.982553684240852e-07   -0.00887025939383517   -0.00018194081722958385
-0.00030679372209208575   -0.007994420883639157   -0.00016255559222938575
0.00025593953572848523   -0.007976634283544457   -0.00013833546811164052
0.000238554415967826   -0.007994263916538194   -0.00012090492890359626
-9.982553684240852e-07   -0.00887025939383517   -0.00018194081722958385
-0.00030679372209208575   -0.007994420883639157   -0.00016255559222938575
0.000238554415967826   -0.007994263916538194   -0.00012090492890359626
-0.0004334437528864383   -0.008909699624150863   -0.00019531508515639717
-9.982553684240852e-07   -0.00887025939383517   -0.00018194081722958385
0.00025593953572848523   -0.007976634283544457   -0.00013833546811164052
-0.00042651689002371255   -0.008894932671268053   -0.00020516863459851822
1.9240136686519727e-05   -0.0088608607206538   -0.00020319530943260284
0.00025593953572848523   -0.007976634283544457   -0.00013833546811164052
-0.00030679372209208575   -0.007994420883639157   -0.00016255559222938575
-0.00042651689002371255   -0.008894932671268053   -0.00020516863459851822
-0.0003044417399756363   -0.007984578271231786   -0.00016872363801152522
1.9240136686519727e-05   -0.0088608607206538   -0.00020319530943260284
-0.00041844902258140944   -0.008886135211671906   -0.00021400456207716474
-0.0003044417399756363   -0.007984578271231786   -0.00016872363801152522
-0.00042651689002371255   -0.008894932671268053   -0.00020516863459851822
1.9240136686519727e-05   -0.0088608607206538   -0.00020319530943260284
-0.0003044417399756363   -0.007984578271231786   -0.00016872363801152522
0.0002673582431485124   -0.007966045229462024   -0.00015439914793139968
0.00025593953572848523   -0.007976634283544457   -0.00013833546811164052
1.9240136686519727e-05   -0.0088608607206538   -0.00020319530943260284
-0.0003044417399756363   -0.007984578271231786   -0.00016872363801152522
0.00025593953572848523   -0.007976634283544457   -0.00013833546811164052
-0.00042651689002371255   -0.008894932671268053   -0.00020516863459851822
1.9240136686519727e-05   -0.0088608607206538   -0.00020319530943260284
0.0002673582431485124   -0.007966045229462024   -0.00015439914793139968
-0.00041844902258140944   -0.008886135211671906   -0.00021400456207716474
4.13978747374718e-05   -0.00885771805586915   -0.00022302561206442254
0.0002673582431485124   -0.007966045229462024   -0.00015439914793139968
-0.0003044417399756363   -0.007984578271231786   -0.00016872363801152522
-0.00041844902258140944   -0.008886135211671906   -0.00021400456207716474
-0.00030490867071355046   -0.007979231573340686   -0.00017399862205083586
4.13978747374718e-05   -0.00885771805586915   -0.00022302561206442254
-0.00041360373697501277   -0.008883017352110506   -0.0002219245775906175
-0.00030490867071355046   -0.007979231573340686   -0.00017399862205083586
-0.00041844902258140944   -0.008886135211671906   -0.00021400456207716474
4.13978747374718e-05   -0.00885771805586915   -0.00022302561206442254
-0.00030490867071355046   -0.007979231573340686   -0.00017399862205083586
0.0002795487365461099   -0.007960170066986946   -0.00016913147561313798
0.0002673582431485124   -0.007966045229462024   -0.00015439914793139968
4.13978747374718e-05   -0.00885771805586915   -0.00022302561206442254
-0.00030490867071355046   -0.007979231573340686   -0.00017399862205083586
0.0002673582431485124   -0.007966045229462024   -0.00015439914793139968
-0.00041844902258140944   -0.008886135211671906   -0.00021400456207716474
-0.0004334437528864383   -0.008909699624150863   -0.00019531508515639717
-0.0003085972188151164   -0.008009119949031324   -0.00015542555507522807
-0.000828792143866888   -0.008913891833975932   -0.00022448673923639457
-0.00042651689002371255   -0.008894932671268053   -0.00020516863459851822
-0.0003085972188151164   -0.008009119949031324   -0.00015542555507522807
-0.0008379546404488727   -0.008009547969331135   -0.00018321516499348684
-0.000828792143866888   -0.008913891833975932   -0.00022448673923639457
-0.0008378450784218299   -0.007997334047447655   -0.00018252309277024608
-0.00042651689002371255   -0.008894932671268053   -0.00020516863459851822
-0.000823831825609521   -0.008901343326638167   -0.00022458835134249434
-0.0008378450784218299   -0.007997334047447655   -0.00018252309277024608
-0.000828792143866888   -0.008913891833975932   -0.00022448673923639457
-0.00042651689002371255   -0.008894932671268053   -0.00020516863459851822
-0.0008378450784218299   -0.007997334047447655   -0.00018252309277024608
-0.00030679372209208575   -0.007994420883639157   -0.00016255559222938575
-0.0003085972188151164   -0.008009119949031324   -0.00015542555507522807
-0.00042651689002371255   -0.008894932671268053   -0.00020516863459851822
-0.0008378450784218299   -0.007997334047447655   -0.00018252309277024608
-0.0003085972188151164   -0.008009119949031324   -0.00015542555507522807
-0.000828792143866888   -0.008913891833975932   -0.00022448673923639457
-0.00042651689002371255   -0.008894932671268053   -0.00020516863459851822
-0.00030679372209208575   -0.007994420883639157   -0.00016255559222938575
-0.000823831825609521   -0.008901343326638167   -0.00022458835134249434
-0.00041844902258140944   -0.008886135211671906   -0.00021400456207716474
-0.00030679372209208575   -0.007994420883639157   -0.00016255559222938575
-0.0008378450784218299   -0.007997334047447655   -0.00018252309277024608
-0.000823831825609521   -0.008901343326638167   -0.00022458835134249434
-0.0008376885392585789   -0.007989389221124325   -0.00018086468911138724
-0.00041844902258140944   -0.008886135211671906   -0.00021400456207716474
-0.000818707390035944   -0.008894124676773963   -0.00022370760304500262
-0.0008376885392585789   -0.007989389221124325   -0.00018086468911138724
-0.000823831825609521   -0.008901343326638167   -0.00022458835134249434
-0.00041844902258140944   -0.008886135211671906   -0.00021400456207716474
-0.0008376885392585789   -0.007989389221124325   -0.00018086468911138724
-0.0003044417399756363   -0.007984578271231786   -0.00016872363801152522
-0.00030679372209208575   -0.007994420883639157   -0.00016255559222938575
-0.00041844902258140944   -0.008886135211671906   -0.00021400456207716474
-0.0008376885392585789   -0.007989389221124325   -0.00018086468911138724
-0.00030679372209208575   -0.007994420883639157   -0.00016255559222938575
-0.000823831825609521   -0.008901343326638167   -0.00022458835134249434
-0.00041844902258140944   -0.008886135211671906   -0.00021400456207716474
-0.0003044417399756363   -0.007984578271231786   -0.00016872363801152522
-0.000818707390035944   -0.008894124676773963   -0.00022370760304500262
-0.00041360373697501277   -0.008883017352110506   -0.0002219245775906175
-0.0003044417399756363   -0.007984578271231786   -0.00016872363801152522
-0.0008376885392585789   -0.007989389221124325   -0.00018086468911138724
-0.000818707390035944   -0.008894124676773963   -0.00022370760304500262
-0.0008382190387850655   -0.007985724440614943   -0.00017830063581565904
-0.00041360373697501277   -0.008883017352110506   -0.0002219245775906175
-0.0008142345092037697   -0.008892169094470413   -0.00022192137539681338
-0.0008382190387850655   -0.007985724440614943   -0.00017830063581565904
-0.000818707390035944   -0.008894124676773963   -0.00022370760304500262
-0.00041360373697501277   -0.008883017352110506   -0.0002219245775906175
-0.0008382190387850655   -0.007985724440614943   -0.00017830063581565904
-0.00030490867071355046   -0.007979231573340686   -0.00017399862205083586
-0.0003044417399756363   -0.007984578271231786   -0.00016872363801152522
-0.00041360373697501277   -0.008883017352110506   -0.0002219245775906175
-0.0008382190387850655   -0.007985724440614943   -0.00017830063581565904
-0.0003044417399756363   -0.007984578271231786   -0.00016872363801152522
-0.000818707390035944   -0.008894124676773963   -0.00022370760304500262
-0.000828792143866888   -0.008913891833975932   -0.00022448673923639457
-0.0008379546404488727   -0.008009547969331135   -0.00018321516499348684
-0.0012186629490859374   -0.008900957203399295   -0.00025076486130214565
-0.000823831825609521   -0.008901343326638167   -0.00022458835134249434
-0.0008379546404488727   -0.008009547969331135   -0.00018321516499348684
-0.0013590091120035308   -0.00799609736588932   -0.00020734412229055075
-0.0012186629490859374   -0.008900957203399295   -0.00025076486130214565
-0.0013593155901740544   -0.007985998648375998   -0.0001989333647375234
-0.000823831825609521   -0.008901343326638167   -0.00022458835134249434
-0.0012140582251590714   -0.00889017491859863   -0.00024134029437706267
-0.0013593155901740544   -0.007985998648375998   -0.0001989333647375234
-0.0012186629490859374   -0.008900957203399295   -0.00025076486130214565
-0.000823831825609521   -0.008901343326638167   -0.00022458835134249434
-0.0013593155901740544   -0.007985998648375998   -0.0001989333647375234
-0.0008378450784218299   -0.007997334047447655   -0.00018252309277024608
-0.0008379546404488727   -0.008009547969331135   -0.00018321516499348684
-0.000823831825609521   -0.008901343326638167   -0.00022458835134249434
-0.0013593155901740544   -0.007985998648375998   -0.0001989333647375234
-0.0008379546404488727   -0.008009547969331135   -0.00018321516499348684
-0.0012186629490859374   -0.008900957203399295   -0.00025076486130214565
-0.000823831825609521   -0.008901343326638167   -0.00022458835134249434
-0.0008378450784218299   -0.007997334047447655   -0.00018252309277024608
-0.0012140582251590714   -0.00889017491859863   -0.00024134029437706267
-0.000818707390035944   -0.008894124676773963   -0.00022370760304500262
-0.0008378450784218299   -0.007997334047447655   -0.00018252309277024608
-0.0013593155901740544   -0.007985998648375998   -0.0001989333647375234
-0.0012140582251590714   -0.00889017491859863   -0.00024134029437706267
-0.0013587527847900309   -0.007980132258546347   -0.00018958059972205778
-0.000818707390035944   -0.008894124676773963   -0.00022370760304500262
-0.0012084802468671503   -0.008884667659791574   -0.0002309610574492912
-0.0013587527847900309   -0.007980132258546347   -0.00018958059972205778
-0.0012140582251590714   -0.00889017491859863   -0.00024134029437706267
-0.000818707390035944   -0.008894124676773963   -0.00022370760304500262
-0.0013587527847900309   -0.007980132258546347   -0.00018958059972205778
-0.0008376885392585789   -0.007989389221124325   -0.00018086468911138724
-0.0008378450784218299   -0.007997334047447655   -0.00018252309277024608
-0.000818707390035944   -0.008894124676773963   -0.00022370760304500262
-0.0013587527847900309   -0.007980132258546347   -0.00018958059972205778
-0.0008378450784218299   -0.007997334047447655   -0.00018252309277024608
-0.0012140582251590714   -0.00889017491859863   -0.00024134029437706267
-0.000818707390035944   -0.008894124676773963   -0.00022370760304500262
-0.0008376885392585789   -0.007989389221124325   -0.00018086468911138724
-0.0012084802468671503   -0.008884667659791574   -0.0002309610574492912
-0.0008142345092037697   -0.008892169094470413   -0.00022192137539681338
-0.0008376885392585789   -0.007989389221124325   -0.00018086468911138724
-0.0013587527847900309   -0.007980132258546347   -0.00018958059972205778
-0.0012084802468671503   -0.008884667659791574   -0.0002309610574492912
-0.0013583716653049961   -0.007978434453870044   -0.00017931057137895927
-0.0008142345092037697   -0.008892169094470413   -0.00022192137539681338
-0.0012031030208035196   -0.008884230403596469   -0.00021965499512228688
-0.0013583716653049961   -0.007978434453870044   -0.00017931057137895927
-0.0012084802468671503   -0.008884667659791574   -0.0002309610574492912
-0.0008142345092037697   -0.008892169094470413   -0.00022192137539681338
-0.0013583716653049961   -0.007978434453870044   -0.00017931057137895927
-0.0008382190387850655   -0.007985724440614943   -0.00017830063581565904
-0.0008376885392585789   -0.007989389221124325   -0.00018086468911138724
-0.0008142345092037697   -0.008892169094470413   -0.00022192137539681338
-0.0013583716653049961   -0.007978434453870044   -0.00017931057137895927
-0.0008376885392585789   -0.007989389221124325   -0.00018086468911138724
-0.0012084802468671503   -0.008884667659791574   -0.0002309610574492912
-0.0012186629490859374   -0.008900957203399295   -0.00025076486130214565
-0.0013590091120035308   -0.00799609736588932   -0.00020734412229055075
-0.0016262472350132657   -0.008871251992625808   -0.0002741814351386747
-0.0012140582251590714   -0.00889017491859863   -0.00024134029437706267
-0.0013590091120035308   -0.00799609736588932   -0.00020734412229055075
-0.0018958518027408077   -0.007969193531678865   -0.00022795892781582496
-0.0016262472350132657   -0.008871251992625808   -0.0002741814351386747
-0.0018949348699766472   -0.007961061289864462   -0.00021172220319979148
-0.0012140582251590714   -0.00889017491859863   -0.00024134029437706267
-0.0016200166686660747   -0.008862085234951354   -0.0002551838500506867
-0.0018949348699766472   -0.007961061289864462   -0.00021172220319979148
-0.0016262472350132657   -0.008871251992625808   -0.0002741814351386747
-0.0012140582251590714   -0.00889017491859863   -0.00024134029437706267
-0.0018949348699766472   -0.007961061289864462   -0.00021172220319979148
-0.0013593155901740544   -0.007985998648375998   -0.0001989333647375234
-0.0013590091120035308   -0.00799609736588932   -0.00020734412229055075
-0.0012140582251590714   -0.00889017491859863   -0.00024134029437706267
-0.0018949348699766472   -0.007961061289864462   -0.00021172220319979148
-0.0013590091120035308   -0.00799609736588932   -0.00020734412229055075
-0.0016262472350132657   -0.008871251992625808   -0.0002741814351386747
-0.0012140582251590714   -0.00889017491859863   -0.00024134029437706267
-0.0013593155901740544   -0.007985998648375998   -0.0001989333647375234
-0.0016200166686660747   -0.008862085234951354   -0.0002551838500506867
-0.0012084802468671503   -0.008884667659791574   -0.0002309610574492912
-0.0013593155901740544   -0.007985998648375998   -0.0001989333647375234
-0.0018949348699766472   -0.007961061289864462   -0.00021172220319979148
-0.0016200166686660747   -0.008862085234951354   -0.0002551838500506867
-0.001890053949940135   -0.007957082548233723   -0.00019468917625687054
-0.0012084802468671503   -0.008884667659791574   -0.0002309610574492912
-0.001609332896700066   -0.008858128456268852   -0.00023538845054734604
-0.001890053949940135   -0.007957082548233723   -0.00019468917625687054
-0.0016200166686660747   -0.008862085234951354   -0.0002551838500506867
-0.0012084802468671503   -0.008884667659791574   -0.0002309610574492912
-0.001890053949940135   -0.007957082548233723   -0.00019468917625687054
-0.0013587527847900309   -0.007980132258546347   -0.00018958059972205778
-0.0013593155901740544   -0.007985998648375998   -0.0001989333647375234
-0.0012084802468671503   -0.008884667659791574   -0.0002309610574492912
-0.001890053949940135   -0.007957082548233723   -0.00019468917625687054
-0.0013593155901740544   -0.007985998648375998   -0.0001989333647375234
-0.0016200166686660747   -0.008862085234951354   -0.0002551838500506867
-0.0012084802468671503   -0.008884667659791574   -0.0002309610574492912
-0.0013587527847900309   -0.007980132258546347   -0.00018958059972205778
-0.001609332896700066   -0.008858128456268852   -0.00023538845054734604
-0.0012031030208035196   -0.008884230403596469   -0.00021965499512228688
-0.0013587527847900309   -0.007980132258546347   -0.00018958059972205778
-0.001890053949940135   -0.007957082548233723   -0.00019468917625687054
-0.001609332896700066   -0.008858128456268852   -0.00023538845054734604
-0.0018868801548435233   -0.00795763381049749   -0.0001766592219410314
-0.0012031030208035196   -0.008884230403596469   -0.00021965499512228688
-0.001600908475633453   -0.008859640184618578   -0.00021452514846629934
-0.0018868801548435233   -0.00795763381049749   -0.0001766592219410314
-0.001609332896700066   -0.008858128456268852   -0.00023538845054734604
-0.0012031030208035196   -0.008884230403596469   -0.00021965499512228688
-0.0018868801548435233   -0.00795763381049749   -0.0001766592219410314
-0.0013583716653049961   -0.007978434453870044   -0.00017931057137895927
-0.0013587527847900309   -0.007980132258546347   -0.00018958059972205778
-0.0012031030208035196   -0.008884230403596469   -0.00021965499512228688
-0.0018868801548435233   -0.00795763381049749   -0.0001766592219410314
-0.0013587527847900309   -0.007980132258546347   -0.00018958059972205778
-0.001609332896700066   -0.008858128456268852   -0.00023538845054734604
-0.0016262472350132657   -0.008871251992625808   -0.0002741814351386747
-0.0018958518027408077   -0.007969193531678865   -0.00022795892781582496
-0.0021010828977016723   -0.008827786470581895   -0.00029665113609623285
-0.0016200166686660747   -0.008862085234951354   -0.0002551838500506867
-0.0018958518027408077   -0.007969193531678865   -0.00022795892781582496
-0.00249566863059407   -0.007931388780718649   -0.00024690395502546315
-0.0021010828977016723   -0.008827786470581895   -0.00029665113609623285
-0.0024712655713409926   -0.007923231762327608   -0.0002218521727844678
-0.0016200166686660747   -0.008862085234951354   -0.0002551838500506867
-0.0020670201010457748   -0.008817934215088228   -0.00026676667971377494
-0.0024712655713409926   -0.007923231762327608   -0.0002218521727844678
-0.0021010828977016723   -0.008827786470581895   -0.00029665113609623285
-0.0016200166686660747   -0.008862085234951354   -0.0002551838500506867
-0.0024712655713409926   -0.007923231762327608   -0.0002218521727844678
-0.0018949348699766472   -0.007961061289864462   -0.00021172220319979148
-0.0018958518027408077   -0.007969193531678865   -0.00022795892781582496
-0.0016200166686660747   -0.008862085234951354   -0.0002551838500506867
-0.0024712655713409926   -0.007923231762327608   -0.0002218521727844678
-0.0018958518027408077   -0.007969193531678865   -0.00022795892781582496
-0.0021010828977016723   -0.008827786470581895   -0.00029665113609623285
-0.0016200166686660747   -0.008862085234951354   -0.0002551838500506867
-0.0018949348699766472   -0.007961061289864462   -0.00021172220319979148
-0.0020670201010457748   -0.008817934215088228   -0.00026676667971377494
-0.001609332896700066   -0.008858128456268852   -0.00023538845054734604
-0.0018949348699766472   -0.007961061289864462   -0.00021172220319979148
-0.0024712655713409926   -0.007923231762327608   -0.0002218521727844678
-0.0020670201010457748   -0.008817934215088228   -0.00026676667971377494
-0.0024506562118711836   -0.007919952828980345   -0.00019543754198833298
-0.001609332896700066   -0.008858128456268852   -0.00023538845054734604
-0.002037864344939877   -0.008814400439744605   -0.0002355368835988835
-0.0024506562118711836   -0.007919952828980345   -0.00019543754198833298
-0.0020670201010457748   -0.008817934215088228   -0.00026676667971377494
-0.001609332896700066   -0.008858128456268852   -0.00023538845054734604
-0.0024506562118711836   -0.007919952828980345   -0.00019543754198833298
-0.001890053949940135   -0.007957082548233723   -0.00019468917625687054
-0.0018949348699766472   -0.007961061289864462   -0.00021172220319979148
-0.001609332896700066   -0.008858128456268852   -0.00023538845054734604
-0.0024506562118711836   -0.007919952828980345   -0.00019543754198833298
-0.0018949348699766472   -0.007961061289864462   -0.00021172220319979148
-0.0020670201010457748   -0.008817934215088228   -0.00026676667971377494
-0.001609332896700066   -0.008858128456268852   -0.00023538845054734604
-0.001890053949940135   -0.007957082548233723   -0.00019468917625687054
-0.002037864344939877   -0.008814400439744605   -0.0002355368835988835
-0.001600908475633453   -0.008859640184618578   -0.00021452514846629934
-0.001890053949940135   -0.007957082548233723   -0.00019468917625687054
-0.0024506562118711836   -0.007919952828980345   -0.00019543754198833298
-0.002037864344939877   -0.008814400439744605   -0.0002355368835988835
-0.002421272731611007   -0.007923761831568338   -0.0001678584049193405
-0.001600908475633453   -0.008859640184618578   -0.00021452514846629934
-0.0019987588137413428   -0.008819124022378994   -0.00020315508001478836
-0.002421272731611007   -0.007923761831568338   -0.0001678584049193405
-0.002037864344939877   -0.008814400439744605   -0.0002355368835988835
-0.001600908475633453   -0.008859640184618578   -0.00021452514846629934
-0.002421272731611007   -0.007923761831568338   -0.0001678584049193405
-0.0018868801548435233   -0.00795763381049749   -0.0001766592219410314
-0.001890053949940135   -0.007957082548233723   -0.00019468917625687054
-0.001600908475633453   -0.008859640184618578   -0.00021452514846629934
-0.002421272731611007   -0.007923761831568338   -0.0001678584049193405
-0.001890053949940135   -0.007957082548233723   -0.00019468917625687054
-0.002037864344939877   -0.008814400439744605   -0.0002355368835988835
0.000238554415967826   -0.007994263916538194   -0.00012090492890359626
0.00043102373913630836   -0.006898348626629875   -8.095621421783774e-05
-0.0003085972188151164   -0.008009119949031324   -0.00015542555507522807
0.00025593953572848523   -0.007976634283544457   -0.00013833546811164052
0.00043102373913630836   -0.006898348626629875   -8.095621421783774e-05
-0.00022819597110826563   -0.006906389457142534   -0.00011336937750157974
-0.0003085972188151164   -0.008009119949031324   -0.00015542555507522807
-0.0002306219996218077   -0.006892097186127272   -0.0001175481900294349
0.00025593953572848523   -0.007976634283544457   -0.00013833546811164052
-0.00030679372209208575   -0.007994420883639157   -0.00016255559222938575
-0.0002306219996218077   -0.006892097186127272   -0.0001175481900294349
-0.0003085972188151164   -0.008009119949031324   -0.00015542555507522807
0.00025593953572848523   -0.007976634283544457   -0.00013833546811164052
-0.0002306219996218077   -0.006892097186127272   -0.0001175481900294349
0.00043926563806547794   -0.006881353831125484   -9.302545837213639e-05
0.00043102373913630836   -0.006898348626629875   -8.095621421783774e-05
0.00025593953572848523   -0.007976634283544457   -0.00013833546811164052
-0.0002306219996218077   -0.006892097186127272   -0.0001175481900294349
0.00043102373913630836   -0.006898348626629875   -8.095621421783774e-05
-0.0003085972188151164   -0.008009119949031324   -0.00015542555507522807
0.00025593953572848523   -0.007976634283544457   -0.00013833546811164052
0.00043926563806547794   -0.006881353831125484   -9.302545837213639e-05
-0.00030679372209208575   -0.007994420883639157   -0.00016255559222938575
0.0002673582431485124   -0.007966045229462024   -0.00015439914793139968
0.00043926563806547794   -0.006881353831125484   -9.302545837213639e-05
-0.0002306219996218077   -0.006892097186127272   -0.0001175481900294349
-0.00030679372209208575   -0.007994420883639157   -0.00016255559222938575
-0.00023308961348622164   -0.006881535994917585   -0.00012083494706670665
0.0002673582431485124   -0.007966045229462024   -0.00015439914793139968
-0.0003044417399756363   -0.007984578271231786   -0.00016872363801152522
-0.00023308961348622164   -0.006881535994917585   -0.00012083494706670665
-0.00030679372209208575   -0.007994420883639157   -0.00016255559222938575
0.0002673582431485124   -0.007966045229462024   -0.00015439914793139968
-0.00023308961348622164   -0.006881535994917585   -0.00012083494706670665
0.0004427645162248331   -0.006869905847747691   -0.00010377049255354438
0.00043926563806547794   -0.006881353831125484   -9.302545837213639e-05
0.0002673582431485124   -0.007966045229462024   -0.00015439914793139968
-0.00023308961348622164   -0.006881535994917585   -0.00012083494706670665
0.00043926563806547794   -0.006881353831125484   -9.302545837213639e-05
-0.00030679372209208575   -0.007994420883639157   -0.00016255559222938575
0.0002673582431485124   -0.007966045229462024   -0.00015439914793139968
0.0004427645162248331   -0.006869905847747691   -0.00010377049255354438
-0.0003044417399756363   -0.007984578271231786   -0.00016872363801152522
0.0002795487365461099   -0.007960170066986946   -0.00016913147561313798
0.0004427645162248331   -0.006869905847747691   -0.00010377049255354438
-0.00023308961348622164   -0.006881535994917585   -0.00012083494706670665
-0.0003044417399756363   -0.007984578271231786   -0.00016872363801152522
-0.00023790609027703123   -0.0068743191685428865   -0.00012325795863003634
0.0002795487365461099   -0.007960170066986946   -0.00016913147561313798
-0.00030490867071355046   -0.007979231573340686   -0.00017399862205083586
-0.00023790609027703123   -0.0068743191685428865   -0.00012325795863003634
-0.0003044417399756363   -0.007984578271231786   -0.00016872363801152522
0.0002795487365461099   -0.007960170066986946   -0.00016913147561313798
-0.00023790609027703123   -0.0068743191685428865   -0.00012325795863003634
0.00044585156198319336   -0.0068616566988926615   -0.00011325816571684693
0.0004427645162248331   -0.006869905847747691   -0.00010377049255354438
0.0002795487365461099   -0.007960170066986946   -0.00016913147561313798
-0.00023790609027703123   -0.0068743191685428865   -0.00012325795863003634
0.0004427645162248331   -0.006869905847747691   -0.00010377049255354438
-0.0003044417399756363   -0.007984578271231786   -0.00016872363801152522
-0.0003085972188151164   -0.008009119949031324   -0.00015542555507522807
-0.00022819597110826563   -0.006906389457142534   -0.00011336937750157974
-0.0008379546404488727   -0.008009547969331135   -0.00018321516499348684
-0.00030679372209208575   -0.007994420883639157   -0.00016255559222938575
-0.00022819597110826563   -0.006906389457142534   -0.00011336937750157974
-0.000862074325294288   -0.006903237908836734   -0.00013924900966058362
-0.0008379546404488727   -0.008009547969331135   -0.00018321516499348684
-0.0008658813507844197   -0.006891604446467009   -0.00013756761233287565
-0.00030679372209208575   -0.007994420883639157   -0.00016255559222938575
-0.0008378450784218299   -0.007997334047447655   -0.00018252309277024608
-0.0008658813507844197   -0.006891604446467009   -0.00013756761233287565
-0.0008379546404488727   -0.008009547969331135   -0.00018321516499348684
-0.00030679372209208575   -0.007994420883639157   -0.00016255559222938575
-0.0008658813507844197   -0.006891604446467009   -0.00013756761233287565
-0.0002306219996218077   -0.006892097186127272   -0.0001175481900294349
-0.00022819597110826563   -0.006906389457142534   -0.00011336937750157974
-0.00030679372209208575   -0.007994420883639157   -0.00016255559222938575
-0.0008658813507844197   -0.006891604446467009   -0.00013756761233287565
-0.00022819597110826563   -0.006906389457142534   -0.00011336937750157974
-0.0008379546404488727   -0.008009547969331135   -0.00018321516499348684
-0.00030679372209208575   -0.007994420883639157   -0.00016255559222938575
-0.0002306219996218077   -0.006892097186127272   -0.0001175481900294349
-0.0008378450784218299   -0.007997334047447655   -0.00018252309277024608
-0.0003044417399756363   -0.007984578271231786   -0.00016872363801152522
-0.0002306219996218077   -0.006892097186127272   -0.0001175481900294349
-0.0008658813507844197   -0.006891604446467009   -0.00013756761233287565
-0.0008378450784218299   -0.007997334047447655   -0.00018252309277024608
-0.000869744810733212   -0.006883161041598026   -0.00013496008456560793
-0.0003044417399756363   -0.007984578271231786   -0.00016872363801152522
-0.0008376885392585789   -0.007989389221124325   -0.00018086468911138724
-0.000869744810733212   -0.006883161041598026   -0.00013496008456560793
-0.0008378450784218299   -0.007997334047447655   -0.00018252309277024608
-0.0003044417399756363   -0.007984578271231786   -0.00016872363801152522
-0.000869744810733212   -0.006883161041598026   -0.00013496008456560793
-0.00023308961348622164   -0.006881535994917585   -0.00012083494706670665
-0.0002306219996218077   -0.006892097186127272   -0.0001175481900294349
-0.0003044417399756363   -0.007984578271231786   -0.00016872363801152522
-0.000869744810733212   -0.006883161041598026   -0.00013496008456560793
-0.0002306219996218077   -0.006892097186127272   -0.0001175481900294349
-0.0008378450784218299   -0.007997334047447655   -0.00018252309277024608
-0.0003044417399756363   -0.007984578271231786   -0.00016872363801152522
-0.00023308961348622164   -0.006881535994917585   -0.00012083494706670665
-0.0008376885392585789   -0.007989389221124325   -0.00018086468911138724
-0.00030490867071355046   -0.007979231573340686   -0.00017399862205083586
-0.00023308961348622164   -0.006881535994917585   -0.00012083494706670665
-0.000869744810733212   -0.006883161041598026   -0.00013496008456560793
-0.0008376885392585789   -0.007989389221124325   -0.00018086468911138724
-0.0008742733779469181   -0.00687795782821381   -0.00013148090753689173
-0.00030490867071355046   -0.007979231573340686   -0.00017399862205083586
-0.0008382190387850655   -0.007985724440614943   -0.00017830063581565904
-0.0008742733779469181   -0.00687795782821381   -0.00013148090753689173
-0.0008376885392585789   -0.007989389221124325   -0.00018086468911138724
-0.00030490867071355046   -0.007979231573340686   -0.00017399862205083586
-0.0008742733779469181   -0.00687795782821381   -0.00013148090753689173
-0.00023790609027703123   -0.0068743191685428865   -0.00012325795863003634
-0.00023308961348622164   -0.006881535994917585   -0.00012083494706670665
-0.00030490867071355046   -0.007979231573340686   -0.00017399862205083586
-0.0008742733779469181   -0.00687795782821381   -0.00013148090753689173
-0.00023308961348622164   -0.006881535994917585   -0.00012083494706670665
-0.0008376885392585789   -0.007989389221124325   -0.00018086468911138724
-0.0008379546404488727   -0.008009547969331135   -0.00018321516499348684
-0.000862074325294288   -0.006903237908836734   -0.00013924900966058362
-0.0013590091120035308   -0.00799609736588932   -0.00020734412229055075
-0.0008378450784218299   -0.007997334047447655   -0.00018252309277024608
-0.000862074325294288   -0.006903237908836734   -0.00013924900966058362
-0.0014856851075705296   -0.006889804282645221   -0.0001610176918459297
-0.0013590091120035308   -0.00799609736588932   -0.00020734412229055075
-0.0014898895855702467   -0.006880522440903077   -0.00015352411115233976
-0.0008378450784218299   -0.007997334047447655   -0.00018252309277024608
-0.0013593155901740544   -0.007985998648375998   -0.0001989333647375234
-0.0014898895855702467   -0.006880522440903077   -0.00015352411115233976
-0.0013590091120035308   -0.00799609736588932   -0.00020734412229055075
-0.0008378450784218299   -0.007997334047447655   -0.00018252309277024608
-0.0014898895855702467   -0.006880522440903077   -0.00015352411115233976
-0.0008658813507844197   -0.006891604446467009   -0.00013756761233287565
-0.000862074325294288   -0.006903237908836734   -0.00013924900966058362
-0.0008378450784218299   -0.007997334047447655   -0.00018252309277024608
-0.0014898895855702467   -0.006880522440903077   -0.00015352411115233976
-0.000862074325294288   -0.006903237908836734   -0.00013924900966058362
-0.0013590091120035308   -0.00799609736588932   -0.00020734412229055075
-0.0008378450784218299   -0.007997334047447655   -0.00018252309277024608
-0.0008658813507844197   -0.006891604446467009   -0.00013756761233287565
-0.0013593155901740544   -0.007985998648375998   -0.0001989333647375234
-0.0008376885392585789   -0.007989389221124325   -0.00018086468911138724
-0.0008658813507844197   -0.006891604446467009   -0.00013756761233287565
-0.0014898895855702467   -0.006880522440903077   -0.00015352411115233976
-0.0013593155901740544   -0.007985998648375998   -0.0001989333647375234
-0.0014933047837364492   -0.006874401643644909   -0.0001451254698504236
-0.0008376885392585789   -0.007989389221124325   -0.00018086468911138724
-0.0013587527847900309   -0.007980132258546347   -0.00018958059972205778
-0.0014933047837364492   -0.006874401643644909   -0.0001451254698504236
-0.0013593155901740544   -0.007985998648375998   -0.0001989333647375234
-0.0008376885392585789   -0.007989389221124325   -0.00018086468911138724
-0.0014933047837364492   -0.006874401643644909   -0.0001451254698504236
-0.000869744810733212   -0.006883161041598026   -0.00013496008456560793
-0.0008658813507844197   -0.006891604446467009   -0.00013756761233287565
-0.0008376885392585789   -0.007989389221124325   -0.00018086468911138724
-0.0014933047837364492   -0.006874401643644909   -0.0001451254698504236
-0.0008658813507844197   -0.006891604446467009   -0.00013756761233287565
-0.0013593155901740544   -0.007985998648375998   -0.0001989333647375234
-0.0008376885392585789   -0.007989389221124325   -0.00018086468911138724
-0.000869744810733212   -0.006883161041598026   -0.00013496008456560793
-0.0013587527847900309   -0.007980132258546347   -0.00018958059972205778
-0.0008382190387850655   -0.007985724440614943   -0.00017830063581565904
-0.000869744810733212   -0.006883161041598026   -0.00013496008456560793
-0.0014933047837364492   -0.006874401643644909   -0.0001451254698504236
-0.0013587527847900309   -0.007980132258546347   -0.00018958059972205778
-0.0014968416356182835   -0.006871425193610284   -0.00013584529272905684
-0.0008382190387850655   -0.007985724440614943   -0.00017830063581565904
-0.0013583716653049961   -0.007978434453870044   -0.00017931057137895927
-0.0014968416356182835   -0.006871425193610284   -0.00013584529272905684
-0.0013587527847900309   -0.007980132258546347   -0.00018958059972205778
-0.0008382190387850655   -0.007985724440614943   -0.00017830063581565904
-0.0014968416356182835   -0.006871425193610284   -0.00013584529272905684
-0.0008742733779469181   -0.00687795782821381   -0.00013148090753689173
-0.000869744810733212   -0.006883161041598026   -0.00013496008456560793
-0.0008382190387850655   -0.007985724440614943   -0.00017830063581565904
-0.0014968416356182835   -0.006871425193610284   -0.00013584529272905684
-0.000869744810733212   -0.006883161041598026   -0.00013496008456560793
-0.0013587527847900309   -0.007980132258546347   -0.00018958059972205778
-0.0013590091120035308   -0.00799609736588932   -0.00020734412229055075
-0.0014856851075705296   -0.006889804282645221   -0.0001610176918459297
-0.0018958518027408077   -0.007969193531678865   -0.00022795892781582496
-0.0013593155901740544   -0.007985998648375998   -0.0001989333647375234
-0.0014856851075705296   -0.006889804282645221   -0.0001610176918459297
-0.0021240747173729034   -0.0068663183607332165   -0.00017884134095417516
-0.0018958518027408077   -0.007969193531678865   -0.00022795892781582496
-0.002127379473108951   -0.0068592887366774385   -0.00016544699831165025
-0.0013593155901740544   -0.007985998648375998   -0.0001989333647375234
-0.0018949348699766472   -0.007961061289864462   -0.00021172220319979148
-0.002127379473108951   -0.0068592887366774385   -0.00016544699831165025
-0.0018958518027408077   -0.007969193531678865   -0.00022795892781582496
-0.0013593155901740544   -0.007985998648375998   -0.0001989333647375234
-0.002127379473108951   -0.0068592887366774385   -0.00016544699831165025
-0.0014898895855702467   -0.006880522440903077   -0.00015352411115233976
-0.0014856851075705296   -0.006889804282645221   -0.0001610176918459297
-0.0013593155901740544   -0.007985998648375998   -0.0001989333647375234
-0.002127379473108951   -0.0068592887366774385   -0.00016544699831165025
-0.0014856851075705296   -0.006889804282645221   -0.0001610176918459297
-0.0018958518027408077   -0.007969193531678865   -0.00022795892781582496
-0.0013593155901740544   -0.007985998648375998   -0.0001989333647375234
-0.0014898895855702467   -0.006880522440903077   -0.00015352411115233976
-0.0018949348699766472   -0.007961061289864462   -0.00021172220319979148
-0.0013587527847900309   -0.007980132258546347   -0.00018958059972205778
-0.0014898895855702467   -0.006880522440903077   -0.00015352411115233976
-0.002127379473108951   -0.0068592887366774385   -0.00016544699831165025
-0.0018949348699766472   -0.007961061289864462   -0.00021172220319979148
-0.0021272125144335863   -0.006855299781970104   -0.0001512712233866564
-0.0013587527847900309   -0.007980132258546347   -0.00018958059972205778
-0.001890053949940135   -0.007957082548233723   -0.00019468917625687054
-0.0021272125144335863   -0.006855299781970104   -0.0001512712233866564
-0.0018949348699766472   -0.007961061289864462   -0.00021172220319979148
-0.0013587527847900309   -0.007980132258546347   -0.00018958059972205778
-0.0021272125144335863   -0.006855299781970104   -0.0001512712233866564
-0.0014933047837364492   -0.006874401643644909   -0.0001451254698504236
-0.0014898895855702467   -0.006880522440903077   -0.00015352411115233976
-0.0013587527847900309   -0.007980132258546347   -0.00018958059972205778
-0.0021272125144335863   -0.006855299781970104   -0.0001512712233866564
-0.0014898895855702467   -0.006880522440903077   -0.00015352411115233976
-0.0018949348699766472   -0.007961061289864462   -0.00021172220319979148
-0.0013587527847900309   -0.007980132258546347   -0.00018958059972205778
-0.0014933047837364492   -0.006874401643644909   -0.0001451254698504236
-0.001890053949940135   -0.007957082548233723   -0.00019468917625687054
-0.0013583716653049961   -0.007978434453870044   -0.00017931057137895927
-0.0014933047837364492   -0.006874401643644909   -0.0001451254698504236
-0.0021272125144335863   -0.006855299781970104   -0.0001512712233866564
-0.001890053949940135   -0.007957082548233723   -0.00019468917625687054
-0.0021281704386498777   -0.006854753671420245   -0.00013614348662250108
-0.0013583716653049961   -0.007978434453870044   -0.00017931057137895927
-0.0018868801548435233   -0.00795763381049749   -0.0001766592219410314
-0.0021281704386498777   -0.006854753671420245   -0.00013614348662250108
-0.001890053949940135   -0.007957082548233723   -0.00019468917625687054
-0.0013583716653049961   -0.007978434453870044   -0.00017931057137895927
-0.0021281704386498777   -0.006854753671420245   -0.00013614348662250108
-0.0014968416356182835   -0.006871425193610284   -0.00013584529272905684
-0.0014933047837364492   -0.006874401643644909   -0.0001451254698504236
-0.0013583716653049961   -0.007978434453870044   -0.00017931057137895927
-0.0021281704386498777   -0.006854753671420245   -0.00013614348662250108
-0.0014933047837364492   -0.006874401643644909   -0.0001451254698504236
-0.001890053949940135   -0.007957082548233723   -0.00019468917625687054
-0.0018958518027408077   -0.007969193531678865   -0.00022795892781582496
-0.0021240747173729034   -0.0068663183607332165   -0.00017884134095417516
-0.00249566863059407   -0.007931388780718649   -0.00024690395502546315
-0.0018949348699766472   -0.007961061289864462   -0.00021172220319979148
-0.0021240747173729034   -0.0068663183607332165   -0.00017884134095417516
-0.0028212290913676437   -0.006834812137018165   -0.00019410571828473372
-0.00249566863059407   -0.007931388780718649   -0.00024690395502546315
-0.002805806415567882   -0.006828382786102476   -0.00017425355962349007
-0.0018949348699766472   -0.007961061289864462   -0.00021172220319979148
-0.0024712655713409926   -0.007923231762327608   -0.0002218521727844678
-0.002805806415567882   -0.006828382786102476   -0.00017425355962349007
-0.00249566863059407   -0.007931388780718649   -0.00024690395502546315
-0.0018949348699766472   -0.007961061289864462   -0.00021172220319979148
-0.002805806415567882   -0.006828382786102476   -0.00017425355962349007
-0.002127379473108951   -0.0068592887366774385   -0.00016544699831165025
-0.0021240747173729034   -0.0068663183607332165   -0.00017884134095417516
-0.0018949348699766472   -0.007961061289864462   -0.00021172220319979148
-0.002805806415567882   -0.006828382786102476   -0.00017425355962349007
-0.0021240747173729034   -0.0068663183607332165   -0.00017884134095417516
-0.00249566863059407   -0.007931388780718649   -0.00024690395502546315
-0.0018949348699766472   -0.007961061289864462   -0.00021172220319979148
-0.002127379473108951   -0.0068592887366774385   -0.00016544699831165025
-0.0024712655713409926   -0.007923231762327608   -0.0002218521727844678
-0.001890053949940135   -0.007957082548233723   -0.00019468917625687054
-0.002127379473108951   -0.0068592887366774385   -0.00016544699831165025
-0.002805806415567882   -0.006828382786102476   -0.00017425355962349007
-0.0024712655713409926   -0.007923231762327608   -0.0002218521727844678
-0.0027929301701951257   -0.006825308255833357   -0.0001530226549037462
-0.001890053949940135   -0.007957082548233723   -0.00019468917625687054
-0.0024506562118711836   -0.007919952828980345   -0.00019543754198833298
-0.0027929301701951257   -0.006825308255833357   -0.0001530226549037462
-0.0024712655713409926   -0.007923231762327608   -0.0002218521727844678
-0.001890053949940135   -0.007957082548233723   -0.00019468917625687054
-0.0027929301701951257   -0.006825308255833357   -0.0001530226549037462
-0.0021272125144335863   -0.006855299781970104   -0.0001512712233866564
-0.002127379473108951   -0.0068592887366774385   -0.00016544699831165025
-0.001890053949940135   -0.007957082548233723   -0.00019468917625687054
-0.0027929301701951257   -0.006825308255833357   -0.0001530226549037462
-0.002127379473108951   -0.0068592887366774385   -0.00016544699831165025
-0.0024712655713409926   -0.007923231762327608   -0.0002218521727844678
-0.001890053949940135   -0.007957082548233723   -0.00019468917625687054
-0.0021272125144335863   -0.006855299781970104   -0.0001512712233866564
-0.0024506562118711836   -0.007919952828980345   -0.00019543754198833298
-0.0018868801548435233   -0.00795763381049749   -0.0001766592219410314
-0.0021272125144335863   -0.006855299781970104   -0.0001512712233866564
-0.0027929301701951257   -0.006825308255833357   -0.0001530226549037462
-0.0024506562118711836   -0.007919952828980345   -0.00019543754198833298
-0.002772428015535006   -0.006827971596549766   -0.00013058926815866294
-0.0018868801548435233   -0.00795763381049749   -0.0001766592219410314
-0.002421272731611007   -0.007923761831568338   -0.0001678584049193405
-0.002772428015535006   -0.006827971596549766   -0.00013058926815866294
-0.0024506562118711836   -0.007919952828980345   -0.00019543754198833298
-0.0018868801548435233   -0.00795763381049749   -0.0001766592219410314
-0.002772428015535006   -0.006827971596549766   -0.00013058926815866294
-0.0021281704386498777   -0.006854753671420245   -0.00013614348662250108
-0.0021272125144335863   -0.006855299781970104   -0.0001512712233866564
-0.0018868801548435233   -0.00795763381049749   -0.0001766592219410314
-0.002772428015535006   -0.006827971596549766   -0.00013058926815866294
-0.0021272125144335863   -0.006855299781970104   -0.0001512712233866564
-0.0024506562118711836   -0.007919952828980345   -0.00019543754198833298
0.00043102373913630836   -0.006898348626629875   -8.095621421783774e-05
0.0005471244695433005   -0.005649650102280575   -4.248859407101923e-05
-0.00022819597110826563   -0.006906389457142534   -0.00011336937750157974
0.00043926563806547794   -0.006881353831125484   -9.302545837213639e-05
0.0005471244695433005   -0.005649650102280575   -4.248859407101923e-05
-0.00019425987137519448   -0.005650701990045293   -7.227439346461638e-05
-0.00022819597110826563   -0.006906389457142534   -0.00011336937750157974
-0.00019999709186495492   -0.005636994034356345   -7.334631582726493e-05
0.00043926563806547794   -0.006881353831125484   -9.302545837213639e-05
-0.0002306219996218077   -0.006892097186127272   -0.0001175481900294349
-0.00019999709186495492   -0.005636994034356345   -7.334631582726493e-05
-0.00022819597110826563   -0.006906389457142534   -0.00011336937750157974
0.00043926563806547794   -0.006881353831125484   -9.302545837213639e-05
-0.00019999709186495492   -0.005636994034356345   -7.334631582726493e-05
0.0005470760566210859   -0.005633467129034691   -4.904904935990665e-05
0.0005471244695433005   -0.005649650102280575   -4.248859407101923e-05
0.00043926563806547794   -0.006881353831125484   -9.302545837213639e-05
-0.00019999709186495492   -0.005636994034356345   -7.334631582726493e-05
0.0005471244695433005   -0.005649650102280575   -4.248859407101923e-05
-0.00022819597110826563   -0.006906389457142534   -0.00011336937750157974
0.00043926563806547794   -0.006881353831125484   -9.302545837213639e-05
0.0005470760566210859   -0.005633467129034691   -4.904904935990665e-05
-0.0002306219996218077   -0.006892097186127272   -0.0001175481900294349
0.0004427645162248331   -0.006869905847747691   -0.00010377049255354438
0.0005470760566210859   -0.005633467129034691   -4.904904935990665e-05
-0.00019999709186495492   -0.005636994034356345   -7.334631582726493e-05
-0.0002306219996218077   -0.006892097186127272   -0.0001175481900294349
-0.00020638881647651417   -0.005625828236125784   -7.359430943058941e-05
0.0004427645162248331   -0.006869905847747691   -0.00010377049255354438
-0.00023308961348622164   -0.006881535994917585   -0.00012083494706670665
-0.00020638881647651417   -0.005625828236125784   -7.359430943058941e-05
-0.0002306219996218077   -0.006892097186127272   -0.0001175481900294349
0.0004427645162248331   -0.006869905847747691   -0.00010377049255354438
-0.00020638881647651417   -0.005625828236125784   -7.359430943058941e-05
0.000543480518856957   -0.005621296065097522   -5.4288655884163386e-05
0.0005470760566210859   -0.005633467129034691   -4.904904935990665e-05
0.0004427645162248331   -0.006869905847747691   -0.00010377049255354438
-0.00020638881647651417   -0.005625828236125784   -7.359430943058941e-05
0.0005470760566210859   -0.005633467129034691   -4.904904935990665e-05
-0.0002306219996218077   -0.006892097186127272   -0.0001175481900294349
0.0004427645162248331   -0.006869905847747691   -0.00010377049255354438
0.000543480518856957   -0.005621296065097522   -5.4288655884163386e-05
-0.00023308961348622164   -0.006881535994917585   -0.00012083494706670665
0.00044585156198319336   -0.0068616566988926615   -0.00011325816571684693
0.000543480518856957   -0.005621296065097522   -5.4288655884163386e-05
-0.00020638881647651417   -0.005625828236125784   -7.359430943058941e-05
-0.00023308961348622164   -0.006881535994917585   -0.00012083494706670665
-0.0002146391652958616   -0.005616864060931608   -7.298588774271643e-05
0.00044585156198319336   -0.0068616566988926615   -0.00011325816571684693
-0.00023790609027703123   -0.0068743191685428865   -0.00012325795863003634
-0.0002146391652958616   -0.005616864060931608   -7.298588774271643e-05
-0.00023308961348622164   -0.006881535994917585   -0.00012083494706670665
0.00044585156198319336   -0.0068616566988926615   -0.00011325816571684693
-0.0002146391652958616   -0.005616864060931608   -7.298588774271643e-05
0.0005381522457349242   -0.0056107744277148425   -5.8299989845818496e-05
0.000543480518856957   -0.005621296065097522   -5.4288655884163386e-05
0.00044585156198319336   -0.0068616566988926615   -0.00011325816571684693
-0.0002146391652958616   -0.005616864060931608   -7.298588774271643e-05
0.000543480518856957   -0.005621296065097522   -5.4288655884163386e-05
-0.00023308961348622164   -0.006881535994917585   -0.00012083494706670665
-0.00022819597110826563   -0.006906389457142534   -0.00011336937750157974
-0.00019425987137519448   -0.005650701990045293   -7.227439346461638e-05
-0.000862074325294288   -0.006903237908836734   -0.00013924900966058362
-0.0002306219996218077   -0.006892097186127272   -0.0001175481900294349
-0.00019425987137519448   -0.005650701990045293   -7.227439346461638e-05
-0.0009023908677520646   -0.005644259118632503   -9.593338739428136e-05
-0.000862074325294288   -0.006903237908836734   -0.00013924900966058362
-0.0009091423396934867   -0.005633265614748969   -9.313433087064496e-05
-0.0002306219996218077   -0.006892097186127272   -0.0001175481900294349
-0.0008658813507844197   -0.006891604446467009   -0.00013756761233287565
-0.0009091423396934867   -0.005633265614748969   -9.313433087064496e-05
-0.000862074325294288   -0.006903237908836734   -0.00013924900966058362
-0.0002306219996218077   -0.006892097186127272   -0.0001175481900294349
-0.0009091423396934867   -0.005633265614748969   -9.313433087064496e-05
-0.00019999709186495492   -0.005636994034356345   -7.334631582726493e-05
-0.00019425987137519448   -0.005650701990045293   -7.227439346461638e-05
-0.0002306219996218077   -0.006892097186127272   -0.0001175481900294349
-0.0009091423396934867   -0.005633265614748969   -9.313433087064496e-05
-0.00019425987137519448   -0.005650701990045293   -7.227439346461638e-05
-0.000862074325294288   -0.006903237908836734   -0.00013924900966058362
-0.0002306219996218077   -0.006892097186127272   -0.0001175481900294349
-0.00019999709186495492   -0.005636994034356345   -7.334631582726493e-05
-0.0008658813507844197   -0.006891604446467009   -0.00013756761233287565
-0.00023308961348622164   -0.006881535994917585   -0.00012083494706670665
-0.00019999709186495492   -0.005636994034356345   -7.334631582726493e-05
-0.0009091423396934867   -0.005633265614748969   -9.313433087064496e-05
-0.0008658813507844197   -0.006891604446467009   -0.00013756761233287565
-0.0009160511971171223   -0.005624339311524265   -8.946868342017447e-05
-0.00023308961348622164   -0.006881535994917585   -0.00012083494706670665
-0.000869744810733212   -0.006883161041598026   -0.00013496008456560793
-0.0009160511971171223   -0.005624339311524265   -8.946868342017447e-05
-0.0008658813507844197   -0.006891604446467009   -0.00013756761233287565
-0.00023308961348622164   -0.006881535994917585   -0.00012083494706670665
-0.0009160511971171223   -0.005624339311524265   -8.946868342017447e-05
-0.00020638881647651417   -0.005625828236125784   -7.359430943058941e-05
-0.00019999709186495492   -0.005636994034356345   -7.334631582726493e-05
-0.00023308961348622164   -0.006881535994917585   -0.00012083494706670665
-0.0009160511971171223   -0.005624339311524265   -8.946868342017447e-05
-0.00019999709186495492   -0.005636994034356345   -7.334631582726493e-05
-0.0008658813507844197   -0.006891604446467009   -0.00013756761233287565
-0.00023308961348622164   -0.006881535994917585   -0.00012083494706670665
-0.00020638881647651417   -0.005625828236125784   -7.359430943058941e-05
-0.000869744810733212   -0.006883161041598026   -0.00013496008456560793
-0.00023790609027703123   -0.0068743191685428865   -0.00012325795863003634
-0.00020638881647651417   -0.005625828236125784   -7.359430943058941e-05
-0.0009160511971171223   -0.005624339311524265   -8.946868342017447e-05
-0.000869744810733212   -0.006883161041598026   -0.00013496008456560793
-0.0009235968240237159   -0.00561758909530919   -8.498663376207012e-05
-0.00023790609027703123   -0.0068743191685428865   -0.00012325795863003634
-0.0008742733779469181   -0.00687795782821381   -0.00013148090753689173
-0.0009235968240237159   -0.00561758909530919   -8.498663376207012e-05
-0.000869744810733212   -0.006883161041598026   -0.00013496008456560793
-0.00023790609027703123   -0.0068743191685428865   -0.00012325795863003634
-0.0009235968240237159   -0.00561758909530919   -8.498663376207012e-05
-0.0002146391652958616   -0.005616864060931608   -7.298588774271643e-05
-0.00020638881647651417   -0.005625828236125784   -7.359430943058941e-05
-0.00023790609027703123   -0.0068743191685428865   -0.00012325795863003634
-0.0009235968240237159   -0.00561758909530919   -8.498663376207012e-05
-0.00020638881647651417   -0.005625828236125784   -7.359430943058941e-05
-0.000869744810733212   -0.006883161041598026   -0.00013496008456560793
-0.000862074325294288   -0.006903237908836734   -0.00013924900966058362
-0.0009023908677520646   -0.005644259118632503   -9.593338739428136e-05
-0.0014856851075705296   -0.006889804282645221   -0.0001610176918459297
-0.0008658813507844197   -0.006891604446467009   -0.00013756761233287565
-0.0009023908677520646   -0.005644259118632503   -9.593338739428136e-05
-0.0015985975933655583   -0.005631401447624892   -0.00011537773985289015
-0.0014856851075705296   -0.006889804282645221   -0.0001610176918459297
-0.00160565905536769   -0.00562284817238274   -0.00010874324530444302
-0.0008658813507844197   -0.006891604446467009   -0.00013756761233287565
-0.0014898895855702467   -0.006880522440903077   -0.00015352411115233976
-0.00160565905536769   -0.00562284817238274   -0.00010874324530444302
-0.0014856851075705296   -0.006889804282645221   -0.0001610176918459297
-0.0008658813507844197   -0.006891604446467009   -0.00013756761233287565
-0.00160565905536769   -0.00562284817238274   -0.00010874324530444302
-0.0009091423396934867   -0.005633265614748969   -9.313433087064496e-05
-0.0009023908677520646   -0.005644259118632503   -9.593338739428136e-05
-0.0008658813507844197   -0.006891604446467009   -0.00013756761233287565
-0.00160565905536769   -0.00562284817238274   -0.00010874324530444302
-0.0009023908677520646   -0.005644259118632503   -9.593338739428136e-05
-0.0014856851075705296   -0.006889804282645221   -0.0001610176918459297
-0.0008658813507844197   -0.006891604446467009   -0.00013756761233287565
-0.0009091423396934867   -0.005633265614748969   -9.313433087064496e-05
-0.0014898895855702467   -0.006880522440903077   -0.00015352411115233976
-0.000869744810733212   -0.006883161041598026   -0.00013496008456560793
-0.0009091423396934867   -0.005633265614748969   -9.313433087064496e-05
-0.00160565905536769   -0.00562284817238274   -0.00010874324530444302
-0.0014898895855702467   -0.006880522440903077   -0.00015352411115233976
-0.0016120126117335363   -0.0056163477671223845   -0.00010126541299038527
-0.000869744810733212   -0.006883161041598026   -0.00013496008456560793
-0.0014933047837364492   -0.006874401643644909   -0.0001451254698504236
-0.0016120126117335363   -0.0056163477671223845   -0.00010126541299038527
-0.0014898895855702467   -0.006880522440903077   -0.00015352411115233976
-0.000869744810733212   -0.006883161041598026   -0.00013496008456560793
-0.0016120126117335363   -0.0056163477671223845   -0.00010126541299038527
-0.0009160511971171223   -0.005624339311524265   -8.946868342017447e-05
-0.0009091423396934867   -0.005633265614748969   -9.313433087064496e-05
-0.000869744810733212   -0.006883161041598026   -0.00013496008456560793
-0.0016120126117335363   -0.0056163477671223845   -0.00010126541299038527
-0.0009091423396934867   -0.005633265614748969   -9.313433087064496e-05
-0.0014898895855702467   -0.006880522440903077   -0.00015352411115233976
-0.000869744810733212   -0.006883161041598026   -0.00013496008456560793
-0.0009160511971171223   -0.005624339311524265   -8.946868342017447e-05
-0.0014933047837364492   -0.006874401643644909   -0.0001451254698504236
-0.0008742733779469181   -0.00687795782821381   -0.00013148090753689173
-0.0009160511971171223   -0.005624339311524265   -8.946868342017447e-05
-0.0016120126117335363   -0.0056163477671223845   -0.00010126541299038527
-0.0014933047837364492   -0.006874401643644909   -0.0001451254698504236
-0.0016184335467449766   -0.005611904143480268   -9.297275717349352e-05
-0.0008742733779469181   -0.00687795782821381   -0.00013148090753689173
-0.0014968416356182835   -0.006871425193610284   -0.00013584529272905684
-0.0016184335467449766   -0.005611904143480268   -9.297275717349352e-05
-0.0014933047837364492   -0.006874401643644909   -0.0001451254698504236
-0.0008742733779469181   -0.00687795782821381   -0.00013148090753689173
-0.0016184335467449766   -0.005611904143480268   -9.297275717349352e-05
-0.0009235968240237159   -0.00561758909530919   -8.498663376207012e-05
-0.0009160511971171223   -0.005624339311524265   -8.946868342017447e-05
-0.0008742733779469181   -0.00687795782821381   -0.00013148090753689173
-0.0016184335467449766   -0.005611904143480268   -9.297275717349352e-05
-0.0009160511971171223   -0.005624339311524265   -8.946868342017447e-05
-0.0014933047837364492   -0.006874401643644909   -0.0001451254698504236
-0.0014856851075705296   -0.006889804282645221   -0.0001610176918459297
-0.0015985975933655583   -0.005631401447624892   -0.00011537773985289015
-0.0021240747173729034   -0.0068663183607332165   -0.00017884134095417516
-0.0014898895855702467   -0.006880522440903077   -0.00015352411115233976
-0.0015985975933655583   -0.005631401447624892   -0.00011537773985289015
-0.0023088247985082193   -0.00561187245656834   -0.0001307114423140203
-0.0021240747173729034   -0.0068663183607332165   -0.00017884134095417516
-0.0023152787123524566   -0.005605751586233368   -0.00012020701457170392
-0.0014898895855702467   -0.006880522440903077   -0.00015352411115233976
-0.002127379473108951   -0.0068592887366774385   -0.00016544699831165025
-0.0023152787123524566   -0.005605751586233368   -0.00012020701457170392
-0.0021240747173729034   -0.0068663183607332165   -0.00017884134095417516
-0.0014898895855702467   -0.006880522440903077   -0.00015352411115233976
-0.0023152787123524566   -0.005605751586233368   -0.00012020701457170392
-0.00160565905536769   -0.00562284817238274   -0.00010874324530444302
-0.0015985975933655583   -0.005631401447624892   -0.00011537773985289015
-0.0014898895855702467   -0.006880522440903077   -0.00015352411115233976
-0.0023152787123524566   -0.005605751586233368   -0.00012020701457170392
-0.0015985975933655583   -0.005631401447624892   -0.00011537773985289015
-0.0021240747173729034   -0.0068663183607332165   -0.00017884134095417516
-0.0014898895855702467   -0.006880522440903077   -0.00015352411115233976
-0.00160565905536769   -0.00562284817238274   -0.00010874324530444302
-0.002127379473108951   -0.0068592887366774385   -0.00016544699831165025
-0.0014933047837364492   -0.006874401643644909   -0.0001451254698504236
-0.00160565905536769   -0.00562284817238274   -0.00010874324530444302
-0.0023152787123524566   -0.005605751586233368   -0.00012020701457170392
-0.002127379473108951   -0.0068592887366774385   -0.00016544699831165025
-0.002318799162780749   -0.005601503332420336   -0.00010896490322167239
-0.0014933047837364492   -0.006874401643644909   -0.0001451254698504236
-0.0021272125144335863   -0.006855299781970104   -0.0001512712233866564
-0.002318799162780749   -0.005601503332420336   -0.00010896490322167239
-0.002127379473108951   -0.0068592887366774385   -0.00016544699831165025
-0.0014933047837364492   -0.006874401643644909   -0.0001451254698504236
-0.002318799162780749   -0.005601503332420336   -0.00010896490322167239
-0.0016120126117335363   -0.0056163477671223845   -0.00010126541299038527
-0.00160565905536769   -0.00562284817238274   -0.00010874324530444302
-0.0014933047837364492   -0.006874401643644909   -0.0001451254698504236
-0.002318799162780749   -0.005601503332420336   -0.00010896490322167239
-0.00160565905536769   -0.00562284817238274   -0.00010874324530444302
-0.002127379473108951   -0.0068592887366774385   -0.00016544699831165025
-0.0014933047837364492   -0.006874401643644909   -0.0001451254698504236
-0.0016120126117335363   -0.0056163477671223845   -0.00010126541299038527
-0.0021272125144335863   -0.006855299781970104   -0.0001512712233866564
-0.0014968416356182835   -0.006871425193610284   -0.00013584529272905684
-0.0016120126117335363   -0.0056163477671223845   -0.00010126541299038527
-0.002318799162780749   -0.005601503332420336   -0.00010896490322167239
-0.0021272125144335863   -0.006855299781970104   -0.0001512712233866564
-0.0023228682432684025   -0.005599509504141948   -9.683649650557161e-05
-0.0014968416356182835   -0.006871425193610284   -0.00013584529272905684
-0.0021281704386498777   -0.006854753671420245   -0.00013614348662250108
-0.0023228682432684025   -0.005599509504141948   -9.683649650557161e-05
-0.0021272125144335863   -0.006855299781970104   -0.0001512712233866564
-0.0014968416356182835   -0.006871425193610284   -0.00013584529272905684
-0.0023228682432684025   -0.005599509504141948   -9.683649650557161e-05
-0.0016184335467449766   -0.005611904143480268   -9.297275717349352e-05
-0.0016120126117335363   -0.0056163477671223845   -0.00010126541299038527
-0.0014968416356182835   -0.006871425193610284   -0.00013584529272905684
-0.0023228682432684025   -0.005599509504141948   -9.683649650557161e-05
-0.0016120126117335363   -0.0056163477671223845   -0.00010126541299038527
-0.0021272125144335863   -0.006855299781970104   -0.0001512712233866564
-0.0021240747173729034   -0.0068663183607332165   -0.00017884134095417516
-0.0023088247985082193   -0.00561187245656834   -0.0001307114423140203
-0.0028212290913676437   -0.006834812137018165   -0.00019410571828473372
-0.002127379473108951   -0.0068592887366774385   -0.00016544699831165025
-0.0023088247985082193   -0.00561187245656834   -0.0001307114423140203
-0.003072935114717564   -0.005587177921373273   -0.00014255075089470356
-0.0028212290913676437   -0.006834812137018165   -0.00019410571828473372
-0.0030656797587127935   -0.0055822366824529865   -0.0001281461959642041
-0.002127379473108951   -0.0068592887366774385   -0.00016544699831165025
-0.002805806415567882   -0.006828382786102476   -0.00017425355962349007
-0.0030656797587127935   -0.0055822366824529865   -0.0001281461959642041
-0.0028212290913676437   -0.006834812137018165   -0.00019410571828473372
-0.002127379473108951   -0.0068592887366774385   -0.00016544699831165025
-0.0030656797587127935   -0.0055822366824529865   -0.0001281461959642041
-0.0023152787123524566   -0.005605751586233368   -0.00012020701457170392
-0.0023088247985082193   -0.00561187245656834   -0.0001307114423140203
-0.002127379473108951   -0.0068592887366774385   -0.00016544699831165025
-0.0030656797587127935   -0.0055822366824529865   -0.0001281461959642041
-0.0023088247985082193   -0.00561187245656834   -0.0001307114423140203
-0.0028212290913676437   -0.006834812137018165   -0.00019410571828473372
-0.002127379473108951   -0.0068592887366774385   -0.00016544699831165025
-0.0023152787123524566   -0.005605751586233368   -0.00012020701457170392
-0.002805806415567882   -0.006828382786102476   -0.00017425355962349007
-0.0021272125144335863   -0.006855299781970104   -0.0001512712233866564
-0.0023152787123524566   -0.005605751586233368   -0.00012020701457170392
-0.0030656797587127935   -0.0055822366824529865   -0.0001281461959642041
-0.002805806415567882   -0.006828382786102476   -0.00017425355962349007
-0.00305973936404338   -0.00557905726966946   -0.00011238662671677829
-0.0021272125144335863   -0.006855299781970104   -0.0001512712233866564
-0.0027929301701951257   -0.006825308255833357   -0.0001530226549037462
-0.00305973936404338   -0.00557905726966946   -0.00011238662671677829
-0.002805806415567882   -0.006828382786102476   -0.00017425355962349007
-0.0021272125144335863   -0.006855299781970104   -0.0001512712233866564
-0.00305973936404338   -0.00557905726966946   -0.00011238662671677829
-0.002318799162780749   -0.005601503332420336   -0.00010896490322167239
-0.0023152787123524566   -0.005605751586233368   -0.00012020701457170392
-0.0021272125144335863   -0.006855299781970104   -0.0001512712233866564
-0.00305973936404338   -0.00557905726966946   -0.00011238662671677829
-0.0023152787123524566   -0.005605751586233368   -0.00012020701457170392
-0.002805806415567882   -0.006828382786102476   -0.00017425355962349007
-0.0021272125144335863   -0.006855299781970104   -0.0001512712233866564
-0.002318799162780749   -0.005601503332420336   -0.00010896490322167239
-0.0027929301701951257   -0.006825308255833357   -0.0001530226549037462
-0.0021281704386498777   -0.006854753671420245   -0.00013614348662250108
-0.002318799162780749   -0.005601503332420336   -0.00010896490322167239
-0.00305973936404338   -0.00557905726966946   -0.00011238662671677829
-0.0027929301701951257   -0.006825308255833357   -0.0001530226549037462
-0.00304743159650671   -0.0055801060946554385   -9.542404512122151e-05
-0.0021281704386498777   -0.006854753671420245   -0.00013614348662250108
-0.002772428015535006   -0.006827971596549766   -0.00013058926815866294
-0.00304743159650671   -0.0055801060946554385   -9.542404512122151e-05
-0.0027929301701951257   -0.006825308255833357   -0.0001530226549037462
-0.0021281704386498777   -0.006854753671420245   -0.00013614348662250108
-0.00304743159650671   -0.0055801060946554385   -9.542404512122151e-05
-0.0023228682432684025   -0.005599509504141948   -9.683649650557161e-05
-0.002318799162780749   -0.005601503332420336   -0.00010896490322167239
-0.0021281704386498777   -0.006854753671420245   -0.00013614348662250108
-0.00304743159650671   -0.0055801060946554385   -9.542404512122151e-05
-0.002318799162780749   -0.005601503332420336   -0.00010896490322167239
-0.0027929301701951257   -0.006825308255833357   -0.0001530226549037462
0.0005471244695433005   -0.005649650102280575   -4.248859407101923e-05
0.0005840666846790904   -0.0042972304102359745   -9.054082117789362e-06
-0.00019425987137519448   -0.005650701990045293   -7.227439346461638e-05
0.0005470760566210859   -0.005633467129034691   -4.904904935990665e-05
0.0005840666846790904   -0.0042972304102359745   -9.054082117789362e-06
-0.000208428347821045   -0.004291367369402612   -3.5285158650188735e-05
-0.00019425987137519448   -0.005650701990045293   -7.227439346461638e-05
-0.00021671983611629584   -0.004278435173322796   -3.3126168856284784e-05
0.0005470760566210859   -0.005633467129034691   -4.904904935990665e-05
-0.00019999709186495492   -0.005636994034356345   -7.334631582726493e-05
-0.00021671983611629584   -0.004278435173322796   -3.3126168856284784e-05
-0.00019425987137519448   -0.005650701990045293   -7.227439346461638e-05
0.0005470760566210859   -0.005633467129034691   -4.904904935990665e-05
-0.00021671983611629584   -0.004278435173322796   -3.3126168856284784e-05
0.0005764162705475801   -0.004281980770157312   -9.825517831979535e-06
0.0005840666846790904   -0.0042972304102359745   -9.054082117789362e-06
0.0005470760566210859   -0.005633467129034691   -4.904904935990665e-05
-0.00021671983611629584   -0.004278435173322796   -3.3126168856284784e-05
0.0005840666846790904   -0.0042972304102359745   -9.054082117789362e-06
-0.00019425987137519448   -0.005650701990045293   -7.227439346461638e-05
0.0005470760566210859   -0.005633467129034691   -4.904904935990665e-05
0.0005764162705475801   -0.004281980770157312   -9.825517831979535e-06
-0.00019999709186495492   -0.005636994034356345   -7.334631582726493e-05
0.000543480518856957   -0.005621296065097522   -5.4288655884163386e-05
0.0005764162705475801   -0.004281980770157312   -9.825517831979535e-06
-0.00021671983611629584   -0.004278435173322796   -3.3126168856284784e-05
-0.00019999709186495492   -0.005636994034356345   -7.334631582726493e-05
-0.00022630199151009572   -0.004266683990114059   -3.0190905244036063e-05
0.000543480518856957   -0.005621296065097522   -5.4288655884163386e-05
-0.00020638881647651417   -0.005625828236125784   -7.359430943058941e-05
-0.00022630199151009572   -0.004266683990114059   -3.0190905244036063e-05
-0.00019999709186495492   -0.005636994034356345   -7.334631582726493e-05
0.000543480518856957   -0.005621296065097522   -5.4288655884163386e-05
-0.00022630199151009572   -0.004266683990114059   -3.0190905244036063e-05
0.0005661324047522967   -0.004269041737291167   -9.030596751007658e-06
0.0005764162705475801   -0.004281980770157312   -9.825517831979535e-06
0.000543480518856957   -0.005621296065097522   -5.4288655884163386e-05
-0.00022630199151009572   -0.004266683990114059   -3.0190905244036063e-05
0.0005764162705475801   -0.004281980770157312   -9.825517831979535e-06
-0.00019999709186495492   -0.005636994034356345   -7.334631582726493e-05
0.000543480518856957   -0.005621296065097522   -5.4288655884163386e-05
0.0005661324047522967   -0.004269041737291167   -9.030596751007658e-06
-0.00020638881647651417   -0.005625828236125784   -7.359430943058941e-05
0.0005381522457349242   -0.0056107744277148425   -5.8299989845818496e-05
0.0005661324047522967   -0.004269041737291167   -9.030596751007658e-06
-0.00022630199151009572   -0.004266683990114059   -3.0190905244036063e-05
-0.00020638881647651417   -0.005625828236125784   -7.359430943058941e-05
-0.00023727814411909822   -0.0042559296985578395   -2.628864521477858e-05
0.0005381522457349242   -0.0056107744277148425   -5.8299989845818496e-05
-0.0002146391652958616   -0.005616864060931608   -7.298588774271643e-05
-0.00023727814411909822   -0.0042559296985578395   -2.628864521477858e-05
-0.00020638881647651417   -0.005625828236125784   -7.359430943058941e-05
0.0005381522457349242   -0.0056107744277148425   -5.8299989845818496e-05
-0.00023727814411909822   -0.0042559296985578395   -2.628864521477858e-05
0.0005523408351678845   -0.00425585308709911   -6.7340630435336895e-06
0.0005661324047522967   -0.004269041737291167   -9.030596751007658e-06
0.0005381522457349242   -0.0056107744277148425   -5.8299989845818496e-05
-0.00023727814411909822   -0.0042559296985578395   -2.628864521477858e-05
0.0005661324047522967   -0.004269041737291167   -9.030596751007658e-06
-0.00020638881647651417   -0.005625828236125784   -7.359430943058941e-05
-0.00019425987137519448   -0.005650701990045293   -7.227439346461638e-05
-0.000208428347821045   -0.004291367369402612   -3.5285158650188735e-05
-0.0009023908677520646   -0.005644259118632503   -9.593338739428136e-05
-0.00019999709186495492   -0.005636994034356345   -7.334631582726493e-05
-0.000208428347821045   -0.004291367369402612   -3.5285158650188735e-05
-0.0009590499686247898   -0.004283392746606205   -5.652873110616597e-05
-0.0009023908677520646   -0.005644259118632503   -9.593338739428136e-05
-0.0009678014260403954   -0.004273001153775529   -5.248128058462301e-05
-0.00019999709186495492   -0.005636994034356345   -7.334631582726493e-05
-0.0009091423396934867   -0.005633265614748969   -9.313433087064496e-05
-0.0009678014260403954   -0.004273001153775529   -5.248128058462301e-05
-0.0009023908677520646   -0.005644259118632503   -9.593338739428136e-05
-0.00019999709186495492   -0.005636994034356345   -7.334631582726493e-05
-0.0009678014260403954   -0.004273001153775529   -5.248128058462301e-05
-0.00021671983611629584   -0.004278435173322796   -3.3126168856284784e-05
-0.000208428347821045   -0.004291367369402612   -3.5285158650188735e-05
-0.00019999709186495492   -0.005636994034356345   -7.334631582726493e-05
-0.0009678014260403954   -0.004273001153775529   -5.248128058462301e-05
-0.000208428347821045   -0.004291367369402612   -3.5285158650188735e-05
-0.0009023908677520646   -0.005644259118632503   -9.593338739428136e-05
-0.00019999709186495492   -0.005636994034356345   -7.334631582726493e-05
-0.00021671983611629584   -0.004278435173322796   -3.3126168856284784e-05
-0.0009091423396934867   -0.005633265614748969   -9.313433087064496e-05
-0.00020638881647651417   -0.005625828236125784   -7.359430943058941e-05
-0.00021671983611629584   -0.004278435173322796   -3.3126168856284784e-05
-0.0009678014260403954   -0.004273001153775529   -5.248128058462301e-05
-0.0009091423396934867   -0.005633265614748969   -9.313433087064496e-05
-0.000976783721576225   -0.004263516145114805   -4.7678290786177716e-05
-0.00020638881647651417   -0.005625828236125784   -7.359430943058941e-05
-0.0009160511971171223   -0.005624339311524265   -8.946868342017447e-05
-0.000976783721576225   -0.004263516145114805   -4.7678290786177716e-05
-0.0009091423396934867   -0.005633265614748969   -9.313433087064496e-05
-0.00020638881647651417   -0.005625828236125784   -7.359430943058941e-05
-0.000976783721576225   -0.004263516145114805   -4.7678290786177716e-05
-0.00022630199151009572   -0.004266683990114059   -3.0190905244036063e-05
-0.00021671983611629584   -0.004278435173322796   -3.3126168856284784e-05
-0.00020638881647651417   -0.005625828236125784   -7.359430943058941e-05
-0.000976783721576225   -0.004263516145114805   -4.7678290786177716e-05
-0.00021671983611629584   -0.004278435173322796   -3.3126168856284784e-05
-0.0009091423396934867   -0.005633265614748969   -9.313433087064496e-05
-0.00020638881647651417   -0.005625828236125784   -7.359430943058941e-05
-0.00022630199151009572   -0.004266683990114059   -3.0190905244036063e-05
-0.0009160511971171223   -0.005624339311524265   -8.946868342017447e-05
-0.0002146391652958616   -0.005616864060931608   -7.298588774271643e-05
-0.00022630199151009572   -0.004266683990114059   -3.0190905244036063e-05
-0.000976783721576225   -0.004263516145114805   -4.7678290786177716e-05
-0.0009160511971171223   -0.005624339311524265   -8.946868342017447e-05
-0.0009863911555661202   -0.00425513305017993   -4.212381501123766e-05
-0.0002146391652958616   -0.005616864060931608   -7.298588774271643e-05
-0.0009235968240237159   -0.00561758909530919   -8.498663376207012e-05
-0.0009863911555661202   -0.00425513305017993   -4.212381501123766e-05
-0.0009160511971171223   -0.005624339311524265   -8.946868342017447e-05
-0.0002146391652958616   -0.005616864060931608   -7.298588774271643e-05
-0.0009863911555661202   -0.00425513305017993   -4.212381501123766e-05
-0.00023727814411909822   -0.0042559296985578395   -2.628864521477858e-05
-0.00022630199151009572   -0.004266683990114059   -3.0190905244036063e-05
-0.0002146391652958616   -0.005616864060931608   -7.298588774271643e-05
-0.0009863911555661202   -0.00425513305017993   -4.212381501123766e-05
-0.00022630199151009572   -0.004266683990114059   -3.0190905244036063e-05
-0.0009160511971171223   -0.005624339311524265   -8.946868342017447e-05
-0.0009023908677520646   -0.005644259118632503   -9.593338739428136e-05
-0.0009590499686247898   -0.004283392746606205   -5.652873110616597e-05
-0.0015985975933655583   -0.005631401447624892   -0.00011537773985289015
-0.0009091423396934867   -0.005633265614748969   -9.313433087064496e-05
-0.0009590499686247898   -0.004283392746606205   -5.652873110616597e-05
-0.0016968658419768653   -0.004273307129662428   -7.40018026608366e-05
-0.0015985975933655583   -0.005631401447624892   -0.00011537773985289015
-0.0017056686276526272   -0.004265207259273131   -6.811237954947937e-05
-0.0009091423396934867   -0.005633265614748969   -9.313433087064496e-05
-0.00160565905536769   -0.00562284817238274   -0.00010874324530444302
-0.0017056686276526272   -0.004265207259273131   -6.811237954947937e-05
-0.0015985975933655583   -0.005631401447624892   -0.00011537773985289015
-0.0009091423396934867   -0.005633265614748969   -9.313433087064496e-05
-0.0017056686276526272   -0.004265207259273131   -6.811237954947937e-05
-0.0009678014260403954   -0.004273001153775529   -5.248128058462301e-05
-0.0009590499686247898   -0.004283392746606205   -5.652873110616597e-05
-0.0009091423396934867   -0.005633265614748969   -9.313433087064496e-05
-0.0017056686276526272   -0.004265207259273131   -6.811237954947937e-05
-0.0009590499686247898   -0.004283392746606205   -5.652873110616597e-05
-0.0015985975933655583   -0.005631401447624892   -0.00011537773985289015
-0.0009091423396934867   -0.005633265614748969   -9.313433087064496e-05
-0.0009678014260403954   -0.004273001153775529   -5.248128058462301e-05
-0.00160565905536769   -0.00562284817238274   -0.00010874324530444302
-0.0009160511971171223   -0.005624339311524265   -8.946868342017447e-05
-0.0009678014260403954   -0.004273001153775529   -5.248128058462301e-05
-0.0017056686276526272   -0.004265207259273131   -6.811237954947937e-05
-0.00160565905536769   -0.00562284817238274   -0.00010874324530444302
-0.0017138692787120068   -0.0042580449008868485   -6.149250413955142e-05
-0.0009160511971171223   -0.005624339311524265   -8.946868342017447e-05
-0.0016120126117335363   -0.0056163477671223845   -0.00010126541299038527
-0.0017138692787120068   -0.0042580449008868485   -6.149250413955142e-05
-0.00160565905536769   -0.00562284817238274   -0.00010874324530444302
-0.0009160511971171223   -0.005624339311524265   -8.946868342017447e-05
-0.0017138692787120068   -0.0042580449008868485   -6.149250413955142e-05
-0.000976783721576225   -0.004263516145114805   -4.7678290786177716e-05
-0.0009678014260403954   -0.004273001153775529   -5.248128058462301e-05
-0.0009160511971171223   -0.005624339311524265   -8.946868342017447e-05
-0.0017138692787120068   -0.0042580449008868485   -6.149250413955142e-05
-0.0009678014260403954   -0.004273001153775529   -5.248128058462301e-05
-0.00160565905536769   -0.00562284817238274   -0.00010874324530444302
-0.0009160511971171223   -0.005624339311524265   -8.946868342017447e-05
-0.000976783721576225   -0.004263516145114805   -4.7678290786177716e-05
-0.0016120126117335363   -0.0056163477671223845   -0.00010126541299038527
-0.0009235968240237159   -0.00561758909530919   -8.498663376207012e-05
-0.000976783721576225   -0.004263516145114805   -4.7678290786177716e-05
-0.0017138692787120068   -0.0042580449008868485   -6.149250413955142e-05
-0.0016120126117335363   -0.0056163477671223845   -0.00010126541299038527
-0.001722100337007869   -0.004251832425935532   -5.417471789319829e-05
-0.0009235968240237159   -0.00561758909530919   -8.498663376207012e-05
-0.0016184335467449766   -0.005611904143480268   -9.297275717349352e-05
-0.001722100337007869   -0.004251832425935532   -5.417471789319829e-05
-0.0016120126117335363   -0.0056163477671223845   -0.00010126541299038527
-0.0009235968240237159   -0.00561758909530919   -8.498663376207012e-05
-0.001722100337007869   -0.004251832425935532   -5.417471789319829e-05
-0.0009863911555661202   -0.00425513305017993   -4.212381501123766e-05
-0.000976783721576225   -0.004263516145114805   -4.7678290786177716e-05
-0.0009235968240237159   -0.00561758909530919   -8.498663376207012e-05
-0.001722100337007869   -0.004251832425935532   -5.417471789319829e-05
-0.000976783721576225   -0.004263516145114805   -4.7678290786177716e-05
-0.0016120126117335363   -0.0056163477671223845   -0.00010126541299038527
-0.0015985975933655583   -0.005631401447624892   -0.00011537773985289015
-0.0016968658419768653   -0.004273307129662428   -7.40018026608366e-05
-0.0023088247985082193   -0.00561187245656834   -0.0001307114423140203
-0.00160565905536769   -0.00562284817238274   -0.00010874324530444302
-0.0016968658419768653   -0.004273307129662428   -7.40018026608366e-05
-0.0024483650673593526   -0.004259333579590188   -8.754626666528543e-05
-0.0023088247985082193   -0.00561187245656834   -0.0001307114423140203
-0.002456748924681684   -0.004253637170824163   -7.983924461866649e-05
-0.00160565905536769   -0.00562284817238274   -0.00010874324530444302
-0.0023152787123524566   -0.005605751586233368   -0.00012020701457170392
-0.002456748924681684   -0.004253637170824163   -7.983924461866649e-05
-0.0023088247985082193   -0.00561187245656834   -0.0001307114423140203
-0.00160565905536769   -0.00562284817238274   -0.00010874324530444302
-0.002456748924681684   -0.004253637170824163   -7.983924461866649e-05
-0.0017056686276526272   -0.004265207259273131   -6.811237954947937e-05
-0.0016968658419768653   -0.004273307129662428   -7.40018026608366e-05
-0.00160565905536769   -0.00562284817238274   -0.00010874324530444302
-0.002456748924681684   -0.004253637170824163   -7.983924461866649e-05
-0.0016968658419768653   -0.004273307129662428   -7.40018026608366e-05
-0.0023088247985082193   -0.00561187245656834   -0.0001307114423140203
-0.00160565905536769   -0.00562284817238274   -0.00010874324530444302
-0.0017056686276526272   -0.004265207259273131   -6.811237954947937e-05
-0.0023152787123524566   -0.005605751586233368   -0.00012020701457170392
-0.0016120126117335363   -0.0056163477671223845   -0.00010126541299038527
-0.0017056686276526272   -0.004265207259273131   -6.811237954947937e-05
-0.002456748924681684   -0.004253637170824163   -7.983924461866649e-05
-0.0023152787123524566   -0.005605751586233368   -0.00012020701457170392
-0.002462836728867112   -0.004248644491462569   -7.150519539056869e-05
-0.0016120126117335363   -0.0056163477671223845   -0.00010126541299038527
-0.002318799162780749   -0.005601503332420336   -0.00010896490322167239
-0.002462836728867112   -0.004248644491462569   -7.150519539056869e-05
-0.0023152787123524566   -0.005605751586233368   -0.00012020701457170392
-0.0016120126117335363   -0.0056163477671223845   -0.00010126541299038527
-0.002462836728867112   -0.004248644491462569   -7.150519539056869e-05
-0.0017138692787120068   -0.0042580449008868485   -6.149250413955142e-05
-0.0017056686276526272   -0.004265207259273131   -6.811237954947937e-05
-0.0016120126117335363   -0.0056163477671223845   -0.00010126541299038527
-0.002462836728867112   -0.004248644491462569   -7.150519539056869e-05
-0.0017056686276526272   -0.004265207259273131   -6.811237954947937e-05
-0.0023152787123524566   -0.005605751586233368   -0.00012020701457170392
-0.0016120126117335363   -0.0056163477671223845   -0.00010126541299038527
-0.0017138692787120068   -0.0042580449008868485   -6.149250413955142e-05
-0.002318799162780749   -0.005601503332420336   -0.00010896490322167239
-0.0016184335467449766   -0.005611904143480268   -9.297275717349352e-05
-0.0017138692787120068   -0.0042580449008868485   -6.149250413955142e-05
-0.002462836728867112   -0.004248644491462569   -7.150519539056869e-05
-0.002318799162780749   -0.005601503332420336   -0.00010896490322167239
-0.002468940789758387   -0.004244675911890987   -6.239555290409602e-05
-0.0016184335467449766   -0.005611904143480268   -9.297275717349352e-05
-0.0023228682432684025   -0.005599509504141948   -9.683649650557161e-05
-0.002468940789758387   -0.004244675911890987   -6.239555290409602e-05
-0.002318799162780749   -0.005601503332420336   -0.00010896490322167239
-0.0016184335467449766   -0.005611904143480268   -9.297275717349352e-05
-0.002468940789758387   -0.004244675911890987   -6.239555290409602e-05
-0.001722100337007869   -0.004251832425935532   -5.417471789319829e-05
-0.0017138692787120068   -0.0042580449008868485   -6.149250413955142e-05
-0.0016184335467449766   -0.005611904143480268   -9.297275717349352e-05
-0.002468940789758387   -0.004244675911890987   -6.239555290409602e-05
-0.0017138692787120068   -0.0042580449008868485   -6.149250413955142e-05
-0.002318799162780749   -0.005601503332420336   -0.00010896490322167239
-0.0023088247985082193   -0.00561187245656834   -0.0001307114423140203
-0.0024483650673593526   -0.004259333579590188   -8.754626666528543e-05
-0.003072935114717564   -0.005587177921373273   -0.00014255075089470356
-0.0023152787123524566   -0.005605751586233368   -0.00012020701457170392
-0.0024483650673593526   -0.004259333579590188   -8.754626666528543e-05
-0.003247467822910652   -0.004242236235349794   -9.681323017789898e-05
-0.003072935114717564   -0.005587177921373273   -0.00014255075089470356
-0.00324720289181807   -0.004238130299440871   -8.780889984869395e-05
-0.0023152787123524566   -0.005605751586233368   -0.00012020701457170392
-0.0030656797587127935   -0.0055822366824529865   -0.0001281461959642041
-0.00324720289181807   -0.004238130299440871   -8.780889984869395e-05
-0.003072935114717564   -0.005587177921373273   -0.00014255075089470356
-0.0023152787123524566   -0.005605751586233368   -0.00012020701457170392
-0.00324720289181807   -0.004238130299440871   -8.780889984869395e-05
-0.002456748924681684   -0.004253637170824163   -7.983924461866649e-05
-0.0024483650673593526   -0.004259333579590188   -8.754626666528543e-05
-0.0023152787123524566   -0.005605751586233368   -0.00012020701457170392
-0.00324720289181807   -0.004238130299440871   -8.780889984869395e-05
-0.0024483650673593526   -0.004259333579590188   -8.754626666528543e-05
-0.003072935114717564   -0.005587177921373273   -0.00014255075089470356
-0.0023152787123524566   -0.005605751586233368   -0.00012020701457170392
-0.002456748924681684   -0.004253637170824163   -7.983924461866649e-05
-0.0030656797587127935   -0.0055822366824529865   -0.0001281461959642041
-0.002318799162780749   -0.005601503332420336   -0.00010896490322167239
-0.002456748924681684   -0.004253637170824163   -7.983924461866649e-05
-0.00324720289181807   -0.004238130299440871   -8.780889984869395e-05
-0.0030656797587127935   -0.0055822366824529865   -0.0001281461959642041
-0.003247188711945274   -0.004234258823916729   -7.756142424071253e-05
-0.002318799162780749   -0.005601503332420336   -0.00010896490322167239
-0.00305973936404338   -0.00557905726966946   -0.00011238662671677829
-0.003247188711945274   -0.004234258823916729   -7.756142424071253e-05
-0.0030656797587127935   -0.0055822366824529865   -0.0001281461959642041
-0.002318799162780749   -0.005601503332420336   -0.00010896490322167239
-0.003247188711945274   -0.004234258823916729   -7.756142424071253e-05
-0.002462836728867112   -0.004248644491462569   -7.150519539056869e-05
-0.002456748924681684   -0.004253637170824163   -7.983924461866649e-05
-0.002318799162780749   -0.005601503332420336   -0.00010896490322167239
-0.003247188711945274   -0.004234258823916729   -7.756142424071253e-05
-0.002456748924681684   -0.004253637170824163   -7.983924461866649e-05
-0.0030656797587127935   -0.0055822366824529865   -0.0001281461959642041
-0.002318799162780749   -0.005601503332420336   -0.00010896490322167239
-0.002462836728867112   -0.004248644491462569   -7.150519539056869e-05
-0.00305973936404338   -0.00557905726966946   -0.00011238662671677829
-0.0023228682432684025   -0.005599509504141948   -9.683649650557161e-05
-0.002462836728867112   -0.004248644491462569   -7.150519539056869e-05
-0.003247188711945274   -0.004234258823916729   -7.756142424071253e-05
-0.00305973936404338   -0.00557905726966946   -0.00011238662671677829
-0.003242260500631137   -0.0042330073824350615   -6.620725211137873e-05
-0.0023228682432684025   -0.005599509504141948   -9.683649650557161e-05
-0.00304743159650671   -0.0055801060946554385   -9.542404512122151e-05
-0.003242260500631137   -0.0042330073824350615   -6.620725211137873e-05
-0.00305973936404338   -0.00557905726966946   -0.00011238662671677829
-0.0023228682432684025   -0.005599509504141948   -9.683649650557161e-05
-0.003242260500631137   -0.0042330073824350615   -6.620725211137873e-05
-0.002468940789758387   -0.004244675911890987   -6.239555290409602e-05
-0.002462836728867112   -0.004248644491462569   -7.150519539056869e-05
-0.0023228682432684025   -0.005599509504141948   -9.683649650557161e-05
-0.003242260500631137   -0.0042330073824350615   -6.620725211137873e-05
-0.002462836728867112   -0.004248644491462569   -7.150519539056869e-05
-0.00305973936404338   -0.00557905726966946   -0.00011238662671677829
0.0005840666846790904   -0.0042972304102359745   -9.054082117789362e-06
0.0005359866156232912   -0.002888483910569666   1.4192914481339475e-05
-0.000208428347821045   -0.004291367369402612   -3.5285158650188735e-05
0.0005764162705475801   -0.004281980770157312   -9.825517831979535e-06
0.0005359866156232912   -0.002888483910569666   1.4192914481339475e-05
-0.0002712082369338904   -0.00287629591343867   -5.494284550384461e-06
-0.000208428347821045   -0.004291367369402612   -3.5285158650188735e-05
-0.0002816272548082914   -0.002864887336707638   -2.1560358883279582e-07
0.0005764162705475801   -0.004281980770157312   -9.825517831979535e-06
-0.00021671983611629584   -0.004278435173322796   -3.3126168856284784e-05
-0.0002816272548082914   -0.002864887336707638   -2.1560358883279582e-07
-0.000208428347821045   -0.004291367369402612   -3.5285158650188735e-05
0.0005764162705475801   -0.004281980770157312   -9.825517831979535e-06
-0.0002816272548082914   -0.002864887336707638   -2.1560358883279582e-07
0.0005203918554143271   -0.00287418728700763   2.006661234172669e-05
0.0005359866156232912   -0.002888483910569666   1.4192914481339475e-05
0.0005764162705475801   -0.004281980770157312   -9.825517831979535e-06
-0.0002816272548082914   -0.002864887336707638   -2.1560358883279582e-07
0.0005359866156232912   -0.002888483910569666   1.4192914481339475e-05
-0.000208428347821045   -0.004291367369402612   -3.5285158650188735e-05
0.0005764162705475801   -0.004281980770157312   -9.825517831979535e-06
0.0005203918554143271   -0.00287418728700763   2.006661234172669e-05
-0.00021671983611629584   -0.004278435173322796   -3.3126168856284784e-05
0.0005661324047522967   -0.004269041737291167   -9.030596751007658e-06
0.0005203918554143271   -0.00287418728700763   2.006661234172669e-05
-0.0002816272548082914   -0.002864887336707638   -2.1560358883279582e-07
-0.00021671983611629584   -0.004278435173322796   -3.3126168856284784e-05
-0.00029395101985294197   -0.002853022842634774   6.109622282294067e-06
0.0005661324047522967   -0.004269041737291167   -9.030596751007658e-06
-0.00022630199151009572   -0.004266683990114059   -3.0190905244036063e-05
-0.00029395101985294197   -0.002853022842634774   6.109622282294067e-06
-0.00021671983611629584   -0.004278435173322796   -3.3126168856284784e-05
0.0005661324047522967   -0.004269041737291167   -9.030596751007658e-06
-0.00029395101985294197   -0.002853022842634774   6.109622282294067e-06
0.0005022629266020615   -0.0028604140071823666   2.913386222936636e-05
0.0005203918554143271   -0.00287418728700763   2.006661234172669e-05
0.0005661324047522967   -0.004269041737291167   -9.030596751007658e-06
-0.00029395101985294197   -0.002853022842634774   6.109622282294067e-06
0.0005203918554143271   -0.00287418728700763   2.006661234172669e-05
-0.00021671983611629584   -0.004278435173322796   -3.3126168856284784e-05
0.0005661324047522967   -0.004269041737291167   -9.030596751007658e-06
0.0005022629266020615   -0.0028604140071823666   2.913386222936636e-05
-0.00022630199151009572   -0.004266683990114059   -3.0190905244036063e-05
0.0005523408351678845   -0.00425585308709911   -6.7340630435336895e-06
0.0005022629266020615   -0.0028604140071823666   2.913386222936636e-05
-0.00029395101985294197   -0.002853022842634774   6.109622282294067e-06
-0.00022630199151009572   -0.004266683990114059   -3.0190905244036063e-05
-0.00030685820848750636   -0.0028405845631641643   1.3489044384252373e-05
0.0005523408351678845   -0.00425585308709911   -6.7340630435336895e-06
-0.00023727814411909822   -0.0042559296985578395   -2.628864521477858e-05
-0.00030685820848750636   -0.0028405845631641643   1.3489044384252373e-05
-0.00022630199151009572   -0.004266683990114059   -3.0190905244036063e-05
0.0005523408351678845   -0.00425585308709911   -6.7340630435336895e-06
-0.00030685820848750636   -0.0028405845631641643   1.3489044384252373e-05
0.0004800436465010216   -0.0028433294192767473   3.922073425590446e-05
0.0005022629266020615   -0.0028604140071823666   2.913386222936636e-05
0.0005523408351678845   -0.00425585308709911   -6.7340630435336895e-06
-0.00030685820848750636   -0.0028405845631641643   1.3489044384252373e-05
0.0005022629266020615   -0.0028604140071823666   2.913386222936636e-05
-0.00022630199151009572   -0.004266683990114059   -3.0190905244036063e-05
-0.000208428347821045   -0.004291367369402612   -3.5285158650188735e-05
-0.0002712082369338904   -0.00287629591343867   -5.494284550384461e-06
-0.0009590499686247898   -0.004283392746606205   -5.652873110616597e-05
-0.00021671983611629584   -0.004278435173322796   -3.3126168856284784e-05
-0.0002712082369338904   -0.00287629591343867   -5.494284550384461e-06
-0.0010289265033299787   -0.002873084457345427   -2.3959988672929904e-05
-0.0009590499686247898   -0.004283392746606205   -5.652873110616597e-05
-0.0010386112479600115   -0.002863517002116389   -1.871008657715499e-05
-0.00021671983611629584   -0.004278435173322796   -3.3126168856284784e-05
-0.0009678014260403954   -0.004273001153775529   -5.248128058462301e-05
-0.0010386112479600115   -0.002863517002116389   -1.871008657715499e-05
-0.0009590499686247898   -0.004283392746606205   -5.652873110616597e-05
-0.00021671983611629584   -0.004278435173322796   -3.3126168856284784e-05
-0.0010386112479600115   -0.002863517002116389   -1.871008657715499e-05
-0.0002816272548082914   -0.002864887336707638   -2.1560358883279582e-07
-0.0002712082369338904   -0.00287629591343867   -5.494284550384461e-06
-0.00021671983611629584   -0.004278435173322796   -3.3126168856284784e-05
-0.0010386112479600115   -0.002863517002116389   -1.871008657715499e-05
-0.0002712082369338904   -0.00287629591343867   -5.494284550384461e-06
-0.0009590499686247898   -0.004283392746606205   -5.652873110616597e-05
-0.00021671983611629584   -0.004278435173322796   -3.3126168856284784e-05
-0.0002816272548082914   -0.002864887336707638   -2.1560358883279582e-07
-0.0009678014260403954   -0.004273001153775529   -5.248128058462301e-05
-0.00022630199151009572   -0.004266683990114059   -3.0190905244036063e-05
-0.0002816272548082914   -0.002864887336707638   -2.1560358883279582e-07
-0.0010386112479600115   -0.002863517002116389   -1.871008657715499e-05
-0.0009678014260403954   -0.004273001153775529   -5.248128058462301e-05
-0.0010486961856254879   -0.0028536336012685713   -1.287463205803109e-05
-0.00022630199151009572   -0.004266683990114059   -3.0190905244036063e-05
-0.000976783721576225   -0.004263516145114805   -4.7678290786177716e-05
-0.0010486961856254879   -0.0028536336012685713   -1.287463205803109e-05
-0.0009678014260403954   -0.004273001153775529   -5.248128058462301e-05
-0.00022630199151009572   -0.004266683990114059   -3.0190905244036063e-05
-0.0010486961856254879   -0.0028536336012685713   -1.287463205803109e-05
-0.00029395101985294197   -0.002853022842634774   6.109622282294067e-06
-0.0002816272548082914   -0.002864887336707638   -2.1560358883279582e-07
-0.00022630199151009572   -0.004266683990114059   -3.0190905244036063e-05
-0.0010486961856254879   -0.0028536336012685713   -1.287463205803109e-05
-0.0002816272548082914   -0.002864887336707638   -2.1560358883279582e-07
-0.0009678014260403954   -0.004273001153775529   -5.248128058462301e-05
-0.00022630199151009572   -0.004266683990114059   -3.0190905244036063e-05
-0.00029395101985294197   -0.002853022842634774   6.109622282294067e-06
-0.000976783721576225   -0.004263516145114805   -4.7678290786177716e-05
-0.00023727814411909822   -0.0042559296985578395   -2.628864521477858e-05
-0.00029395101985294197   -0.002853022842634774   6.109622282294067e-06
-0.0010486961856254879   -0.0028536336012685713   -1.287463205803109e-05
-0.000976783721576225   -0.004263516145114805   -4.7678290786177716e-05
-0.0010592622171456513   -0.002843704003821454   -6.3514209019069616e-06
-0.00023727814411909822   -0.0042559296985578395   -2.628864521477858e-05
-0.0009863911555661202   -0.00425513305017993   -4.212381501123766e-05
-0.0010592622171456513   -0.002843704003821454   -6.3514209019069616e-06
-0.000976783721576225   -0.004263516145114805   -4.7678290786177716e-05
-0.00023727814411909822   -0.0042559296985578395   -2.628864521477858e-05
-0.0010592622171456513   -0.002843704003821454   -6.3514209019069616e-06
-0.00030685820848750636   -0.0028405845631641643   1.3489044384252373e-05
-0.00029395101985294197   -0.002853022842634774   6.109622282294067e-06
-0.00023727814411909822   -0.0042559296985578395   -2.628864521477858e-05
-0.0010592622171456513   -0.002843704003821454   -6.3514209019069616e-06
-0.00029395101985294197   -0.002853022842634774   6.109622282294067e-06
-0.000976783721576225   -0.004263516145114805   -4.7678290786177716e-05
-0.0009590499686247898   -0.004283392746606205   -5.652873110616597e-05
-0.0010289265033299787   -0.002873084457345427   -2.3959988672929904e-05
-0.0016968658419768653   -0.004273307129662428   -7.40018026608366e-05
-0.0009678014260403954   -0.004273001153775529   -5.248128058462301e-05
-0.0010289265033299787   -0.002873084457345427   -2.3959988672929904e-05
-0.0017771519938923322   -0.002872110137699576   -4.033275904111917e-05
-0.0016968658419768653   -0.004273307129662428   -7.40018026608366e-05
-0.0017865414952977334   -0.002864002649742792   -3.5034887686246324e-05
-0.0009678014260403954   -0.004273001153775529   -5.248128058462301e-05
-0.0017056686276526272   -0.004265207259273131   -6.811237954947937e-05
-0.0017865414952977334   -0.002864002649742792   -3.5034887686246324e-05
-0.0016968658419768653   -0.004273307129662428   -7.40018026608366e-05
-0.0009678014260403954   -0.004273001153775529   -5.248128058462301e-05
-0.0017865414952977334   -0.002864002649742792   -3.5034887686246324e-05
-0.0010386112479600115   -0.002863517002116389   -1.871008657715499e-05
-0.0010289265033299787   -0.002873084457345427   -2.3959988672929904e-05
-0.0009678014260403954   -0.004273001153775529   -5.248128058462301e-05
-0.0017865414952977334   -0.002864002649742792   -3.5034887686246324e-05
-0.0010289265033299787   -0.002873084457345427   -2.3959988672929904e-05
-0.0016968658419768653   -0.004273307129662428   -7.40018026608366e-05
-0.0009678014260403954   -0.004273001153775529   -5.248128058462301e-05
-0.0010386112479600115   -0.002863517002116389   -1.871008657715499e-05
-0.0017056686276526272   -0.004265207259273131   -6.811237954947937e-05
-0.000976783721576225   -0.004263516145114805   -4.7678290786177716e-05
-0.0010386112479600115   -0.002863517002116389   -1.871008657715499e-05
-0.0017865414952977334   -0.002864002649742792   -3.5034887686246324e-05
-0.0017056686276526272   -0.004265207259273131   -6.811237954947937e-05
-0.001795493698246811   -0.002855860320910817   -2.9214086066732532e-05
-0.000976783721576225   -0.004263516145114805   -4.7678290786177716e-05
-0.0017138692787120068   -0.0042580449008868485   -6.149250413955142e-05
-0.001795493698246811   -0.002855860320910817   -2.9214086066732532e-05
-0.0017056686276526272   -0.004265207259273131   -6.811237954947937e-05
-0.000976783721576225   -0.004263516145114805   -4.7678290786177716e-05
-0.001795493698246811   -0.002855860320910817   -2.9214086066732532e-05
-0.0010486961856254879   -0.0028536336012685713   -1.287463205803109e-05
-0.0010386112479600115   -0.002863517002116389   -1.871008657715499e-05
-0.000976783721576225   -0.004263516145114805   -4.7678290786177716e-05
-0.001795493698246811   -0.002855860320910817   -2.9214086066732532e-05
-0.0010386112479600115   -0.002863517002116389   -1.871008657715499e-05
-0.0017056686276526272   -0.004265207259273131   -6.811237954947937e-05
-0.000976783721576225   -0.004263516145114805   -4.7678290786177716e-05
-0.0010486961856254879   -0.0028536336012685713   -1.287463205803109e-05
-0.0017138692787120068   -0.0042580449008868485   -6.149250413955142e-05
-0.0009863911555661202   -0.00425513305017993   -4.212381501123766e-05
-0.0010486961856254879   -0.0028536336012685713   -1.287463205803109e-05
-0.001795493698246811   -0.002855860320910817   -2.9214086066732532e-05
-0.0017138692787120068   -0.0042580449008868485   -6.149250413955142e-05
-0.0018043631114707545   -0.0028476192886723608   -2.288979262803495e-05
-0.0009863911555661202   -0.00425513305017993   -4.212381501123766e-05
-0.001722100337007869   -0.004251832425935532   -5.417471789319829e-05
-0.0018043631114707545   -0.0028476192886723608   -2.288979262803495e-05
-0.0017138692787120068   -0.0042580449008868485   -6.149250413955142e-05
-0.0009863911555661202   -0.00425513305017993   -4.212381501123766e-05
-0.0018043631114707545   -0.0028476192886723608   -2.288979262803495e-05
-0.0010592622171456513   -0.002843704003821454   -6.3514209019069616e-06
-0.0010486961856254879   -0.0028536336012685713   -1.287463205803109e-05
-0.0009863911555661202   -0.00425513305017993   -4.212381501123766e-05
-0.0018043631114707545   -0.0028476192886723608   -2.288979262803495e-05
-0.0010486961856254879   -0.0028536336012685713   -1.287463205803109e-05
-0.0017138692787120068   -0.0042580449008868485   -6.149250413955142e-05
-0.0016968658419768653   -0.004273307129662428   -7.40018026608366e-05
-0.0017771519938923322   -0.002872110137699576   -4.033275904111917e-05
-0.0024483650673593526   -0.004259333579590188   -8.754626666528543e-05
-0.0017056686276526272   -0.004265207259273131   -6.811237954947937e-05
-0.0017771519938923322   -0.002872110137699576   -4.033275904111917e-05
-0.002541483803148399   -0.002867358163580878   -5.345198466095727e-05
-0.0024483650673593526   -0.004259333579590188   -8.754626666528543e-05
-0.0025504303197723664   -0.002861206668518339   -4.816955937472436e-05
-0.0017056686276526272   -0.004265207259273131   -6.811237954947937e-05
-0.002456748924681684   -0.004253637170824163   -7.983924461866649e-05
-0.0025504303197723664   -0.002861206668518339   -4.816955937472436e-05
-0.0024483650673593526   -0.004259333579590188   -8.754626666528543e-05
-0.0017056686276526272   -0.004265207259273131   -6.811237954947937e-05
-0.0025504303197723664   -0.002861206668518339   -4.816955937472436e-05
-0.0017865414952977334   -0.002864002649742792   -3.5034887686246324e-05
-0.0017771519938923322   -0.002872110137699576   -4.033275904111917e-05
-0.0017056686276526272   -0.004265207259273131   -6.811237954947937e-05
-0.0025504303197723664   -0.002861206668518339   -4.816955937472436e-05
-0.0017771519938923322   -0.002872110137699576   -4.033275904111917e-05
-0.0024483650673593526   -0.004259333579590188   -8.754626666528543e-05
-0.0017056686276526272   -0.004265207259273131   -6.811237954947937e-05
-0.0017865414952977334   -0.002864002649742792   -3.5034887686246324e-05
-0.002456748924681684   -0.004253637170824163   -7.983924461866649e-05
-0.0017138692787120068   -0.0042580449008868485   -6.149250413955142e-05
-0.0017865414952977334   -0.002864002649742792   -3.5034887686246324e-05
-0.0025504303197723664   -0.002861206668518339   -4.816955937472436e-05
-0.002456748924681684   -0.004253637170824163   -7.983924461866649e-05
-0.002557866341404326   -0.0028547574271220824   -4.248391775602609e-05
-0.0017138692787120068   -0.0042580449008868485   -6.149250413955142e-05
-0.002462836728867112   -0.004248644491462569   -7.150519539056869e-05
-0.002557866341404326   -0.0028547574271220824   -4.248391775602609e-05
-0.002456748924681684   -0.004253637170824163   -7.983924461866649e-05
-0.0017138692787120068   -0.0042580449008868485   -6.149250413955142e-05
-0.002557866341404326   -0.0028547574271220824   -4.248391775602609e-05
-0.001795493698246811   -0.002855860320910817   -2.9214086066732532e-05
-0.0017865414952977334   -0.002864002649742792   -3.5034887686246324e-05
-0.0017138692787120068   -0.0042580449008868485   -6.149250413955142e-05
-0.002557866341404326   -0.0028547574271220824   -4.248391775602609e-05
-0.0017865414952977334   -0.002864002649742792   -3.5034887686246324e-05
-0.002456748924681684   -0.004253637170824163   -7.983924461866649e-05
-0.0017138692787120068   -0.0042580449008868485   -6.149250413955142e-05
-0.001795493698246811   -0.002855860320910817   -2.9214086066732532e-05
-0.002462836728867112   -0.004248644491462569   -7.150519539056869e-05
-0.001722100337007869   -0.004251832425935532   -5.417471789319829e-05
-0.001795493698246811   -0.002855860320910817   -2.9214086066732532e-05
-0.002557866341404326   -0.0028547574271220824   -4.248391775602609e-05
-0.002462836728867112   -0.004248644491462569   -7.150519539056869e-05
-0.0025648862088104587   -0.0028482350667074128   -3.624980403700743e-05
-0.001722100337007869   -0.004251832425935532   -5.417471789319829e-05
-0.002468940789758387   -0.004244675911890987   -6.239555290409602e-05
-0.0025648862088104587   -0.0028482350667074128   -3.624980403700743e-05
-0.002462836728867112   -0.004248644491462569   -7.150519539056869e-05
-0.001722100337007869   -0.004251832425935532   -5.417471789319829e-05
-0.0025648862088104587   -0.0028482350667074128   -3.624980403700743e-05
-0.0018043631114707545   -0.0028476192886723608   -2.288979262803495e-05
-0.001795493698246811   -0.002855860320910817   -2.9214086066732532e-05
-0.001722100337007869   -0.004251832425935532   -5.417471789319829e-05
-0.0025648862088104587   -0.0028482350667074128   -3.624980403700743e-05
-0.001795493698246811   -0.002855860320910817   -2.9214086066732532e-05
-0.002462836728867112   -0.004248644491462569   -7.150519539056869e-05
-0.0024483650673593526   -0.004259333579590188   -8.754626666528543e-05
-0.002541483803148399   -0.002867358163580878   -5.345198466095727e-05
-0.003247467822910652   -0.004242236235349794   -9.681323017789898e-05
-0.002456748924681684   -0.004253637170824163   -7.983924461866649e-05
-0.002541483803148399   -0.002867358163580878   -5.345198466095727e-05
-0.0033452238768001538   -0.002859114366045984   -6.213256102503697e-05
-0.003247467822910652   -0.004242236235349794   -9.681323017789898e-05
-0.0033500144144193514   -0.0028543992575767604   -5.770818292624684e-05
-0.002456748924681684   -0.004253637170824163   -7.983924461866649e-05
-0.00324720289181807   -0.004238130299440871   -8.780889984869395e-05
-0.0033500144144193514   -0.0028543992575767604   -5.770818292624684e-05
-0.003247467822910652   -0.004242236235349794   -9.681323017789898e-05
-0.002456748924681684   -0.004253637170824163   -7.983924461866649e-05
-0.0033500144144193514   -0.0028543992575767604   -5.770818292624684e-05
-0.0025504303197723664   -0.002861206668518339   -4.816955937472436e-05
-0.002541483803148399   -0.002867358163580878   -5.345198466095727e-05
-0.002456748924681684   -0.004253637170824163   -7.983924461866649e-05
-0.0033500144144193514   -0.0028543992575767604   -5.770818292624684e-05
-0.002541483803148399   -0.002867358163580878   -5.345198466095727e-05
-0.003247467822910652   -0.004242236235349794   -9.681323017789898e-05
-0.002456748924681684   -0.004253637170824163   -7.983924461866649e-05
-0.0025504303197723664   -0.002861206668518339   -4.816955937472436e-05
-0.00324720289181807   -0.004238130299440871   -8.780889984869395e-05
-0.002462836728867112   -0.004248644491462569   -7.150519539056869e-05
-0.0025504303197723664   -0.002861206668518339   -4.816955937472436e-05
-0.0033500144144193514   -0.0028543992575767604   -5.770818292624684e-05
-0.00324720289181807   -0.004238130299440871   -8.780889984869395e-05
-0.003354395323111785   -0.002848876114381538   -5.235963841590995e-05
-0.002462836728867112   -0.004248644491462569   -7.150519539056869e-05
-0.003247188711945274   -0.004234258823916729   -7.756142424071253e-05
-0.003354395323111785   -0.002848876114381538   -5.235963841590995e-05
-0.00324720289181807   -0.004238130299440871   -8.780889984869395e-05
-0.002462836728867112   -0.004248644491462569   -7.150519539056869e-05
-0.003354395323111785   -0.002848876114381538   -5.235963841590995e-05
-0.002557866341404326   -0.0028547574271220824   -4.248391775602609e-05
-0.0025504303197723664   -0.002861206668518339   -4.816955937472436e-05
-0.002462836728867112   -0.004248644491462569   -7.150519539056869e-05
-0.003354395323111785   -0.002848876114381538   -5.235963841590995e-05
-0.0025504303197723664   -0.002861206668518339   -4.816955937472436e-05
-0.00324720289181807   -0.004238130299440871   -8.780889984869395e-05
-0.002462836728867112   -0.004248644491462569   -7.150519539056869e-05
-0.002557866341404326   -0.0028547574271220824   -4.248391775602609e-05
-0.003247188711945274   -0.004234258823916729   -7.756142424071253e-05
-0.002468940789758387   -0.004244675911890987   -6.239555290409602e-05
-0.002557866341404326   -0.0028547574271220824   -4.248391775602609e-05
-0.003354395323111785   -0.002848876114381538   -5.235963841590995e-05
-0.003247188711945274   -0.004234258823916729   -7.756142424071253e-05
-0.0033556546906876854   -0.0028443685004912057   -4.628171746537094e-05
-0.002468940789758387   -0.004244675911890987   -6.239555290409602e-05
-0.003242260500631137   -0.0042330073824350615   -6.620725211137873e-05
-0.0033556546906876854   -0.0028443685004912057   -4.628171746537094e-05
-0.003247188711945274   -0.004234258823916729   -7.756142424071253e-05
-0.002468940789758387   -0.004244675911890987   -6.239555290409602e-05
-0.0033556546906876854   -0.0028443685004912057   -4.628171746537094e-05
-0.0025648862088104587   -0.0028482350667074128   -3.624980403700743e-05
-0.002557866341404326   -0.0028547574271220824   -4.248391775602609e-05
-0.002468940789758387   -0.004244675911890987   -6.239555290409602e-05
-0.0033556546906876854   -0.0028443685004912057   -4.628171746537094e-05
-0.002557866341404326   -0.0028547574271220824   -4.248391775602609e-05
-0.003247188711945274   -0.004234258823916729   -7.756142424071253e-05
0.0005359866156232912   -0.002888483910569666   1.4192914481339475e-05
0.00038351315611590757   -0.001465885734944836   1.6188459979897567e-05
-0.0002712082369338904   -0.00287629591343867   -5.494284550384461e-06
0.0005203918554143271   -0.00287418728700763   2.006661234172669e-05
0.00038351315611590757   -0.001465885734944836   1.6188459979897567e-05
-0.00037887334350024344   -0.0014493573616674578   1.2308322887368355e-05
-0.0002712082369338904   -0.00287629591343867   -5.494284550384461e-06
-0.00038956953776910153   -0.0014448428046117104   2.0152527131009855e-05
0.0005203918554143271   -0.00287418728700763   2.006661234172669e-05
-0.0002816272548082914   -0.002864887336707638   -2.1560358883279582e-07
-0.00038956953776910153   -0.0014448428046117104   2.0152527131009855e-05
-0.0002712082369338904   -0.00287629591343867   -5.494284550384461e-06
0.0005203918554143271   -0.00287418728700763   2.006661234172669e-05
-0.00038956953776910153   -0.0014448428046117104   2.0152527131009855e-05
0.0003498000397916475   -0.0014501288043787008   3.511332894468397e-05
0.00038351315611590757   -0.001465885734944836   1.6188459979897567e-05
0.0005203918554143271   -0.00287418728700763   2.006661234172669e-05
-0.00038956953776910153   -0.0014448428046117104   2.0152527131009855e-05
0.00038351315611590757   -0.001465885734944836   1.6188459979897567e-05
-0.0002712082369338904   -0.00287629591343867   -5.494284550384461e-06
0.0005203918554143271   -0.00287418728700763   2.006661234172669e-05
0.0003498000397916475   -0.0014501288043787008   3.511332894468397e-05
-0.0002816272548082914   -0.002864887336707638   -2.1560358883279582e-07
0.0005022629266020615   -0.0028604140071823666   2.913386222936636e-05
0.0003498000397916475   -0.0014501288043787008   3.511332894468397e-05
-0.00038956953776910153   -0.0014448428046117104   2.0152527131009855e-05
-0.0002816272548082914   -0.002864887336707638   -2.1560358883279582e-07
-0.0004041999495379144   -0.0014348638533772072   2.9842623721233695e-05
0.0005022629266020615   -0.0028604140071823666   2.913386222936636e-05
-0.00029395101985294197   -0.002853022842634774   6.109622282294067e-06
-0.0004041999495379144   -0.0014348638533772072   2.9842623721233695e-05
-0.0002816272548082914   -0.002864887336707638   -2.1560358883279582e-07
0.0005022629266020615   -0.0028604140071823666   2.913386222936636e-05
-0.0004041999495379144   -0.0014348638533772072   2.9842623721233695e-05
0.00033031432600026135   -0.0014381565342973164   4.8917151156920456e-05
0.0003498000397916475   -0.0014501288043787008   3.511332894468397e-05
0.0005022629266020615   -0.0028604140071823666   2.913386222936636e-05
-0.0004041999495379144   -0.0014348638533772072   2.9842623721233695e-05
0.0003498000397916475   -0.0014501288043787008   3.511332894468397e-05
-0.0002816272548082914   -0.002864887336707638   -2.1560358883279582e-07
0.0005022629266020615   -0.0028604140071823666   2.913386222936636e-05
0.00033031432600026135   -0.0014381565342973164   4.8917151156920456e-05
-0.00029395101985294197   -0.002853022842634774   6.109622282294067e-06
0.0004800436465010216   -0.0028433294192767473   3.922073425590446e-05
0.00033031432600026135   -0.0014381565342973164   4.8917151156920456e-05
-0.0004041999495379144   -0.0014348638533772072   2.9842623721233695e-05
-0.00029395101985294197   -0.002853022842634774   6.109622282294067e-06
-0.0004167520927955621   -0.0014244826353519305   3.8338089031622486e-05
0.0004800436465010216   -0.0028433294192767473   3.922073425590446e-05
-0.00030685820848750636   -0.0028405845631641643   1.3489044384252373e-05
-0.0004167520927955621   -0.0014244826353519305   3.8338089031622486e-05
-0.00029395101985294197   -0.002853022842634774   6.109622282294067e-06
0.0004800436465010216   -0.0028433294192767473   3.922073425590446e-05
-0.0004167520927955621   -0.0014244826353519305   3.8338089031622486e-05
0.0003049294498331147   -0.0014190027412668718   6.48728389172231e-05
0.00033031432600026135   -0.0014381565342973164   4.8917151156920456e-05
0.0004800436465010216   -0.0028433294192767473   3.922073425590446e-05
-0.0004167520927955621   -0.0014244826353519305   3.8338089031622486e-05
0.00033031432600026135   -0.0014381565342973164   4.8917151156920456e-05
-0.00029395101985294197   -0.002853022842634774   6.109622282294067e-06
-0.0002712082369338904   -0.00287629591343867   -5.494284550384461e-06
-0.00037887334350024344   -0.0014493573616674578   1.2308322887368355e-05
-0.0010289265033299787   -0.002873084457345427   -2.3959988672929904e-05
-0.0002816272548082914   -0.002864887336707638   -2.1560358883279582e-07
-0.00037887334350024344   -0.0014493573616674578   1.2308322887368355e-05
-0.0010972612092017507   -0.0014725551090912568   -1.0787422648187056e-06
-0.0010289265033299787   -0.002873084457345427   -2.3959988672929904e-05
-0.0011076182749918564   -0.0014642862208011317   4.68480438598583e-06
-0.0002816272548082914   -0.002864887336707638   -2.1560358883279582e-07
-0.0010386112479600115   -0.002863517002116389   -1.871008657715499e-05
-0.0011076182749918564   -0.0014642862208011317   4.68480438598583e-06
-0.0010289265033299787   -0.002873084457345427   -2.3959988672929904e-05
-0.0002816272548082914   -0.002864887336707638   -2.1560358883279582e-07
-0.0011076182749918564   -0.0014642862208011317   4.68480438598583e-06
-0.00038956953776910153   -0.0014448428046117104   2.0152527131009855e-05
-0.00037887334350024344   -0.0014493573616674578   1.2308322887368355e-05
-0.0002816272548082914   -0.002864887336707638   -2.1560358883279582e-07
-0.0011076182749918564   -0.0014642862208011317   4.68480438598583e-06
-0.00037887334350024344   -0.0014493573616674578   1.2308322887368355e-05
-0.0010289265033299787   -0.002873084457345427   -2.3959988672929904e-05
-0.0002816272548082914   -0.002864887336707638   -2.1560358883279582e-07
-0.00038956953776910153   -0.0014448428046117104   2.0152527131009855e-05
-0.0010386112479600115   -0.002863517002116389   -1.871008657715499e-05
-0.00029395101985294197   -0.002853022842634774   6.109622282294067e-06
-0.00038956953776910153   -0.0014448428046117104   2.0152527131009855e-05
-0.0011076182749918564   -0.0014642862208011317   4.68480438598583e-06
-0.0010386112479600115   -0.002863517002116389   -1.871008657715499e-05
-0.001118734916923207   -0.001454597790096845   1.0923079465555823e-05
-0.00029395101985294197   -0.002853022842634774   6.109622282294067e-06
-0.0010486961856254879   -0.0028536336012685713   -1.287463205803109e-05
-0.001118734916923207   -0.001454597790096845   1.0923079465555823e-05
-0.0010386112479600115   -0.002863517002116389   -1.871008657715499e-05
-0.00029395101985294197   -0.002853022842634774   6.109622282294067e-06
-0.001118734916923207   -0.001454597790096845   1.0923079465555823e-05
-0.0004041999495379144   -0.0014348638533772072   2.9842623721233695e-05
-0.00038956953776910153   -0.0014448428046117104   2.0152527131009855e-05
-0.00029395101985294197   -0.002853022842634774   6.109622282294067e-06
-0.001118734916923207   -0.001454597790096845   1.0923079465555823e-05
-0.00038956953776910153   -0.0014448428046117104   2.0152527131009855e-05
-0.0010386112479600115   -0.002863517002116389   -1.871008657715499e-05
-0.00029395101985294197   -0.002853022842634774   6.109622282294067e-06
-0.0004041999495379144   -0.0014348638533772072   2.9842623721233695e-05
-0.0010486961856254879   -0.0028536336012685713   -1.287463205803109e-05
-0.00030685820848750636   -0.0028405845631641643   1.3489044384252373e-05
-0.0004041999495379144   -0.0014348638533772072   2.9842623721233695e-05
-0.001118734916923207   -0.001454597790096845   1.0923079465555823e-05
-0.0010486961856254879   -0.0028536336012685713   -1.287463205803109e-05
-0.0011295298302087156   -0.0014439751139943176   1.7885385620350605e-05
-0.00030685820848750636   -0.0028405845631641643   1.3489044384252373e-05
-0.0010592622171456513   -0.002843704003821454   -6.3514209019069616e-06
-0.0011295298302087156   -0.0014439751139943176   1.7885385620350605e-05
-0.0010486961856254879   -0.0028536336012685713   -1.287463205803109e-05
-0.00030685820848750636   -0.0028405845631641643   1.3489044384252373e-05
-0.0011295298302087156   -0.0014439751139943176   1.7885385620350605e-05
-0.0004167520927955621   -0.0014244826353519305   3.8338089031622486e-05
-0.0004041999495379144   -0.0014348638533772072   2.9842623721233695e-05
-0.00030685820848750636   -0.0028405845631641643   1.3489044384252373e-05
-0.0011295298302087156   -0.0014439751139943176   1.7885385620350605e-05
-0.0004041999495379144   -0.0014348638533772072   2.9842623721233695e-05
-0.0010486961856254879   -0.0028536336012685713   -1.287463205803109e-05
-0.0010289265033299787   -0.002873084457345427   -2.3959988672929904e-05
-0.0010972612092017507   -0.0014725551090912568   -1.0787422648187056e-06
-0.0017771519938923322   -0.002872110137699576   -4.033275904111917e-05
-0.0010386112479600115   -0.002863517002116389   -1.871008657715499e-05
-0.0010972612092017507   -0.0014725551090912568   -1.0787422648187056e-06
-0.0018301361211160105   -0.0014907263360539465   -1.6800491096251496e-05
-0.0017771519938923322   -0.002872110137699576   -4.033275904111917e-05
-0.0018396613125036532   -0.0014821345675992347   -1.2163210241882962e-05
-0.0010386112479600115   -0.002863517002116389   -1.871008657715499e-05
-0.0017865414952977334   -0.002864002649742792   -3.5034887686246324e-05
-0.0018396613125036532   -0.0014821345675992347   -1.2163210241882962e-05
-0.0017771519938923322   -0.002872110137699576   -4.033275904111917e-05
-0.0010386112479600115   -0.002863517002116389   -1.871008657715499e-05
-0.0018396613125036532   -0.0014821345675992347   -1.2163210241882962e-05
-0.0011076182749918564   -0.0014642862208011317   4.68480438598583e-06
-0.0010972612092017507   -0.0014725551090912568   -1.0787422648187056e-06
-0.0010386112479600115   -0.002863517002116389   -1.871008657715499e-05
-0.0018396613125036532   -0.0014821345675992347   -1.2163210241882962e-05
-0.0010972612092017507   -0.0014725551090912568   -1.0787422648187056e-06
-0.0017771519938923322   -0.002872110137699576   -4.033275904111917e-05
-0.0010386112479600115   -0.002863517002116389   -1.871008657715499e-05
-0.0011076182749918564   -0.0014642862208011317   4.68480438598583e-06
-0.0017865414952977334   -0.002864002649742792   -3.5034887686246324e-05
-0.0010486961856254879   -0.0028536336012685713   -1.287463205803109e-05
-0.0011076182749918564   -0.0014642862208011317   4.68480438598583e-06
-0.0018396613125036532   -0.0014821345675992347   -1.2163210241882962e-05
-0.0017865414952977334   -0.002864002649742792   -3.5034887686246324e-05
-0.0018489351746827716   -0.0014729042864571394   -7.441673988323914e-06
-0.0010486961856254879   -0.0028536336012685713   -1.287463205803109e-05
-0.001795493698246811   -0.002855860320910817   -2.9214086066732532e-05
-0.0018489351746827716   -0.0014729042864571394   -7.441673988323914e-06
-0.0017865414952977334   -0.002864002649742792   -3.5034887686246324e-05
-0.0010486961856254879   -0.0028536336012685713   -1.287463205803109e-05
-0.0018489351746827716   -0.0014729042864571394   -7.441673988323914e-06
-0.001118734916923207   -0.001454597790096845   1.0923079465555823e-05
-0.0011076182749918564   -0.0014642862208011317   4.68480438598583e-06
-0.0010486961856254879   -0.0028536336012685713   -1.287463205803109e-05
-0.0018489351746827716   -0.0014729042864571394   -7.441673988323914e-06
-0.0011076182749918564   -0.0014642862208011317   4.68480438598583e-06
-0.0017865414952977334   -0.002864002649742792   -3.5034887686246324e-05
-0.0010486961856254879   -0.0028536336012685713   -1.287463205803109e-05
-0.001118734916923207   -0.001454597790096845   1.0923079465555823e-05
-0.001795493698246811   -0.002855860320910817   -2.9214086066732532e-05
-0.0010592622171456513   -0.002843704003821454   -6.3514209019069616e-06
-0.001118734916923207   -0.001454597790096845   1.0923079465555823e-05
-0.0018489351746827716   -0.0014729042864571394   -7.441673988323914e-06
-0.001795493698246811   -0.002855860320910817   -2.9214086066732532e-05
-0.0018576118514433953   -0.0014627886885550446   -2.196088007946222e-06
-0.0010592622171456513   -0.002843704003821454   -6.3514209019069616e-06
-0.0018043631114707545   -0.0028476192886723608   -2.288979262803495e-05
-0.0018576118514433953   -0.0014627886885550446   -2.196088007946222e-06
-0.001795493698246811   -0.002855860320910817   -2.9214086066732532e-05
-0.0010592622171456513   -0.002843704003821454   -6.3514209019069616e-06
-0.0018576118514433953   -0.0014627886885550446   -2.196088007946222e-06
-0.0011295298302087156   -0.0014439751139943176   1.7885385620350605e-05
-0.001118734916923207   -0.001454597790096845   1.0923079465555823e-05
-0.0010592622171456513   -0.002843704003821454   -6.3514209019069616e-06
-0.0018576118514433953   -0.0014627886885550446   -2.196088007946222e-06
-0.001118734916923207   -0.001454597790096845   1.0923079465555823e-05
-0.001795493698246811   -0.002855860320910817   -2.9214086066732532e-05
-0.0017771519938923322   -0.002872110137699576   -4.033275904111917e-05
-0.0018301361211160105   -0.0014907263360539465   -1.6800491096251496e-05
-0.002541483803148399   -0.002867358163580878   -5.345198466095727e-05
-0.0017865414952977334   -0.002864002649742792   -3.5034887686246324e-05
-0.0018301361211160105   -0.0014907263360539465   -1.6800491096251496e-05
-0.0025888465993639293   -0.001498346721539701   -3.110530777190995e-05
-0.002541483803148399   -0.002867358163580878   -5.345198466095727e-05
-0.002597476982903121   -0.0014909013334780045   -2.7582910108521154e-05
-0.0017865414952977334   -0.002864002649742792   -3.5034887686246324e-05
-0.0025504303197723664   -0.002861206668518339   -4.816955937472436e-05
-0.002597476982903121   -0.0014909013334780045   -2.7582910108521154e-05
-0.002541483803148399   -0.002867358163580878   -5.345198466095727e-05
-0.0017865414952977334   -0.002864002649742792   -3.5034887686246324e-05
-0.002597476982903121   -0.0014909013334780045   -2.7582910108521154e-05
-0.0018396613125036532   -0.0014821345675992347   -1.2163210241882962e-05
-0.0018301361211160105   -0.0014907263360539465   -1.6800491096251496e-05
-0.0017865414952977334   -0.002864002649742792   -3.5034887686246324e-05
-0.002597476982903121   -0.0014909013334780045   -2.7582910108521154e-05
-0.0018301361211160105   -0.0014907263360539465   -1.6800491096251496e-05
-0.002541483803148399   -0.002867358163580878   -5.345198466095727e-05
-0.0017865414952977334   -0.002864002649742792   -3.5034887686246324e-05
-0.0018396613125036532   -0.0014821345675992347   -1.2163210241882962e-05
-0.0025504303197723664   -0.002861206668518339   -4.816955937472436e-05
-0.001795493698246811   -0.002855860320910817   -2.9214086066732532e-05
-0.0018396613125036532   -0.0014821345675992347   -1.2163210241882962e-05
-0.002597476982903121   -0.0014909013334780045   -2.7582910108521154e-05
-0.0025504303197723664   -0.002861206668518339   -4.816955937472436e-05
-0.0026051774586237134   -0.0014825797694157947   -2.4069582711236078e-05
-0.001795493698246811   -0.002855860320910817   -2.9214086066732532e-05
-0.002557866341404326   -0.0028547574271220824   -4.248391775602609e-05
-0.0026051774586237134   -0.0014825797694157947   -2.4069582711236078e-05
-0.0025504303197723664   -0.002861206668518339   -4.816955937472436e-05
-0.001795493698246811   -0.002855860320910817   -2.9214086066732532e-05
-0.0026051774586237134   -0.0014825797694157947   -2.4069582711236078e-05
-0.0018489351746827716   -0.0014729042864571394   -7.441673988323914e-06
-0.0018396613125036532   -0.0014821345675992347   -1.2163210241882962e-05
-0.001795493698246811   -0.002855860320910817   -2.9214086066732532e-05
-0.0026051774586237134   -0.0014825797694157947   -2.4069582711236078e-05
-0.0018396613125036532   -0.0014821345675992347   -1.2163210241882962e-05
-0.0025504303197723664   -0.002861206668518339   -4.816955937472436e-05
-0.001795493698246811   -0.002855860320910817   -2.9214086066732532e-05
-0.0018489351746827716   -0.0014729042864571394   -7.441673988323914e-06
-0.002557866341404326   -0.0028547574271220824   -4.248391775602609e-05
-0.0018043631114707545   -0.0028476192886723608   -2.288979262803495e-05
-0.0018489351746827716   -0.0014729042864571394   -7.441673988323914e-06
-0.0026051774586237134   -0.0014825797694157947   -2.4069582711236078e-05
-0.002557866341404326   -0.0028547574271220824   -4.248391775602609e-05
-0.002612189081606573   -0.0014736174188962998   -2.0345178916594565e-05
-0.0018043631114707545   -0.0028476192886723608   -2.288979262803495e-05
-0.0025648862088104587   -0.0028482350667074128   -3.624980403700743e-05
-0.002612189081606573   -0.0014736174188962998   -2.0345178916594565e-05
-0.002557866341404326   -0.0028547574271220824   -4.248391775602609e-05
-0.0018043631114707545   -0.0028476192886723608   -2.288979262803495e-05
-0.002612189081606573   -0.0014736174188962998   -2.0345178916594565e-05
-0.0018576118514433953   -0.0014627886885550446   -2.196088007946222e-06
-0.0018489351746827716   -0.0014729042864571394   -7.441673988323914e-06
-0.0018043631114707545   -0.0028476192886723608   -2.288979262803495e-05
-0.002612189081606573   -0.0014736174188962998   -2.0345178916594565e-05
-0.0018489351746827716   -0.0014729042864571394   -7.441673988323914e-06
-0.002557866341404326   -0.0028547574271220824   -4.248391775602609e-05
-0.002541483803148399   -0.002867358163580878   -5.345198466095727e-05
-0.0025888465993639293   -0.001498346721539701   -3.110530777190995e-05
-0.0033452238768001538   -0.002859114366045984   -6.213256102503697e-05
-0.0025504303197723664   -0.002861206668518339   -4.816955937472436e-05
-0.0025888465993639293   -0.001498346721539701   -3.110530777190995e-05
-0.003377548734079678   -0.0014989335174866864   -4.22745507367113e-05
-0.0033452238768001538   -0.002859114366045984   -6.213256102503697e-05
-0.0033847258226600914   -0.001491830821095793   -4.0487999417708294e-05
-0.0025504303197723664   -0.002861206668518339   -4.816955937472436e-05
-0.0033500144144193514   -0.0028543992575767604   -5.770818292624684e-05
-0.0033847258226600914   -0.001491830821095793   -4.0487999417708294e-05
-0.0033452238768001538   -0.002859114366045984   -6.213256102503697e-05
-0.0025504303197723664   -0.002861206668518339   -4.816955937472436e-05
-0.0033847258226600914   -0.001491830821095793   -4.0487999417708294e-05
-0.002597476982903121   -0.0014909013334780045   -2.7582910108521154e-05
-0.0025888465993639293   -0.001498346721539701   -3.110530777190995e-05
-0.0025504303197723664   -0.002861206668518339   -4.816955937472436e-05
-0.0033847258226600914   -0.001491830821095793   -4.0487999417708294e-05
-0.0025888465993639293   -0.001498346721539701   -3.110530777190995e-05
-0.0033452238768001538   -0.002859114366045984   -6.213256102503697e-05
-0.0025504303197723664   -0.002861206668518339   -4.816955937472436e-05
-0.002597476982903121   -0.0014909013334780045   -2.7582910108521154e-05
-0.0033500144144193514   -0.0028543992575767604   -5.770818292624684e-05
-0.002557866341404326   -0.0028547574271220824   -4.248391775602609e-05
-0.002597476982903121   -0.0014909013334780045   -2.7582910108521154e-05
-0.0033847258226600914   -0.001491830821095793   -4.0487999417708294e-05
-0.0033500144144193514   -0.0028543992575767604   -5.770818292624684e-05
-0.0033911561644494165   -0.0014839361843308639   -3.834767813462727e-05
-0.002557866341404326   -0.0028547574271220824   -4.248391775602609e-05
-0.003354395323111785   -0.002848876114381538   -5.235963841590995e-05
-0.0033911561644494165   -0.0014839361843308639   -3.834767813462727e-05
-0.0033500144144193514   -0.0028543992575767604   -5.770818292624684e-05
-0.002557866341404326   -0.0028547574271220824   -4.248391775602609e-05
-0.0033911561644494165   -0.0014839361843308639   -3.834767813462727e-05
-0.0026051774586237134   -0.0014825797694157947   -2.4069582711236078e-05
-0.002597476982903121   -0.0014909013334780045   -2.7582910108521154e-05
-0.002557866341404326   -0.0028547574271220824   -4.248391775602609e-05
-0.0033911561644494165   -0.0014839361843308639   -3.834767813462727e-05
-0.002597476982903121   -0.0014909013334780045   -2.7582910108521154e-05
-0.0033500144144193514   -0.0028543992575767604   -5.770818292624684e-05
-0.002557866341404326   -0.0028547574271220824   -4.248391775602609e-05
-0.0026051774586237134   -0.0014825797694157947   -2.4069582711236078e-05
-0.003354395323111785   -0.002848876114381538   -5.235963841590995e-05
-0.0025648862088104587   -0.0028482350667074128   -3.624980403700743e-05
-0.0026051774586237134   -0.0014825797694157947   -2.4069582711236078e-05
-0.0033911561644494165   -0.0014839361843308639   -3.834767813462727e-05
-0.003354395323111785   -0.002848876114381538   -5.235963841590995e-05
-0.0033962567786712957   -0.001475617390582811   -3.618247472487917e-05
-0.0025648862088104587   -0.0028482350667074128   -3.624980403700743e-05
-0.0033556546906876854   -0.0028443685004912057   -4.628171746537094e-05
-0.0033962567786712957   -0.001475617390582811   -3.618247472487917e-05
-0.003354395323111785   -0.002848876114381538   -5.235963841590995e-05
-0.0025648862088104587   -0.0028482350667074128   -3.624980403700743e-05
-0.0033962567786712957   -0.001475617390582811   -3.618247472487917e-05
-0.002612189081606573   -0.0014736174188962998   -2.0345178916594565e-05
-0.0026051774586237134   -0.0014825797694157947   -2.4069582711236078e-05
-0.0025648862088104587   -0.0028482350667074128   -3.624980403700743e-05
-0.0033962567786712957   -0.001475617390582811   -3.618247472487917e-05
-0.0026051774586237134   -0.0014825797694157947   -2.4069582711236078e-05
-0.003354395323111785   -0.002848876114381538   -5.235963841590995e-05
0.00038351315611590757   -0.001465885734944836   1.6188459979897567e-05
0.0   0.0   0.0
-0.00037887334350024344   -0.0014493573616674578   1.2308322887368355e-05
0.0003498000397916475   -0.0014501288043787008   3.511332894468397e-05
0.0   0.0   0.0
-0.000465474216939911   -0.00013516912637263144   1.3895875620258242e-07
-0.00037887334350024344   -0.0014493573616674578   1.2308322887368355e-05
-0.0004936517583107419   -0.00010849269604171032   1.7916901948994956e-05
0.0003498000397916475   -0.0014501288043787008   3.511332894468397e-05
-0.00038956953776910153   -0.0014448428046117104   2.0152527131009855e-05
-0.0004936517583107419   -0.00010849269604171032   1.7916901948994956e-05
-0.00037887334350024344   -0.0014493573616674578   1.2308322887368355e-05
0.0003498000397916475   -0.0014501288043787008   3.511332894468397e-05
-0.0004936517583107419   -0.00010849269604171032   1.7916901948994956e-05
0.0   0.0   0.0
0.0   0.0   0.0
0.0003498000397916475   -0.0014501288043787008   3.511332894468397e-05
-0.0004936517583107419   -0.00010849269604171032   1.7916901948994956e-05
0.0   0.0   0.0
-0.00037887334350024344   -0.0014493573616674578   1.2308322887368355e-05
0.0003498000397916475   -0.0014501288043787008   3.511332894468397e-05
0.0   0.0   0.0
-0.00038956953776910153   -0.0014448428046117104   2.0152527131009855e-05
0.00033031432600026135   -0.0014381565342973164   4.8917151156920456e-05
0.0   0.0   0.0
-0.0004936517583107419   -0.00010849269604171032   1.7916901948994956e-05
-0.00038956953776910153   -0.0014448428046117104   2.0152527131009855e-05
-0.0005118527584940568   -9.609641358550548e-05   2.875332476114998e-05
0.00033031432600026135   -0.0014381565342973164   4.8917151156920456e-05
-0.0004041999495379144   -0.0014348638533772072   2.9842623721233695e-05
-0.0005118527584940568   -9.609641358550548e-05   2.875332476114998e-05
-0.00038956953776910153   -0.0014448428046117104   2.0152527131009855e-05
0.00033031432600026135   -0.0014381565342973164   4.8917151156920456e-05
-0.0005118527584940568   -9.609641358550548e-05   2.875332476114998e-05
0.0   0.0   0.0
0.0   0.0   0.0
0.00033031432600026135   -0.0014381565342973164   4.8917151156920456e-05
-0.0005118527584940568   -9.609641358550548e-05   2.875332476114998e-05
0.0   0.0   0.0
-0.00038956953776910153   -0.0014448428046117104   2.0152527131009855e-05
0.00033031432600026135   -0.0014381565342973164   4.8917151156920456e-05
0.0   0.0   0.0
-0.0004041999495379144   -0.0014348638533772072   2.9842623721233695e-05
0.0003049294498331147   -0.0014190027412668718   6.48728389172231e-05
0.0   0.0   0.0
-0.0005118527584940568   -9.609641358550548e-05   2.875332476114998e-05
-0.0004041999495379144   -0.0014348638533772072   2.9842623721233695e-05
-0.0005371573524488177   -7.934057155077307e-05   4.130174802990373e-05
0.0003049294498331147   -0.0014190027412668718   6.48728389172231e-05
-0.0004167520927955621   -0.0014244826353519305   3.8338089031622486e-05
-0.0005371573524488177   -7.934057155077307e-05   4.130174802990373e-05
-0.0004041999495379144   -0.0014348638533772072   2.9842623721233695e-05
0.0003049294498331147   -0.0014190027412668718   6.48728389172231e-05
-0.0005371573524488177   -7.934057155077307e-05   4.130174802990373e-05
0.0   0.0   0.0
0.0   0.0   0.0
0.0003049294498331147   -0.0014190027412668718   6.48728389172231e-05
-0.0005371573524488177   -7.934057155077307e-05   4.130174802990373e-05
0.0   0.0   0.0
-0.0004041999495379144   -0.0014348638533772072   2.9842623721233695e-05
-0.00037887334350024344   -0.0014493573616674578   1.2308322887368355e-05
-0.000465474216939911   -0.00013516912637263144   1.3895875620258242e-07
-0.0010972612092017507   -0.0014725551090912568   -1.0787422648187056e-06
-0.00038956953776910153   -0.0014448428046117104   2.0152527131009855e-05
-0.000465474216939911   -0.00013516912637263144   1.3895875620258242e-07
-0.0011263867268196434   -0.0001833492297966492   6.050101709331789e-06
-0.0010972612092017507   -0.0014725551090912568   -1.0787422648187056e-06
-0.0011415859621079364   -0.00016974770477822925   1.1392886968647396e-05
-0.00038956953776910153   -0.0014448428046117104   2.0152527131009855e-05
-0.0011076182749918564   -0.0014642862208011317   4.68480438598583e-06
-0.0011415859621079364   -0.00016974770477822925   1.1392886968647396e-05
-0.0010972612092017507   -0.0014725551090912568   -1.0787422648187056e-06
-0.00038956953776910153   -0.0014448428046117104   2.0152527131009855e-05
-0.0011415859621079364   -0.00016974770477822925   1.1392886968647396e-05
-0.0004936517583107419   -0.00010849269604171032   1.7916901948994956e-05
-0.000465474216939911   -0.00013516912637263144   1.3895875620258242e-07
-0.00038956953776910153   -0.0014448428046117104   2.0152527131009855e-05
-0.0011415859621079364   -0.00016974770477822925   1.1392886968647396e-05
-0.000465474216939911   -0.00013516912637263144   1.3895875620258242e-07
-0.0010972612092017507   -0.0014725551090912568   -1.0787422648187056e-06
-0.00038956953776910153   -0.0014448428046117104   2.0152527131009855e-05
-0.0004936517583107419   -0.00010849269604171032   1.7916901948994956e-05
-0.0011076182749918564   -0.0014642862208011317   4.68480438598583e-06
-0.0004041999495379144   -0.0014348638533772072   2.9842623721233695e-05
-0.0004936517583107419   -0.00010849269604171032   1.7916901948994956e-05
-0.0011415859621079364   -0.00016974770477822925   1.1392886968647396e-05
-0.0011076182749918564   -0.0014642862208011317   4.68480438598583e-06
-0.001156961062871926   -0.00015357290425683064   2.0367439281740537e-05
-0.0004041999495379144   -0.0014348638533772072   2.9842623721233695e-05
-0.001118734916923207   -0.001454597790096845   1.0923079465555823e-05
-0.001156961062871926   -0.00015357290425683064   2.0367439281740537e-05
-0.0011076182749918564   -0.0014642862208011317   4.68480438598583e-06
-0.0004041999495379144   -0.0014348638533772072   2.9842623721233695e-05
-0.001156961062871926   -0.00015357290425683064   2.0367439281740537e-05
-0.0005118527584940568   -9.609641358550548e-05   2.875332476114998e-05
-0.0004936517583107419   -0.00010849269604171032   1.7916901948994956e-05
-0.0004041999495379144   -0.0014348638533772072   2.9842623721233695e-05
-0.001156961062871926   -0.00015357290425683064   2.0367439281740537e-05
-0.0004936517583107419   -0.00010849269604171032   1.7916901948994956e-05
-0.0011076182749918564   -0.0014642862208011317   4.68480438598583e-06
-0.0004041999495379144   -0.0014348638533772072   2.9842623721233695e-05
-0.0005118527584940568   -9.609641358550548e-05   2.875332476114998e-05
-0.001118734916923207   -0.001454597790096845   1.0923079465555823e-05
-0.0004167520927955621   -0.0014244826353519305   3.8338089031622486e-05
-0.0005118527584940568   -9.609641358550548e-05   2.875332476114998e-05
-0.001156961062871926   -0.00015357290425683064   2.0367439281740537e-05
-0.001118734916923207   -0.001454597790096845   1.0923079465555823e-05
-0.001174922553296051   -0.00013427947244167541   2.9332599580624583e-05
-0.0004167520927955621   -0.0014244826353519305   3.8338089031622486e-05
-0.0011295298302087156   -0.0014439751139943176   1.7885385620350605e-05
-0.001174922553296051   -0.00013427947244167541   2.9332599580624583e-05
-0.001118734916923207   -0.001454597790096845   1.0923079465555823e-05
-0.0004167520927955621   -0.0014244826353519305   3.8338089031622486e-05
-0.001174922553296051   -0.00013427947244167541   2.9332599580624583e-05
-0.0005371573524488177   -7.934057155077307e-05   4.130174802990373e-05
-0.0005118527584940568   -9.609641358550548e-05   2.875332476114998e-05
-0.0004167520927955621   -0.0014244826353519305   3.8338089031622486e-05
-0.001174922553296051   -0.00013427947244167541   2.9332599580624583e-05
-0.0005118527584940568   -9.609641358550548e-05   2.875332476114998e-05
-0.001118734916923207   -0.001454597790096845   1.0923079465555823e-05
-0.0010972612092017507   -0.0014725551090912568   -1.0787422648187056e-06
-0.0011263867268196434   -0.0001833492297966492   6.050101709331789e-06
-0.0018301361211160105   -0.0014907263360539465   -1.6800491096251496e-05
-0.0011076182749918564   -0.0014642862208011317   4.68480438598583e-06
-0.0011263867268196434   -0.0001833492297966492   6.050101709331789e-06
-0.0018470301338353462   -0.00020036006553215537   -1.711310025429014e-06
-0.0018301361211160105   -0.0014907263360539465   -1.6800491096251496e-05
-0.0018566433079652478   -0.00019084827214046424   1.2951779053741137e-07
-0.0011076182749918564   -0.0014642862208011317   4.68480438598583e-06
-0.0018396613125036532   -0.0014821345675992347   -1.2163210241882962e-05
-0.0018566433079652478   -0.00019084827214046424   1.2951779053741137e-07
-0.0018301361211160105   -0.0014907263360539465   -1.6800491096251496e-05
-0.0011076182749918564   -0.0014642862208011317   4.68480438598583e-06
-0.0018566433079652478   -0.00019084827214046424   1.2951779053741137e-07
-0.0011415859621079364   -0.00016974770477822925   1.1392886968647396e-05
-0.0011263867268196434   -0.0001833492297966492   6.050101709331789e-06
-0.0011076182749918564   -0.0014642862208011317   4.68480438598583e-06
-0.0018566433079652478   -0.00019084827214046424   1.2951779053741137e-07
-0.0011263867268196434   -0.0001833492297966492   6.050101709331789e-06
-0.0018301361211160105   -0.0014907263360539465   -1.6800491096251496e-05
-0.0011076182749918564   -0.0014642862208011317   4.68480438598583e-06
-0.0011415859621079364   -0.00016974770477822925   1.1392886968647396e-05
-0.0018396613125036532   -0.0014821345675992347   -1.2163210241882962e-05
-0.001118734916923207   -0.001454597790096845   1.0923079465555823e-05
-0.0011415859621079364   -0.00016974770477822925   1.1392886968647396e-05
-0.0018566433079652478   -0.00019084827214046424   1.2951779053741137e-07
-0.0018396613125036532   -0.0014821345675992347   -1.2163210241882962e-05
-0.0018667093493090158   -0.00017926340357944868   3.1531363492902854e-06
-0.001118734916923207   -0.001454597790096845   1.0923079465555823e-05
-0.0018489351746827716   -0.0014729042864571394   -7.441673988323914e-06
-0.0018667093493090158   -0.00017926340357944868   3.1531363492902854e-06
-0.0018396613125036532   -0.0014821345675992347   -1.2163210241882962e-05
-0.001118734916923207   -0.001454597790096845   1.0923079465555823e-05
-0.0018667093493090158   -0.00017926340357944868   3.1531363492902854e-06
-0.001156961062871926   -0.00015357290425683064   2.0367439281740537e-05
-0.0011415859621079364   -0.00016974770477822925   1.1392886968647396e-05
-0.001118734916923207   -0.001454597790096845   1.0923079465555823e-05
-0.0018667093493090158   -0.00017926340357944868   3.1531363492902854e-06
-0.0011415859621079364   -0.00016974770477822925   1.1392886968647396e-05
-0.0018396613125036532   -0.0014821345675992347   -1.2163210241882962e-05
-0.001118734916923207   -0.001454597790096845   1.0923079465555823e-05
-0.001156961062871926   -0.00015357290425683064   2.0367439281740537e-05
-0.0018489351746827716   -0.0014729042864571394   -7.441673988323914e-06
-0.0011295298302087156   -0.0014439751139943176   1.7885385620350605e-05
-0.001156961062871926   -0.00015357290425683064   2.0367439281740537e-05
-0.0018667093493090158   -0.00017926340357944868   3.1531363492902854e-06
-0.0018489351746827716   -0.0014729042864571394   -7.441673988323914e-06
-0.0018770346851808097   -0.00016426303461297608   7.156290872843191e-06
-0.0011295298302087156   -0.0014439751139943176   1.7885385620350605e-05
-0.0018576118514433953   -0.0014627886885550446   -2.196088007946222e-06
-0.0018770346851808097   -0.00016426303461297608   7.156290872843191e-06
-0.0018489351746827716   -0.0014729042864571394   -7.441673988323914e-06
-0.0011295298302087156   -0.0014439751139943176   1.7885385620350605e-05
-0.0018770346851808097   -0.00016426303461297608   7.156290872843191e-06
-0.001174922553296051   -0.00013427947244167541   2.9332599580624583e-05
-0.001156961062871926   -0.00015357290425683064   2.0367439281740537e-05
-0.0011295298302087156   -0.0014439751139943176   1.7885385620350605e-05
-0.0018770346851808097   -0.00016426303461297608   7.156290872843191e-06
-0.001156961062871926   -0.00015357290425683064   2.0367439281740537e-05
-0.0018489351746827716   -0.0014729042864571394   -7.441673988323914e-06
-0.0018301361211160105   -0.0014907263360539465   -1.6800491096251496e-05
-0.0018470301338353462   -0.00020036006553215537   -1.711310025429014e-06
-0.0025888465993639293   -0.001498346721539701   -3.110530777190995e-05
-0.0018396613125036532   -0.0014821345675992347   -1.2163210241882962e-05
-0.0018470301338353462   -0.00020036006553215537   -1.711310025429014e-06
-0.0026028431758493356   -0.00020148672850800158   -1.5685582604086478e-05
-0.0025888465993639293   -0.001498346721539701   -3.110530777190995e-05
-0.002609437545306676   -0.00019375664277832105   -1.4842944333504532e-05
-0.0018396613125036532   -0.0014821345675992347   -1.2163210241882962e-05
-0.002597476982903121   -0.0014909013334780045   -2.7582910108521154e-05
-0.002609437545306676   -0.00019375664277832105   -1.4842944333504532e-05
-0.0025888465993639293   -0.001498346721539701   -3.110530777190995e-05
-0.0018396613125036532   -0.0014821345675992347   -1.2163210241882962e-05
-0.002609437545306676   -0.00019375664277832105   -1.4842944333504532e-05
-0.0018566433079652478   -0.00019084827214046424   1.2951779053741137e-07
-0.0018470301338353462   -0.00020036006553215537   -1.711310025429014e-06
-0.0018396613125036532   -0.0014821345675992347   -1.2163210241882962e-05
-0.002609437545306676   -0.00019375664277832105   -1.4842944333504532e-05
-0.0018470301338353462   -0.00020036006553215537   -1.711310025429014e-06
-0.0025888465993639293   -0.001498346721539701   -3.110530777190995e-05
-0.0018396613125036532   -0.0014821345675992347   -1.2163210241882962e-05
-0.0018566433079652478   -0.00019084827214046424   1.2951779053741137e-07
-0.002597476982903121   -0.0014909013334780045   -2.7582910108521154e-05
-0.0018489351746827716   -0.0014729042864571394   -7.441673988323914e-06
-0.0018566433079652478   -0.00019084827214046424   1.2951779053741137e-07
-0.002609437545306676   -0.00019375664277832105   -1.4842944333504532e-05
-0.002597476982903121   -0.0014909013334780045   -2.7582910108521154e-05
-0.002616293529307891   -0.00018462734867379947   -1.3952236533524746e-05
-0.0018489351746827716   -0.0014729042864571394   -7.441673988323914e-06
-0.0026051774586237134   -0.0014825797694157947   -2.4069582711236078e-05
-0.002616293529307891   -0.00018462734867379947   -1.3952236533524746e-05
-0.002597476982903121   -0.0014909013334780045   -2.7582910108521154e-05
-0.0018489351746827716   -0.0014729042864571394   -7.441673988323914e-06
-0.002616293529307891   -0.00018462734867379947   -1.3952236533524746e-05
-0.0018667093493090158   -0.00017926340357944868   3.1531363492902854e-06
-0.0018566433079652478   -0.00019084827214046424   1.2951779053741137e-07
-0.0018489351746827716   -0.0014729042864571394   -7.441673988323914e-06
-0.002616293529307891   -0.00018462734867379947   -1.3952236533524746e-05
-0.0018566433079652478   -0.00019084827214046424   1.2951779053741137e-07
-0.002597476982903121   -0.0014909013334780045   -2.7582910108521154e-05
-0.0018489351746827716   -0.0014729042864571394   -7.441673988323914e-06
-0.0018667093493090158   -0.00017926340357944868   3.1531363492902854e-06
-0.0026051774586237134   -0.0014825797694157947   -2.4069582711236078e-05
-0.0018576118514433953   -0.0014627886885550446   -2.196088007946222e-06
-0.0018667093493090158   -0.00017926340357944868   3.1531363492902854e-06
-0.002616293529307891   -0.00018462734867379947   -1.3952236533524746e-05
-0.0026051774586237134   -0.0014825797694157947   -2.4069582711236078e-05
-0.0026220491454021816   -0.00017420852740254226   -1.3013837601533223e-05
-0.0018576118514433953   -0.0014627886885550446   -2.196088007946222e-06
-0.002612189081606573   -0.0014736174188962998   -2.0345178916594565e-05
-0.0026220491454021816   -0.00017420852740254226   -1.3013837601533223e-05
-0.0026051774586237134   -0.0014825797694157947   -2.4069582711236078e-05
-0.0018576118514433953   -0.0014627886885550446   -2.196088007946222e-06
-0.0026220491454021816   -0.00017420852740254226   -1.3013837601533223e-05
-0.0018770346851808097   -0.00016426303461297608   7.156290872843191e-06
-0.0018667093493090158   -0.00017926340357944868   3.1531363492902854e-06
-0.0018576118514433953   -0.0014627886885550446   -2.196088007946222e-06
-0.0026220491454021816   -0.00017420852740254226   -1.3013837601533223e-05
-0.0018667093493090158   -0.00017926340357944868   3.1531363492902854e-06
-0.0026051774586237134   -0.0014825797694157947   -2.4069582711236078e-05
-0.0025888465993639293   -0.001498346721539701   -3.110530777190995e-05
-0.0026028431758493356   -0.00020148672850800158   -1.5685582604086478e-05
-0.003377548734079678   -0.0014989335174866864   -4.22745507367113e-05
-0.002597476982903121   -0.0014909013334780045   -2.7582910108521154e-05
-0.0026028431758493356   -0.00020148672850800158   -1.5685582604086478e-05
-0.0033816860686453737   -0.0002006543180236305   -2.970385964266688e-05
-0.003377548734079678   -0.0014989335174866864   -4.22745507367113e-05
-0.0033869203338878513   -0.00019246277822246614   -2.95211136656353e-05
-0.002597476982903121   -0.0014909013334780045   -2.7582910108521154e-05
-0.0033847258226600914   -0.001491830821095793   -4.0487999417708294e-05
-0.0033869203338878513   -0.00019246277822246614   -2.95211136656353e-05
-0.003377548734079678   -0.0014989335174866864   -4.22745507367113e-05
-0.002597476982903121   -0.0014909013334780045   -2.7582910108521154e-05
-0.0033869203338878513   -0.00019246277822246614   -2.95211136656353e-05
-0.002609437545306676   -0.00019375664277832105   -1.4842944333504532e-05
-0.0026028431758493356   -0.00020148672850800158   -1.5685582604086478e-05
-0.002597476982903121   -0.0014909013334780045   -2.7582910108521154e-05
-0.0033869203338878513   -0.00019246277822246614   -2.95211136656353e-05
-0.0026028431758493356   -0.00020148672850800158   -1.5685582604086478e-05
-0.003377548734079678   -0.0014989335174866864   -4.22745507367113e-05
-0.002597476982903121   -0.0014909013334780045   -2.7582910108521154e-05
-0.002609437545306676   -0.00019375664277832105   -1.4842944333504532e-05
-0.0033847258226600914   -0.001491830821095793   -4.0487999417708294e-05
-0.0026051774586237134   -0.0014825797694157947   -2.4069582711236078e-05
-0.002609437545306676   -0.00019375664277832105   -1.4842944333504532e-05
-0.0033869203338878513   -0.00019246277822246614   -2.95211136656353e-05
-0.0033847258226600914   -0.001491830821095793   -4.0487999417708294e-05
-0.0033926185372262978   -0.000183923801353441   -2.9996326087455878e-05
-0.0026051774586237134   -0.0014825797694157947   -2.4069582711236078e-05
-0.0033911561644494165   -0.0014839361843308639   -3.834767813462727e-05
-0.0033926185372262978   -0.000183923801353441   -2.9996326087455878e-05
-0.0033847258226600914   -0.001491830821095793   -4.0487999417708294e-05
-0.0026051774586237134   -0.0014825797694157947   -2.4069582711236078e-05
-0.0033926185372262978   -0.000183923801353441   -2.9996326087455878e-05
-0.002616293529307891   -0.00018462734867379947   -1.3952236533524746e-05
-0.002609437545306676   -0.00019375664277832105   -1.4842944333504532e-05
-0.0026051774586237134   -0.0014825797694157947   -2.4069582711236078e-05
-0.0033926185372262978   -0.000183923801353441   -2.9996326087455878e-05
-0.002609437545306676   -0.00019375664277832105   -1.4842944333504532e-05
-0.0033847258226600914   -0.001491830821095793   -4.0487999417708294e-05
-0.0026051774586237134   -0.0014825797694157947   -2.4069582711236078e-05
-0.002616293529307891   -0.00018462734867379947   -1.3952236533524746e-05
-0.0033911561644494165   -0.0014839361843308639   -3.834767813462727e-05
-0.002612189081606573   -0.0014736174188962998   -2.0345178916594565e-05
-0.002616293529307891   -0.00018462734867379947   -1.3952236533524746e-05
-0.0033926185372262978   -0.000183923801353441   -2.9996326087455878e-05
-0.0033911561644494165   -0.0014839361843308639   -3.834767813462727e-05
-0.0033969963485467056   -0.00017437864182915538   -3.0417887520366028e-05
-0.002612189081606573   -0.0014736174188962998   -2.0345178916594565e-05
-0.0033962567786712957   -0.001475617390582811   -3.618247472487917e-05
-0.0033969963485467056   -0.00017437864182915538   -3.0417887520366028e-05
-0.0033911561644494165   -0.0014839361843308639   -3.834767813462727e-05
-0.002612189081606573   -0.0014736174188962998   -2.0345178916594565e-05
-0.0033969963485467056   -0.00017437864182915538   -3.0417887520366028e-05
-0.0026220491454021816   -0.00017420852740254226   -1.3013837601533223e-05
-0.002616293529307891   -0.00018462734867379947   -1.3952236533524746e-05
-0.002612189081606573   -0.0014736174188962998   -2.0345178916594565e-05
-0.0033969963485467056   -0.00017437864182915538   -3.0417887520366028e-05
-0.002616293529307891   -0.00018462734867379947   -1.3952236533524746e-05
-0.0033911561644494165   -0.0014839361843308639   -3.834767813462727e-05
              </DataArray>   
          </PointData>  
       </Piece>  
   </UnstructuredGrid> 
</VTKFile> 
