<?xml version="1.0"?> 
<VTKFile type="UnstructuredGrid"> 
   <UnstructuredGrid> 
      <Piece NumberOfPoints="6000"  NumberOfCells="1500">  
          <Points>  
             <DataArray type="Float64" NumberOfComponents="3" format="ascii">   
-500.0   0.0   0.0
-450.0   0.0   0.0
-500.0   30.0   0.0
-500.0   0.0   16.666666666666668
-450.0   0.0   0.0
-450.0   30.0   0.0
-500.0   30.0   0.0
-450.0   30.0   16.666666666666668
-500.0   0.0   16.666666666666668
-500.0   30.0   16.666666666666668
-450.0   30.0   16.666666666666668
-500.0   30.0   0.0
-500.0   0.0   16.666666666666668
-450.0   30.0   16.666666666666668
-450.0   0.0   16.666666666666668
-450.0   0.0   0.0
-500.0   0.0   16.666666666666668
-450.0   30.0   16.666666666666668
-450.0   0.0   0.0
-500.0   30.0   0.0
-500.0   0.0   16.666666666666668
-450.0   0.0   16.666666666666668
-500.0   30.0   16.666666666666668
-500.0   0.0   33.333333333333336
-450.0   0.0   16.666666666666668
-450.0   30.0   16.666666666666668
-500.0   30.0   16.666666666666668
-450.0   30.0   33.333333333333336
-500.0   0.0   33.333333333333336
-500.0   30.0   33.333333333333336
-450.0   30.0   33.333333333333336
-500.0   30.0   16.666666666666668
-500.0   0.0   33.333333333333336
-450.0   30.0   33.333333333333336
-450.0   0.0   33.333333333333336
-450.0   0.0   16.666666666666668
-500.0   0.0   33.333333333333336
-450.0   30.0   33.333333333333336
-450.0   0.0   16.666666666666668
-500.0   30.0   16.666666666666668
-500.0   0.0   33.333333333333336
-450.0   0.0   33.333333333333336
-500.0   30.0   33.333333333333336
-500.0   0.0   50.0
-450.0   0.0   33.333333333333336
-450.0   30.0   33.333333333333336
-500.0   30.0   33.333333333333336
-450.0   30.0   50.0
-500.0   0.0   50.0
-500.0   30.0   50.0
-450.0   30.0   50.0
-500.0   30.0   33.333333333333336
-500.0   0.0   50.0
-450.0   30.0   50.0
-450.0   0.0   50.0
-450.0   0.0   33.333333333333336
-500.0   0.0   50.0
-450.0   30.0   50.0
-450.0   0.0   33.333333333333336
-500.0   30.0   33.333333333333336
-500.0   30.0   0.0
-450.0   30.0   0.0
-500.0   60.0   0.0
-500.0   30.0   16.666666666666668
-450.0   30.0   0.0
-450.0   60.0   0.0
-500.0   60.0   0.0
-450.0   60.0   16.666666666666668
-500.0   30.0   16.666666666666668
-500.0   60.0   16.666666666666668
-450.0   60.0   16.666666666666668
-500.0   60.0   0.0
-500.0   30.0   16.666666666666668
-450.0   60.0   16.666666666666668
-450.0   30.0   16.666666666666668
-450.0   30.0   0.0
-500.0   30.0   16.666666666666668
-450.0   60.0   16.666666666666668
-450.0   30.0   0.0
-500.0   60.0   0.0
-500.0   30.0   16.666666666666668
-450.0   30.0   16.666666666666668
-500.0   60.0   16.666666666666668
-500.0   30.0   33.333333333333336
-450.0   30.0   16.666666666666668
-450.0   60.0   16.666666666666668
-500.0   60.0   16.666666666666668
-450.0   60.0   33.333333333333336
-500.0   30.0   33.333333333333336
-500.0   60.0   33.333333333333336
-450.0   60.0   33.333333333333336
-500.0   60.0   16.666666666666668
-500.0   30.0   33.333333333333336
-450.0   60.0   33.333333333333336
-450.0   30.0   33.333333333333336
-450.0   30.0   16.666666666666668
-500.0   30.0   33.333333333333336
-450.0   60.0   33.333333333333336
-450.0   30.0   16.666666666666668
-500.0   60.0   16.666666666666668
-500.0   30.0   33.333333333333336
-450.0   30.0   33.333333333333336
-500.0   60.0   33.333333333333336
-500.0   30.0   50.0
-450.0   30.0   33.333333333333336
-450.0   60.0   33.333333333333336
-500.0   60.0   33.333333333333336
-450.0   60.0   50.0
-500.0   30.0   50.0
-500.0   60.0   50.0
-450.0   60.0   50.0
-500.0   60.0   33.333333333333336
-500.0   30.0   50.0
-450.0   60.0   50.0
-450.0   30.0   50.0
-450.0   30.0   33.333333333333336
-500.0   30.0   50.0
-450.0   60.0   50.0
-450.0   30.0   33.333333333333336
-500.0   60.0   33.333333333333336
-500.0   60.0   0.0
-450.0   60.0   0.0
-500.0   90.0   0.0
-500.0   60.0   16.666666666666668
-450.0   60.0   0.0
-450.0   90.0   0.0
-500.0   90.0   0.0
-450.0   90.0   16.666666666666668
-500.0   60.0   16.666666666666668
-500.0   90.0   16.666666666666668
-450.0   90.0   16.666666666666668
-500.0   90.0   0.0
-500.0   60.0   16.666666666666668
-450.0   90.0   16.666666666666668
-450.0   60.0   16.666666666666668
-450.0   60.0   0.0
-500.0   60.0   16.666666666666668
-450.0   90.0   16.666666666666668
-450.0   60.0   0.0
-500.0   90.0   0.0
-500.0   60.0   16.666666666666668
-450.0   60.0   16.666666666666668
-500.0   90.0   16.666666666666668
-500.0   60.0   33.333333333333336
-450.0   60.0   16.666666666666668
-450.0   90.0   16.666666666666668
-500.0   90.0   16.666666666666668
-450.0   90.0   33.333333333333336
-500.0   60.0   33.333333333333336
-500.0   90.0   33.333333333333336
-450.0   90.0   33.333333333333336
-500.0   90.0   16.666666666666668
-500.0   60.0   33.333333333333336
-450.0   90.0   33.333333333333336
-450.0   60.0   33.333333333333336
-450.0   60.0   16.666666666666668
-500.0   60.0   33.333333333333336
-450.0   90.0   33.333333333333336
-450.0   60.0   16.666666666666668
-500.0   90.0   16.666666666666668
-500.0   60.0   33.333333333333336
-450.0   60.0   33.333333333333336
-500.0   90.0   33.333333333333336
-500.0   60.0   50.0
-450.0   60.0   33.333333333333336
-450.0   90.0   33.333333333333336
-500.0   90.0   33.333333333333336
-450.0   90.0   50.0
-500.0   60.0   50.0
-500.0   90.0   50.0
-450.0   90.0   50.0
-500.0   90.0   33.333333333333336
-500.0   60.0   50.0
-450.0   90.0   50.0
-450.0   60.0   50.0
-450.0   60.0   33.333333333333336
-500.0   60.0   50.0
-450.0   90.0   50.0
-450.0   60.0   33.333333333333336
-500.0   90.0   33.333333333333336
-500.0   90.0   0.0
-450.0   90.0   0.0
-500.0   120.0   0.0
-500.0   90.0   16.666666666666668
-450.0   90.0   0.0
-450.0   120.0   0.0
-500.0   120.0   0.0
-450.0   120.0   16.666666666666668
-500.0   90.0   16.666666666666668
-500.0   120.0   16.666666666666668
-450.0   120.0   16.666666666666668
-500.0   120.0   0.0
-500.0   90.0   16.666666666666668
-450.0   120.0   16.666666666666668
-450.0   90.0   16.666666666666668
-450.0   90.0   0.0
-500.0   90.0   16.666666666666668
-450.0   120.0   16.666666666666668
-450.0   90.0   0.0
-500.0   120.0   0.0
-500.0   90.0   16.666666666666668
-450.0   90.0   16.666666666666668
-500.0   120.0   16.666666666666668
-500.0   90.0   33.333333333333336
-450.0   90.0   16.666666666666668
-450.0   120.0   16.666666666666668
-500.0   120.0   16.666666666666668
-450.0   120.0   33.333333333333336
-500.0   90.0   33.333333333333336
-500.0   120.0   33.333333333333336
-450.0   120.0   33.333333333333336
-500.0   120.0   16.666666666666668
-500.0   90.0   33.333333333333336
-450.0   120.0   33.333333333333336
-450.0   90.0   33.333333333333336
-450.0   90.0   16.666666666666668
-500.0   90.0   33.333333333333336
-450.0   120.0   33.333333333333336
-450.0   90.0   16.666666666666668
-500.0   120.0   16.666666666666668
-500.0   90.0   33.333333333333336
-450.0   90.0   33.333333333333336
-500.0   120.0   33.333333333333336
-500.0   90.0   50.0
-450.0   90.0   33.333333333333336
-450.0   120.0   33.333333333333336
-500.0   120.0   33.333333333333336
-450.0   120.0   50.0
-500.0   90.0   50.0
-500.0   120.0   50.0
-450.0   120.0   50.0
-500.0   120.0   33.333333333333336
-500.0   90.0   50.0
-450.0   120.0   50.0
-450.0   90.0   50.0
-450.0   90.0   33.333333333333336
-500.0   90.0   50.0
-450.0   120.0   50.0
-450.0   90.0   33.333333333333336
-500.0   120.0   33.333333333333336
-500.0   120.0   0.0
-450.0   120.0   0.0
-500.0   150.0   0.0
-500.0   120.0   16.666666666666668
-450.0   120.0   0.0
-450.0   150.0   0.0
-500.0   150.0   0.0
-450.0   150.0   16.666666666666668
-500.0   120.0   16.666666666666668
-500.0   150.0   16.666666666666668
-450.0   150.0   16.666666666666668
-500.0   150.0   0.0
-500.0   120.0   16.666666666666668
-450.0   150.0   16.666666666666668
-450.0   120.0   16.666666666666668
-450.0   120.0   0.0
-500.0   120.0   16.666666666666668
-450.0   150.0   16.666666666666668
-450.0   120.0   0.0
-500.0   150.0   0.0
-500.0   120.0   16.666666666666668
-450.0   120.0   16.666666666666668
-500.0   150.0   16.666666666666668
-500.0   120.0   33.333333333333336
-450.0   120.0   16.666666666666668
-450.0   150.0   16.666666666666668
-500.0   150.0   16.666666666666668
-450.0   150.0   33.333333333333336
-500.0   120.0   33.333333333333336
-500.0   150.0   33.333333333333336
-450.0   150.0   33.333333333333336
-500.0   150.0   16.666666666666668
-500.0   120.0   33.333333333333336
-450.0   150.0   33.333333333333336
-450.0   120.0   33.333333333333336
-450.0   120.0   16.666666666666668
-500.0   120.0   33.333333333333336
-450.0   150.0   33.333333333333336
-450.0   120.0   16.666666666666668
-500.0   150.0   16.666666666666668
-500.0   120.0   33.333333333333336
-450.0   120.0   33.333333333333336
-500.0   150.0   33.333333333333336
-500.0   120.0   50.0
-450.0   120.0   33.333333333333336
-450.0   150.0   33.333333333333336
-500.0   150.0   33.333333333333336
-450.0   150.0   50.0
-500.0   120.0   50.0
-500.0   150.0   50.0
-450.0   150.0   50.0
-500.0   150.0   33.333333333333336
-500.0   120.0   50.0
-450.0   150.0   50.0
-450.0   120.0   50.0
-450.0   120.0   33.333333333333336
-500.0   120.0   50.0
-450.0   150.0   50.0
-450.0   120.0   33.333333333333336
-500.0   150.0   33.333333333333336
-450.0   0.0   0.0
-400.0   0.0   0.0
-450.0   30.0   0.0
-450.0   0.0   16.666666666666668
-400.0   0.0   0.0
-400.0   30.0   0.0
-450.0   30.0   0.0
-400.0   30.0   16.666666666666668
-450.0   0.0   16.666666666666668
-450.0   30.0   16.666666666666668
-400.0   30.0   16.666666666666668
-450.0   30.0   0.0
-450.0   0.0   16.666666666666668
-400.0   30.0   16.666666666666668
-400.0   0.0   16.666666666666668
-400.0   0.0   0.0
-450.0   0.0   16.666666666666668
-400.0   30.0   16.666666666666668
-400.0   0.0   0.0
-450.0   30.0   0.0
-450.0   0.0   16.666666666666668
-400.0   0.0   16.666666666666668
-450.0   30.0   16.666666666666668
-450.0   0.0   33.333333333333336
-400.0   0.0   16.666666666666668
-400.0   30.0   16.666666666666668
-450.0   30.0   16.666666666666668
-400.0   30.0   33.333333333333336
-450.0   0.0   33.333333333333336
-450.0   30.0   33.333333333333336
-400.0   30.0   33.333333333333336
-450.0   30.0   16.666666666666668
-450.0   0.0   33.333333333333336
-400.0   30.0   33.333333333333336
-400.0   0.0   33.333333333333336
-400.0   0.0   16.666666666666668
-450.0   0.0   33.333333333333336
-400.0   30.0   33.333333333333336
-400.0   0.0   16.666666666666668
-450.0   30.0   16.666666666666668
-450.0   0.0   33.333333333333336
-400.0   0.0   33.333333333333336
-450.0   30.0   33.333333333333336
-450.0   0.0   50.0
-400.0   0.0   33.333333333333336
-400.0   30.0   33.333333333333336
-450.0   30.0   33.333333333333336
-400.0   30.0   50.0
-450.0   0.0   50.0
-450.0   30.0   50.0
-400.0   30.0   50.0
-450.0   30.0   33.333333333333336
-450.0   0.0   50.0
-400.0   30.0   50.0
-400.0   0.0   50.0
-400.0   0.0   33.333333333333336
-450.0   0.0   50.0
-400.0   30.0   50.0
-400.0   0.0   33.333333333333336
-450.0   30.0   33.333333333333336
-450.0   30.0   0.0
-400.0   30.0   0.0
-450.0   60.0   0.0
-450.0   30.0   16.666666666666668
-400.0   30.0   0.0
-400.0   60.0   0.0
-450.0   60.0   0.0
-400.0   60.0   16.666666666666668
-450.0   30.0   16.666666666666668
-450.0   60.0   16.666666666666668
-400.0   60.0   16.666666666666668
-450.0   60.0   0.0
-450.0   30.0   16.666666666666668
-400.0   60.0   16.666666666666668
-400.0   30.0   16.666666666666668
-400.0   30.0   0.0
-450.0   30.0   16.666666666666668
-400.0   60.0   16.666666666666668
-400.0   30.0   0.0
-450.0   60.0   0.0
-450.0   30.0   16.666666666666668
-400.0   30.0   16.666666666666668
-450.0   60.0   16.666666666666668
-450.0   30.0   33.333333333333336
-400.0   30.0   16.666666666666668
-400.0   60.0   16.666666666666668
-450.0   60.0   16.666666666666668
-400.0   60.0   33.333333333333336
-450.0   30.0   33.333333333333336
-450.0   60.0   33.333333333333336
-400.0   60.0   33.333333333333336
-450.0   60.0   16.666666666666668
-450.0   30.0   33.333333333333336
-400.0   60.0   33.333333333333336
-400.0   30.0   33.333333333333336
-400.0   30.0   16.666666666666668
-450.0   30.0   33.333333333333336
-400.0   60.0   33.333333333333336
-400.0   30.0   16.666666666666668
-450.0   60.0   16.666666666666668
-450.0   30.0   33.333333333333336
-400.0   30.0   33.333333333333336
-450.0   60.0   33.333333333333336
-450.0   30.0   50.0
-400.0   30.0   33.333333333333336
-400.0   60.0   33.333333333333336
-450.0   60.0   33.333333333333336
-400.0   60.0   50.0
-450.0   30.0   50.0
-450.0   60.0   50.0
-400.0   60.0   50.0
-450.0   60.0   33.333333333333336
-450.0   30.0   50.0
-400.0   60.0   50.0
-400.0   30.0   50.0
-400.0   30.0   33.333333333333336
-450.0   30.0   50.0
-400.0   60.0   50.0
-400.0   30.0   33.333333333333336
-450.0   60.0   33.333333333333336
-450.0   60.0   0.0
-400.0   60.0   0.0
-450.0   90.0   0.0
-450.0   60.0   16.666666666666668
-400.0   60.0   0.0
-400.0   90.0   0.0
-450.0   90.0   0.0
-400.0   90.0   16.666666666666668
-450.0   60.0   16.666666666666668
-450.0   90.0   16.666666666666668
-400.0   90.0   16.666666666666668
-450.0   90.0   0.0
-450.0   60.0   16.666666666666668
-400.0   90.0   16.666666666666668
-400.0   60.0   16.666666666666668
-400.0   60.0   0.0
-450.0   60.0   16.666666666666668
-400.0   90.0   16.666666666666668
-400.0   60.0   0.0
-450.0   90.0   0.0
-450.0   60.0   16.666666666666668
-400.0   60.0   16.666666666666668
-450.0   90.0   16.666666666666668
-450.0   60.0   33.333333333333336
-400.0   60.0   16.666666666666668
-400.0   90.0   16.666666666666668
-450.0   90.0   16.666666666666668
-400.0   90.0   33.333333333333336
-450.0   60.0   33.333333333333336
-450.0   90.0   33.333333333333336
-400.0   90.0   33.333333333333336
-450.0   90.0   16.666666666666668
-450.0   60.0   33.333333333333336
-400.0   90.0   33.333333333333336
-400.0   60.0   33.333333333333336
-400.0   60.0   16.666666666666668
-450.0   60.0   33.333333333333336
-400.0   90.0   33.333333333333336
-400.0   60.0   16.666666666666668
-450.0   90.0   16.666666666666668
-450.0   60.0   33.333333333333336
-400.0   60.0   33.333333333333336
-450.0   90.0   33.333333333333336
-450.0   60.0   50.0
-400.0   60.0   33.333333333333336
-400.0   90.0   33.333333333333336
-450.0   90.0   33.333333333333336
-400.0   90.0   50.0
-450.0   60.0   50.0
-450.0   90.0   50.0
-400.0   90.0   50.0
-450.0   90.0   33.333333333333336
-450.0   60.0   50.0
-400.0   90.0   50.0
-400.0   60.0   50.0
-400.0   60.0   33.333333333333336
-450.0   60.0   50.0
-400.0   90.0   50.0
-400.0   60.0   33.333333333333336
-450.0   90.0   33.333333333333336
-450.0   90.0   0.0
-400.0   90.0   0.0
-450.0   120.0   0.0
-450.0   90.0   16.666666666666668
-400.0   90.0   0.0
-400.0   120.0   0.0
-450.0   120.0   0.0
-400.0   120.0   16.666666666666668
-450.0   90.0   16.666666666666668
-450.0   120.0   16.666666666666668
-400.0   120.0   16.666666666666668
-450.0   120.0   0.0
-450.0   90.0   16.666666666666668
-400.0   120.0   16.666666666666668
-400.0   90.0   16.666666666666668
-400.0   90.0   0.0
-450.0   90.0   16.666666666666668
-400.0   120.0   16.666666666666668
-400.0   90.0   0.0
-450.0   120.0   0.0
-450.0   90.0   16.666666666666668
-400.0   90.0   16.666666666666668
-450.0   120.0   16.666666666666668
-450.0   90.0   33.333333333333336
-400.0   90.0   16.666666666666668
-400.0   120.0   16.666666666666668
-450.0   120.0   16.666666666666668
-400.0   120.0   33.333333333333336
-450.0   90.0   33.333333333333336
-450.0   120.0   33.333333333333336
-400.0   120.0   33.333333333333336
-450.0   120.0   16.666666666666668
-450.0   90.0   33.333333333333336
-400.0   120.0   33.333333333333336
-400.0   90.0   33.333333333333336
-400.0   90.0   16.666666666666668
-450.0   90.0   33.333333333333336
-400.0   120.0   33.333333333333336
-400.0   90.0   16.666666666666668
-450.0   120.0   16.666666666666668
-450.0   90.0   33.333333333333336
-400.0   90.0   33.333333333333336
-450.0   120.0   33.333333333333336
-450.0   90.0   50.0
-400.0   90.0   33.333333333333336
-400.0   120.0   33.333333333333336
-450.0   120.0   33.333333333333336
-400.0   120.0   50.0
-450.0   90.0   50.0
-450.0   120.0   50.0
-400.0   120.0   50.0
-450.0   120.0   33.333333333333336
-450.0   90.0   50.0
-400.0   120.0   50.0
-400.0   90.0   50.0
-400.0   90.0   33.333333333333336
-450.0   90.0   50.0
-400.0   120.0   50.0
-400.0   90.0   33.333333333333336
-450.0   120.0   33.333333333333336
-450.0   120.0   0.0
-400.0   120.0   0.0
-450.0   150.0   0.0
-450.0   120.0   16.666666666666668
-400.0   120.0   0.0
-400.0   150.0   0.0
-450.0   150.0   0.0
-400.0   150.0   16.666666666666668
-450.0   120.0   16.666666666666668
-450.0   150.0   16.666666666666668
-400.0   150.0   16.666666666666668
-450.0   150.0   0.0
-450.0   120.0   16.666666666666668
-400.0   150.0   16.666666666666668
-400.0   120.0   16.666666666666668
-400.0   120.0   0.0
-450.0   120.0   16.666666666666668
-400.0   150.0   16.666666666666668
-400.0   120.0   0.0
-450.0   150.0   0.0
-450.0   120.0   16.666666666666668
-400.0   120.0   16.666666666666668
-450.0   150.0   16.666666666666668
-450.0   120.0   33.333333333333336
-400.0   120.0   16.666666666666668
-400.0   150.0   16.666666666666668
-450.0   150.0   16.666666666666668
-400.0   150.0   33.333333333333336
-450.0   120.0   33.333333333333336
-450.0   150.0   33.333333333333336
-400.0   150.0   33.333333333333336
-450.0   150.0   16.666666666666668
-450.0   120.0   33.333333333333336
-400.0   150.0   33.333333333333336
-400.0   120.0   33.333333333333336
-400.0   120.0   16.666666666666668
-450.0   120.0   33.333333333333336
-400.0   150.0   33.333333333333336
-400.0   120.0   16.666666666666668
-450.0   150.0   16.666666666666668
-450.0   120.0   33.333333333333336
-400.0   120.0   33.333333333333336
-450.0   150.0   33.333333333333336
-450.0   120.0   50.0
-400.0   120.0   33.333333333333336
-400.0   150.0   33.333333333333336
-450.0   150.0   33.333333333333336
-400.0   150.0   50.0
-450.0   120.0   50.0
-450.0   150.0   50.0
-400.0   150.0   50.0
-450.0   150.0   33.333333333333336
-450.0   120.0   50.0
-400.0   150.0   50.0
-400.0   120.0   50.0
-400.0   120.0   33.333333333333336
-450.0   120.0   50.0
-400.0   150.0   50.0
-400.0   120.0   33.333333333333336
-450.0   150.0   33.333333333333336
-400.0   0.0   0.0
-350.0   0.0   0.0
-400.0   30.0   0.0
-400.0   0.0   16.666666666666668
-350.0   0.0   0.0
-350.0   30.0   0.0
-400.0   30.0   0.0
-350.0   30.0   16.666666666666668
-400.0   0.0   16.666666666666668
-400.0   30.0   16.666666666666668
-350.0   30.0   16.666666666666668
-400.0   30.0   0.0
-400.0   0.0   16.666666666666668
-350.0   30.0   16.666666666666668
-350.0   0.0   16.666666666666668
-350.0   0.0   0.0
-400.0   0.0   16.666666666666668
-350.0   30.0   16.666666666666668
-350.0   0.0   0.0
-400.0   30.0   0.0
-400.0   0.0   16.666666666666668
-350.0   0.0   16.666666666666668
-400.0   30.0   16.666666666666668
-400.0   0.0   33.333333333333336
-350.0   0.0   16.666666666666668
-350.0   30.0   16.666666666666668
-400.0   30.0   16.666666666666668
-350.0   30.0   33.333333333333336
-400.0   0.0   33.333333333333336
-400.0   30.0   33.333333333333336
-350.0   30.0   33.333333333333336
-400.0   30.0   16.666666666666668
-400.0   0.0   33.333333333333336
-350.0   30.0   33.333333333333336
-350.0   0.0   33.333333333333336
-350.0   0.0   16.666666666666668
-400.0   0.0   33.333333333333336
-350.0   30.0   33.333333333333336
-350.0   0.0   16.666666666666668
-400.0   30.0   16.666666666666668
-400.0   0.0   33.333333333333336
-350.0   0.0   33.333333333333336
-400.0   30.0   33.333333333333336
-400.0   0.0   50.0
-350.0   0.0   33.333333333333336
-350.0   30.0   33.333333333333336
-400.0   30.0   33.333333333333336
-350.0   30.0   50.0
-400.0   0.0   50.0
-400.0   30.0   50.0
-350.0   30.0   50.0
-400.0   30.0   33.333333333333336
-400.0   0.0   50.0
-350.0   30.0   50.0
-350.0   0.0   50.0
-350.0   0.0   33.333333333333336
-400.0   0.0   50.0
-350.0   30.0   50.0
-350.0   0.0   33.333333333333336
-400.0   30.0   33.333333333333336
-400.0   30.0   0.0
-350.0   30.0   0.0
-400.0   60.0   0.0
-400.0   30.0   16.666666666666668
-350.0   30.0   0.0
-350.0   60.0   0.0
-400.0   60.0   0.0
-350.0   60.0   16.666666666666668
-400.0   30.0   16.666666666666668
-400.0   60.0   16.666666666666668
-350.0   60.0   16.666666666666668
-400.0   60.0   0.0
-400.0   30.0   16.666666666666668
-350.0   60.0   16.666666666666668
-350.0   30.0   16.666666666666668
-350.0   30.0   0.0
-400.0   30.0   16.666666666666668
-350.0   60.0   16.666666666666668
-350.0   30.0   0.0
-400.0   60.0   0.0
-400.0   30.0   16.666666666666668
-350.0   30.0   16.666666666666668
-400.0   60.0   16.666666666666668
-400.0   30.0   33.333333333333336
-350.0   30.0   16.666666666666668
-350.0   60.0   16.666666666666668
-400.0   60.0   16.666666666666668
-350.0   60.0   33.333333333333336
-400.0   30.0   33.333333333333336
-400.0   60.0   33.333333333333336
-350.0   60.0   33.333333333333336
-400.0   60.0   16.666666666666668
-400.0   30.0   33.333333333333336
-350.0   60.0   33.333333333333336
-350.0   30.0   33.333333333333336
-350.0   30.0   16.666666666666668
-400.0   30.0   33.333333333333336
-350.0   60.0   33.333333333333336
-350.0   30.0   16.666666666666668
-400.0   60.0   16.666666666666668
-400.0   30.0   33.333333333333336
-350.0   30.0   33.333333333333336
-400.0   60.0   33.333333333333336
-400.0   30.0   50.0
-350.0   30.0   33.333333333333336
-350.0   60.0   33.333333333333336
-400.0   60.0   33.333333333333336
-350.0   60.0   50.0
-400.0   30.0   50.0
-400.0   60.0   50.0
-350.0   60.0   50.0
-400.0   60.0   33.333333333333336
-400.0   30.0   50.0
-350.0   60.0   50.0
-350.0   30.0   50.0
-350.0   30.0   33.333333333333336
-400.0   30.0   50.0
-350.0   60.0   50.0
-350.0   30.0   33.333333333333336
-400.0   60.0   33.333333333333336
-400.0   60.0   0.0
-350.0   60.0   0.0
-400.0   90.0   0.0
-400.0   60.0   16.666666666666668
-350.0   60.0   0.0
-350.0   90.0   0.0
-400.0   90.0   0.0
-350.0   90.0   16.666666666666668
-400.0   60.0   16.666666666666668
-400.0   90.0   16.666666666666668
-350.0   90.0   16.666666666666668
-400.0   90.0   0.0
-400.0   60.0   16.666666666666668
-350.0   90.0   16.666666666666668
-350.0   60.0   16.666666666666668
-350.0   60.0   0.0
-400.0   60.0   16.666666666666668
-350.0   90.0   16.666666666666668
-350.0   60.0   0.0
-400.0   90.0   0.0
-400.0   60.0   16.666666666666668
-350.0   60.0   16.666666666666668
-400.0   90.0   16.666666666666668
-400.0   60.0   33.333333333333336
-350.0   60.0   16.666666666666668
-350.0   90.0   16.666666666666668
-400.0   90.0   16.666666666666668
-350.0   90.0   33.333333333333336
-400.0   60.0   33.333333333333336
-400.0   90.0   33.333333333333336
-350.0   90.0   33.333333333333336
-400.0   90.0   16.666666666666668
-400.0   60.0   33.333333333333336
-350.0   90.0   33.333333333333336
-350.0   60.0   33.333333333333336
-350.0   60.0   16.666666666666668
-400.0   60.0   33.333333333333336
-350.0   90.0   33.333333333333336
-350.0   60.0   16.666666666666668
-400.0   90.0   16.666666666666668
-400.0   60.0   33.333333333333336
-350.0   60.0   33.333333333333336
-400.0   90.0   33.333333333333336
-400.0   60.0   50.0
-350.0   60.0   33.333333333333336
-350.0   90.0   33.333333333333336
-400.0   90.0   33.333333333333336
-350.0   90.0   50.0
-400.0   60.0   50.0
-400.0   90.0   50.0
-350.0   90.0   50.0
-400.0   90.0   33.333333333333336
-400.0   60.0   50.0
-350.0   90.0   50.0
-350.0   60.0   50.0
-350.0   60.0   33.333333333333336
-400.0   60.0   50.0
-350.0   90.0   50.0
-350.0   60.0   33.333333333333336
-400.0   90.0   33.333333333333336
-400.0   90.0   0.0
-350.0   90.0   0.0
-400.0   120.0   0.0
-400.0   90.0   16.666666666666668
-350.0   90.0   0.0
-350.0   120.0   0.0
-400.0   120.0   0.0
-350.0   120.0   16.666666666666668
-400.0   90.0   16.666666666666668
-400.0   120.0   16.666666666666668
-350.0   120.0   16.666666666666668
-400.0   120.0   0.0
-400.0   90.0   16.666666666666668
-350.0   120.0   16.666666666666668
-350.0   90.0   16.666666666666668
-350.0   90.0   0.0
-400.0   90.0   16.666666666666668
-350.0   120.0   16.666666666666668
-350.0   90.0   0.0
-400.0   120.0   0.0
-400.0   90.0   16.666666666666668
-350.0   90.0   16.666666666666668
-400.0   120.0   16.666666666666668
-400.0   90.0   33.333333333333336
-350.0   90.0   16.666666666666668
-350.0   120.0   16.666666666666668
-400.0   120.0   16.666666666666668
-350.0   120.0   33.333333333333336
-400.0   90.0   33.333333333333336
-400.0   120.0   33.333333333333336
-350.0   120.0   33.333333333333336
-400.0   120.0   16.666666666666668
-400.0   90.0   33.333333333333336
-350.0   120.0   33.333333333333336
-350.0   90.0   33.333333333333336
-350.0   90.0   16.666666666666668
-400.0   90.0   33.333333333333336
-350.0   120.0   33.333333333333336
-350.0   90.0   16.666666666666668
-400.0   120.0   16.666666666666668
-400.0   90.0   33.333333333333336
-350.0   90.0   33.333333333333336
-400.0   120.0   33.333333333333336
-400.0   90.0   50.0
-350.0   90.0   33.333333333333336
-350.0   120.0   33.333333333333336
-400.0   120.0   33.333333333333336
-350.0   120.0   50.0
-400.0   90.0   50.0
-400.0   120.0   50.0
-350.0   120.0   50.0
-400.0   120.0   33.333333333333336
-400.0   90.0   50.0
-350.0   120.0   50.0
-350.0   90.0   50.0
-350.0   90.0   33.333333333333336
-400.0   90.0   50.0
-350.0   120.0   50.0
-350.0   90.0   33.333333333333336
-400.0   120.0   33.333333333333336
-400.0   120.0   0.0
-350.0   120.0   0.0
-400.0   150.0   0.0
-400.0   120.0   16.666666666666668
-350.0   120.0   0.0
-350.0   150.0   0.0
-400.0   150.0   0.0
-350.0   150.0   16.666666666666668
-400.0   120.0   16.666666666666668
-400.0   150.0   16.666666666666668
-350.0   150.0   16.666666666666668
-400.0   150.0   0.0
-400.0   120.0   16.666666666666668
-350.0   150.0   16.666666666666668
-350.0   120.0   16.666666666666668
-350.0   120.0   0.0
-400.0   120.0   16.666666666666668
-350.0   150.0   16.666666666666668
-350.0   120.0   0.0
-400.0   150.0   0.0
-400.0   120.0   16.666666666666668
-350.0   120.0   16.666666666666668
-400.0   150.0   16.666666666666668
-400.0   120.0   33.333333333333336
-350.0   120.0   16.666666666666668
-350.0   150.0   16.666666666666668
-400.0   150.0   16.666666666666668
-350.0   150.0   33.333333333333336
-400.0   120.0   33.333333333333336
-400.0   150.0   33.333333333333336
-350.0   150.0   33.333333333333336
-400.0   150.0   16.666666666666668
-400.0   120.0   33.333333333333336
-350.0   150.0   33.333333333333336
-350.0   120.0   33.333333333333336
-350.0   120.0   16.666666666666668
-400.0   120.0   33.333333333333336
-350.0   150.0   33.333333333333336
-350.0   120.0   16.666666666666668
-400.0   150.0   16.666666666666668
-400.0   120.0   33.333333333333336
-350.0   120.0   33.333333333333336
-400.0   150.0   33.333333333333336
-400.0   120.0   50.0
-350.0   120.0   33.333333333333336
-350.0   150.0   33.333333333333336
-400.0   150.0   33.333333333333336
-350.0   150.0   50.0
-400.0   120.0   50.0
-400.0   150.0   50.0
-350.0   150.0   50.0
-400.0   150.0   33.333333333333336
-400.0   120.0   50.0
-350.0   150.0   50.0
-350.0   120.0   50.0
-350.0   120.0   33.333333333333336
-400.0   120.0   50.0
-350.0   150.0   50.0
-350.0   120.0   33.333333333333336
-400.0   150.0   33.333333333333336
-350.0   0.0   0.0
-300.0   0.0   0.0
-350.0   30.0   0.0
-350.0   0.0   16.666666666666668
-300.0   0.0   0.0
-300.0   30.0   0.0
-350.0   30.0   0.0
-300.0   30.0   16.666666666666668
-350.0   0.0   16.666666666666668
-350.0   30.0   16.666666666666668
-300.0   30.0   16.666666666666668
-350.0   30.0   0.0
-350.0   0.0   16.666666666666668
-300.0   30.0   16.666666666666668
-300.0   0.0   16.666666666666668
-300.0   0.0   0.0
-350.0   0.0   16.666666666666668
-300.0   30.0   16.666666666666668
-300.0   0.0   0.0
-350.0   30.0   0.0
-350.0   0.0   16.666666666666668
-300.0   0.0   16.666666666666668
-350.0   30.0   16.666666666666668
-350.0   0.0   33.333333333333336
-300.0   0.0   16.666666666666668
-300.0   30.0   16.666666666666668
-350.0   30.0   16.666666666666668
-300.0   30.0   33.333333333333336
-350.0   0.0   33.333333333333336
-350.0   30.0   33.333333333333336
-300.0   30.0   33.333333333333336
-350.0   30.0   16.666666666666668
-350.0   0.0   33.333333333333336
-300.0   30.0   33.333333333333336
-300.0   0.0   33.333333333333336
-300.0   0.0   16.666666666666668
-350.0   0.0   33.333333333333336
-300.0   30.0   33.333333333333336
-300.0   0.0   16.666666666666668
-350.0   30.0   16.666666666666668
-350.0   0.0   33.333333333333336
-300.0   0.0   33.333333333333336
-350.0   30.0   33.333333333333336
-350.0   0.0   50.0
-300.0   0.0   33.333333333333336
-300.0   30.0   33.333333333333336
-350.0   30.0   33.333333333333336
-300.0   30.0   50.0
-350.0   0.0   50.0
-350.0   30.0   50.0
-300.0   30.0   50.0
-350.0   30.0   33.333333333333336
-350.0   0.0   50.0
-300.0   30.0   50.0
-300.0   0.0   50.0
-300.0   0.0   33.333333333333336
-350.0   0.0   50.0
-300.0   30.0   50.0
-300.0   0.0   33.333333333333336
-350.0   30.0   33.333333333333336
-350.0   30.0   0.0
-300.0   30.0   0.0
-350.0   60.0   0.0
-350.0   30.0   16.666666666666668
-300.0   30.0   0.0
-300.0   60.0   0.0
-350.0   60.0   0.0
-300.0   60.0   16.666666666666668
-350.0   30.0   16.666666666666668
-350.0   60.0   16.666666666666668
-300.0   60.0   16.666666666666668
-350.0   60.0   0.0
-350.0   30.0   16.666666666666668
-300.0   60.0   16.666666666666668
-300.0   30.0   16.666666666666668
-300.0   30.0   0.0
-350.0   30.0   16.666666666666668
-300.0   60.0   16.666666666666668
-300.0   30.0   0.0
-350.0   60.0   0.0
-350.0   30.0   16.666666666666668
-300.0   30.0   16.666666666666668
-350.0   60.0   16.666666666666668
-350.0   30.0   33.333333333333336
-300.0   30.0   16.666666666666668
-300.0   60.0   16.666666666666668
-350.0   60.0   16.666666666666668
-300.0   60.0   33.333333333333336
-350.0   30.0   33.333333333333336
-350.0   60.0   33.333333333333336
-300.0   60.0   33.333333333333336
-350.0   60.0   16.666666666666668
-350.0   30.0   33.333333333333336
-300.0   60.0   33.333333333333336
-300.0   30.0   33.333333333333336
-300.0   30.0   16.666666666666668
-350.0   30.0   33.333333333333336
-300.0   60.0   33.333333333333336
-300.0   30.0   16.666666666666668
-350.0   60.0   16.666666666666668
-350.0   30.0   33.333333333333336
-300.0   30.0   33.333333333333336
-350.0   60.0   33.333333333333336
-350.0   30.0   50.0
-300.0   30.0   33.333333333333336
-300.0   60.0   33.333333333333336
-350.0   60.0   33.333333333333336
-300.0   60.0   50.0
-350.0   30.0   50.0
-350.0   60.0   50.0
-300.0   60.0   50.0
-350.0   60.0   33.333333333333336
-350.0   30.0   50.0
-300.0   60.0   50.0
-300.0   30.0   50.0
-300.0   30.0   33.333333333333336
-350.0   30.0   50.0
-300.0   60.0   50.0
-300.0   30.0   33.333333333333336
-350.0   60.0   33.333333333333336
-350.0   60.0   0.0
-300.0   60.0   0.0
-350.0   90.0   0.0
-350.0   60.0   16.666666666666668
-300.0   60.0   0.0
-300.0   90.0   0.0
-350.0   90.0   0.0
-300.0   90.0   16.666666666666668
-350.0   60.0   16.666666666666668
-350.0   90.0   16.666666666666668
-300.0   90.0   16.666666666666668
-350.0   90.0   0.0
-350.0   60.0   16.666666666666668
-300.0   90.0   16.666666666666668
-300.0   60.0   16.666666666666668
-300.0   60.0   0.0
-350.0   60.0   16.666666666666668
-300.0   90.0   16.666666666666668
-300.0   60.0   0.0
-350.0   90.0   0.0
-350.0   60.0   16.666666666666668
-300.0   60.0   16.666666666666668
-350.0   90.0   16.666666666666668
-350.0   60.0   33.333333333333336
-300.0   60.0   16.666666666666668
-300.0   90.0   16.666666666666668
-350.0   90.0   16.666666666666668
-300.0   90.0   33.333333333333336
-350.0   60.0   33.333333333333336
-350.0   90.0   33.333333333333336
-300.0   90.0   33.333333333333336
-350.0   90.0   16.666666666666668
-350.0   60.0   33.333333333333336
-300.0   90.0   33.333333333333336
-300.0   60.0   33.333333333333336
-300.0   60.0   16.666666666666668
-350.0   60.0   33.333333333333336
-300.0   90.0   33.333333333333336
-300.0   60.0   16.666666666666668
-350.0   90.0   16.666666666666668
-350.0   60.0   33.333333333333336
-300.0   60.0   33.333333333333336
-350.0   90.0   33.333333333333336
-350.0   60.0   50.0
-300.0   60.0   33.333333333333336
-300.0   90.0   33.333333333333336
-350.0   90.0   33.333333333333336
-300.0   90.0   50.0
-350.0   60.0   50.0
-350.0   90.0   50.0
-300.0   90.0   50.0
-350.0   90.0   33.333333333333336
-350.0   60.0   50.0
-300.0   90.0   50.0
-300.0   60.0   50.0
-300.0   60.0   33.333333333333336
-350.0   60.0   50.0
-300.0   90.0   50.0
-300.0   60.0   33.333333333333336
-350.0   90.0   33.333333333333336
-350.0   90.0   0.0
-300.0   90.0   0.0
-350.0   120.0   0.0
-350.0   90.0   16.666666666666668
-300.0   90.0   0.0
-300.0   120.0   0.0
-350.0   120.0   0.0
-300.0   120.0   16.666666666666668
-350.0   90.0   16.666666666666668
-350.0   120.0   16.666666666666668
-300.0   120.0   16.666666666666668
-350.0   120.0   0.0
-350.0   90.0   16.666666666666668
-300.0   120.0   16.666666666666668
-300.0   90.0   16.666666666666668
-300.0   90.0   0.0
-350.0   90.0   16.666666666666668
-300.0   120.0   16.666666666666668
-300.0   90.0   0.0
-350.0   120.0   0.0
-350.0   90.0   16.666666666666668
-300.0   90.0   16.666666666666668
-350.0   120.0   16.666666666666668
-350.0   90.0   33.333333333333336
-300.0   90.0   16.666666666666668
-300.0   120.0   16.666666666666668
-350.0   120.0   16.666666666666668
-300.0   120.0   33.333333333333336
-350.0   90.0   33.333333333333336
-350.0   120.0   33.333333333333336
-300.0   120.0   33.333333333333336
-350.0   120.0   16.666666666666668
-350.0   90.0   33.333333333333336
-300.0   120.0   33.333333333333336
-300.0   90.0   33.333333333333336
-300.0   90.0   16.666666666666668
-350.0   90.0   33.333333333333336
-300.0   120.0   33.333333333333336
-300.0   90.0   16.666666666666668
-350.0   120.0   16.666666666666668
-350.0   90.0   33.333333333333336
-300.0   90.0   33.333333333333336
-350.0   120.0   33.333333333333336
-350.0   90.0   50.0
-300.0   90.0   33.333333333333336
-300.0   120.0   33.333333333333336
-350.0   120.0   33.333333333333336
-300.0   120.0   50.0
-350.0   90.0   50.0
-350.0   120.0   50.0
-300.0   120.0   50.0
-350.0   120.0   33.333333333333336
-350.0   90.0   50.0
-300.0   120.0   50.0
-300.0   90.0   50.0
-300.0   90.0   33.333333333333336
-350.0   90.0   50.0
-300.0   120.0   50.0
-300.0   90.0   33.333333333333336
-350.0   120.0   33.333333333333336
-350.0   120.0   0.0
-300.0   120.0   0.0
-350.0   150.0   0.0
-350.0   120.0   16.666666666666668
-300.0   120.0   0.0
-300.0   150.0   0.0
-350.0   150.0   0.0
-300.0   150.0   16.666666666666668
-350.0   120.0   16.666666666666668
-350.0   150.0   16.666666666666668
-300.0   150.0   16.666666666666668
-350.0   150.0   0.0
-350.0   120.0   16.666666666666668
-300.0   150.0   16.666666666666668
-300.0   120.0   16.666666666666668
-300.0   120.0   0.0
-350.0   120.0   16.666666666666668
-300.0   150.0   16.666666666666668
-300.0   120.0   0.0
-350.0   150.0   0.0
-350.0   120.0   16.666666666666668
-300.0   120.0   16.666666666666668
-350.0   150.0   16.666666666666668
-350.0   120.0   33.333333333333336
-300.0   120.0   16.666666666666668
-300.0   150.0   16.666666666666668
-350.0   150.0   16.666666666666668
-300.0   150.0   33.333333333333336
-350.0   120.0   33.333333333333336
-350.0   150.0   33.333333333333336
-300.0   150.0   33.333333333333336
-350.0   150.0   16.666666666666668
-350.0   120.0   33.333333333333336
-300.0   150.0   33.333333333333336
-300.0   120.0   33.333333333333336
-300.0   120.0   16.666666666666668
-350.0   120.0   33.333333333333336
-300.0   150.0   33.333333333333336
-300.0   120.0   16.666666666666668
-350.0   150.0   16.666666666666668
-350.0   120.0   33.333333333333336
-300.0   120.0   33.333333333333336
-350.0   150.0   33.333333333333336
-350.0   120.0   50.0
-300.0   120.0   33.333333333333336
-300.0   150.0   33.333333333333336
-350.0   150.0   33.333333333333336
-300.0   150.0   50.0
-350.0   120.0   50.0
-350.0   150.0   50.0
-300.0   150.0   50.0
-350.0   150.0   33.333333333333336
-350.0   120.0   50.0
-300.0   150.0   50.0
-300.0   120.0   50.0
-300.0   120.0   33.333333333333336
-350.0   120.0   50.0
-300.0   150.0   50.0
-300.0   120.0   33.333333333333336
-350.0   150.0   33.333333333333336
-300.0   0.0   0.0
-250.0   0.0   0.0
-300.0   30.0   0.0
-300.0   0.0   16.666666666666668
-250.0   0.0   0.0
-250.0   30.0   0.0
-300.0   30.0   0.0
-250.0   30.0   16.666666666666668
-300.0   0.0   16.666666666666668
-300.0   30.0   16.666666666666668
-250.0   30.0   16.666666666666668
-300.0   30.0   0.0
-300.0   0.0   16.666666666666668
-250.0   30.0   16.666666666666668
-250.0   0.0   16.666666666666668
-250.0   0.0   0.0
-300.0   0.0   16.666666666666668
-250.0   30.0   16.666666666666668
-250.0   0.0   0.0
-300.0   30.0   0.0
-300.0   0.0   16.666666666666668
-250.0   0.0   16.666666666666668
-300.0   30.0   16.666666666666668
-300.0   0.0   33.333333333333336
-250.0   0.0   16.666666666666668
-250.0   30.0   16.666666666666668
-300.0   30.0   16.666666666666668
-250.0   30.0   33.333333333333336
-300.0   0.0   33.333333333333336
-300.0   30.0   33.333333333333336
-250.0   30.0   33.333333333333336
-300.0   30.0   16.666666666666668
-300.0   0.0   33.333333333333336
-250.0   30.0   33.333333333333336
-250.0   0.0   33.333333333333336
-250.0   0.0   16.666666666666668
-300.0   0.0   33.333333333333336
-250.0   30.0   33.333333333333336
-250.0   0.0   16.666666666666668
-300.0   30.0   16.666666666666668
-300.0   0.0   33.333333333333336
-250.0   0.0   33.333333333333336
-300.0   30.0   33.333333333333336
-300.0   0.0   50.0
-250.0   0.0   33.333333333333336
-250.0   30.0   33.333333333333336
-300.0   30.0   33.333333333333336
-250.0   30.0   50.0
-300.0   0.0   50.0
-300.0   30.0   50.0
-250.0   30.0   50.0
-300.0   30.0   33.333333333333336
-300.0   0.0   50.0
-250.0   30.0   50.0
-250.0   0.0   50.0
-250.0   0.0   33.333333333333336
-300.0   0.0   50.0
-250.0   30.0   50.0
-250.0   0.0   33.333333333333336
-300.0   30.0   33.333333333333336
-300.0   30.0   0.0
-250.0   30.0   0.0
-300.0   60.0   0.0
-300.0   30.0   16.666666666666668
-250.0   30.0   0.0
-250.0   60.0   0.0
-300.0   60.0   0.0
-250.0   60.0   16.666666666666668
-300.0   30.0   16.666666666666668
-300.0   60.0   16.666666666666668
-250.0   60.0   16.666666666666668
-300.0   60.0   0.0
-300.0   30.0   16.666666666666668
-250.0   60.0   16.666666666666668
-250.0   30.0   16.666666666666668
-250.0   30.0   0.0
-300.0   30.0   16.666666666666668
-250.0   60.0   16.666666666666668
-250.0   30.0   0.0
-300.0   60.0   0.0
-300.0   30.0   16.666666666666668
-250.0   30.0   16.666666666666668
-300.0   60.0   16.666666666666668
-300.0   30.0   33.333333333333336
-250.0   30.0   16.666666666666668
-250.0   60.0   16.666666666666668
-300.0   60.0   16.666666666666668
-250.0   60.0   33.333333333333336
-300.0   30.0   33.333333333333336
-300.0   60.0   33.333333333333336
-250.0   60.0   33.333333333333336
-300.0   60.0   16.666666666666668
-300.0   30.0   33.333333333333336
-250.0   60.0   33.333333333333336
-250.0   30.0   33.333333333333336
-250.0   30.0   16.666666666666668
-300.0   30.0   33.333333333333336
-250.0   60.0   33.333333333333336
-250.0   30.0   16.666666666666668
-300.0   60.0   16.666666666666668
-300.0   30.0   33.333333333333336
-250.0   30.0   33.333333333333336
-300.0   60.0   33.333333333333336
-300.0   30.0   50.0
-250.0   30.0   33.333333333333336
-250.0   60.0   33.333333333333336
-300.0   60.0   33.333333333333336
-250.0   60.0   50.0
-300.0   30.0   50.0
-300.0   60.0   50.0
-250.0   60.0   50.0
-300.0   60.0   33.333333333333336
-300.0   30.0   50.0
-250.0   60.0   50.0
-250.0   30.0   50.0
-250.0   30.0   33.333333333333336
-300.0   30.0   50.0
-250.0   60.0   50.0
-250.0   30.0   33.333333333333336
-300.0   60.0   33.333333333333336
-300.0   60.0   0.0
-250.0   60.0   0.0
-300.0   90.0   0.0
-300.0   60.0   16.666666666666668
-250.0   60.0   0.0
-250.0   90.0   0.0
-300.0   90.0   0.0
-250.0   90.0   16.666666666666668
-300.0   60.0   16.666666666666668
-300.0   90.0   16.666666666666668
-250.0   90.0   16.666666666666668
-300.0   90.0   0.0
-300.0   60.0   16.666666666666668
-250.0   90.0   16.666666666666668
-250.0   60.0   16.666666666666668
-250.0   60.0   0.0
-300.0   60.0   16.666666666666668
-250.0   90.0   16.666666666666668
-250.0   60.0   0.0
-300.0   90.0   0.0
-300.0   60.0   16.666666666666668
-250.0   60.0   16.666666666666668
-300.0   90.0   16.666666666666668
-300.0   60.0   33.333333333333336
-250.0   60.0   16.666666666666668
-250.0   90.0   16.666666666666668
-300.0   90.0   16.666666666666668
-250.0   90.0   33.333333333333336
-300.0   60.0   33.333333333333336
-300.0   90.0   33.333333333333336
-250.0   90.0   33.333333333333336
-300.0   90.0   16.666666666666668
-300.0   60.0   33.333333333333336
-250.0   90.0   33.333333333333336
-250.0   60.0   33.333333333333336
-250.0   60.0   16.666666666666668
-300.0   60.0   33.333333333333336
-250.0   90.0   33.333333333333336
-250.0   60.0   16.666666666666668
-300.0   90.0   16.666666666666668
-300.0   60.0   33.333333333333336
-250.0   60.0   33.333333333333336
-300.0   90.0   33.333333333333336
-300.0   60.0   50.0
-250.0   60.0   33.333333333333336
-250.0   90.0   33.333333333333336
-300.0   90.0   33.333333333333336
-250.0   90.0   50.0
-300.0   60.0   50.0
-300.0   90.0   50.0
-250.0   90.0   50.0
-300.0   90.0   33.333333333333336
-300.0   60.0   50.0
-250.0   90.0   50.0
-250.0   60.0   50.0
-250.0   60.0   33.333333333333336
-300.0   60.0   50.0
-250.0   90.0   50.0
-250.0   60.0   33.333333333333336
-300.0   90.0   33.333333333333336
-300.0   90.0   0.0
-250.0   90.0   0.0
-300.0   120.0   0.0
-300.0   90.0   16.666666666666668
-250.0   90.0   0.0
-250.0   120.0   0.0
-300.0   120.0   0.0
-250.0   120.0   16.666666666666668
-300.0   90.0   16.666666666666668
-300.0   120.0   16.666666666666668
-250.0   120.0   16.666666666666668
-300.0   120.0   0.0
-300.0   90.0   16.666666666666668
-250.0   120.0   16.666666666666668
-250.0   90.0   16.666666666666668
-250.0   90.0   0.0
-300.0   90.0   16.666666666666668
-250.0   120.0   16.666666666666668
-250.0   90.0   0.0
-300.0   120.0   0.0
-300.0   90.0   16.666666666666668
-250.0   90.0   16.666666666666668
-300.0   120.0   16.666666666666668
-300.0   90.0   33.333333333333336
-250.0   90.0   16.666666666666668
-250.0   120.0   16.666666666666668
-300.0   120.0   16.666666666666668
-250.0   120.0   33.333333333333336
-300.0   90.0   33.333333333333336
-300.0   120.0   33.333333333333336
-250.0   120.0   33.333333333333336
-300.0   120.0   16.666666666666668
-300.0   90.0   33.333333333333336
-250.0   120.0   33.333333333333336
-250.0   90.0   33.333333333333336
-250.0   90.0   16.666666666666668
-300.0   90.0   33.333333333333336
-250.0   120.0   33.333333333333336
-250.0   90.0   16.666666666666668
-300.0   120.0   16.666666666666668
-300.0   90.0   33.333333333333336
-250.0   90.0   33.333333333333336
-300.0   120.0   33.333333333333336
-300.0   90.0   50.0
-250.0   90.0   33.333333333333336
-250.0   120.0   33.333333333333336
-300.0   120.0   33.333333333333336
-250.0   120.0   50.0
-300.0   90.0   50.0
-300.0   120.0   50.0
-250.0   120.0   50.0
-300.0   120.0   33.333333333333336
-300.0   90.0   50.0
-250.0   120.0   50.0
-250.0   90.0   50.0
-250.0   90.0   33.333333333333336
-300.0   90.0   50.0
-250.0   120.0   50.0
-250.0   90.0   33.333333333333336
-300.0   120.0   33.333333333333336
-300.0   120.0   0.0
-250.0   120.0   0.0
-300.0   150.0   0.0
-300.0   120.0   16.666666666666668
-250.0   120.0   0.0
-250.0   150.0   0.0
-300.0   150.0   0.0
-250.0   150.0   16.666666666666668
-300.0   120.0   16.666666666666668
-300.0   150.0   16.666666666666668
-250.0   150.0   16.666666666666668
-300.0   150.0   0.0
-300.0   120.0   16.666666666666668
-250.0   150.0   16.666666666666668
-250.0   120.0   16.666666666666668
-250.0   120.0   0.0
-300.0   120.0   16.666666666666668
-250.0   150.0   16.666666666666668
-250.0   120.0   0.0
-300.0   150.0   0.0
-300.0   120.0   16.666666666666668
-250.0   120.0   16.666666666666668
-300.0   150.0   16.666666666666668
-300.0   120.0   33.333333333333336
-250.0   120.0   16.666666666666668
-250.0   150.0   16.666666666666668
-300.0   150.0   16.666666666666668
-250.0   150.0   33.333333333333336
-300.0   120.0   33.333333333333336
-300.0   150.0   33.333333333333336
-250.0   150.0   33.333333333333336
-300.0   150.0   16.666666666666668
-300.0   120.0   33.333333333333336
-250.0   150.0   33.333333333333336
-250.0   120.0   33.333333333333336
-250.0   120.0   16.666666666666668
-300.0   120.0   33.333333333333336
-250.0   150.0   33.333333333333336
-250.0   120.0   16.666666666666668
-300.0   150.0   16.666666666666668
-300.0   120.0   33.333333333333336
-250.0   120.0   33.333333333333336
-300.0   150.0   33.333333333333336
-300.0   120.0   50.0
-250.0   120.0   33.333333333333336
-250.0   150.0   33.333333333333336
-300.0   150.0   33.333333333333336
-250.0   150.0   50.0
-300.0   120.0   50.0
-300.0   150.0   50.0
-250.0   150.0   50.0
-300.0   150.0   33.333333333333336
-300.0   120.0   50.0
-250.0   150.0   50.0
-250.0   120.0   50.0
-250.0   120.0   33.333333333333336
-300.0   120.0   50.0
-250.0   150.0   50.0
-250.0   120.0   33.333333333333336
-300.0   150.0   33.333333333333336
-250.0   0.0   0.0
-200.0   0.0   0.0
-250.0   30.0   0.0
-250.0   0.0   16.666666666666668
-200.0   0.0   0.0
-200.0   30.0   0.0
-250.0   30.0   0.0
-200.0   30.0   16.666666666666668
-250.0   0.0   16.666666666666668
-250.0   30.0   16.666666666666668
-200.0   30.0   16.666666666666668
-250.0   30.0   0.0
-250.0   0.0   16.666666666666668
-200.0   30.0   16.666666666666668
-200.0   0.0   16.666666666666668
-200.0   0.0   0.0
-250.0   0.0   16.666666666666668
-200.0   30.0   16.666666666666668
-200.0   0.0   0.0
-250.0   30.0   0.0
-250.0   0.0   16.666666666666668
-200.0   0.0   16.666666666666668
-250.0   30.0   16.666666666666668
-250.0   0.0   33.333333333333336
-200.0   0.0   16.666666666666668
-200.0   30.0   16.666666666666668
-250.0   30.0   16.666666666666668
-200.0   30.0   33.333333333333336
-250.0   0.0   33.333333333333336
-250.0   30.0   33.333333333333336
-200.0   30.0   33.333333333333336
-250.0   30.0   16.666666666666668
-250.0   0.0   33.333333333333336
-200.0   30.0   33.333333333333336
-200.0   0.0   33.333333333333336
-200.0   0.0   16.666666666666668
-250.0   0.0   33.333333333333336
-200.0   30.0   33.333333333333336
-200.0   0.0   16.666666666666668
-250.0   30.0   16.666666666666668
-250.0   0.0   33.333333333333336
-200.0   0.0   33.333333333333336
-250.0   30.0   33.333333333333336
-250.0   0.0   50.0
-200.0   0.0   33.333333333333336
-200.0   30.0   33.333333333333336
-250.0   30.0   33.333333333333336
-200.0   30.0   50.0
-250.0   0.0   50.0
-250.0   30.0   50.0
-200.0   30.0   50.0
-250.0   30.0   33.333333333333336
-250.0   0.0   50.0
-200.0   30.0   50.0
-200.0   0.0   50.0
-200.0   0.0   33.333333333333336
-250.0   0.0   50.0
-200.0   30.0   50.0
-200.0   0.0   33.333333333333336
-250.0   30.0   33.333333333333336
-250.0   30.0   0.0
-200.0   30.0   0.0
-250.0   60.0   0.0
-250.0   30.0   16.666666666666668
-200.0   30.0   0.0
-200.0   60.0   0.0
-250.0   60.0   0.0
-200.0   60.0   16.666666666666668
-250.0   30.0   16.666666666666668
-250.0   60.0   16.666666666666668
-200.0   60.0   16.666666666666668
-250.0   60.0   0.0
-250.0   30.0   16.666666666666668
-200.0   60.0   16.666666666666668
-200.0   30.0   16.666666666666668
-200.0   30.0   0.0
-250.0   30.0   16.666666666666668
-200.0   60.0   16.666666666666668
-200.0   30.0   0.0
-250.0   60.0   0.0
-250.0   30.0   16.666666666666668
-200.0   30.0   16.666666666666668
-250.0   60.0   16.666666666666668
-250.0   30.0   33.333333333333336
-200.0   30.0   16.666666666666668
-200.0   60.0   16.666666666666668
-250.0   60.0   16.666666666666668
-200.0   60.0   33.333333333333336
-250.0   30.0   33.333333333333336
-250.0   60.0   33.333333333333336
-200.0   60.0   33.333333333333336
-250.0   60.0   16.666666666666668
-250.0   30.0   33.333333333333336
-200.0   60.0   33.333333333333336
-200.0   30.0   33.333333333333336
-200.0   30.0   16.666666666666668
-250.0   30.0   33.333333333333336
-200.0   60.0   33.333333333333336
-200.0   30.0   16.666666666666668
-250.0   60.0   16.666666666666668
-250.0   30.0   33.333333333333336
-200.0   30.0   33.333333333333336
-250.0   60.0   33.333333333333336
-250.0   30.0   50.0
-200.0   30.0   33.333333333333336
-200.0   60.0   33.333333333333336
-250.0   60.0   33.333333333333336
-200.0   60.0   50.0
-250.0   30.0   50.0
-250.0   60.0   50.0
-200.0   60.0   50.0
-250.0   60.0   33.333333333333336
-250.0   30.0   50.0
-200.0   60.0   50.0
-200.0   30.0   50.0
-200.0   30.0   33.333333333333336
-250.0   30.0   50.0
-200.0   60.0   50.0
-200.0   30.0   33.333333333333336
-250.0   60.0   33.333333333333336
-250.0   60.0   0.0
-200.0   60.0   0.0
-250.0   90.0   0.0
-250.0   60.0   16.666666666666668
-200.0   60.0   0.0
-200.0   90.0   0.0
-250.0   90.0   0.0
-200.0   90.0   16.666666666666668
-250.0   60.0   16.666666666666668
-250.0   90.0   16.666666666666668
-200.0   90.0   16.666666666666668
-250.0   90.0   0.0
-250.0   60.0   16.666666666666668
-200.0   90.0   16.666666666666668
-200.0   60.0   16.666666666666668
-200.0   60.0   0.0
-250.0   60.0   16.666666666666668
-200.0   90.0   16.666666666666668
-200.0   60.0   0.0
-250.0   90.0   0.0
-250.0   60.0   16.666666666666668
-200.0   60.0   16.666666666666668
-250.0   90.0   16.666666666666668
-250.0   60.0   33.333333333333336
-200.0   60.0   16.666666666666668
-200.0   90.0   16.666666666666668
-250.0   90.0   16.666666666666668
-200.0   90.0   33.333333333333336
-250.0   60.0   33.333333333333336
-250.0   90.0   33.333333333333336
-200.0   90.0   33.333333333333336
-250.0   90.0   16.666666666666668
-250.0   60.0   33.333333333333336
-200.0   90.0   33.333333333333336
-200.0   60.0   33.333333333333336
-200.0   60.0   16.666666666666668
-250.0   60.0   33.333333333333336
-200.0   90.0   33.333333333333336
-200.0   60.0   16.666666666666668
-250.0   90.0   16.666666666666668
-250.0   60.0   33.333333333333336
-200.0   60.0   33.333333333333336
-250.0   90.0   33.333333333333336
-250.0   60.0   50.0
-200.0   60.0   33.333333333333336
-200.0   90.0   33.333333333333336
-250.0   90.0   33.333333333333336
-200.0   90.0   50.0
-250.0   60.0   50.0
-250.0   90.0   50.0
-200.0   90.0   50.0
-250.0   90.0   33.333333333333336
-250.0   60.0   50.0
-200.0   90.0   50.0
-200.0   60.0   50.0
-200.0   60.0   33.333333333333336
-250.0   60.0   50.0
-200.0   90.0   50.0
-200.0   60.0   33.333333333333336
-250.0   90.0   33.333333333333336
-250.0   90.0   0.0
-200.0   90.0   0.0
-250.0   120.0   0.0
-250.0   90.0   16.666666666666668
-200.0   90.0   0.0
-200.0   120.0   0.0
-250.0   120.0   0.0
-200.0   120.0   16.666666666666668
-250.0   90.0   16.666666666666668
-250.0   120.0   16.666666666666668
-200.0   120.0   16.666666666666668
-250.0   120.0   0.0
-250.0   90.0   16.666666666666668
-200.0   120.0   16.666666666666668
-200.0   90.0   16.666666666666668
-200.0   90.0   0.0
-250.0   90.0   16.666666666666668
-200.0   120.0   16.666666666666668
-200.0   90.0   0.0
-250.0   120.0   0.0
-250.0   90.0   16.666666666666668
-200.0   90.0   16.666666666666668
-250.0   120.0   16.666666666666668
-250.0   90.0   33.333333333333336
-200.0   90.0   16.666666666666668
-200.0   120.0   16.666666666666668
-250.0   120.0   16.666666666666668
-200.0   120.0   33.333333333333336
-250.0   90.0   33.333333333333336
-250.0   120.0   33.333333333333336
-200.0   120.0   33.333333333333336
-250.0   120.0   16.666666666666668
-250.0   90.0   33.333333333333336
-200.0   120.0   33.333333333333336
-200.0   90.0   33.333333333333336
-200.0   90.0   16.666666666666668
-250.0   90.0   33.333333333333336
-200.0   120.0   33.333333333333336
-200.0   90.0   16.666666666666668
-250.0   120.0   16.666666666666668
-250.0   90.0   33.333333333333336
-200.0   90.0   33.333333333333336
-250.0   120.0   33.333333333333336
-250.0   90.0   50.0
-200.0   90.0   33.333333333333336
-200.0   120.0   33.333333333333336
-250.0   120.0   33.333333333333336
-200.0   120.0   50.0
-250.0   90.0   50.0
-250.0   120.0   50.0
-200.0   120.0   50.0
-250.0   120.0   33.333333333333336
-250.0   90.0   50.0
-200.0   120.0   50.0
-200.0   90.0   50.0
-200.0   90.0   33.333333333333336
-250.0   90.0   50.0
-200.0   120.0   50.0
-200.0   90.0   33.333333333333336
-250.0   120.0   33.333333333333336
-250.0   120.0   0.0
-200.0   120.0   0.0
-250.0   150.0   0.0
-250.0   120.0   16.666666666666668
-200.0   120.0   0.0
-200.0   150.0   0.0
-250.0   150.0   0.0
-200.0   150.0   16.666666666666668
-250.0   120.0   16.666666666666668
-250.0   150.0   16.666666666666668
-200.0   150.0   16.666666666666668
-250.0   150.0   0.0
-250.0   120.0   16.666666666666668
-200.0   150.0   16.666666666666668
-200.0   120.0   16.666666666666668
-200.0   120.0   0.0
-250.0   120.0   16.666666666666668
-200.0   150.0   16.666666666666668
-200.0   120.0   0.0
-250.0   150.0   0.0
-250.0   120.0   16.666666666666668
-200.0   120.0   16.666666666666668
-250.0   150.0   16.666666666666668
-250.0   120.0   33.333333333333336
-200.0   120.0   16.666666666666668
-200.0   150.0   16.666666666666668
-250.0   150.0   16.666666666666668
-200.0   150.0   33.333333333333336
-250.0   120.0   33.333333333333336
-250.0   150.0   33.333333333333336
-200.0   150.0   33.333333333333336
-250.0   150.0   16.666666666666668
-250.0   120.0   33.333333333333336
-200.0   150.0   33.333333333333336
-200.0   120.0   33.333333333333336
-200.0   120.0   16.666666666666668
-250.0   120.0   33.333333333333336
-200.0   150.0   33.333333333333336
-200.0   120.0   16.666666666666668
-250.0   150.0   16.666666666666668
-250.0   120.0   33.333333333333336
-200.0   120.0   33.333333333333336
-250.0   150.0   33.333333333333336
-250.0   120.0   50.0
-200.0   120.0   33.333333333333336
-200.0   150.0   33.333333333333336
-250.0   150.0   33.333333333333336
-200.0   150.0   50.0
-250.0   120.0   50.0
-250.0   150.0   50.0
-200.0   150.0   50.0
-250.0   150.0   33.333333333333336
-250.0   120.0   50.0
-200.0   150.0   50.0
-200.0   120.0   50.0
-200.0   120.0   33.333333333333336
-250.0   120.0   50.0
-200.0   150.0   50.0
-200.0   120.0   33.333333333333336
-250.0   150.0   33.333333333333336
-200.0   0.0   0.0
-150.0   0.0   0.0
-200.0   30.0   0.0
-200.0   0.0   16.666666666666668
-150.0   0.0   0.0
-150.0   30.0   0.0
-200.0   30.0   0.0
-150.0   30.0   16.666666666666668
-200.0   0.0   16.666666666666668
-200.0   30.0   16.666666666666668
-150.0   30.0   16.666666666666668
-200.0   30.0   0.0
-200.0   0.0   16.666666666666668
-150.0   30.0   16.666666666666668
-150.0   0.0   16.666666666666668
-150.0   0.0   0.0
-200.0   0.0   16.666666666666668
-150.0   30.0   16.666666666666668
-150.0   0.0   0.0
-200.0   30.0   0.0
-200.0   0.0   16.666666666666668
-150.0   0.0   16.666666666666668
-200.0   30.0   16.666666666666668
-200.0   0.0   33.333333333333336
-150.0   0.0   16.666666666666668
-150.0   30.0   16.666666666666668
-200.0   30.0   16.666666666666668
-150.0   30.0   33.333333333333336
-200.0   0.0   33.333333333333336
-200.0   30.0   33.333333333333336
-150.0   30.0   33.333333333333336
-200.0   30.0   16.666666666666668
-200.0   0.0   33.333333333333336
-150.0   30.0   33.333333333333336
-150.0   0.0   33.333333333333336
-150.0   0.0   16.666666666666668
-200.0   0.0   33.333333333333336
-150.0   30.0   33.333333333333336
-150.0   0.0   16.666666666666668
-200.0   30.0   16.666666666666668
-200.0   0.0   33.333333333333336
-150.0   0.0   33.333333333333336
-200.0   30.0   33.333333333333336
-200.0   0.0   50.0
-150.0   0.0   33.333333333333336
-150.0   30.0   33.333333333333336
-200.0   30.0   33.333333333333336
-150.0   30.0   50.0
-200.0   0.0   50.0
-200.0   30.0   50.0
-150.0   30.0   50.0
-200.0   30.0   33.333333333333336
-200.0   0.0   50.0
-150.0   30.0   50.0
-150.0   0.0   50.0
-150.0   0.0   33.333333333333336
-200.0   0.0   50.0
-150.0   30.0   50.0
-150.0   0.0   33.333333333333336
-200.0   30.0   33.333333333333336
-200.0   30.0   0.0
-150.0   30.0   0.0
-200.0   60.0   0.0
-200.0   30.0   16.666666666666668
-150.0   30.0   0.0
-150.0   60.0   0.0
-200.0   60.0   0.0
-150.0   60.0   16.666666666666668
-200.0   30.0   16.666666666666668
-200.0   60.0   16.666666666666668
-150.0   60.0   16.666666666666668
-200.0   60.0   0.0
-200.0   30.0   16.666666666666668
-150.0   60.0   16.666666666666668
-150.0   30.0   16.666666666666668
-150.0   30.0   0.0
-200.0   30.0   16.666666666666668
-150.0   60.0   16.666666666666668
-150.0   30.0   0.0
-200.0   60.0   0.0
-200.0   30.0   16.666666666666668
-150.0   30.0   16.666666666666668
-200.0   60.0   16.666666666666668
-200.0   30.0   33.333333333333336
-150.0   30.0   16.666666666666668
-150.0   60.0   16.666666666666668
-200.0   60.0   16.666666666666668
-150.0   60.0   33.333333333333336
-200.0   30.0   33.333333333333336
-200.0   60.0   33.333333333333336
-150.0   60.0   33.333333333333336
-200.0   60.0   16.666666666666668
-200.0   30.0   33.333333333333336
-150.0   60.0   33.333333333333336
-150.0   30.0   33.333333333333336
-150.0   30.0   16.666666666666668
-200.0   30.0   33.333333333333336
-150.0   60.0   33.333333333333336
-150.0   30.0   16.666666666666668
-200.0   60.0   16.666666666666668
-200.0   30.0   33.333333333333336
-150.0   30.0   33.333333333333336
-200.0   60.0   33.333333333333336
-200.0   30.0   50.0
-150.0   30.0   33.333333333333336
-150.0   60.0   33.333333333333336
-200.0   60.0   33.333333333333336
-150.0   60.0   50.0
-200.0   30.0   50.0
-200.0   60.0   50.0
-150.0   60.0   50.0
-200.0   60.0   33.333333333333336
-200.0   30.0   50.0
-150.0   60.0   50.0
-150.0   30.0   50.0
-150.0   30.0   33.333333333333336
-200.0   30.0   50.0
-150.0   60.0   50.0
-150.0   30.0   33.333333333333336
-200.0   60.0   33.333333333333336
-200.0   60.0   0.0
-150.0   60.0   0.0
-200.0   90.0   0.0
-200.0   60.0   16.666666666666668
-150.0   60.0   0.0
-150.0   90.0   0.0
-200.0   90.0   0.0
-150.0   90.0   16.666666666666668
-200.0   60.0   16.666666666666668
-200.0   90.0   16.666666666666668
-150.0   90.0   16.666666666666668
-200.0   90.0   0.0
-200.0   60.0   16.666666666666668
-150.0   90.0   16.666666666666668
-150.0   60.0   16.666666666666668
-150.0   60.0   0.0
-200.0   60.0   16.666666666666668
-150.0   90.0   16.666666666666668
-150.0   60.0   0.0
-200.0   90.0   0.0
-200.0   60.0   16.666666666666668
-150.0   60.0   16.666666666666668
-200.0   90.0   16.666666666666668
-200.0   60.0   33.333333333333336
-150.0   60.0   16.666666666666668
-150.0   90.0   16.666666666666668
-200.0   90.0   16.666666666666668
-150.0   90.0   33.333333333333336
-200.0   60.0   33.333333333333336
-200.0   90.0   33.333333333333336
-150.0   90.0   33.333333333333336
-200.0   90.0   16.666666666666668
-200.0   60.0   33.333333333333336
-150.0   90.0   33.333333333333336
-150.0   60.0   33.333333333333336
-150.0   60.0   16.666666666666668
-200.0   60.0   33.333333333333336
-150.0   90.0   33.333333333333336
-150.0   60.0   16.666666666666668
-200.0   90.0   16.666666666666668
-200.0   60.0   33.333333333333336
-150.0   60.0   33.333333333333336
-200.0   90.0   33.333333333333336
-200.0   60.0   50.0
-150.0   60.0   33.333333333333336
-150.0   90.0   33.333333333333336
-200.0   90.0   33.333333333333336
-150.0   90.0   50.0
-200.0   60.0   50.0
-200.0   90.0   50.0
-150.0   90.0   50.0
-200.0   90.0   33.333333333333336
-200.0   60.0   50.0
-150.0   90.0   50.0
-150.0   60.0   50.0
-150.0   60.0   33.333333333333336
-200.0   60.0   50.0
-150.0   90.0   50.0
-150.0   60.0   33.333333333333336
-200.0   90.0   33.333333333333336
-200.0   90.0   0.0
-150.0   90.0   0.0
-200.0   120.0   0.0
-200.0   90.0   16.666666666666668
-150.0   90.0   0.0
-150.0   120.0   0.0
-200.0   120.0   0.0
-150.0   120.0   16.666666666666668
-200.0   90.0   16.666666666666668
-200.0   120.0   16.666666666666668
-150.0   120.0   16.666666666666668
-200.0   120.0   0.0
-200.0   90.0   16.666666666666668
-150.0   120.0   16.666666666666668
-150.0   90.0   16.666666666666668
-150.0   90.0   0.0
-200.0   90.0   16.666666666666668
-150.0   120.0   16.666666666666668
-150.0   90.0   0.0
-200.0   120.0   0.0
-200.0   90.0   16.666666666666668
-150.0   90.0   16.666666666666668
-200.0   120.0   16.666666666666668
-200.0   90.0   33.333333333333336
-150.0   90.0   16.666666666666668
-150.0   120.0   16.666666666666668
-200.0   120.0   16.666666666666668
-150.0   120.0   33.333333333333336
-200.0   90.0   33.333333333333336
-200.0   120.0   33.333333333333336
-150.0   120.0   33.333333333333336
-200.0   120.0   16.666666666666668
-200.0   90.0   33.333333333333336
-150.0   120.0   33.333333333333336
-150.0   90.0   33.333333333333336
-150.0   90.0   16.666666666666668
-200.0   90.0   33.333333333333336
-150.0   120.0   33.333333333333336
-150.0   90.0   16.666666666666668
-200.0   120.0   16.666666666666668
-200.0   90.0   33.333333333333336
-150.0   90.0   33.333333333333336
-200.0   120.0   33.333333333333336
-200.0   90.0   50.0
-150.0   90.0   33.333333333333336
-150.0   120.0   33.333333333333336
-200.0   120.0   33.333333333333336
-150.0   120.0   50.0
-200.0   90.0   50.0
-200.0   120.0   50.0
-150.0   120.0   50.0
-200.0   120.0   33.333333333333336
-200.0   90.0   50.0
-150.0   120.0   50.0
-150.0   90.0   50.0
-150.0   90.0   33.333333333333336
-200.0   90.0   50.0
-150.0   120.0   50.0
-150.0   90.0   33.333333333333336
-200.0   120.0   33.333333333333336
-200.0   120.0   0.0
-150.0   120.0   0.0
-200.0   150.0   0.0
-200.0   120.0   16.666666666666668
-150.0   120.0   0.0
-150.0   150.0   0.0
-200.0   150.0   0.0
-150.0   150.0   16.666666666666668
-200.0   120.0   16.666666666666668
-200.0   150.0   16.666666666666668
-150.0   150.0   16.666666666666668
-200.0   150.0   0.0
-200.0   120.0   16.666666666666668
-150.0   150.0   16.666666666666668
-150.0   120.0   16.666666666666668
-150.0   120.0   0.0
-200.0   120.0   16.666666666666668
-150.0   150.0   16.666666666666668
-150.0   120.0   0.0
-200.0   150.0   0.0
-200.0   120.0   16.666666666666668
-150.0   120.0   16.666666666666668
-200.0   150.0   16.666666666666668
-200.0   120.0   33.333333333333336
-150.0   120.0   16.666666666666668
-150.0   150.0   16.666666666666668
-200.0   150.0   16.666666666666668
-150.0   150.0   33.333333333333336
-200.0   120.0   33.333333333333336
-200.0   150.0   33.333333333333336
-150.0   150.0   33.333333333333336
-200.0   150.0   16.666666666666668
-200.0   120.0   33.333333333333336
-150.0   150.0   33.333333333333336
-150.0   120.0   33.333333333333336
-150.0   120.0   16.666666666666668
-200.0   120.0   33.333333333333336
-150.0   150.0   33.333333333333336
-150.0   120.0   16.666666666666668
-200.0   150.0   16.666666666666668
-200.0   120.0   33.333333333333336
-150.0   120.0   33.333333333333336
-200.0   150.0   33.333333333333336
-200.0   120.0   50.0
-150.0   120.0   33.333333333333336
-150.0   150.0   33.333333333333336
-200.0   150.0   33.333333333333336
-150.0   150.0   50.0
-200.0   120.0   50.0
-200.0   150.0   50.0
-150.0   150.0   50.0
-200.0   150.0   33.333333333333336
-200.0   120.0   50.0
-150.0   150.0   50.0
-150.0   120.0   50.0
-150.0   120.0   33.333333333333336
-200.0   120.0   50.0
-150.0   150.0   50.0
-150.0   120.0   33.333333333333336
-200.0   150.0   33.333333333333336
-150.0   0.0   0.0
-100.0   0.0   0.0
-150.0   30.0   0.0
-150.0   0.0   16.666666666666668
-100.0   0.0   0.0
-100.0   30.0   0.0
-150.0   30.0   0.0
-100.0   30.0   16.666666666666668
-150.0   0.0   16.666666666666668
-150.0   30.0   16.666666666666668
-100.0   30.0   16.666666666666668
-150.0   30.0   0.0
-150.0   0.0   16.666666666666668
-100.0   30.0   16.666666666666668
-100.0   0.0   16.666666666666668
-100.0   0.0   0.0
-150.0   0.0   16.666666666666668
-100.0   30.0   16.666666666666668
-100.0   0.0   0.0
-150.0   30.0   0.0
-150.0   0.0   16.666666666666668
-100.0   0.0   16.666666666666668
-150.0   30.0   16.666666666666668
-150.0   0.0   33.333333333333336
-100.0   0.0   16.666666666666668
-100.0   30.0   16.666666666666668
-150.0   30.0   16.666666666666668
-100.0   30.0   33.333333333333336
-150.0   0.0   33.333333333333336
-150.0   30.0   33.333333333333336
-100.0   30.0   33.333333333333336
-150.0   30.0   16.666666666666668
-150.0   0.0   33.333333333333336
-100.0   30.0   33.333333333333336
-100.0   0.0   33.333333333333336
-100.0   0.0   16.666666666666668
-150.0   0.0   33.333333333333336
-100.0   30.0   33.333333333333336
-100.0   0.0   16.666666666666668
-150.0   30.0   16.666666666666668
-150.0   0.0   33.333333333333336
-100.0   0.0   33.333333333333336
-150.0   30.0   33.333333333333336
-150.0   0.0   50.0
-100.0   0.0   33.333333333333336
-100.0   30.0   33.333333333333336
-150.0   30.0   33.333333333333336
-100.0   30.0   50.0
-150.0   0.0   50.0
-150.0   30.0   50.0
-100.0   30.0   50.0
-150.0   30.0   33.333333333333336
-150.0   0.0   50.0
-100.0   30.0   50.0
-100.0   0.0   50.0
-100.0   0.0   33.333333333333336
-150.0   0.0   50.0
-100.0   30.0   50.0
-100.0   0.0   33.333333333333336
-150.0   30.0   33.333333333333336
-150.0   30.0   0.0
-100.0   30.0   0.0
-150.0   60.0   0.0
-150.0   30.0   16.666666666666668
-100.0   30.0   0.0
-100.0   60.0   0.0
-150.0   60.0   0.0
-100.0   60.0   16.666666666666668
-150.0   30.0   16.666666666666668
-150.0   60.0   16.666666666666668
-100.0   60.0   16.666666666666668
-150.0   60.0   0.0
-150.0   30.0   16.666666666666668
-100.0   60.0   16.666666666666668
-100.0   30.0   16.666666666666668
-100.0   30.0   0.0
-150.0   30.0   16.666666666666668
-100.0   60.0   16.666666666666668
-100.0   30.0   0.0
-150.0   60.0   0.0
-150.0   30.0   16.666666666666668
-100.0   30.0   16.666666666666668
-150.0   60.0   16.666666666666668
-150.0   30.0   33.333333333333336
-100.0   30.0   16.666666666666668
-100.0   60.0   16.666666666666668
-150.0   60.0   16.666666666666668
-100.0   60.0   33.333333333333336
-150.0   30.0   33.333333333333336
-150.0   60.0   33.333333333333336
-100.0   60.0   33.333333333333336
-150.0   60.0   16.666666666666668
-150.0   30.0   33.333333333333336
-100.0   60.0   33.333333333333336
-100.0   30.0   33.333333333333336
-100.0   30.0   16.666666666666668
-150.0   30.0   33.333333333333336
-100.0   60.0   33.333333333333336
-100.0   30.0   16.666666666666668
-150.0   60.0   16.666666666666668
-150.0   30.0   33.333333333333336
-100.0   30.0   33.333333333333336
-150.0   60.0   33.333333333333336
-150.0   30.0   50.0
-100.0   30.0   33.333333333333336
-100.0   60.0   33.333333333333336
-150.0   60.0   33.333333333333336
-100.0   60.0   50.0
-150.0   30.0   50.0
-150.0   60.0   50.0
-100.0   60.0   50.0
-150.0   60.0   33.333333333333336
-150.0   30.0   50.0
-100.0   60.0   50.0
-100.0   30.0   50.0
-100.0   30.0   33.333333333333336
-150.0   30.0   50.0
-100.0   60.0   50.0
-100.0   30.0   33.333333333333336
-150.0   60.0   33.333333333333336
-150.0   60.0   0.0
-100.0   60.0   0.0
-150.0   90.0   0.0
-150.0   60.0   16.666666666666668
-100.0   60.0   0.0
-100.0   90.0   0.0
-150.0   90.0   0.0
-100.0   90.0   16.666666666666668
-150.0   60.0   16.666666666666668
-150.0   90.0   16.666666666666668
-100.0   90.0   16.666666666666668
-150.0   90.0   0.0
-150.0   60.0   16.666666666666668
-100.0   90.0   16.666666666666668
-100.0   60.0   16.666666666666668
-100.0   60.0   0.0
-150.0   60.0   16.666666666666668
-100.0   90.0   16.666666666666668
-100.0   60.0   0.0
-150.0   90.0   0.0
-150.0   60.0   16.666666666666668
-100.0   60.0   16.666666666666668
-150.0   90.0   16.666666666666668
-150.0   60.0   33.333333333333336
-100.0   60.0   16.666666666666668
-100.0   90.0   16.666666666666668
-150.0   90.0   16.666666666666668
-100.0   90.0   33.333333333333336
-150.0   60.0   33.333333333333336
-150.0   90.0   33.333333333333336
-100.0   90.0   33.333333333333336
-150.0   90.0   16.666666666666668
-150.0   60.0   33.333333333333336
-100.0   90.0   33.333333333333336
-100.0   60.0   33.333333333333336
-100.0   60.0   16.666666666666668
-150.0   60.0   33.333333333333336
-100.0   90.0   33.333333333333336
-100.0   60.0   16.666666666666668
-150.0   90.0   16.666666666666668
-150.0   60.0   33.333333333333336
-100.0   60.0   33.333333333333336
-150.0   90.0   33.333333333333336
-150.0   60.0   50.0
-100.0   60.0   33.333333333333336
-100.0   90.0   33.333333333333336
-150.0   90.0   33.333333333333336
-100.0   90.0   50.0
-150.0   60.0   50.0
-150.0   90.0   50.0
-100.0   90.0   50.0
-150.0   90.0   33.333333333333336
-150.0   60.0   50.0
-100.0   90.0   50.0
-100.0   60.0   50.0
-100.0   60.0   33.333333333333336
-150.0   60.0   50.0
-100.0   90.0   50.0
-100.0   60.0   33.333333333333336
-150.0   90.0   33.333333333333336
-150.0   90.0   0.0
-100.0   90.0   0.0
-150.0   120.0   0.0
-150.0   90.0   16.666666666666668
-100.0   90.0   0.0
-100.0   120.0   0.0
-150.0   120.0   0.0
-100.0   120.0   16.666666666666668
-150.0   90.0   16.666666666666668
-150.0   120.0   16.666666666666668
-100.0   120.0   16.666666666666668
-150.0   120.0   0.0
-150.0   90.0   16.666666666666668
-100.0   120.0   16.666666666666668
-100.0   90.0   16.666666666666668
-100.0   90.0   0.0
-150.0   90.0   16.666666666666668
-100.0   120.0   16.666666666666668
-100.0   90.0   0.0
-150.0   120.0   0.0
-150.0   90.0   16.666666666666668
-100.0   90.0   16.666666666666668
-150.0   120.0   16.666666666666668
-150.0   90.0   33.333333333333336
-100.0   90.0   16.666666666666668
-100.0   120.0   16.666666666666668
-150.0   120.0   16.666666666666668
-100.0   120.0   33.333333333333336
-150.0   90.0   33.333333333333336
-150.0   120.0   33.333333333333336
-100.0   120.0   33.333333333333336
-150.0   120.0   16.666666666666668
-150.0   90.0   33.333333333333336
-100.0   120.0   33.333333333333336
-100.0   90.0   33.333333333333336
-100.0   90.0   16.666666666666668
-150.0   90.0   33.333333333333336
-100.0   120.0   33.333333333333336
-100.0   90.0   16.666666666666668
-150.0   120.0   16.666666666666668
-150.0   90.0   33.333333333333336
-100.0   90.0   33.333333333333336
-150.0   120.0   33.333333333333336
-150.0   90.0   50.0
-100.0   90.0   33.333333333333336
-100.0   120.0   33.333333333333336
-150.0   120.0   33.333333333333336
-100.0   120.0   50.0
-150.0   90.0   50.0
-150.0   120.0   50.0
-100.0   120.0   50.0
-150.0   120.0   33.333333333333336
-150.0   90.0   50.0
-100.0   120.0   50.0
-100.0   90.0   50.0
-100.0   90.0   33.333333333333336
-150.0   90.0   50.0
-100.0   120.0   50.0
-100.0   90.0   33.333333333333336
-150.0   120.0   33.333333333333336
-150.0   120.0   0.0
-100.0   120.0   0.0
-150.0   150.0   0.0
-150.0   120.0   16.666666666666668
-100.0   120.0   0.0
-100.0   150.0   0.0
-150.0   150.0   0.0
-100.0   150.0   16.666666666666668
-150.0   120.0   16.666666666666668
-150.0   150.0   16.666666666666668
-100.0   150.0   16.666666666666668
-150.0   150.0   0.0
-150.0   120.0   16.666666666666668
-100.0   150.0   16.666666666666668
-100.0   120.0   16.666666666666668
-100.0   120.0   0.0
-150.0   120.0   16.666666666666668
-100.0   150.0   16.666666666666668
-100.0   120.0   0.0
-150.0   150.0   0.0
-150.0   120.0   16.666666666666668
-100.0   120.0   16.666666666666668
-150.0   150.0   16.666666666666668
-150.0   120.0   33.333333333333336
-100.0   120.0   16.666666666666668
-100.0   150.0   16.666666666666668
-150.0   150.0   16.666666666666668
-100.0   150.0   33.333333333333336
-150.0   120.0   33.333333333333336
-150.0   150.0   33.333333333333336
-100.0   150.0   33.333333333333336
-150.0   150.0   16.666666666666668
-150.0   120.0   33.333333333333336
-100.0   150.0   33.333333333333336
-100.0   120.0   33.333333333333336
-100.0   120.0   16.666666666666668
-150.0   120.0   33.333333333333336
-100.0   150.0   33.333333333333336
-100.0   120.0   16.666666666666668
-150.0   150.0   16.666666666666668
-150.0   120.0   33.333333333333336
-100.0   120.0   33.333333333333336
-150.0   150.0   33.333333333333336
-150.0   120.0   50.0
-100.0   120.0   33.333333333333336
-100.0   150.0   33.333333333333336
-150.0   150.0   33.333333333333336
-100.0   150.0   50.0
-150.0   120.0   50.0
-150.0   150.0   50.0
-100.0   150.0   50.0
-150.0   150.0   33.333333333333336
-150.0   120.0   50.0
-100.0   150.0   50.0
-100.0   120.0   50.0
-100.0   120.0   33.333333333333336
-150.0   120.0   50.0
-100.0   150.0   50.0
-100.0   120.0   33.333333333333336
-150.0   150.0   33.333333333333336
-100.0   0.0   0.0
-50.0   0.0   0.0
-100.0   30.0   0.0
-100.0   0.0   16.666666666666668
-50.0   0.0   0.0
-50.0   30.0   0.0
-100.0   30.0   0.0
-50.0   30.0   16.666666666666668
-100.0   0.0   16.666666666666668
-100.0   30.0   16.666666666666668
-50.0   30.0   16.666666666666668
-100.0   30.0   0.0
-100.0   0.0   16.666666666666668
-50.0   30.0   16.666666666666668
-50.0   0.0   16.666666666666668
-50.0   0.0   0.0
-100.0   0.0   16.666666666666668
-50.0   30.0   16.666666666666668
-50.0   0.0   0.0
-100.0   30.0   0.0
-100.0   0.0   16.666666666666668
-50.0   0.0   16.666666666666668
-100.0   30.0   16.666666666666668
-100.0   0.0   33.333333333333336
-50.0   0.0   16.666666666666668
-50.0   30.0   16.666666666666668
-100.0   30.0   16.666666666666668
-50.0   30.0   33.333333333333336
-100.0   0.0   33.333333333333336
-100.0   30.0   33.333333333333336
-50.0   30.0   33.333333333333336
-100.0   30.0   16.666666666666668
-100.0   0.0   33.333333333333336
-50.0   30.0   33.333333333333336
-50.0   0.0   33.333333333333336
-50.0   0.0   16.666666666666668
-100.0   0.0   33.333333333333336
-50.0   30.0   33.333333333333336
-50.0   0.0   16.666666666666668
-100.0   30.0   16.666666666666668
-100.0   0.0   33.333333333333336
-50.0   0.0   33.333333333333336
-100.0   30.0   33.333333333333336
-100.0   0.0   50.0
-50.0   0.0   33.333333333333336
-50.0   30.0   33.333333333333336
-100.0   30.0   33.333333333333336
-50.0   30.0   50.0
-100.0   0.0   50.0
-100.0   30.0   50.0
-50.0   30.0   50.0
-100.0   30.0   33.333333333333336
-100.0   0.0   50.0
-50.0   30.0   50.0
-50.0   0.0   50.0
-50.0   0.0   33.333333333333336
-100.0   0.0   50.0
-50.0   30.0   50.0
-50.0   0.0   33.333333333333336
-100.0   30.0   33.333333333333336
-100.0   30.0   0.0
-50.0   30.0   0.0
-100.0   60.0   0.0
-100.0   30.0   16.666666666666668
-50.0   30.0   0.0
-50.0   60.0   0.0
-100.0   60.0   0.0
-50.0   60.0   16.666666666666668
-100.0   30.0   16.666666666666668
-100.0   60.0   16.666666666666668
-50.0   60.0   16.666666666666668
-100.0   60.0   0.0
-100.0   30.0   16.666666666666668
-50.0   60.0   16.666666666666668
-50.0   30.0   16.666666666666668
-50.0   30.0   0.0
-100.0   30.0   16.666666666666668
-50.0   60.0   16.666666666666668
-50.0   30.0   0.0
-100.0   60.0   0.0
-100.0   30.0   16.666666666666668
-50.0   30.0   16.666666666666668
-100.0   60.0   16.666666666666668
-100.0   30.0   33.333333333333336
-50.0   30.0   16.666666666666668
-50.0   60.0   16.666666666666668
-100.0   60.0   16.666666666666668
-50.0   60.0   33.333333333333336
-100.0   30.0   33.333333333333336
-100.0   60.0   33.333333333333336
-50.0   60.0   33.333333333333336
-100.0   60.0   16.666666666666668
-100.0   30.0   33.333333333333336
-50.0   60.0   33.333333333333336
-50.0   30.0   33.333333333333336
-50.0   30.0   16.666666666666668
-100.0   30.0   33.333333333333336
-50.0   60.0   33.333333333333336
-50.0   30.0   16.666666666666668
-100.0   60.0   16.666666666666668
-100.0   30.0   33.333333333333336
-50.0   30.0   33.333333333333336
-100.0   60.0   33.333333333333336
-100.0   30.0   50.0
-50.0   30.0   33.333333333333336
-50.0   60.0   33.333333333333336
-100.0   60.0   33.333333333333336
-50.0   60.0   50.0
-100.0   30.0   50.0
-100.0   60.0   50.0
-50.0   60.0   50.0
-100.0   60.0   33.333333333333336
-100.0   30.0   50.0
-50.0   60.0   50.0
-50.0   30.0   50.0
-50.0   30.0   33.333333333333336
-100.0   30.0   50.0
-50.0   60.0   50.0
-50.0   30.0   33.333333333333336
-100.0   60.0   33.333333333333336
-100.0   60.0   0.0
-50.0   60.0   0.0
-100.0   90.0   0.0
-100.0   60.0   16.666666666666668
-50.0   60.0   0.0
-50.0   90.0   0.0
-100.0   90.0   0.0
-50.0   90.0   16.666666666666668
-100.0   60.0   16.666666666666668
-100.0   90.0   16.666666666666668
-50.0   90.0   16.666666666666668
-100.0   90.0   0.0
-100.0   60.0   16.666666666666668
-50.0   90.0   16.666666666666668
-50.0   60.0   16.666666666666668
-50.0   60.0   0.0
-100.0   60.0   16.666666666666668
-50.0   90.0   16.666666666666668
-50.0   60.0   0.0
-100.0   90.0   0.0
-100.0   60.0   16.666666666666668
-50.0   60.0   16.666666666666668
-100.0   90.0   16.666666666666668
-100.0   60.0   33.333333333333336
-50.0   60.0   16.666666666666668
-50.0   90.0   16.666666666666668
-100.0   90.0   16.666666666666668
-50.0   90.0   33.333333333333336
-100.0   60.0   33.333333333333336
-100.0   90.0   33.333333333333336
-50.0   90.0   33.333333333333336
-100.0   90.0   16.666666666666668
-100.0   60.0   33.333333333333336
-50.0   90.0   33.333333333333336
-50.0   60.0   33.333333333333336
-50.0   60.0   16.666666666666668
-100.0   60.0   33.333333333333336
-50.0   90.0   33.333333333333336
-50.0   60.0   16.666666666666668
-100.0   90.0   16.666666666666668
-100.0   60.0   33.333333333333336
-50.0   60.0   33.333333333333336
-100.0   90.0   33.333333333333336
-100.0   60.0   50.0
-50.0   60.0   33.333333333333336
-50.0   90.0   33.333333333333336
-100.0   90.0   33.333333333333336
-50.0   90.0   50.0
-100.0   60.0   50.0
-100.0   90.0   50.0
-50.0   90.0   50.0
-100.0   90.0   33.333333333333336
-100.0   60.0   50.0
-50.0   90.0   50.0
-50.0   60.0   50.0
-50.0   60.0   33.333333333333336
-100.0   60.0   50.0
-50.0   90.0   50.0
-50.0   60.0   33.333333333333336
-100.0   90.0   33.333333333333336
-100.0   90.0   0.0
-50.0   90.0   0.0
-100.0   120.0   0.0
-100.0   90.0   16.666666666666668
-50.0   90.0   0.0
-50.0   120.0   0.0
-100.0   120.0   0.0
-50.0   120.0   16.666666666666668
-100.0   90.0   16.666666666666668
-100.0   120.0   16.666666666666668
-50.0   120.0   16.666666666666668
-100.0   120.0   0.0
-100.0   90.0   16.666666666666668
-50.0   120.0   16.666666666666668
-50.0   90.0   16.666666666666668
-50.0   90.0   0.0
-100.0   90.0   16.666666666666668
-50.0   120.0   16.666666666666668
-50.0   90.0   0.0
-100.0   120.0   0.0
-100.0   90.0   16.666666666666668
-50.0   90.0   16.666666666666668
-100.0   120.0   16.666666666666668
-100.0   90.0   33.333333333333336
-50.0   90.0   16.666666666666668
-50.0   120.0   16.666666666666668
-100.0   120.0   16.666666666666668
-50.0   120.0   33.333333333333336
-100.0   90.0   33.333333333333336
-100.0   120.0   33.333333333333336
-50.0   120.0   33.333333333333336
-100.0   120.0   16.666666666666668
-100.0   90.0   33.333333333333336
-50.0   120.0   33.333333333333336
-50.0   90.0   33.333333333333336
-50.0   90.0   16.666666666666668
-100.0   90.0   33.333333333333336
-50.0   120.0   33.333333333333336
-50.0   90.0   16.666666666666668
-100.0   120.0   16.666666666666668
-100.0   90.0   33.333333333333336
-50.0   90.0   33.333333333333336
-100.0   120.0   33.333333333333336
-100.0   90.0   50.0
-50.0   90.0   33.333333333333336
-50.0   120.0   33.333333333333336
-100.0   120.0   33.333333333333336
-50.0   120.0   50.0
-100.0   90.0   50.0
-100.0   120.0   50.0
-50.0   120.0   50.0
-100.0   120.0   33.333333333333336
-100.0   90.0   50.0
-50.0   120.0   50.0
-50.0   90.0   50.0
-50.0   90.0   33.333333333333336
-100.0   90.0   50.0
-50.0   120.0   50.0
-50.0   90.0   33.333333333333336
-100.0   120.0   33.333333333333336
-100.0   120.0   0.0
-50.0   120.0   0.0
-100.0   150.0   0.0
-100.0   120.0   16.666666666666668
-50.0   120.0   0.0
-50.0   150.0   0.0
-100.0   150.0   0.0
-50.0   150.0   16.666666666666668
-100.0   120.0   16.666666666666668
-100.0   150.0   16.666666666666668
-50.0   150.0   16.666666666666668
-100.0   150.0   0.0
-100.0   120.0   16.666666666666668
-50.0   150.0   16.666666666666668
-50.0   120.0   16.666666666666668
-50.0   120.0   0.0
-100.0   120.0   16.666666666666668
-50.0   150.0   16.666666666666668
-50.0   120.0   0.0
-100.0   150.0   0.0
-100.0   120.0   16.666666666666668
-50.0   120.0   16.666666666666668
-100.0   150.0   16.666666666666668
-100.0   120.0   33.333333333333336
-50.0   120.0   16.666666666666668
-50.0   150.0   16.666666666666668
-100.0   150.0   16.666666666666668
-50.0   150.0   33.333333333333336
-100.0   120.0   33.333333333333336
-100.0   150.0   33.333333333333336
-50.0   150.0   33.333333333333336
-100.0   150.0   16.666666666666668
-100.0   120.0   33.333333333333336
-50.0   150.0   33.333333333333336
-50.0   120.0   33.333333333333336
-50.0   120.0   16.666666666666668
-100.0   120.0   33.333333333333336
-50.0   150.0   33.333333333333336
-50.0   120.0   16.666666666666668
-100.0   150.0   16.666666666666668
-100.0   120.0   33.333333333333336
-50.0   120.0   33.333333333333336
-100.0   150.0   33.333333333333336
-100.0   120.0   50.0
-50.0   120.0   33.333333333333336
-50.0   150.0   33.333333333333336
-100.0   150.0   33.333333333333336
-50.0   150.0   50.0
-100.0   120.0   50.0
-100.0   150.0   50.0
-50.0   150.0   50.0
-100.0   150.0   33.333333333333336
-100.0   120.0   50.0
-50.0   150.0   50.0
-50.0   120.0   50.0
-50.0   120.0   33.333333333333336
-100.0   120.0   50.0
-50.0   150.0   50.0
-50.0   120.0   33.333333333333336
-100.0   150.0   33.333333333333336
-50.0   0.0   0.0
0.0   0.0   0.0
-50.0   30.0   0.0
-50.0   0.0   16.666666666666668
0.0   0.0   0.0
0.0   30.0   0.0
-50.0   30.0   0.0
0.0   30.0   16.666666666666668
-50.0   0.0   16.666666666666668
-50.0   30.0   16.666666666666668
0.0   30.0   16.666666666666668
-50.0   30.0   0.0
-50.0   0.0   16.666666666666668
0.0   30.0   16.666666666666668
0.0   0.0   16.666666666666668
0.0   0.0   0.0
-50.0   0.0   16.666666666666668
0.0   30.0   16.666666666666668
0.0   0.0   0.0
-50.0   30.0   0.0
-50.0   0.0   16.666666666666668
0.0   0.0   16.666666666666668
-50.0   30.0   16.666666666666668
-50.0   0.0   33.333333333333336
0.0   0.0   16.666666666666668
0.0   30.0   16.666666666666668
-50.0   30.0   16.666666666666668
0.0   30.0   33.333333333333336
-50.0   0.0   33.333333333333336
-50.0   30.0   33.333333333333336
0.0   30.0   33.333333333333336
-50.0   30.0   16.666666666666668
-50.0   0.0   33.333333333333336
0.0   30.0   33.333333333333336
0.0   0.0   33.333333333333336
0.0   0.0   16.666666666666668
-50.0   0.0   33.333333333333336
0.0   30.0   33.333333333333336
0.0   0.0   16.666666666666668
-50.0   30.0   16.666666666666668
-50.0   0.0   33.333333333333336
0.0   0.0   33.333333333333336
-50.0   30.0   33.333333333333336
-50.0   0.0   50.0
0.0   0.0   33.333333333333336
0.0   30.0   33.333333333333336
-50.0   30.0   33.333333333333336
0.0   30.0   50.0
-50.0   0.0   50.0
-50.0   30.0   50.0
0.0   30.0   50.0
-50.0   30.0   33.333333333333336
-50.0   0.0   50.0
0.0   30.0   50.0
0.0   0.0   50.0
0.0   0.0   33.333333333333336
-50.0   0.0   50.0
0.0   30.0   50.0
0.0   0.0   33.333333333333336
-50.0   30.0   33.333333333333336
-50.0   30.0   0.0
0.0   30.0   0.0
-50.0   60.0   0.0
-50.0   30.0   16.666666666666668
0.0   30.0   0.0
0.0   60.0   0.0
-50.0   60.0   0.0
0.0   60.0   16.666666666666668
-50.0   30.0   16.666666666666668
-50.0   60.0   16.666666666666668
0.0   60.0   16.666666666666668
-50.0   60.0   0.0
-50.0   30.0   16.666666666666668
0.0   60.0   16.666666666666668
0.0   30.0   16.666666666666668
0.0   30.0   0.0
-50.0   30.0   16.666666666666668
0.0   60.0   16.666666666666668
0.0   30.0   0.0
-50.0   60.0   0.0
-50.0   30.0   16.666666666666668
0.0   30.0   16.666666666666668
-50.0   60.0   16.666666666666668
-50.0   30.0   33.333333333333336
0.0   30.0   16.666666666666668
0.0   60.0   16.666666666666668
-50.0   60.0   16.666666666666668
0.0   60.0   33.333333333333336
-50.0   30.0   33.333333333333336
-50.0   60.0   33.333333333333336
0.0   60.0   33.333333333333336
-50.0   60.0   16.666666666666668
-50.0   30.0   33.333333333333336
0.0   60.0   33.333333333333336
0.0   30.0   33.333333333333336
0.0   30.0   16.666666666666668
-50.0   30.0   33.333333333333336
0.0   60.0   33.333333333333336
0.0   30.0   16.666666666666668
-50.0   60.0   16.666666666666668
-50.0   30.0   33.333333333333336
0.0   30.0   33.333333333333336
-50.0   60.0   33.333333333333336
-50.0   30.0   50.0
0.0   30.0   33.333333333333336
0.0   60.0   33.333333333333336
-50.0   60.0   33.333333333333336
0.0   60.0   50.0
-50.0   30.0   50.0
-50.0   60.0   50.0
0.0   60.0   50.0
-50.0   60.0   33.333333333333336
-50.0   30.0   50.0
0.0   60.0   50.0
0.0   30.0   50.0
0.0   30.0   33.333333333333336
-50.0   30.0   50.0
0.0   60.0   50.0
0.0   30.0   33.333333333333336
-50.0   60.0   33.333333333333336
-50.0   60.0   0.0
0.0   60.0   0.0
-50.0   90.0   0.0
-50.0   60.0   16.666666666666668
0.0   60.0   0.0
0.0   90.0   0.0
-50.0   90.0   0.0
0.0   90.0   16.666666666666668
-50.0   60.0   16.666666666666668
-50.0   90.0   16.666666666666668
0.0   90.0   16.666666666666668
-50.0   90.0   0.0
-50.0   60.0   16.666666666666668
0.0   90.0   16.666666666666668
0.0   60.0   16.666666666666668
0.0   60.0   0.0
-50.0   60.0   16.666666666666668
0.0   90.0   16.666666666666668
0.0   60.0   0.0
-50.0   90.0   0.0
-50.0   60.0   16.666666666666668
0.0   60.0   16.666666666666668
-50.0   90.0   16.666666666666668
-50.0   60.0   33.333333333333336
0.0   60.0   16.666666666666668
0.0   90.0   16.666666666666668
-50.0   90.0   16.666666666666668
0.0   90.0   33.333333333333336
-50.0   60.0   33.333333333333336
-50.0   90.0   33.333333333333336
0.0   90.0   33.333333333333336
-50.0   90.0   16.666666666666668
-50.0   60.0   33.333333333333336
0.0   90.0   33.333333333333336
0.0   60.0   33.333333333333336
0.0   60.0   16.666666666666668
-50.0   60.0   33.333333333333336
0.0   90.0   33.333333333333336
0.0   60.0   16.666666666666668
-50.0   90.0   16.666666666666668
-50.0   60.0   33.333333333333336
0.0   60.0   33.333333333333336
-50.0   90.0   33.333333333333336
-50.0   60.0   50.0
0.0   60.0   33.333333333333336
0.0   90.0   33.333333333333336
-50.0   90.0   33.333333333333336
0.0   90.0   50.0
-50.0   60.0   50.0
-50.0   90.0   50.0
0.0   90.0   50.0
-50.0   90.0   33.333333333333336
-50.0   60.0   50.0
0.0   90.0   50.0
0.0   60.0   50.0
0.0   60.0   33.333333333333336
-50.0   60.0   50.0
0.0   90.0   50.0
0.0   60.0   33.333333333333336
-50.0   90.0   33.333333333333336
-50.0   90.0   0.0
0.0   90.0   0.0
-50.0   120.0   0.0
-50.0   90.0   16.666666666666668
0.0   90.0   0.0
0.0   120.0   0.0
-50.0   120.0   0.0
0.0   120.0   16.666666666666668
-50.0   90.0   16.666666666666668
-50.0   120.0   16.666666666666668
0.0   120.0   16.666666666666668
-50.0   120.0   0.0
-50.0   90.0   16.666666666666668
0.0   120.0   16.666666666666668
0.0   90.0   16.666666666666668
0.0   90.0   0.0
-50.0   90.0   16.666666666666668
0.0   120.0   16.666666666666668
0.0   90.0   0.0
-50.0   120.0   0.0
-50.0   90.0   16.666666666666668
0.0   90.0   16.666666666666668
-50.0   120.0   16.666666666666668
-50.0   90.0   33.333333333333336
0.0   90.0   16.666666666666668
0.0   120.0   16.666666666666668
-50.0   120.0   16.666666666666668
0.0   120.0   33.333333333333336
-50.0   90.0   33.333333333333336
-50.0   120.0   33.333333333333336
0.0   120.0   33.333333333333336
-50.0   120.0   16.666666666666668
-50.0   90.0   33.333333333333336
0.0   120.0   33.333333333333336
0.0   90.0   33.333333333333336
0.0   90.0   16.666666666666668
-50.0   90.0   33.333333333333336
0.0   120.0   33.333333333333336
0.0   90.0   16.666666666666668
-50.0   120.0   16.666666666666668
-50.0   90.0   33.333333333333336
0.0   90.0   33.333333333333336
-50.0   120.0   33.333333333333336
-50.0   90.0   50.0
0.0   90.0   33.333333333333336
0.0   120.0   33.333333333333336
-50.0   120.0   33.333333333333336
0.0   120.0   50.0
-50.0   90.0   50.0
-50.0   120.0   50.0
0.0   120.0   50.0
-50.0   120.0   33.333333333333336
-50.0   90.0   50.0
0.0   120.0   50.0
0.0   90.0   50.0
0.0   90.0   33.333333333333336
-50.0   90.0   50.0
0.0   120.0   50.0
0.0   90.0   33.333333333333336
-50.0   120.0   33.333333333333336
-50.0   120.0   0.0
0.0   120.0   0.0
-50.0   150.0   0.0
-50.0   120.0   16.666666666666668
0.0   120.0   0.0
0.0   150.0   0.0
-50.0   150.0   0.0
0.0   150.0   16.666666666666668
-50.0   120.0   16.666666666666668
-50.0   150.0   16.666666666666668
0.0   150.0   16.666666666666668
-50.0   150.0   0.0
-50.0   120.0   16.666666666666668
0.0   150.0   16.666666666666668
0.0   120.0   16.666666666666668
0.0   120.0   0.0
-50.0   120.0   16.666666666666668
0.0   150.0   16.666666666666668
0.0   120.0   0.0
-50.0   150.0   0.0
-50.0   120.0   16.666666666666668
0.0   120.0   16.666666666666668
-50.0   150.0   16.666666666666668
-50.0   120.0   33.333333333333336
0.0   120.0   16.666666666666668
0.0   150.0   16.666666666666668
-50.0   150.0   16.666666666666668
0.0   150.0   33.333333333333336
-50.0   120.0   33.333333333333336
-50.0   150.0   33.333333333333336
0.0   150.0   33.333333333333336
-50.0   150.0   16.666666666666668
-50.0   120.0   33.333333333333336
0.0   150.0   33.333333333333336
0.0   120.0   33.333333333333336
0.0   120.0   16.666666666666668
-50.0   120.0   33.333333333333336
0.0   150.0   33.333333333333336
0.0   120.0   16.666666666666668
-50.0   150.0   16.666666666666668
-50.0   120.0   33.333333333333336
0.0   120.0   33.333333333333336
-50.0   150.0   33.333333333333336
-50.0   120.0   50.0
0.0   120.0   33.333333333333336
0.0   150.0   33.333333333333336
-50.0   150.0   33.333333333333336
0.0   150.0   50.0
-50.0   120.0   50.0
-50.0   150.0   50.0
0.0   150.0   50.0
-50.0   150.0   33.333333333333336
-50.0   120.0   50.0
0.0   150.0   50.0
0.0   120.0   50.0
0.0   120.0   33.333333333333336
-50.0   120.0   50.0
0.0   150.0   50.0
0.0   120.0   33.333333333333336
-50.0   150.0   33.333333333333336
0.0   0.0   0.0
50.0   0.0   0.0
0.0   30.0   0.0
0.0   0.0   16.666666666666668
50.0   0.0   0.0
50.0   30.0   0.0
0.0   30.0   0.0
50.0   30.0   16.666666666666668
0.0   0.0   16.666666666666668
0.0   30.0   16.666666666666668
50.0   30.0   16.666666666666668
0.0   30.0   0.0
0.0   0.0   16.666666666666668
50.0   30.0   16.666666666666668
50.0   0.0   16.666666666666668
50.0   0.0   0.0
0.0   0.0   16.666666666666668
50.0   30.0   16.666666666666668
50.0   0.0   0.0
0.0   30.0   0.0
0.0   0.0   16.666666666666668
50.0   0.0   16.666666666666668
0.0   30.0   16.666666666666668
0.0   0.0   33.333333333333336
50.0   0.0   16.666666666666668
50.0   30.0   16.666666666666668
0.0   30.0   16.666666666666668
50.0   30.0   33.333333333333336
0.0   0.0   33.333333333333336
0.0   30.0   33.333333333333336
50.0   30.0   33.333333333333336
0.0   30.0   16.666666666666668
0.0   0.0   33.333333333333336
50.0   30.0   33.333333333333336
50.0   0.0   33.333333333333336
50.0   0.0   16.666666666666668
0.0   0.0   33.333333333333336
50.0   30.0   33.333333333333336
50.0   0.0   16.666666666666668
0.0   30.0   16.666666666666668
0.0   0.0   33.333333333333336
50.0   0.0   33.333333333333336
0.0   30.0   33.333333333333336
0.0   0.0   50.0
50.0   0.0   33.333333333333336
50.0   30.0   33.333333333333336
0.0   30.0   33.333333333333336
50.0   30.0   50.0
0.0   0.0   50.0
0.0   30.0   50.0
50.0   30.0   50.0
0.0   30.0   33.333333333333336
0.0   0.0   50.0
50.0   30.0   50.0
50.0   0.0   50.0
50.0   0.0   33.333333333333336
0.0   0.0   50.0
50.0   30.0   50.0
50.0   0.0   33.333333333333336
0.0   30.0   33.333333333333336
0.0   30.0   0.0
50.0   30.0   0.0
0.0   60.0   0.0
0.0   30.0   16.666666666666668
50.0   30.0   0.0
50.0   60.0   0.0
0.0   60.0   0.0
50.0   60.0   16.666666666666668
0.0   30.0   16.666666666666668
0.0   60.0   16.666666666666668
50.0   60.0   16.666666666666668
0.0   60.0   0.0
0.0   30.0   16.666666666666668
50.0   60.0   16.666666666666668
50.0   30.0   16.666666666666668
50.0   30.0   0.0
0.0   30.0   16.666666666666668
50.0   60.0   16.666666666666668
50.0   30.0   0.0
0.0   60.0   0.0
0.0   30.0   16.666666666666668
50.0   30.0   16.666666666666668
0.0   60.0   16.666666666666668
0.0   30.0   33.333333333333336
50.0   30.0   16.666666666666668
50.0   60.0   16.666666666666668
0.0   60.0   16.666666666666668
50.0   60.0   33.333333333333336
0.0   30.0   33.333333333333336
0.0   60.0   33.333333333333336
50.0   60.0   33.333333333333336
0.0   60.0   16.666666666666668
0.0   30.0   33.333333333333336
50.0   60.0   33.333333333333336
50.0   30.0   33.333333333333336
50.0   30.0   16.666666666666668
0.0   30.0   33.333333333333336
50.0   60.0   33.333333333333336
50.0   30.0   16.666666666666668
0.0   60.0   16.666666666666668
0.0   30.0   33.333333333333336
50.0   30.0   33.333333333333336
0.0   60.0   33.333333333333336
0.0   30.0   50.0
50.0   30.0   33.333333333333336
50.0   60.0   33.333333333333336
0.0   60.0   33.333333333333336
50.0   60.0   50.0
0.0   30.0   50.0
0.0   60.0   50.0
50.0   60.0   50.0
0.0   60.0   33.333333333333336
0.0   30.0   50.0
50.0   60.0   50.0
50.0   30.0   50.0
50.0   30.0   33.333333333333336
0.0   30.0   50.0
50.0   60.0   50.0
50.0   30.0   33.333333333333336
0.0   60.0   33.333333333333336
0.0   60.0   0.0
50.0   60.0   0.0
0.0   90.0   0.0
0.0   60.0   16.666666666666668
50.0   60.0   0.0
50.0   90.0   0.0
0.0   90.0   0.0
50.0   90.0   16.666666666666668
0.0   60.0   16.666666666666668
0.0   90.0   16.666666666666668
50.0   90.0   16.666666666666668
0.0   90.0   0.0
0.0   60.0   16.666666666666668
50.0   90.0   16.666666666666668
50.0   60.0   16.666666666666668
50.0   60.0   0.0
0.0   60.0   16.666666666666668
50.0   90.0   16.666666666666668
50.0   60.0   0.0
0.0   90.0   0.0
0.0   60.0   16.666666666666668
50.0   60.0   16.666666666666668
0.0   90.0   16.666666666666668
0.0   60.0   33.333333333333336
50.0   60.0   16.666666666666668
50.0   90.0   16.666666666666668
0.0   90.0   16.666666666666668
50.0   90.0   33.333333333333336
0.0   60.0   33.333333333333336
0.0   90.0   33.333333333333336
50.0   90.0   33.333333333333336
0.0   90.0   16.666666666666668
0.0   60.0   33.333333333333336
50.0   90.0   33.333333333333336
50.0   60.0   33.333333333333336
50.0   60.0   16.666666666666668
0.0   60.0   33.333333333333336
50.0   90.0   33.333333333333336
50.0   60.0   16.666666666666668
0.0   90.0   16.666666666666668
0.0   60.0   33.333333333333336
50.0   60.0   33.333333333333336
0.0   90.0   33.333333333333336
0.0   60.0   50.0
50.0   60.0   33.333333333333336
50.0   90.0   33.333333333333336
0.0   90.0   33.333333333333336
50.0   90.0   50.0
0.0   60.0   50.0
0.0   90.0   50.0
50.0   90.0   50.0
0.0   90.0   33.333333333333336
0.0   60.0   50.0
50.0   90.0   50.0
50.0   60.0   50.0
50.0   60.0   33.333333333333336
0.0   60.0   50.0
50.0   90.0   50.0
50.0   60.0   33.333333333333336
0.0   90.0   33.333333333333336
0.0   90.0   0.0
50.0   90.0   0.0
0.0   120.0   0.0
0.0   90.0   16.666666666666668
50.0   90.0   0.0
50.0   120.0   0.0
0.0   120.0   0.0
50.0   120.0   16.666666666666668
0.0   90.0   16.666666666666668
0.0   120.0   16.666666666666668
50.0   120.0   16.666666666666668
0.0   120.0   0.0
0.0   90.0   16.666666666666668
50.0   120.0   16.666666666666668
50.0   90.0   16.666666666666668
50.0   90.0   0.0
0.0   90.0   16.666666666666668
50.0   120.0   16.666666666666668
50.0   90.0   0.0
0.0   120.0   0.0
0.0   90.0   16.666666666666668
50.0   90.0   16.666666666666668
0.0   120.0   16.666666666666668
0.0   90.0   33.333333333333336
50.0   90.0   16.666666666666668
50.0   120.0   16.666666666666668
0.0   120.0   16.666666666666668
50.0   120.0   33.333333333333336
0.0   90.0   33.333333333333336
0.0   120.0   33.333333333333336
50.0   120.0   33.333333333333336
0.0   120.0   16.666666666666668
0.0   90.0   33.333333333333336
50.0   120.0   33.333333333333336
50.0   90.0   33.333333333333336
50.0   90.0   16.666666666666668
0.0   90.0   33.333333333333336
50.0   120.0   33.333333333333336
50.0   90.0   16.666666666666668
0.0   120.0   16.666666666666668
0.0   90.0   33.333333333333336
50.0   90.0   33.333333333333336
0.0   120.0   33.333333333333336
0.0   90.0   50.0
50.0   90.0   33.333333333333336
50.0   120.0   33.333333333333336
0.0   120.0   33.333333333333336
50.0   120.0   50.0
0.0   90.0   50.0
0.0   120.0   50.0
50.0   120.0   50.0
0.0   120.0   33.333333333333336
0.0   90.0   50.0
50.0   120.0   50.0
50.0   90.0   50.0
50.0   90.0   33.333333333333336
0.0   90.0   50.0
50.0   120.0   50.0
50.0   90.0   33.333333333333336
0.0   120.0   33.333333333333336
0.0   120.0   0.0
50.0   120.0   0.0
0.0   150.0   0.0
0.0   120.0   16.666666666666668
50.0   120.0   0.0
50.0   150.0   0.0
0.0   150.0   0.0
50.0   150.0   16.666666666666668
0.0   120.0   16.666666666666668
0.0   150.0   16.666666666666668
50.0   150.0   16.666666666666668
0.0   150.0   0.0
0.0   120.0   16.666666666666668
50.0   150.0   16.666666666666668
50.0   120.0   16.666666666666668
50.0   120.0   0.0
0.0   120.0   16.666666666666668
50.0   150.0   16.666666666666668
50.0   120.0   0.0
0.0   150.0   0.0
0.0   120.0   16.666666666666668
50.0   120.0   16.666666666666668
0.0   150.0   16.666666666666668
0.0   120.0   33.333333333333336
50.0   120.0   16.666666666666668
50.0   150.0   16.666666666666668
0.0   150.0   16.666666666666668
50.0   150.0   33.333333333333336
0.0   120.0   33.333333333333336
0.0   150.0   33.333333333333336
50.0   150.0   33.333333333333336
0.0   150.0   16.666666666666668
0.0   120.0   33.333333333333336
50.0   150.0   33.333333333333336
50.0   120.0   33.333333333333336
50.0   120.0   16.666666666666668
0.0   120.0   33.333333333333336
50.0   150.0   33.333333333333336
50.0   120.0   16.666666666666668
0.0   150.0   16.666666666666668
0.0   120.0   33.333333333333336
50.0   120.0   33.333333333333336
0.0   150.0   33.333333333333336
0.0   120.0   50.0
50.0   120.0   33.333333333333336
50.0   150.0   33.333333333333336
0.0   150.0   33.333333333333336
50.0   150.0   50.0
0.0   120.0   50.0
0.0   150.0   50.0
50.0   150.0   50.0
0.0   150.0   33.333333333333336
0.0   120.0   50.0
50.0   150.0   50.0
50.0   120.0   50.0
50.0   120.0   33.333333333333336
0.0   120.0   50.0
50.0   150.0   50.0
50.0   120.0   33.333333333333336
0.0   150.0   33.333333333333336
50.0   0.0   0.0
100.0   0.0   0.0
50.0   30.0   0.0
50.0   0.0   16.666666666666668
100.0   0.0   0.0
100.0   30.0   0.0
50.0   30.0   0.0
100.0   30.0   16.666666666666668
50.0   0.0   16.666666666666668
50.0   30.0   16.666666666666668
100.0   30.0   16.666666666666668
50.0   30.0   0.0
50.0   0.0   16.666666666666668
100.0   30.0   16.666666666666668
100.0   0.0   16.666666666666668
100.0   0.0   0.0
50.0   0.0   16.666666666666668
100.0   30.0   16.666666666666668
100.0   0.0   0.0
50.0   30.0   0.0
50.0   0.0   16.666666666666668
100.0   0.0   16.666666666666668
50.0   30.0   16.666666666666668
50.0   0.0   33.333333333333336
100.0   0.0   16.666666666666668
100.0   30.0   16.666666666666668
50.0   30.0   16.666666666666668
100.0   30.0   33.333333333333336
50.0   0.0   33.333333333333336
50.0   30.0   33.333333333333336
100.0   30.0   33.333333333333336
50.0   30.0   16.666666666666668
50.0   0.0   33.333333333333336
100.0   30.0   33.333333333333336
100.0   0.0   33.333333333333336
100.0   0.0   16.666666666666668
50.0   0.0   33.333333333333336
100.0   30.0   33.333333333333336
100.0   0.0   16.666666666666668
50.0   30.0   16.666666666666668
50.0   0.0   33.333333333333336
100.0   0.0   33.333333333333336
50.0   30.0   33.333333333333336
50.0   0.0   50.0
100.0   0.0   33.333333333333336
100.0   30.0   33.333333333333336
50.0   30.0   33.333333333333336
100.0   30.0   50.0
50.0   0.0   50.0
50.0   30.0   50.0
100.0   30.0   50.0
50.0   30.0   33.333333333333336
50.0   0.0   50.0
100.0   30.0   50.0
100.0   0.0   50.0
100.0   0.0   33.333333333333336
50.0   0.0   50.0
100.0   30.0   50.0
100.0   0.0   33.333333333333336
50.0   30.0   33.333333333333336
50.0   30.0   0.0
100.0   30.0   0.0
50.0   60.0   0.0
50.0   30.0   16.666666666666668
100.0   30.0   0.0
100.0   60.0   0.0
50.0   60.0   0.0
100.0   60.0   16.666666666666668
50.0   30.0   16.666666666666668
50.0   60.0   16.666666666666668
100.0   60.0   16.666666666666668
50.0   60.0   0.0
50.0   30.0   16.666666666666668
100.0   60.0   16.666666666666668
100.0   30.0   16.666666666666668
100.0   30.0   0.0
50.0   30.0   16.666666666666668
100.0   60.0   16.666666666666668
100.0   30.0   0.0
50.0   60.0   0.0
50.0   30.0   16.666666666666668
100.0   30.0   16.666666666666668
50.0   60.0   16.666666666666668
50.0   30.0   33.333333333333336
100.0   30.0   16.666666666666668
100.0   60.0   16.666666666666668
50.0   60.0   16.666666666666668
100.0   60.0   33.333333333333336
50.0   30.0   33.333333333333336
50.0   60.0   33.333333333333336
100.0   60.0   33.333333333333336
50.0   60.0   16.666666666666668
50.0   30.0   33.333333333333336
100.0   60.0   33.333333333333336
100.0   30.0   33.333333333333336
100.0   30.0   16.666666666666668
50.0   30.0   33.333333333333336
100.0   60.0   33.333333333333336
100.0   30.0   16.666666666666668
50.0   60.0   16.666666666666668
50.0   30.0   33.333333333333336
100.0   30.0   33.333333333333336
50.0   60.0   33.333333333333336
50.0   30.0   50.0
100.0   30.0   33.333333333333336
100.0   60.0   33.333333333333336
50.0   60.0   33.333333333333336
100.0   60.0   50.0
50.0   30.0   50.0
50.0   60.0   50.0
100.0   60.0   50.0
50.0   60.0   33.333333333333336
50.0   30.0   50.0
100.0   60.0   50.0
100.0   30.0   50.0
100.0   30.0   33.333333333333336
50.0   30.0   50.0
100.0   60.0   50.0
100.0   30.0   33.333333333333336
50.0   60.0   33.333333333333336
50.0   60.0   0.0
100.0   60.0   0.0
50.0   90.0   0.0
50.0   60.0   16.666666666666668
100.0   60.0   0.0
100.0   90.0   0.0
50.0   90.0   0.0
100.0   90.0   16.666666666666668
50.0   60.0   16.666666666666668
50.0   90.0   16.666666666666668
100.0   90.0   16.666666666666668
50.0   90.0   0.0
50.0   60.0   16.666666666666668
100.0   90.0   16.666666666666668
100.0   60.0   16.666666666666668
100.0   60.0   0.0
50.0   60.0   16.666666666666668
100.0   90.0   16.666666666666668
100.0   60.0   0.0
50.0   90.0   0.0
50.0   60.0   16.666666666666668
100.0   60.0   16.666666666666668
50.0   90.0   16.666666666666668
50.0   60.0   33.333333333333336
100.0   60.0   16.666666666666668
100.0   90.0   16.666666666666668
50.0   90.0   16.666666666666668
100.0   90.0   33.333333333333336
50.0   60.0   33.333333333333336
50.0   90.0   33.333333333333336
100.0   90.0   33.333333333333336
50.0   90.0   16.666666666666668
50.0   60.0   33.333333333333336
100.0   90.0   33.333333333333336
100.0   60.0   33.333333333333336
100.0   60.0   16.666666666666668
50.0   60.0   33.333333333333336
100.0   90.0   33.333333333333336
100.0   60.0   16.666666666666668
50.0   90.0   16.666666666666668
50.0   60.0   33.333333333333336
100.0   60.0   33.333333333333336
50.0   90.0   33.333333333333336
50.0   60.0   50.0
100.0   60.0   33.333333333333336
100.0   90.0   33.333333333333336
50.0   90.0   33.333333333333336
100.0   90.0   50.0
50.0   60.0   50.0
50.0   90.0   50.0
100.0   90.0   50.0
50.0   90.0   33.333333333333336
50.0   60.0   50.0
100.0   90.0   50.0
100.0   60.0   50.0
100.0   60.0   33.333333333333336
50.0   60.0   50.0
100.0   90.0   50.0
100.0   60.0   33.333333333333336
50.0   90.0   33.333333333333336
50.0   90.0   0.0
100.0   90.0   0.0
50.0   120.0   0.0
50.0   90.0   16.666666666666668
100.0   90.0   0.0
100.0   120.0   0.0
50.0   120.0   0.0
100.0   120.0   16.666666666666668
50.0   90.0   16.666666666666668
50.0   120.0   16.666666666666668
100.0   120.0   16.666666666666668
50.0   120.0   0.0
50.0   90.0   16.666666666666668
100.0   120.0   16.666666666666668
100.0   90.0   16.666666666666668
100.0   90.0   0.0
50.0   90.0   16.666666666666668
100.0   120.0   16.666666666666668
100.0   90.0   0.0
50.0   120.0   0.0
50.0   90.0   16.666666666666668
100.0   90.0   16.666666666666668
50.0   120.0   16.666666666666668
50.0   90.0   33.333333333333336
100.0   90.0   16.666666666666668
100.0   120.0   16.666666666666668
50.0   120.0   16.666666666666668
100.0   120.0   33.333333333333336
50.0   90.0   33.333333333333336
50.0   120.0   33.333333333333336
100.0   120.0   33.333333333333336
50.0   120.0   16.666666666666668
50.0   90.0   33.333333333333336
100.0   120.0   33.333333333333336
100.0   90.0   33.333333333333336
100.0   90.0   16.666666666666668
50.0   90.0   33.333333333333336
100.0   120.0   33.333333333333336
100.0   90.0   16.666666666666668
50.0   120.0   16.666666666666668
50.0   90.0   33.333333333333336
100.0   90.0   33.333333333333336
50.0   120.0   33.333333333333336
50.0   90.0   50.0
100.0   90.0   33.333333333333336
100.0   120.0   33.333333333333336
50.0   120.0   33.333333333333336
100.0   120.0   50.0
50.0   90.0   50.0
50.0   120.0   50.0
100.0   120.0   50.0
50.0   120.0   33.333333333333336
50.0   90.0   50.0
100.0   120.0   50.0
100.0   90.0   50.0
100.0   90.0   33.333333333333336
50.0   90.0   50.0
100.0   120.0   50.0
100.0   90.0   33.333333333333336
50.0   120.0   33.333333333333336
50.0   120.0   0.0
100.0   120.0   0.0
50.0   150.0   0.0
50.0   120.0   16.666666666666668
100.0   120.0   0.0
100.0   150.0   0.0
50.0   150.0   0.0
100.0   150.0   16.666666666666668
50.0   120.0   16.666666666666668
50.0   150.0   16.666666666666668
100.0   150.0   16.666666666666668
50.0   150.0   0.0
50.0   120.0   16.666666666666668
100.0   150.0   16.666666666666668
100.0   120.0   16.666666666666668
100.0   120.0   0.0
50.0   120.0   16.666666666666668
100.0   150.0   16.666666666666668
100.0   120.0   0.0
50.0   150.0   0.0
50.0   120.0   16.666666666666668
100.0   120.0   16.666666666666668
50.0   150.0   16.666666666666668
50.0   120.0   33.333333333333336
100.0   120.0   16.666666666666668
100.0   150.0   16.666666666666668
50.0   150.0   16.666666666666668
100.0   150.0   33.333333333333336
50.0   120.0   33.333333333333336
50.0   150.0   33.333333333333336
100.0   150.0   33.333333333333336
50.0   150.0   16.666666666666668
50.0   120.0   33.333333333333336
100.0   150.0   33.333333333333336
100.0   120.0   33.333333333333336
100.0   120.0   16.666666666666668
50.0   120.0   33.333333333333336
100.0   150.0   33.333333333333336
100.0   120.0   16.666666666666668
50.0   150.0   16.666666666666668
50.0   120.0   33.333333333333336
100.0   120.0   33.333333333333336
50.0   150.0   33.333333333333336
50.0   120.0   50.0
100.0   120.0   33.333333333333336
100.0   150.0   33.333333333333336
50.0   150.0   33.333333333333336
100.0   150.0   50.0
50.0   120.0   50.0
50.0   150.0   50.0
100.0   150.0   50.0
50.0   150.0   33.333333333333336
50.0   120.0   50.0
100.0   150.0   50.0
100.0   120.0   50.0
100.0   120.0   33.333333333333336
50.0   120.0   50.0
100.0   150.0   50.0
100.0   120.0   33.333333333333336
50.0   150.0   33.333333333333336
100.0   0.0   0.0
150.0   0.0   0.0
100.0   30.0   0.0
100.0   0.0   16.666666666666668
150.0   0.0   0.0
150.0   30.0   0.0
100.0   30.0   0.0
150.0   30.0   16.666666666666668
100.0   0.0   16.666666666666668
100.0   30.0   16.666666666666668
150.0   30.0   16.666666666666668
100.0   30.0   0.0
100.0   0.0   16.666666666666668
150.0   30.0   16.666666666666668
150.0   0.0   16.666666666666668
150.0   0.0   0.0
100.0   0.0   16.666666666666668
150.0   30.0   16.666666666666668
150.0   0.0   0.0
100.0   30.0   0.0
100.0   0.0   16.666666666666668
150.0   0.0   16.666666666666668
100.0   30.0   16.666666666666668
100.0   0.0   33.333333333333336
150.0   0.0   16.666666666666668
150.0   30.0   16.666666666666668
100.0   30.0   16.666666666666668
150.0   30.0   33.333333333333336
100.0   0.0   33.333333333333336
100.0   30.0   33.333333333333336
150.0   30.0   33.333333333333336
100.0   30.0   16.666666666666668
100.0   0.0   33.333333333333336
150.0   30.0   33.333333333333336
150.0   0.0   33.333333333333336
150.0   0.0   16.666666666666668
100.0   0.0   33.333333333333336
150.0   30.0   33.333333333333336
150.0   0.0   16.666666666666668
100.0   30.0   16.666666666666668
100.0   0.0   33.333333333333336
150.0   0.0   33.333333333333336
100.0   30.0   33.333333333333336
100.0   0.0   50.0
150.0   0.0   33.333333333333336
150.0   30.0   33.333333333333336
100.0   30.0   33.333333333333336
150.0   30.0   50.0
100.0   0.0   50.0
100.0   30.0   50.0
150.0   30.0   50.0
100.0   30.0   33.333333333333336
100.0   0.0   50.0
150.0   30.0   50.0
150.0   0.0   50.0
150.0   0.0   33.333333333333336
100.0   0.0   50.0
150.0   30.0   50.0
150.0   0.0   33.333333333333336
100.0   30.0   33.333333333333336
100.0   30.0   0.0
150.0   30.0   0.0
100.0   60.0   0.0
100.0   30.0   16.666666666666668
150.0   30.0   0.0
150.0   60.0   0.0
100.0   60.0   0.0
150.0   60.0   16.666666666666668
100.0   30.0   16.666666666666668
100.0   60.0   16.666666666666668
150.0   60.0   16.666666666666668
100.0   60.0   0.0
100.0   30.0   16.666666666666668
150.0   60.0   16.666666666666668
150.0   30.0   16.666666666666668
150.0   30.0   0.0
100.0   30.0   16.666666666666668
150.0   60.0   16.666666666666668
150.0   30.0   0.0
100.0   60.0   0.0
100.0   30.0   16.666666666666668
150.0   30.0   16.666666666666668
100.0   60.0   16.666666666666668
100.0   30.0   33.333333333333336
150.0   30.0   16.666666666666668
150.0   60.0   16.666666666666668
100.0   60.0   16.666666666666668
150.0   60.0   33.333333333333336
100.0   30.0   33.333333333333336
100.0   60.0   33.333333333333336
150.0   60.0   33.333333333333336
100.0   60.0   16.666666666666668
100.0   30.0   33.333333333333336
150.0   60.0   33.333333333333336
150.0   30.0   33.333333333333336
150.0   30.0   16.666666666666668
100.0   30.0   33.333333333333336
150.0   60.0   33.333333333333336
150.0   30.0   16.666666666666668
100.0   60.0   16.666666666666668
100.0   30.0   33.333333333333336
150.0   30.0   33.333333333333336
100.0   60.0   33.333333333333336
100.0   30.0   50.0
150.0   30.0   33.333333333333336
150.0   60.0   33.333333333333336
100.0   60.0   33.333333333333336
150.0   60.0   50.0
100.0   30.0   50.0
100.0   60.0   50.0
150.0   60.0   50.0
100.0   60.0   33.333333333333336
100.0   30.0   50.0
150.0   60.0   50.0
150.0   30.0   50.0
150.0   30.0   33.333333333333336
100.0   30.0   50.0
150.0   60.0   50.0
150.0   30.0   33.333333333333336
100.0   60.0   33.333333333333336
100.0   60.0   0.0
150.0   60.0   0.0
100.0   90.0   0.0
100.0   60.0   16.666666666666668
150.0   60.0   0.0
150.0   90.0   0.0
100.0   90.0   0.0
150.0   90.0   16.666666666666668
100.0   60.0   16.666666666666668
100.0   90.0   16.666666666666668
150.0   90.0   16.666666666666668
100.0   90.0   0.0
100.0   60.0   16.666666666666668
150.0   90.0   16.666666666666668
150.0   60.0   16.666666666666668
150.0   60.0   0.0
100.0   60.0   16.666666666666668
150.0   90.0   16.666666666666668
150.0   60.0   0.0
100.0   90.0   0.0
100.0   60.0   16.666666666666668
150.0   60.0   16.666666666666668
100.0   90.0   16.666666666666668
100.0   60.0   33.333333333333336
150.0   60.0   16.666666666666668
150.0   90.0   16.666666666666668
100.0   90.0   16.666666666666668
150.0   90.0   33.333333333333336
100.0   60.0   33.333333333333336
100.0   90.0   33.333333333333336
150.0   90.0   33.333333333333336
100.0   90.0   16.666666666666668
100.0   60.0   33.333333333333336
150.0   90.0   33.333333333333336
150.0   60.0   33.333333333333336
150.0   60.0   16.666666666666668
100.0   60.0   33.333333333333336
150.0   90.0   33.333333333333336
150.0   60.0   16.666666666666668
100.0   90.0   16.666666666666668
100.0   60.0   33.333333333333336
150.0   60.0   33.333333333333336
100.0   90.0   33.333333333333336
100.0   60.0   50.0
150.0   60.0   33.333333333333336
150.0   90.0   33.333333333333336
100.0   90.0   33.333333333333336
150.0   90.0   50.0
100.0   60.0   50.0
100.0   90.0   50.0
150.0   90.0   50.0
100.0   90.0   33.333333333333336
100.0   60.0   50.0
150.0   90.0   50.0
150.0   60.0   50.0
150.0   60.0   33.333333333333336
100.0   60.0   50.0
150.0   90.0   50.0
150.0   60.0   33.333333333333336
100.0   90.0   33.333333333333336
100.0   90.0   0.0
150.0   90.0   0.0
100.0   120.0   0.0
100.0   90.0   16.666666666666668
150.0   90.0   0.0
150.0   120.0   0.0
100.0   120.0   0.0
150.0   120.0   16.666666666666668
100.0   90.0   16.666666666666668
100.0   120.0   16.666666666666668
150.0   120.0   16.666666666666668
100.0   120.0   0.0
100.0   90.0   16.666666666666668
150.0   120.0   16.666666666666668
150.0   90.0   16.666666666666668
150.0   90.0   0.0
100.0   90.0   16.666666666666668
150.0   120.0   16.666666666666668
150.0   90.0   0.0
100.0   120.0   0.0
100.0   90.0   16.666666666666668
150.0   90.0   16.666666666666668
100.0   120.0   16.666666666666668
100.0   90.0   33.333333333333336
150.0   90.0   16.666666666666668
150.0   120.0   16.666666666666668
100.0   120.0   16.666666666666668
150.0   120.0   33.333333333333336
100.0   90.0   33.333333333333336
100.0   120.0   33.333333333333336
150.0   120.0   33.333333333333336
100.0   120.0   16.666666666666668
100.0   90.0   33.333333333333336
150.0   120.0   33.333333333333336
150.0   90.0   33.333333333333336
150.0   90.0   16.666666666666668
100.0   90.0   33.333333333333336
150.0   120.0   33.333333333333336
150.0   90.0   16.666666666666668
100.0   120.0   16.666666666666668
100.0   90.0   33.333333333333336
150.0   90.0   33.333333333333336
100.0   120.0   33.333333333333336
100.0   90.0   50.0
150.0   90.0   33.333333333333336
150.0   120.0   33.333333333333336
100.0   120.0   33.333333333333336
150.0   120.0   50.0
100.0   90.0   50.0
100.0   120.0   50.0
150.0   120.0   50.0
100.0   120.0   33.333333333333336
100.0   90.0   50.0
150.0   120.0   50.0
150.0   90.0   50.0
150.0   90.0   33.333333333333336
100.0   90.0   50.0
150.0   120.0   50.0
150.0   90.0   33.333333333333336
100.0   120.0   33.333333333333336
100.0   120.0   0.0
150.0   120.0   0.0
100.0   150.0   0.0
100.0   120.0   16.666666666666668
150.0   120.0   0.0
150.0   150.0   0.0
100.0   150.0   0.0
150.0   150.0   16.666666666666668
100.0   120.0   16.666666666666668
100.0   150.0   16.666666666666668
150.0   150.0   16.666666666666668
100.0   150.0   0.0
100.0   120.0   16.666666666666668
150.0   150.0   16.666666666666668
150.0   120.0   16.666666666666668
150.0   120.0   0.0
100.0   120.0   16.666666666666668
150.0   150.0   16.666666666666668
150.0   120.0   0.0
100.0   150.0   0.0
100.0   120.0   16.666666666666668
150.0   120.0   16.666666666666668
100.0   150.0   16.666666666666668
100.0   120.0   33.333333333333336
150.0   120.0   16.666666666666668
150.0   150.0   16.666666666666668
100.0   150.0   16.666666666666668
150.0   150.0   33.333333333333336
100.0   120.0   33.333333333333336
100.0   150.0   33.333333333333336
150.0   150.0   33.333333333333336
100.0   150.0   16.666666666666668
100.0   120.0   33.333333333333336
150.0   150.0   33.333333333333336
150.0   120.0   33.333333333333336
150.0   120.0   16.666666666666668
100.0   120.0   33.333333333333336
150.0   150.0   33.333333333333336
150.0   120.0   16.666666666666668
100.0   150.0   16.666666666666668
100.0   120.0   33.333333333333336
150.0   120.0   33.333333333333336
100.0   150.0   33.333333333333336
100.0   120.0   50.0
150.0   120.0   33.333333333333336
150.0   150.0   33.333333333333336
100.0   150.0   33.333333333333336
150.0   150.0   50.0
100.0   120.0   50.0
100.0   150.0   50.0
150.0   150.0   50.0
100.0   150.0   33.333333333333336
100.0   120.0   50.0
150.0   150.0   50.0
150.0   120.0   50.0
150.0   120.0   33.333333333333336
100.0   120.0   50.0
150.0   150.0   50.0
150.0   120.0   33.333333333333336
100.0   150.0   33.333333333333336
150.0   0.0   0.0
200.0   0.0   0.0
150.0   30.0   0.0
150.0   0.0   16.666666666666668
200.0   0.0   0.0
200.0   30.0   0.0
150.0   30.0   0.0
200.0   30.0   16.666666666666668
150.0   0.0   16.666666666666668
150.0   30.0   16.666666666666668
200.0   30.0   16.666666666666668
150.0   30.0   0.0
150.0   0.0   16.666666666666668
200.0   30.0   16.666666666666668
200.0   0.0   16.666666666666668
200.0   0.0   0.0
150.0   0.0   16.666666666666668
200.0   30.0   16.666666666666668
200.0   0.0   0.0
150.0   30.0   0.0
150.0   0.0   16.666666666666668
200.0   0.0   16.666666666666668
150.0   30.0   16.666666666666668
150.0   0.0   33.333333333333336
200.0   0.0   16.666666666666668
200.0   30.0   16.666666666666668
150.0   30.0   16.666666666666668
200.0   30.0   33.333333333333336
150.0   0.0   33.333333333333336
150.0   30.0   33.333333333333336
200.0   30.0   33.333333333333336
150.0   30.0   16.666666666666668
150.0   0.0   33.333333333333336
200.0   30.0   33.333333333333336
200.0   0.0   33.333333333333336
200.0   0.0   16.666666666666668
150.0   0.0   33.333333333333336
200.0   30.0   33.333333333333336
200.0   0.0   16.666666666666668
150.0   30.0   16.666666666666668
150.0   0.0   33.333333333333336
200.0   0.0   33.333333333333336
150.0   30.0   33.333333333333336
150.0   0.0   50.0
200.0   0.0   33.333333333333336
200.0   30.0   33.333333333333336
150.0   30.0   33.333333333333336
200.0   30.0   50.0
150.0   0.0   50.0
150.0   30.0   50.0
200.0   30.0   50.0
150.0   30.0   33.333333333333336
150.0   0.0   50.0
200.0   30.0   50.0
200.0   0.0   50.0
200.0   0.0   33.333333333333336
150.0   0.0   50.0
200.0   30.0   50.0
200.0   0.0   33.333333333333336
150.0   30.0   33.333333333333336
150.0   30.0   0.0
200.0   30.0   0.0
150.0   60.0   0.0
150.0   30.0   16.666666666666668
200.0   30.0   0.0
200.0   60.0   0.0
150.0   60.0   0.0
200.0   60.0   16.666666666666668
150.0   30.0   16.666666666666668
150.0   60.0   16.666666666666668
200.0   60.0   16.666666666666668
150.0   60.0   0.0
150.0   30.0   16.666666666666668
200.0   60.0   16.666666666666668
200.0   30.0   16.666666666666668
200.0   30.0   0.0
150.0   30.0   16.666666666666668
200.0   60.0   16.666666666666668
200.0   30.0   0.0
150.0   60.0   0.0
150.0   30.0   16.666666666666668
200.0   30.0   16.666666666666668
150.0   60.0   16.666666666666668
150.0   30.0   33.333333333333336
200.0   30.0   16.666666666666668
200.0   60.0   16.666666666666668
150.0   60.0   16.666666666666668
200.0   60.0   33.333333333333336
150.0   30.0   33.333333333333336
150.0   60.0   33.333333333333336
200.0   60.0   33.333333333333336
150.0   60.0   16.666666666666668
150.0   30.0   33.333333333333336
200.0   60.0   33.333333333333336
200.0   30.0   33.333333333333336
200.0   30.0   16.666666666666668
150.0   30.0   33.333333333333336
200.0   60.0   33.333333333333336
200.0   30.0   16.666666666666668
150.0   60.0   16.666666666666668
150.0   30.0   33.333333333333336
200.0   30.0   33.333333333333336
150.0   60.0   33.333333333333336
150.0   30.0   50.0
200.0   30.0   33.333333333333336
200.0   60.0   33.333333333333336
150.0   60.0   33.333333333333336
200.0   60.0   50.0
150.0   30.0   50.0
150.0   60.0   50.0
200.0   60.0   50.0
150.0   60.0   33.333333333333336
150.0   30.0   50.0
200.0   60.0   50.0
200.0   30.0   50.0
200.0   30.0   33.333333333333336
150.0   30.0   50.0
200.0   60.0   50.0
200.0   30.0   33.333333333333336
150.0   60.0   33.333333333333336
150.0   60.0   0.0
200.0   60.0   0.0
150.0   90.0   0.0
150.0   60.0   16.666666666666668
200.0   60.0   0.0
200.0   90.0   0.0
150.0   90.0   0.0
200.0   90.0   16.666666666666668
150.0   60.0   16.666666666666668
150.0   90.0   16.666666666666668
200.0   90.0   16.666666666666668
150.0   90.0   0.0
150.0   60.0   16.666666666666668
200.0   90.0   16.666666666666668
200.0   60.0   16.666666666666668
200.0   60.0   0.0
150.0   60.0   16.666666666666668
200.0   90.0   16.666666666666668
200.0   60.0   0.0
150.0   90.0   0.0
150.0   60.0   16.666666666666668
200.0   60.0   16.666666666666668
150.0   90.0   16.666666666666668
150.0   60.0   33.333333333333336
200.0   60.0   16.666666666666668
200.0   90.0   16.666666666666668
150.0   90.0   16.666666666666668
200.0   90.0   33.333333333333336
150.0   60.0   33.333333333333336
150.0   90.0   33.333333333333336
200.0   90.0   33.333333333333336
150.0   90.0   16.666666666666668
150.0   60.0   33.333333333333336
200.0   90.0   33.333333333333336
200.0   60.0   33.333333333333336
200.0   60.0   16.666666666666668
150.0   60.0   33.333333333333336
200.0   90.0   33.333333333333336
200.0   60.0   16.666666666666668
150.0   90.0   16.666666666666668
150.0   60.0   33.333333333333336
200.0   60.0   33.333333333333336
150.0   90.0   33.333333333333336
150.0   60.0   50.0
200.0   60.0   33.333333333333336
200.0   90.0   33.333333333333336
150.0   90.0   33.333333333333336
200.0   90.0   50.0
150.0   60.0   50.0
150.0   90.0   50.0
200.0   90.0   50.0
150.0   90.0   33.333333333333336
150.0   60.0   50.0
200.0   90.0   50.0
200.0   60.0   50.0
200.0   60.0   33.333333333333336
150.0   60.0   50.0
200.0   90.0   50.0
200.0   60.0   33.333333333333336
150.0   90.0   33.333333333333336
150.0   90.0   0.0
200.0   90.0   0.0
150.0   120.0   0.0
150.0   90.0   16.666666666666668
200.0   90.0   0.0
200.0   120.0   0.0
150.0   120.0   0.0
200.0   120.0   16.666666666666668
150.0   90.0   16.666666666666668
150.0   120.0   16.666666666666668
200.0   120.0   16.666666666666668
150.0   120.0   0.0
150.0   90.0   16.666666666666668
200.0   120.0   16.666666666666668
200.0   90.0   16.666666666666668
200.0   90.0   0.0
150.0   90.0   16.666666666666668
200.0   120.0   16.666666666666668
200.0   90.0   0.0
150.0   120.0   0.0
150.0   90.0   16.666666666666668
200.0   90.0   16.666666666666668
150.0   120.0   16.666666666666668
150.0   90.0   33.333333333333336
200.0   90.0   16.666666666666668
200.0   120.0   16.666666666666668
150.0   120.0   16.666666666666668
200.0   120.0   33.333333333333336
150.0   90.0   33.333333333333336
150.0   120.0   33.333333333333336
200.0   120.0   33.333333333333336
150.0   120.0   16.666666666666668
150.0   90.0   33.333333333333336
200.0   120.0   33.333333333333336
200.0   90.0   33.333333333333336
200.0   90.0   16.666666666666668
150.0   90.0   33.333333333333336
200.0   120.0   33.333333333333336
200.0   90.0   16.666666666666668
150.0   120.0   16.666666666666668
150.0   90.0   33.333333333333336
200.0   90.0   33.333333333333336
150.0   120.0   33.333333333333336
150.0   90.0   50.0
200.0   90.0   33.333333333333336
200.0   120.0   33.333333333333336
150.0   120.0   33.333333333333336
200.0   120.0   50.0
150.0   90.0   50.0
150.0   120.0   50.0
200.0   120.0   50.0
150.0   120.0   33.333333333333336
150.0   90.0   50.0
200.0   120.0   50.0
200.0   90.0   50.0
200.0   90.0   33.333333333333336
150.0   90.0   50.0
200.0   120.0   50.0
200.0   90.0   33.333333333333336
150.0   120.0   33.333333333333336
150.0   120.0   0.0
200.0   120.0   0.0
150.0   150.0   0.0
150.0   120.0   16.666666666666668
200.0   120.0   0.0
200.0   150.0   0.0
150.0   150.0   0.0
200.0   150.0   16.666666666666668
150.0   120.0   16.666666666666668
150.0   150.0   16.666666666666668
200.0   150.0   16.666666666666668
150.0   150.0   0.0
150.0   120.0   16.666666666666668
200.0   150.0   16.666666666666668
200.0   120.0   16.666666666666668
200.0   120.0   0.0
150.0   120.0   16.666666666666668
200.0   150.0   16.666666666666668
200.0   120.0   0.0
150.0   150.0   0.0
150.0   120.0   16.666666666666668
200.0   120.0   16.666666666666668
150.0   150.0   16.666666666666668
150.0   120.0   33.333333333333336
200.0   120.0   16.666666666666668
200.0   150.0   16.666666666666668
150.0   150.0   16.666666666666668
200.0   150.0   33.333333333333336
150.0   120.0   33.333333333333336
150.0   150.0   33.333333333333336
200.0   150.0   33.333333333333336
150.0   150.0   16.666666666666668
150.0   120.0   33.333333333333336
200.0   150.0   33.333333333333336
200.0   120.0   33.333333333333336
200.0   120.0   16.666666666666668
150.0   120.0   33.333333333333336
200.0   150.0   33.333333333333336
200.0   120.0   16.666666666666668
150.0   150.0   16.666666666666668
150.0   120.0   33.333333333333336
200.0   120.0   33.333333333333336
150.0   150.0   33.333333333333336
150.0   120.0   50.0
200.0   120.0   33.333333333333336
200.0   150.0   33.333333333333336
150.0   150.0   33.333333333333336
200.0   150.0   50.0
150.0   120.0   50.0
150.0   150.0   50.0
200.0   150.0   50.0
150.0   150.0   33.333333333333336
150.0   120.0   50.0
200.0   150.0   50.0
200.0   120.0   50.0
200.0   120.0   33.333333333333336
150.0   120.0   50.0
200.0   150.0   50.0
200.0   120.0   33.333333333333336
150.0   150.0   33.333333333333336
200.0   0.0   0.0
250.0   0.0   0.0
200.0   30.0   0.0
200.0   0.0   16.666666666666668
250.0   0.0   0.0
250.0   30.0   0.0
200.0   30.0   0.0
250.0   30.0   16.666666666666668
200.0   0.0   16.666666666666668
200.0   30.0   16.666666666666668
250.0   30.0   16.666666666666668
200.0   30.0   0.0
200.0   0.0   16.666666666666668
250.0   30.0   16.666666666666668
250.0   0.0   16.666666666666668
250.0   0.0   0.0
200.0   0.0   16.666666666666668
250.0   30.0   16.666666666666668
250.0   0.0   0.0
200.0   30.0   0.0
200.0   0.0   16.666666666666668
250.0   0.0   16.666666666666668
200.0   30.0   16.666666666666668
200.0   0.0   33.333333333333336
250.0   0.0   16.666666666666668
250.0   30.0   16.666666666666668
200.0   30.0   16.666666666666668
250.0   30.0   33.333333333333336
200.0   0.0   33.333333333333336
200.0   30.0   33.333333333333336
250.0   30.0   33.333333333333336
200.0   30.0   16.666666666666668
200.0   0.0   33.333333333333336
250.0   30.0   33.333333333333336
250.0   0.0   33.333333333333336
250.0   0.0   16.666666666666668
200.0   0.0   33.333333333333336
250.0   30.0   33.333333333333336
250.0   0.0   16.666666666666668
200.0   30.0   16.666666666666668
200.0   0.0   33.333333333333336
250.0   0.0   33.333333333333336
200.0   30.0   33.333333333333336
200.0   0.0   50.0
250.0   0.0   33.333333333333336
250.0   30.0   33.333333333333336
200.0   30.0   33.333333333333336
250.0   30.0   50.0
200.0   0.0   50.0
200.0   30.0   50.0
250.0   30.0   50.0
200.0   30.0   33.333333333333336
200.0   0.0   50.0
250.0   30.0   50.0
250.0   0.0   50.0
250.0   0.0   33.333333333333336
200.0   0.0   50.0
250.0   30.0   50.0
250.0   0.0   33.333333333333336
200.0   30.0   33.333333333333336
200.0   30.0   0.0
250.0   30.0   0.0
200.0   60.0   0.0
200.0   30.0   16.666666666666668
250.0   30.0   0.0
250.0   60.0   0.0
200.0   60.0   0.0
250.0   60.0   16.666666666666668
200.0   30.0   16.666666666666668
200.0   60.0   16.666666666666668
250.0   60.0   16.666666666666668
200.0   60.0   0.0
200.0   30.0   16.666666666666668
250.0   60.0   16.666666666666668
250.0   30.0   16.666666666666668
250.0   30.0   0.0
200.0   30.0   16.666666666666668
250.0   60.0   16.666666666666668
250.0   30.0   0.0
200.0   60.0   0.0
200.0   30.0   16.666666666666668
250.0   30.0   16.666666666666668
200.0   60.0   16.666666666666668
200.0   30.0   33.333333333333336
250.0   30.0   16.666666666666668
250.0   60.0   16.666666666666668
200.0   60.0   16.666666666666668
250.0   60.0   33.333333333333336
200.0   30.0   33.333333333333336
200.0   60.0   33.333333333333336
250.0   60.0   33.333333333333336
200.0   60.0   16.666666666666668
200.0   30.0   33.333333333333336
250.0   60.0   33.333333333333336
250.0   30.0   33.333333333333336
250.0   30.0   16.666666666666668
200.0   30.0   33.333333333333336
250.0   60.0   33.333333333333336
250.0   30.0   16.666666666666668
200.0   60.0   16.666666666666668
200.0   30.0   33.333333333333336
250.0   30.0   33.333333333333336
200.0   60.0   33.333333333333336
200.0   30.0   50.0
250.0   30.0   33.333333333333336
250.0   60.0   33.333333333333336
200.0   60.0   33.333333333333336
250.0   60.0   50.0
200.0   30.0   50.0
200.0   60.0   50.0
250.0   60.0   50.0
200.0   60.0   33.333333333333336
200.0   30.0   50.0
250.0   60.0   50.0
250.0   30.0   50.0
250.0   30.0   33.333333333333336
200.0   30.0   50.0
250.0   60.0   50.0
250.0   30.0   33.333333333333336
200.0   60.0   33.333333333333336
200.0   60.0   0.0
250.0   60.0   0.0
200.0   90.0   0.0
200.0   60.0   16.666666666666668
250.0   60.0   0.0
250.0   90.0   0.0
200.0   90.0   0.0
250.0   90.0   16.666666666666668
200.0   60.0   16.666666666666668
200.0   90.0   16.666666666666668
250.0   90.0   16.666666666666668
200.0   90.0   0.0
200.0   60.0   16.666666666666668
250.0   90.0   16.666666666666668
250.0   60.0   16.666666666666668
250.0   60.0   0.0
200.0   60.0   16.666666666666668
250.0   90.0   16.666666666666668
250.0   60.0   0.0
200.0   90.0   0.0
200.0   60.0   16.666666666666668
250.0   60.0   16.666666666666668
200.0   90.0   16.666666666666668
200.0   60.0   33.333333333333336
250.0   60.0   16.666666666666668
250.0   90.0   16.666666666666668
200.0   90.0   16.666666666666668
250.0   90.0   33.333333333333336
200.0   60.0   33.333333333333336
200.0   90.0   33.333333333333336
250.0   90.0   33.333333333333336
200.0   90.0   16.666666666666668
200.0   60.0   33.333333333333336
250.0   90.0   33.333333333333336
250.0   60.0   33.333333333333336
250.0   60.0   16.666666666666668
200.0   60.0   33.333333333333336
250.0   90.0   33.333333333333336
250.0   60.0   16.666666666666668
200.0   90.0   16.666666666666668
200.0   60.0   33.333333333333336
250.0   60.0   33.333333333333336
200.0   90.0   33.333333333333336
200.0   60.0   50.0
250.0   60.0   33.333333333333336
250.0   90.0   33.333333333333336
200.0   90.0   33.333333333333336
250.0   90.0   50.0
200.0   60.0   50.0
200.0   90.0   50.0
250.0   90.0   50.0
200.0   90.0   33.333333333333336
200.0   60.0   50.0
250.0   90.0   50.0
250.0   60.0   50.0
250.0   60.0   33.333333333333336
200.0   60.0   50.0
250.0   90.0   50.0
250.0   60.0   33.333333333333336
200.0   90.0   33.333333333333336
200.0   90.0   0.0
250.0   90.0   0.0
200.0   120.0   0.0
200.0   90.0   16.666666666666668
250.0   90.0   0.0
250.0   120.0   0.0
200.0   120.0   0.0
250.0   120.0   16.666666666666668
200.0   90.0   16.666666666666668
200.0   120.0   16.666666666666668
250.0   120.0   16.666666666666668
200.0   120.0   0.0
200.0   90.0   16.666666666666668
250.0   120.0   16.666666666666668
250.0   90.0   16.666666666666668
250.0   90.0   0.0
200.0   90.0   16.666666666666668
250.0   120.0   16.666666666666668
250.0   90.0   0.0
200.0   120.0   0.0
200.0   90.0   16.666666666666668
250.0   90.0   16.666666666666668
200.0   120.0   16.666666666666668
200.0   90.0   33.333333333333336
250.0   90.0   16.666666666666668
250.0   120.0   16.666666666666668
200.0   120.0   16.666666666666668
250.0   120.0   33.333333333333336
200.0   90.0   33.333333333333336
200.0   120.0   33.333333333333336
250.0   120.0   33.333333333333336
200.0   120.0   16.666666666666668
200.0   90.0   33.333333333333336
250.0   120.0   33.333333333333336
250.0   90.0   33.333333333333336
250.0   90.0   16.666666666666668
200.0   90.0   33.333333333333336
250.0   120.0   33.333333333333336
250.0   90.0   16.666666666666668
200.0   120.0   16.666666666666668
200.0   90.0   33.333333333333336
250.0   90.0   33.333333333333336
200.0   120.0   33.333333333333336
200.0   90.0   50.0
250.0   90.0   33.333333333333336
250.0   120.0   33.333333333333336
200.0   120.0   33.333333333333336
250.0   120.0   50.0
200.0   90.0   50.0
200.0   120.0   50.0
250.0   120.0   50.0
200.0   120.0   33.333333333333336
200.0   90.0   50.0
250.0   120.0   50.0
250.0   90.0   50.0
250.0   90.0   33.333333333333336
200.0   90.0   50.0
250.0   120.0   50.0
250.0   90.0   33.333333333333336
200.0   120.0   33.333333333333336
200.0   120.0   0.0
250.0   120.0   0.0
200.0   150.0   0.0
200.0   120.0   16.666666666666668
250.0   120.0   0.0
250.0   150.0   0.0
200.0   150.0   0.0
250.0   150.0   16.666666666666668
200.0   120.0   16.666666666666668
200.0   150.0   16.666666666666668
250.0   150.0   16.666666666666668
200.0   150.0   0.0
200.0   120.0   16.666666666666668
250.0   150.0   16.666666666666668
250.0   120.0   16.666666666666668
250.0   120.0   0.0
200.0   120.0   16.666666666666668
250.0   150.0   16.666666666666668
250.0   120.0   0.0
200.0   150.0   0.0
200.0   120.0   16.666666666666668
250.0   120.0   16.666666666666668
200.0   150.0   16.666666666666668
200.0   120.0   33.333333333333336
250.0   120.0   16.666666666666668
250.0   150.0   16.666666666666668
200.0   150.0   16.666666666666668
250.0   150.0   33.333333333333336
200.0   120.0   33.333333333333336
200.0   150.0   33.333333333333336
250.0   150.0   33.333333333333336
200.0   150.0   16.666666666666668
200.0   120.0   33.333333333333336
250.0   150.0   33.333333333333336
250.0   120.0   33.333333333333336
250.0   120.0   16.666666666666668
200.0   120.0   33.333333333333336
250.0   150.0   33.333333333333336
250.0   120.0   16.666666666666668
200.0   150.0   16.666666666666668
200.0   120.0   33.333333333333336
250.0   120.0   33.333333333333336
200.0   150.0   33.333333333333336
200.0   120.0   50.0
250.0   120.0   33.333333333333336
250.0   150.0   33.333333333333336
200.0   150.0   33.333333333333336
250.0   150.0   50.0
200.0   120.0   50.0
200.0   150.0   50.0
250.0   150.0   50.0
200.0   150.0   33.333333333333336
200.0   120.0   50.0
250.0   150.0   50.0
250.0   120.0   50.0
250.0   120.0   33.333333333333336
200.0   120.0   50.0
250.0   150.0   50.0
250.0   120.0   33.333333333333336
200.0   150.0   33.333333333333336
250.0   0.0   0.0
300.0   0.0   0.0
250.0   30.0   0.0
250.0   0.0   16.666666666666668
300.0   0.0   0.0
300.0   30.0   0.0
250.0   30.0   0.0
300.0   30.0   16.666666666666668
250.0   0.0   16.666666666666668
250.0   30.0   16.666666666666668
300.0   30.0   16.666666666666668
250.0   30.0   0.0
250.0   0.0   16.666666666666668
300.0   30.0   16.666666666666668
300.0   0.0   16.666666666666668
300.0   0.0   0.0
250.0   0.0   16.666666666666668
300.0   30.0   16.666666666666668
300.0   0.0   0.0
250.0   30.0   0.0
250.0   0.0   16.666666666666668
300.0   0.0   16.666666666666668
250.0   30.0   16.666666666666668
250.0   0.0   33.333333333333336
300.0   0.0   16.666666666666668
300.0   30.0   16.666666666666668
250.0   30.0   16.666666666666668
300.0   30.0   33.333333333333336
250.0   0.0   33.333333333333336
250.0   30.0   33.333333333333336
300.0   30.0   33.333333333333336
250.0   30.0   16.666666666666668
250.0   0.0   33.333333333333336
300.0   30.0   33.333333333333336
300.0   0.0   33.333333333333336
300.0   0.0   16.666666666666668
250.0   0.0   33.333333333333336
300.0   30.0   33.333333333333336
300.0   0.0   16.666666666666668
250.0   30.0   16.666666666666668
250.0   0.0   33.333333333333336
300.0   0.0   33.333333333333336
250.0   30.0   33.333333333333336
250.0   0.0   50.0
300.0   0.0   33.333333333333336
300.0   30.0   33.333333333333336
250.0   30.0   33.333333333333336
300.0   30.0   50.0
250.0   0.0   50.0
250.0   30.0   50.0
300.0   30.0   50.0
250.0   30.0   33.333333333333336
250.0   0.0   50.0
300.0   30.0   50.0
300.0   0.0   50.0
300.0   0.0   33.333333333333336
250.0   0.0   50.0
300.0   30.0   50.0
300.0   0.0   33.333333333333336
250.0   30.0   33.333333333333336
250.0   30.0   0.0
300.0   30.0   0.0
250.0   60.0   0.0
250.0   30.0   16.666666666666668
300.0   30.0   0.0
300.0   60.0   0.0
250.0   60.0   0.0
300.0   60.0   16.666666666666668
250.0   30.0   16.666666666666668
250.0   60.0   16.666666666666668
300.0   60.0   16.666666666666668
250.0   60.0   0.0
250.0   30.0   16.666666666666668
300.0   60.0   16.666666666666668
300.0   30.0   16.666666666666668
300.0   30.0   0.0
250.0   30.0   16.666666666666668
300.0   60.0   16.666666666666668
300.0   30.0   0.0
250.0   60.0   0.0
250.0   30.0   16.666666666666668
300.0   30.0   16.666666666666668
250.0   60.0   16.666666666666668
250.0   30.0   33.333333333333336
300.0   30.0   16.666666666666668
300.0   60.0   16.666666666666668
250.0   60.0   16.666666666666668
300.0   60.0   33.333333333333336
250.0   30.0   33.333333333333336
250.0   60.0   33.333333333333336
300.0   60.0   33.333333333333336
250.0   60.0   16.666666666666668
250.0   30.0   33.333333333333336
300.0   60.0   33.333333333333336
300.0   30.0   33.333333333333336
300.0   30.0   16.666666666666668
250.0   30.0   33.333333333333336
300.0   60.0   33.333333333333336
300.0   30.0   16.666666666666668
250.0   60.0   16.666666666666668
250.0   30.0   33.333333333333336
300.0   30.0   33.333333333333336
250.0   60.0   33.333333333333336
250.0   30.0   50.0
300.0   30.0   33.333333333333336
300.0   60.0   33.333333333333336
250.0   60.0   33.333333333333336
300.0   60.0   50.0
250.0   30.0   50.0
250.0   60.0   50.0
300.0   60.0   50.0
250.0   60.0   33.333333333333336
250.0   30.0   50.0
300.0   60.0   50.0
300.0   30.0   50.0
300.0   30.0   33.333333333333336
250.0   30.0   50.0
300.0   60.0   50.0
300.0   30.0   33.333333333333336
250.0   60.0   33.333333333333336
250.0   60.0   0.0
300.0   60.0   0.0
250.0   90.0   0.0
250.0   60.0   16.666666666666668
300.0   60.0   0.0
300.0   90.0   0.0
250.0   90.0   0.0
300.0   90.0   16.666666666666668
250.0   60.0   16.666666666666668
250.0   90.0   16.666666666666668
300.0   90.0   16.666666666666668
250.0   90.0   0.0
250.0   60.0   16.666666666666668
300.0   90.0   16.666666666666668
300.0   60.0   16.666666666666668
300.0   60.0   0.0
250.0   60.0   16.666666666666668
300.0   90.0   16.666666666666668
300.0   60.0   0.0
250.0   90.0   0.0
250.0   60.0   16.666666666666668
300.0   60.0   16.666666666666668
250.0   90.0   16.666666666666668
250.0   60.0   33.333333333333336
300.0   60.0   16.666666666666668
300.0   90.0   16.666666666666668
250.0   90.0   16.666666666666668
300.0   90.0   33.333333333333336
250.0   60.0   33.333333333333336
250.0   90.0   33.333333333333336
300.0   90.0   33.333333333333336
250.0   90.0   16.666666666666668
250.0   60.0   33.333333333333336
300.0   90.0   33.333333333333336
300.0   60.0   33.333333333333336
300.0   60.0   16.666666666666668
250.0   60.0   33.333333333333336
300.0   90.0   33.333333333333336
300.0   60.0   16.666666666666668
250.0   90.0   16.666666666666668
250.0   60.0   33.333333333333336
300.0   60.0   33.333333333333336
250.0   90.0   33.333333333333336
250.0   60.0   50.0
300.0   60.0   33.333333333333336
300.0   90.0   33.333333333333336
250.0   90.0   33.333333333333336
300.0   90.0   50.0
250.0   60.0   50.0
250.0   90.0   50.0
300.0   90.0   50.0
250.0   90.0   33.333333333333336
250.0   60.0   50.0
300.0   90.0   50.0
300.0   60.0   50.0
300.0   60.0   33.333333333333336
250.0   60.0   50.0
300.0   90.0   50.0
300.0   60.0   33.333333333333336
250.0   90.0   33.333333333333336
250.0   90.0   0.0
300.0   90.0   0.0
250.0   120.0   0.0
250.0   90.0   16.666666666666668
300.0   90.0   0.0
300.0   120.0   0.0
250.0   120.0   0.0
300.0   120.0   16.666666666666668
250.0   90.0   16.666666666666668
250.0   120.0   16.666666666666668
300.0   120.0   16.666666666666668
250.0   120.0   0.0
250.0   90.0   16.666666666666668
300.0   120.0   16.666666666666668
300.0   90.0   16.666666666666668
300.0   90.0   0.0
250.0   90.0   16.666666666666668
300.0   120.0   16.666666666666668
300.0   90.0   0.0
250.0   120.0   0.0
250.0   90.0   16.666666666666668
300.0   90.0   16.666666666666668
250.0   120.0   16.666666666666668
250.0   90.0   33.333333333333336
300.0   90.0   16.666666666666668
300.0   120.0   16.666666666666668
250.0   120.0   16.666666666666668
300.0   120.0   33.333333333333336
250.0   90.0   33.333333333333336
250.0   120.0   33.333333333333336
300.0   120.0   33.333333333333336
250.0   120.0   16.666666666666668
250.0   90.0   33.333333333333336
300.0   120.0   33.333333333333336
300.0   90.0   33.333333333333336
300.0   90.0   16.666666666666668
250.0   90.0   33.333333333333336
300.0   120.0   33.333333333333336
300.0   90.0   16.666666666666668
250.0   120.0   16.666666666666668
250.0   90.0   33.333333333333336
300.0   90.0   33.333333333333336
250.0   120.0   33.333333333333336
250.0   90.0   50.0
300.0   90.0   33.333333333333336
300.0   120.0   33.333333333333336
250.0   120.0   33.333333333333336
300.0   120.0   50.0
250.0   90.0   50.0
250.0   120.0   50.0
300.0   120.0   50.0
250.0   120.0   33.333333333333336
250.0   90.0   50.0
300.0   120.0   50.0
300.0   90.0   50.0
300.0   90.0   33.333333333333336
250.0   90.0   50.0
300.0   120.0   50.0
300.0   90.0   33.333333333333336
250.0   120.0   33.333333333333336
250.0   120.0   0.0
300.0   120.0   0.0
250.0   150.0   0.0
250.0   120.0   16.666666666666668
300.0   120.0   0.0
300.0   150.0   0.0
250.0   150.0   0.0
300.0   150.0   16.666666666666668
250.0   120.0   16.666666666666668
250.0   150.0   16.666666666666668
300.0   150.0   16.666666666666668
250.0   150.0   0.0
250.0   120.0   16.666666666666668
300.0   150.0   16.666666666666668
300.0   120.0   16.666666666666668
300.0   120.0   0.0
250.0   120.0   16.666666666666668
300.0   150.0   16.666666666666668
300.0   120.0   0.0
250.0   150.0   0.0
250.0   120.0   16.666666666666668
300.0   120.0   16.666666666666668
250.0   150.0   16.666666666666668
250.0   120.0   33.333333333333336
300.0   120.0   16.666666666666668
300.0   150.0   16.666666666666668
250.0   150.0   16.666666666666668
300.0   150.0   33.333333333333336
250.0   120.0   33.333333333333336
250.0   150.0   33.333333333333336
300.0   150.0   33.333333333333336
250.0   150.0   16.666666666666668
250.0   120.0   33.333333333333336
300.0   150.0   33.333333333333336
300.0   120.0   33.333333333333336
300.0   120.0   16.666666666666668
250.0   120.0   33.333333333333336
300.0   150.0   33.333333333333336
300.0   120.0   16.666666666666668
250.0   150.0   16.666666666666668
250.0   120.0   33.333333333333336
300.0   120.0   33.333333333333336
250.0   150.0   33.333333333333336
250.0   120.0   50.0
300.0   120.0   33.333333333333336
300.0   150.0   33.333333333333336
250.0   150.0   33.333333333333336
300.0   150.0   50.0
250.0   120.0   50.0
250.0   150.0   50.0
300.0   150.0   50.0
250.0   150.0   33.333333333333336
250.0   120.0   50.0
300.0   150.0   50.0
300.0   120.0   50.0
300.0   120.0   33.333333333333336
250.0   120.0   50.0
300.0   150.0   50.0
300.0   120.0   33.333333333333336
250.0   150.0   33.333333333333336
300.0   0.0   0.0
350.0   0.0   0.0
300.0   30.0   0.0
300.0   0.0   16.666666666666668
350.0   0.0   0.0
350.0   30.0   0.0
300.0   30.0   0.0
350.0   30.0   16.666666666666668
300.0   0.0   16.666666666666668
300.0   30.0   16.666666666666668
350.0   30.0   16.666666666666668
300.0   30.0   0.0
300.0   0.0   16.666666666666668
350.0   30.0   16.666666666666668
350.0   0.0   16.666666666666668
350.0   0.0   0.0
300.0   0.0   16.666666666666668
350.0   30.0   16.666666666666668
350.0   0.0   0.0
300.0   30.0   0.0
300.0   0.0   16.666666666666668
350.0   0.0   16.666666666666668
300.0   30.0   16.666666666666668
300.0   0.0   33.333333333333336
350.0   0.0   16.666666666666668
350.0   30.0   16.666666666666668
300.0   30.0   16.666666666666668
350.0   30.0   33.333333333333336
300.0   0.0   33.333333333333336
300.0   30.0   33.333333333333336
350.0   30.0   33.333333333333336
300.0   30.0   16.666666666666668
300.0   0.0   33.333333333333336
350.0   30.0   33.333333333333336
350.0   0.0   33.333333333333336
350.0   0.0   16.666666666666668
300.0   0.0   33.333333333333336
350.0   30.0   33.333333333333336
350.0   0.0   16.666666666666668
300.0   30.0   16.666666666666668
300.0   0.0   33.333333333333336
350.0   0.0   33.333333333333336
300.0   30.0   33.333333333333336
300.0   0.0   50.0
350.0   0.0   33.333333333333336
350.0   30.0   33.333333333333336
300.0   30.0   33.333333333333336
350.0   30.0   50.0
300.0   0.0   50.0
300.0   30.0   50.0
350.0   30.0   50.0
300.0   30.0   33.333333333333336
300.0   0.0   50.0
350.0   30.0   50.0
350.0   0.0   50.0
350.0   0.0   33.333333333333336
300.0   0.0   50.0
350.0   30.0   50.0
350.0   0.0   33.333333333333336
300.0   30.0   33.333333333333336
300.0   30.0   0.0
350.0   30.0   0.0
300.0   60.0   0.0
300.0   30.0   16.666666666666668
350.0   30.0   0.0
350.0   60.0   0.0
300.0   60.0   0.0
350.0   60.0   16.666666666666668
300.0   30.0   16.666666666666668
300.0   60.0   16.666666666666668
350.0   60.0   16.666666666666668
300.0   60.0   0.0
300.0   30.0   16.666666666666668
350.0   60.0   16.666666666666668
350.0   30.0   16.666666666666668
350.0   30.0   0.0
300.0   30.0   16.666666666666668
350.0   60.0   16.666666666666668
350.0   30.0   0.0
300.0   60.0   0.0
300.0   30.0   16.666666666666668
350.0   30.0   16.666666666666668
300.0   60.0   16.666666666666668
300.0   30.0   33.333333333333336
350.0   30.0   16.666666666666668
350.0   60.0   16.666666666666668
300.0   60.0   16.666666666666668
350.0   60.0   33.333333333333336
300.0   30.0   33.333333333333336
300.0   60.0   33.333333333333336
350.0   60.0   33.333333333333336
300.0   60.0   16.666666666666668
300.0   30.0   33.333333333333336
350.0   60.0   33.333333333333336
350.0   30.0   33.333333333333336
350.0   30.0   16.666666666666668
300.0   30.0   33.333333333333336
350.0   60.0   33.333333333333336
350.0   30.0   16.666666666666668
300.0   60.0   16.666666666666668
300.0   30.0   33.333333333333336
350.0   30.0   33.333333333333336
300.0   60.0   33.333333333333336
300.0   30.0   50.0
350.0   30.0   33.333333333333336
350.0   60.0   33.333333333333336
300.0   60.0   33.333333333333336
350.0   60.0   50.0
300.0   30.0   50.0
300.0   60.0   50.0
350.0   60.0   50.0
300.0   60.0   33.333333333333336
300.0   30.0   50.0
350.0   60.0   50.0
350.0   30.0   50.0
350.0   30.0   33.333333333333336
300.0   30.0   50.0
350.0   60.0   50.0
350.0   30.0   33.333333333333336
300.0   60.0   33.333333333333336
300.0   60.0   0.0
350.0   60.0   0.0
300.0   90.0   0.0
300.0   60.0   16.666666666666668
350.0   60.0   0.0
350.0   90.0   0.0
300.0   90.0   0.0
350.0   90.0   16.666666666666668
300.0   60.0   16.666666666666668
300.0   90.0   16.666666666666668
350.0   90.0   16.666666666666668
300.0   90.0   0.0
300.0   60.0   16.666666666666668
350.0   90.0   16.666666666666668
350.0   60.0   16.666666666666668
350.0   60.0   0.0
300.0   60.0   16.666666666666668
350.0   90.0   16.666666666666668
350.0   60.0   0.0
300.0   90.0   0.0
300.0   60.0   16.666666666666668
350.0   60.0   16.666666666666668
300.0   90.0   16.666666666666668
300.0   60.0   33.333333333333336
350.0   60.0   16.666666666666668
350.0   90.0   16.666666666666668
300.0   90.0   16.666666666666668
350.0   90.0   33.333333333333336
300.0   60.0   33.333333333333336
300.0   90.0   33.333333333333336
350.0   90.0   33.333333333333336
300.0   90.0   16.666666666666668
300.0   60.0   33.333333333333336
350.0   90.0   33.333333333333336
350.0   60.0   33.333333333333336
350.0   60.0   16.666666666666668
300.0   60.0   33.333333333333336
350.0   90.0   33.333333333333336
350.0   60.0   16.666666666666668
300.0   90.0   16.666666666666668
300.0   60.0   33.333333333333336
350.0   60.0   33.333333333333336
300.0   90.0   33.333333333333336
300.0   60.0   50.0
350.0   60.0   33.333333333333336
350.0   90.0   33.333333333333336
300.0   90.0   33.333333333333336
350.0   90.0   50.0
300.0   60.0   50.0
300.0   90.0   50.0
350.0   90.0   50.0
300.0   90.0   33.333333333333336
300.0   60.0   50.0
350.0   90.0   50.0
350.0   60.0   50.0
350.0   60.0   33.333333333333336
300.0   60.0   50.0
350.0   90.0   50.0
350.0   60.0   33.333333333333336
300.0   90.0   33.333333333333336
300.0   90.0   0.0
350.0   90.0   0.0
300.0   120.0   0.0
300.0   90.0   16.666666666666668
350.0   90.0   0.0
350.0   120.0   0.0
300.0   120.0   0.0
350.0   120.0   16.666666666666668
300.0   90.0   16.666666666666668
300.0   120.0   16.666666666666668
350.0   120.0   16.666666666666668
300.0   120.0   0.0
300.0   90.0   16.666666666666668
350.0   120.0   16.666666666666668
350.0   90.0   16.666666666666668
350.0   90.0   0.0
300.0   90.0   16.666666666666668
350.0   120.0   16.666666666666668
350.0   90.0   0.0
300.0   120.0   0.0
300.0   90.0   16.666666666666668
350.0   90.0   16.666666666666668
300.0   120.0   16.666666666666668
300.0   90.0   33.333333333333336
350.0   90.0   16.666666666666668
350.0   120.0   16.666666666666668
300.0   120.0   16.666666666666668
350.0   120.0   33.333333333333336
300.0   90.0   33.333333333333336
300.0   120.0   33.333333333333336
350.0   120.0   33.333333333333336
300.0   120.0   16.666666666666668
300.0   90.0   33.333333333333336
350.0   120.0   33.333333333333336
350.0   90.0   33.333333333333336
350.0   90.0   16.666666666666668
300.0   90.0   33.333333333333336
350.0   120.0   33.333333333333336
350.0   90.0   16.666666666666668
300.0   120.0   16.666666666666668
300.0   90.0   33.333333333333336
350.0   90.0   33.333333333333336
300.0   120.0   33.333333333333336
300.0   90.0   50.0
350.0   90.0   33.333333333333336
350.0   120.0   33.333333333333336
300.0   120.0   33.333333333333336
350.0   120.0   50.0
300.0   90.0   50.0
300.0   120.0   50.0
350.0   120.0   50.0
300.0   120.0   33.333333333333336
300.0   90.0   50.0
350.0   120.0   50.0
350.0   90.0   50.0
350.0   90.0   33.333333333333336
300.0   90.0   50.0
350.0   120.0   50.0
350.0   90.0   33.333333333333336
300.0   120.0   33.333333333333336
300.0   120.0   0.0
350.0   120.0   0.0
300.0   150.0   0.0
300.0   120.0   16.666666666666668
350.0   120.0   0.0
350.0   150.0   0.0
300.0   150.0   0.0
350.0   150.0   16.666666666666668
300.0   120.0   16.666666666666668
300.0   150.0   16.666666666666668
350.0   150.0   16.666666666666668
300.0   150.0   0.0
300.0   120.0   16.666666666666668
350.0   150.0   16.666666666666668
350.0   120.0   16.666666666666668
350.0   120.0   0.0
300.0   120.0   16.666666666666668
350.0   150.0   16.666666666666668
350.0   120.0   0.0
300.0   150.0   0.0
300.0   120.0   16.666666666666668
350.0   120.0   16.666666666666668
300.0   150.0   16.666666666666668
300.0   120.0   33.333333333333336
350.0   120.0   16.666666666666668
350.0   150.0   16.666666666666668
300.0   150.0   16.666666666666668
350.0   150.0   33.333333333333336
300.0   120.0   33.333333333333336
300.0   150.0   33.333333333333336
350.0   150.0   33.333333333333336
300.0   150.0   16.666666666666668
300.0   120.0   33.333333333333336
350.0   150.0   33.333333333333336
350.0   120.0   33.333333333333336
350.0   120.0   16.666666666666668
300.0   120.0   33.333333333333336
350.0   150.0   33.333333333333336
350.0   120.0   16.666666666666668
300.0   150.0   16.666666666666668
300.0   120.0   33.333333333333336
350.0   120.0   33.333333333333336
300.0   150.0   33.333333333333336
300.0   120.0   50.0
350.0   120.0   33.333333333333336
350.0   150.0   33.333333333333336
300.0   150.0   33.333333333333336
350.0   150.0   50.0
300.0   120.0   50.0
300.0   150.0   50.0
350.0   150.0   50.0
300.0   150.0   33.333333333333336
300.0   120.0   50.0
350.0   150.0   50.0
350.0   120.0   50.0
350.0   120.0   33.333333333333336
300.0   120.0   50.0
350.0   150.0   50.0
350.0   120.0   33.333333333333336
300.0   150.0   33.333333333333336
350.0   0.0   0.0
400.0   0.0   0.0
350.0   30.0   0.0
350.0   0.0   16.666666666666668
400.0   0.0   0.0
400.0   30.0   0.0
350.0   30.0   0.0
400.0   30.0   16.666666666666668
350.0   0.0   16.666666666666668
350.0   30.0   16.666666666666668
400.0   30.0   16.666666666666668
350.0   30.0   0.0
350.0   0.0   16.666666666666668
400.0   30.0   16.666666666666668
400.0   0.0   16.666666666666668
400.0   0.0   0.0
350.0   0.0   16.666666666666668
400.0   30.0   16.666666666666668
400.0   0.0   0.0
350.0   30.0   0.0
350.0   0.0   16.666666666666668
400.0   0.0   16.666666666666668
350.0   30.0   16.666666666666668
350.0   0.0   33.333333333333336
400.0   0.0   16.666666666666668
400.0   30.0   16.666666666666668
350.0   30.0   16.666666666666668
400.0   30.0   33.333333333333336
350.0   0.0   33.333333333333336
350.0   30.0   33.333333333333336
400.0   30.0   33.333333333333336
350.0   30.0   16.666666666666668
350.0   0.0   33.333333333333336
400.0   30.0   33.333333333333336
400.0   0.0   33.333333333333336
400.0   0.0   16.666666666666668
350.0   0.0   33.333333333333336
400.0   30.0   33.333333333333336
400.0   0.0   16.666666666666668
350.0   30.0   16.666666666666668
350.0   0.0   33.333333333333336
400.0   0.0   33.333333333333336
350.0   30.0   33.333333333333336
350.0   0.0   50.0
400.0   0.0   33.333333333333336
400.0   30.0   33.333333333333336
350.0   30.0   33.333333333333336
400.0   30.0   50.0
350.0   0.0   50.0
350.0   30.0   50.0
400.0   30.0   50.0
350.0   30.0   33.333333333333336
350.0   0.0   50.0
400.0   30.0   50.0
400.0   0.0   50.0
400.0   0.0   33.333333333333336
350.0   0.0   50.0
400.0   30.0   50.0
400.0   0.0   33.333333333333336
350.0   30.0   33.333333333333336
350.0   30.0   0.0
400.0   30.0   0.0
350.0   60.0   0.0
350.0   30.0   16.666666666666668
400.0   30.0   0.0
400.0   60.0   0.0
350.0   60.0   0.0
400.0   60.0   16.666666666666668
350.0   30.0   16.666666666666668
350.0   60.0   16.666666666666668
400.0   60.0   16.666666666666668
350.0   60.0   0.0
350.0   30.0   16.666666666666668
400.0   60.0   16.666666666666668
400.0   30.0   16.666666666666668
400.0   30.0   0.0
350.0   30.0   16.666666666666668
400.0   60.0   16.666666666666668
400.0   30.0   0.0
350.0   60.0   0.0
350.0   30.0   16.666666666666668
400.0   30.0   16.666666666666668
350.0   60.0   16.666666666666668
350.0   30.0   33.333333333333336
400.0   30.0   16.666666666666668
400.0   60.0   16.666666666666668
350.0   60.0   16.666666666666668
400.0   60.0   33.333333333333336
350.0   30.0   33.333333333333336
350.0   60.0   33.333333333333336
400.0   60.0   33.333333333333336
350.0   60.0   16.666666666666668
350.0   30.0   33.333333333333336
400.0   60.0   33.333333333333336
400.0   30.0   33.333333333333336
400.0   30.0   16.666666666666668
350.0   30.0   33.333333333333336
400.0   60.0   33.333333333333336
400.0   30.0   16.666666666666668
350.0   60.0   16.666666666666668
350.0   30.0   33.333333333333336
400.0   30.0   33.333333333333336
350.0   60.0   33.333333333333336
350.0   30.0   50.0
400.0   30.0   33.333333333333336
400.0   60.0   33.333333333333336
350.0   60.0   33.333333333333336
400.0   60.0   50.0
350.0   30.0   50.0
350.0   60.0   50.0
400.0   60.0   50.0
350.0   60.0   33.333333333333336
350.0   30.0   50.0
400.0   60.0   50.0
400.0   30.0   50.0
400.0   30.0   33.333333333333336
350.0   30.0   50.0
400.0   60.0   50.0
400.0   30.0   33.333333333333336
350.0   60.0   33.333333333333336
350.0   60.0   0.0
400.0   60.0   0.0
350.0   90.0   0.0
350.0   60.0   16.666666666666668
400.0   60.0   0.0
400.0   90.0   0.0
350.0   90.0   0.0
400.0   90.0   16.666666666666668
350.0   60.0   16.666666666666668
350.0   90.0   16.666666666666668
400.0   90.0   16.666666666666668
350.0   90.0   0.0
350.0   60.0   16.666666666666668
400.0   90.0   16.666666666666668
400.0   60.0   16.666666666666668
400.0   60.0   0.0
350.0   60.0   16.666666666666668
400.0   90.0   16.666666666666668
400.0   60.0   0.0
350.0   90.0   0.0
350.0   60.0   16.666666666666668
400.0   60.0   16.666666666666668
350.0   90.0   16.666666666666668
350.0   60.0   33.333333333333336
400.0   60.0   16.666666666666668
400.0   90.0   16.666666666666668
350.0   90.0   16.666666666666668
400.0   90.0   33.333333333333336
350.0   60.0   33.333333333333336
350.0   90.0   33.333333333333336
400.0   90.0   33.333333333333336
350.0   90.0   16.666666666666668
350.0   60.0   33.333333333333336
400.0   90.0   33.333333333333336
400.0   60.0   33.333333333333336
400.0   60.0   16.666666666666668
350.0   60.0   33.333333333333336
400.0   90.0   33.333333333333336
400.0   60.0   16.666666666666668
350.0   90.0   16.666666666666668
350.0   60.0   33.333333333333336
400.0   60.0   33.333333333333336
350.0   90.0   33.333333333333336
350.0   60.0   50.0
400.0   60.0   33.333333333333336
400.0   90.0   33.333333333333336
350.0   90.0   33.333333333333336
400.0   90.0   50.0
350.0   60.0   50.0
350.0   90.0   50.0
400.0   90.0   50.0
350.0   90.0   33.333333333333336
350.0   60.0   50.0
400.0   90.0   50.0
400.0   60.0   50.0
400.0   60.0   33.333333333333336
350.0   60.0   50.0
400.0   90.0   50.0
400.0   60.0   33.333333333333336
350.0   90.0   33.333333333333336
350.0   90.0   0.0
400.0   90.0   0.0
350.0   120.0   0.0
350.0   90.0   16.666666666666668
400.0   90.0   0.0
400.0   120.0   0.0
350.0   120.0   0.0
400.0   120.0   16.666666666666668
350.0   90.0   16.666666666666668
350.0   120.0   16.666666666666668
400.0   120.0   16.666666666666668
350.0   120.0   0.0
350.0   90.0   16.666666666666668
400.0   120.0   16.666666666666668
400.0   90.0   16.666666666666668
400.0   90.0   0.0
350.0   90.0   16.666666666666668
400.0   120.0   16.666666666666668
400.0   90.0   0.0
350.0   120.0   0.0
350.0   90.0   16.666666666666668
400.0   90.0   16.666666666666668
350.0   120.0   16.666666666666668
350.0   90.0   33.333333333333336
400.0   90.0   16.666666666666668
400.0   120.0   16.666666666666668
350.0   120.0   16.666666666666668
400.0   120.0   33.333333333333336
350.0   90.0   33.333333333333336
350.0   120.0   33.333333333333336
400.0   120.0   33.333333333333336
350.0   120.0   16.666666666666668
350.0   90.0   33.333333333333336
400.0   120.0   33.333333333333336
400.0   90.0   33.333333333333336
400.0   90.0   16.666666666666668
350.0   90.0   33.333333333333336
400.0   120.0   33.333333333333336
400.0   90.0   16.666666666666668
350.0   120.0   16.666666666666668
350.0   90.0   33.333333333333336
400.0   90.0   33.333333333333336
350.0   120.0   33.333333333333336
350.0   90.0   50.0
400.0   90.0   33.333333333333336
400.0   120.0   33.333333333333336
350.0   120.0   33.333333333333336
400.0   120.0   50.0
350.0   90.0   50.0
350.0   120.0   50.0
400.0   120.0   50.0
350.0   120.0   33.333333333333336
350.0   90.0   50.0
400.0   120.0   50.0
400.0   90.0   50.0
400.0   90.0   33.333333333333336
350.0   90.0   50.0
400.0   120.0   50.0
400.0   90.0   33.333333333333336
350.0   120.0   33.333333333333336
350.0   120.0   0.0
400.0   120.0   0.0
350.0   150.0   0.0
350.0   120.0   16.666666666666668
400.0   120.0   0.0
400.0   150.0   0.0
350.0   150.0   0.0
400.0   150.0   16.666666666666668
350.0   120.0   16.666666666666668
350.0   150.0   16.666666666666668
400.0   150.0   16.666666666666668
350.0   150.0   0.0
350.0   120.0   16.666666666666668
400.0   150.0   16.666666666666668
400.0   120.0   16.666666666666668
400.0   120.0   0.0
350.0   120.0   16.666666666666668
400.0   150.0   16.666666666666668
400.0   120.0   0.0
350.0   150.0   0.0
350.0   120.0   16.666666666666668
400.0   120.0   16.666666666666668
350.0   150.0   16.666666666666668
350.0   120.0   33.333333333333336
400.0   120.0   16.666666666666668
400.0   150.0   16.666666666666668
350.0   150.0   16.666666666666668
400.0   150.0   33.333333333333336
350.0   120.0   33.333333333333336
350.0   150.0   33.333333333333336
400.0   150.0   33.333333333333336
350.0   150.0   16.666666666666668
350.0   120.0   33.333333333333336
400.0   150.0   33.333333333333336
400.0   120.0   33.333333333333336
400.0   120.0   16.666666666666668
350.0   120.0   33.333333333333336
400.0   150.0   33.333333333333336
400.0   120.0   16.666666666666668
350.0   150.0   16.666666666666668
350.0   120.0   33.333333333333336
400.0   120.0   33.333333333333336
350.0   150.0   33.333333333333336
350.0   120.0   50.0
400.0   120.0   33.333333333333336
400.0   150.0   33.333333333333336
350.0   150.0   33.333333333333336
400.0   150.0   50.0
350.0   120.0   50.0
350.0   150.0   50.0
400.0   150.0   50.0
350.0   150.0   33.333333333333336
350.0   120.0   50.0
400.0   150.0   50.0
400.0   120.0   50.0
400.0   120.0   33.333333333333336
350.0   120.0   50.0
400.0   150.0   50.0
400.0   120.0   33.333333333333336
350.0   150.0   33.333333333333336
400.0   0.0   0.0
450.0   0.0   0.0
400.0   30.0   0.0
400.0   0.0   16.666666666666668
450.0   0.0   0.0
450.0   30.0   0.0
400.0   30.0   0.0
450.0   30.0   16.666666666666668
400.0   0.0   16.666666666666668
400.0   30.0   16.666666666666668
450.0   30.0   16.666666666666668
400.0   30.0   0.0
400.0   0.0   16.666666666666668
450.0   30.0   16.666666666666668
450.0   0.0   16.666666666666668
450.0   0.0   0.0
400.0   0.0   16.666666666666668
450.0   30.0   16.666666666666668
450.0   0.0   0.0
400.0   30.0   0.0
400.0   0.0   16.666666666666668
450.0   0.0   16.666666666666668
400.0   30.0   16.666666666666668
400.0   0.0   33.333333333333336
450.0   0.0   16.666666666666668
450.0   30.0   16.666666666666668
400.0   30.0   16.666666666666668
450.0   30.0   33.333333333333336
400.0   0.0   33.333333333333336
400.0   30.0   33.333333333333336
450.0   30.0   33.333333333333336
400.0   30.0   16.666666666666668
400.0   0.0   33.333333333333336
450.0   30.0   33.333333333333336
450.0   0.0   33.333333333333336
450.0   0.0   16.666666666666668
400.0   0.0   33.333333333333336
450.0   30.0   33.333333333333336
450.0   0.0   16.666666666666668
400.0   30.0   16.666666666666668
400.0   0.0   33.333333333333336
450.0   0.0   33.333333333333336
400.0   30.0   33.333333333333336
400.0   0.0   50.0
450.0   0.0   33.333333333333336
450.0   30.0   33.333333333333336
400.0   30.0   33.333333333333336
450.0   30.0   50.0
400.0   0.0   50.0
400.0   30.0   50.0
450.0   30.0   50.0
400.0   30.0   33.333333333333336
400.0   0.0   50.0
450.0   30.0   50.0
450.0   0.0   50.0
450.0   0.0   33.333333333333336
400.0   0.0   50.0
450.0   30.0   50.0
450.0   0.0   33.333333333333336
400.0   30.0   33.333333333333336
400.0   30.0   0.0
450.0   30.0   0.0
400.0   60.0   0.0
400.0   30.0   16.666666666666668
450.0   30.0   0.0
450.0   60.0   0.0
400.0   60.0   0.0
450.0   60.0   16.666666666666668
400.0   30.0   16.666666666666668
400.0   60.0   16.666666666666668
450.0   60.0   16.666666666666668
400.0   60.0   0.0
400.0   30.0   16.666666666666668
450.0   60.0   16.666666666666668
450.0   30.0   16.666666666666668
450.0   30.0   0.0
400.0   30.0   16.666666666666668
450.0   60.0   16.666666666666668
450.0   30.0   0.0
400.0   60.0   0.0
400.0   30.0   16.666666666666668
450.0   30.0   16.666666666666668
400.0   60.0   16.666666666666668
400.0   30.0   33.333333333333336
450.0   30.0   16.666666666666668
450.0   60.0   16.666666666666668
400.0   60.0   16.666666666666668
450.0   60.0   33.333333333333336
400.0   30.0   33.333333333333336
400.0   60.0   33.333333333333336
450.0   60.0   33.333333333333336
400.0   60.0   16.666666666666668
400.0   30.0   33.333333333333336
450.0   60.0   33.333333333333336
450.0   30.0   33.333333333333336
450.0   30.0   16.666666666666668
400.0   30.0   33.333333333333336
450.0   60.0   33.333333333333336
450.0   30.0   16.666666666666668
400.0   60.0   16.666666666666668
400.0   30.0   33.333333333333336
450.0   30.0   33.333333333333336
400.0   60.0   33.333333333333336
400.0   30.0   50.0
450.0   30.0   33.333333333333336
450.0   60.0   33.333333333333336
400.0   60.0   33.333333333333336
450.0   60.0   50.0
400.0   30.0   50.0
400.0   60.0   50.0
450.0   60.0   50.0
400.0   60.0   33.333333333333336
400.0   30.0   50.0
450.0   60.0   50.0
450.0   30.0   50.0
450.0   30.0   33.333333333333336
400.0   30.0   50.0
450.0   60.0   50.0
450.0   30.0   33.333333333333336
400.0   60.0   33.333333333333336
400.0   60.0   0.0
450.0   60.0   0.0
400.0   90.0   0.0
400.0   60.0   16.666666666666668
450.0   60.0   0.0
450.0   90.0   0.0
400.0   90.0   0.0
450.0   90.0   16.666666666666668
400.0   60.0   16.666666666666668
400.0   90.0   16.666666666666668
450.0   90.0   16.666666666666668
400.0   90.0   0.0
400.0   60.0   16.666666666666668
450.0   90.0   16.666666666666668
450.0   60.0   16.666666666666668
450.0   60.0   0.0
400.0   60.0   16.666666666666668
450.0   90.0   16.666666666666668
450.0   60.0   0.0
400.0   90.0   0.0
400.0   60.0   16.666666666666668
450.0   60.0   16.666666666666668
400.0   90.0   16.666666666666668
400.0   60.0   33.333333333333336
450.0   60.0   16.666666666666668
450.0   90.0   16.666666666666668
400.0   90.0   16.666666666666668
450.0   90.0   33.333333333333336
400.0   60.0   33.333333333333336
400.0   90.0   33.333333333333336
450.0   90.0   33.333333333333336
400.0   90.0   16.666666666666668
400.0   60.0   33.333333333333336
450.0   90.0   33.333333333333336
450.0   60.0   33.333333333333336
450.0   60.0   16.666666666666668
400.0   60.0   33.333333333333336
450.0   90.0   33.333333333333336
450.0   60.0   16.666666666666668
400.0   90.0   16.666666666666668
400.0   60.0   33.333333333333336
450.0   60.0   33.333333333333336
400.0   90.0   33.333333333333336
400.0   60.0   50.0
450.0   60.0   33.333333333333336
450.0   90.0   33.333333333333336
400.0   90.0   33.333333333333336
450.0   90.0   50.0
400.0   60.0   50.0
400.0   90.0   50.0
450.0   90.0   50.0
400.0   90.0   33.333333333333336
400.0   60.0   50.0
450.0   90.0   50.0
450.0   60.0   50.0
450.0   60.0   33.333333333333336
400.0   60.0   50.0
450.0   90.0   50.0
450.0   60.0   33.333333333333336
400.0   90.0   33.333333333333336
400.0   90.0   0.0
450.0   90.0   0.0
400.0   120.0   0.0
400.0   90.0   16.666666666666668
450.0   90.0   0.0
450.0   120.0   0.0
400.0   120.0   0.0
450.0   120.0   16.666666666666668
400.0   90.0   16.666666666666668
400.0   120.0   16.666666666666668
450.0   120.0   16.666666666666668
400.0   120.0   0.0
400.0   90.0   16.666666666666668
450.0   120.0   16.666666666666668
450.0   90.0   16.666666666666668
450.0   90.0   0.0
400.0   90.0   16.666666666666668
450.0   120.0   16.666666666666668
450.0   90.0   0.0
400.0   120.0   0.0
400.0   90.0   16.666666666666668
450.0   90.0   16.666666666666668
400.0   120.0   16.666666666666668
400.0   90.0   33.333333333333336
450.0   90.0   16.666666666666668
450.0   120.0   16.666666666666668
400.0   120.0   16.666666666666668
450.0   120.0   33.333333333333336
400.0   90.0   33.333333333333336
400.0   120.0   33.333333333333336
450.0   120.0   33.333333333333336
400.0   120.0   16.666666666666668
400.0   90.0   33.333333333333336
450.0   120.0   33.333333333333336
450.0   90.0   33.333333333333336
450.0   90.0   16.666666666666668
400.0   90.0   33.333333333333336
450.0   120.0   33.333333333333336
450.0   90.0   16.666666666666668
400.0   120.0   16.666666666666668
400.0   90.0   33.333333333333336
450.0   90.0   33.333333333333336
400.0   120.0   33.333333333333336
400.0   90.0   50.0
450.0   90.0   33.333333333333336
450.0   120.0   33.333333333333336
400.0   120.0   33.333333333333336
450.0   120.0   50.0
400.0   90.0   50.0
400.0   120.0   50.0
450.0   120.0   50.0
400.0   120.0   33.333333333333336
400.0   90.0   50.0
450.0   120.0   50.0
450.0   90.0   50.0
450.0   90.0   33.333333333333336
400.0   90.0   50.0
450.0   120.0   50.0
450.0   90.0   33.333333333333336
400.0   120.0   33.333333333333336
400.0   120.0   0.0
450.0   120.0   0.0
400.0   150.0   0.0
400.0   120.0   16.666666666666668
450.0   120.0   0.0
450.0   150.0   0.0
400.0   150.0   0.0
450.0   150.0   16.666666666666668
400.0   120.0   16.666666666666668
400.0   150.0   16.666666666666668
450.0   150.0   16.666666666666668
400.0   150.0   0.0
400.0   120.0   16.666666666666668
450.0   150.0   16.666666666666668
450.0   120.0   16.666666666666668
450.0   120.0   0.0
400.0   120.0   16.666666666666668
450.0   150.0   16.666666666666668
450.0   120.0   0.0
400.0   150.0   0.0
400.0   120.0   16.666666666666668
450.0   120.0   16.666666666666668
400.0   150.0   16.666666666666668
400.0   120.0   33.333333333333336
450.0   120.0   16.666666666666668
450.0   150.0   16.666666666666668
400.0   150.0   16.666666666666668
450.0   150.0   33.333333333333336
400.0   120.0   33.333333333333336
400.0   150.0   33.333333333333336
450.0   150.0   33.333333333333336
400.0   150.0   16.666666666666668
400.0   120.0   33.333333333333336
450.0   150.0   33.333333333333336
450.0   120.0   33.333333333333336
450.0   120.0   16.666666666666668
400.0   120.0   33.333333333333336
450.0   150.0   33.333333333333336
450.0   120.0   16.666666666666668
400.0   150.0   16.666666666666668
400.0   120.0   33.333333333333336
450.0   120.0   33.333333333333336
400.0   150.0   33.333333333333336
400.0   120.0   50.0
450.0   120.0   33.333333333333336
450.0   150.0   33.333333333333336
400.0   150.0   33.333333333333336
450.0   150.0   50.0
400.0   120.0   50.0
400.0   150.0   50.0
450.0   150.0   50.0
400.0   150.0   33.333333333333336
400.0   120.0   50.0
450.0   150.0   50.0
450.0   120.0   50.0
450.0   120.0   33.333333333333336
400.0   120.0   50.0
450.0   150.0   50.0
450.0   120.0   33.333333333333336
400.0   150.0   33.333333333333336
450.0   0.0   0.0
500.0   0.0   0.0
450.0   30.0   0.0
450.0   0.0   16.666666666666668
500.0   0.0   0.0
500.0   30.0   0.0
450.0   30.0   0.0
500.0   30.0   16.666666666666668
450.0   0.0   16.666666666666668
450.0   30.0   16.666666666666668
500.0   30.0   16.666666666666668
450.0   30.0   0.0
450.0   0.0   16.666666666666668
500.0   30.0   16.666666666666668
500.0   0.0   16.666666666666668
500.0   0.0   0.0
450.0   0.0   16.666666666666668
500.0   30.0   16.666666666666668
500.0   0.0   0.0
450.0   30.0   0.0
450.0   0.0   16.666666666666668
500.0   0.0   16.666666666666668
450.0   30.0   16.666666666666668
450.0   0.0   33.333333333333336
500.0   0.0   16.666666666666668
500.0   30.0   16.666666666666668
450.0   30.0   16.666666666666668
500.0   30.0   33.333333333333336
450.0   0.0   33.333333333333336
450.0   30.0   33.333333333333336
500.0   30.0   33.333333333333336
450.0   30.0   16.666666666666668
450.0   0.0   33.333333333333336
500.0   30.0   33.333333333333336
500.0   0.0   33.333333333333336
500.0   0.0   16.666666666666668
450.0   0.0   33.333333333333336
500.0   30.0   33.333333333333336
500.0   0.0   16.666666666666668
450.0   30.0   16.666666666666668
450.0   0.0   33.333333333333336
500.0   0.0   33.333333333333336
450.0   30.0   33.333333333333336
450.0   0.0   50.0
500.0   0.0   33.333333333333336
500.0   30.0   33.333333333333336
450.0   30.0   33.333333333333336
500.0   30.0   50.0
450.0   0.0   50.0
450.0   30.0   50.0
500.0   30.0   50.0
450.0   30.0   33.333333333333336
450.0   0.0   50.0
500.0   30.0   50.0
500.0   0.0   50.0
500.0   0.0   33.333333333333336
450.0   0.0   50.0
500.0   30.0   50.0
500.0   0.0   33.333333333333336
450.0   30.0   33.333333333333336
450.0   30.0   0.0
500.0   30.0   0.0
450.0   60.0   0.0
450.0   30.0   16.666666666666668
500.0   30.0   0.0
500.0   60.0   0.0
450.0   60.0   0.0
500.0   60.0   16.666666666666668
450.0   30.0   16.666666666666668
450.0   60.0   16.666666666666668
500.0   60.0   16.666666666666668
450.0   60.0   0.0
450.0   30.0   16.666666666666668
500.0   60.0   16.666666666666668
500.0   30.0   16.666666666666668
500.0   30.0   0.0
450.0   30.0   16.666666666666668
500.0   60.0   16.666666666666668
500.0   30.0   0.0
450.0   60.0   0.0
450.0   30.0   16.666666666666668
500.0   30.0   16.666666666666668
450.0   60.0   16.666666666666668
450.0   30.0   33.333333333333336
500.0   30.0   16.666666666666668
500.0   60.0   16.666666666666668
450.0   60.0   16.666666666666668
500.0   60.0   33.333333333333336
450.0   30.0   33.333333333333336
450.0   60.0   33.333333333333336
500.0   60.0   33.333333333333336
450.0   60.0   16.666666666666668
450.0   30.0   33.333333333333336
500.0   60.0   33.333333333333336
500.0   30.0   33.333333333333336
500.0   30.0   16.666666666666668
450.0   30.0   33.333333333333336
500.0   60.0   33.333333333333336
500.0   30.0   16.666666666666668
450.0   60.0   16.666666666666668
450.0   30.0   33.333333333333336
500.0   30.0   33.333333333333336
450.0   60.0   33.333333333333336
450.0   30.0   50.0
500.0   30.0   33.333333333333336
500.0   60.0   33.333333333333336
450.0   60.0   33.333333333333336
500.0   60.0   50.0
450.0   30.0   50.0
450.0   60.0   50.0
500.0   60.0   50.0
450.0   60.0   33.333333333333336
450.0   30.0   50.0
500.0   60.0   50.0
500.0   30.0   50.0
500.0   30.0   33.333333333333336
450.0   30.0   50.0
500.0   60.0   50.0
500.0   30.0   33.333333333333336
450.0   60.0   33.333333333333336
450.0   60.0   0.0
500.0   60.0   0.0
450.0   90.0   0.0
450.0   60.0   16.666666666666668
500.0   60.0   0.0
500.0   90.0   0.0
450.0   90.0   0.0
500.0   90.0   16.666666666666668
450.0   60.0   16.666666666666668
450.0   90.0   16.666666666666668
500.0   90.0   16.666666666666668
450.0   90.0   0.0
450.0   60.0   16.666666666666668
500.0   90.0   16.666666666666668
500.0   60.0   16.666666666666668
500.0   60.0   0.0
450.0   60.0   16.666666666666668
500.0   90.0   16.666666666666668
500.0   60.0   0.0
450.0   90.0   0.0
450.0   60.0   16.666666666666668
500.0   60.0   16.666666666666668
450.0   90.0   16.666666666666668
450.0   60.0   33.333333333333336
500.0   60.0   16.666666666666668
500.0   90.0   16.666666666666668
450.0   90.0   16.666666666666668
500.0   90.0   33.333333333333336
450.0   60.0   33.333333333333336
450.0   90.0   33.333333333333336
500.0   90.0   33.333333333333336
450.0   90.0   16.666666666666668
450.0   60.0   33.333333333333336
500.0   90.0   33.333333333333336
500.0   60.0   33.333333333333336
500.0   60.0   16.666666666666668
450.0   60.0   33.333333333333336
500.0   90.0   33.333333333333336
500.0   60.0   16.666666666666668
450.0   90.0   16.666666666666668
450.0   60.0   33.333333333333336
500.0   60.0   33.333333333333336
450.0   90.0   33.333333333333336
450.0   60.0   50.0
500.0   60.0   33.333333333333336
500.0   90.0   33.333333333333336
450.0   90.0   33.333333333333336
500.0   90.0   50.0
450.0   60.0   50.0
450.0   90.0   50.0
500.0   90.0   50.0
450.0   90.0   33.333333333333336
450.0   60.0   50.0
500.0   90.0   50.0
500.0   60.0   50.0
500.0   60.0   33.333333333333336
450.0   60.0   50.0
500.0   90.0   50.0
500.0   60.0   33.333333333333336
450.0   90.0   33.333333333333336
450.0   90.0   0.0
500.0   90.0   0.0
450.0   120.0   0.0
450.0   90.0   16.666666666666668
500.0   90.0   0.0
500.0   120.0   0.0
450.0   120.0   0.0
500.0   120.0   16.666666666666668
450.0   90.0   16.666666666666668
450.0   120.0   16.666666666666668
500.0   120.0   16.666666666666668
450.0   120.0   0.0
450.0   90.0   16.666666666666668
500.0   120.0   16.666666666666668
500.0   90.0   16.666666666666668
500.0   90.0   0.0
450.0   90.0   16.666666666666668
500.0   120.0   16.666666666666668
500.0   90.0   0.0
450.0   120.0   0.0
450.0   90.0   16.666666666666668
500.0   90.0   16.666666666666668
450.0   120.0   16.666666666666668
450.0   90.0   33.333333333333336
500.0   90.0   16.666666666666668
500.0   120.0   16.666666666666668
450.0   120.0   16.666666666666668
500.0   120.0   33.333333333333336
450.0   90.0   33.333333333333336
450.0   120.0   33.333333333333336
500.0   120.0   33.333333333333336
450.0   120.0   16.666666666666668
450.0   90.0   33.333333333333336
500.0   120.0   33.333333333333336
500.0   90.0   33.333333333333336
500.0   90.0   16.666666666666668
450.0   90.0   33.333333333333336
500.0   120.0   33.333333333333336
500.0   90.0   16.666666666666668
450.0   120.0   16.666666666666668
450.0   90.0   33.333333333333336
500.0   90.0   33.333333333333336
450.0   120.0   33.333333333333336
450.0   90.0   50.0
500.0   90.0   33.333333333333336
500.0   120.0   33.333333333333336
450.0   120.0   33.333333333333336
500.0   120.0   50.0
450.0   90.0   50.0
450.0   120.0   50.0
500.0   120.0   50.0
450.0   120.0   33.333333333333336
450.0   90.0   50.0
500.0   120.0   50.0
500.0   90.0   50.0
500.0   90.0   33.333333333333336
450.0   90.0   50.0
500.0   120.0   50.0
500.0   90.0   33.333333333333336
450.0   120.0   33.333333333333336
450.0   120.0   0.0
500.0   120.0   0.0
450.0   150.0   0.0
450.0   120.0   16.666666666666668
500.0   120.0   0.0
500.0   150.0   0.0
450.0   150.0   0.0
500.0   150.0   16.666666666666668
450.0   120.0   16.666666666666668
450.0   150.0   16.666666666666668
500.0   150.0   16.666666666666668
450.0   150.0   0.0
450.0   120.0   16.666666666666668
500.0   150.0   16.666666666666668
500.0   120.0   16.666666666666668
500.0   120.0   0.0
450.0   120.0   16.666666666666668
500.0   150.0   16.666666666666668
500.0   120.0   0.0
450.0   150.0   0.0
450.0   120.0   16.666666666666668
500.0   120.0   16.666666666666668
450.0   150.0   16.666666666666668
450.0   120.0   33.333333333333336
500.0   120.0   16.666666666666668
500.0   150.0   16.666666666666668
450.0   150.0   16.666666666666668
500.0   150.0   33.333333333333336
450.0   120.0   33.333333333333336
450.0   150.0   33.333333333333336
500.0   150.0   33.333333333333336
450.0   150.0   16.666666666666668
450.0   120.0   33.333333333333336
500.0   150.0   33.333333333333336
500.0   120.0   33.333333333333336
500.0   120.0   16.666666666666668
450.0   120.0   33.333333333333336
500.0   150.0   33.333333333333336
500.0   120.0   16.666666666666668
450.0   150.0   16.666666666666668
450.0   120.0   33.333333333333336
500.0   120.0   33.333333333333336
450.0   150.0   33.333333333333336
450.0   120.0   50.0
500.0   120.0   33.333333333333336
500.0   150.0   33.333333333333336
450.0   150.0   33.333333333333336
500.0   150.0   50.0
450.0   120.0   50.0
450.0   150.0   50.0
500.0   150.0   50.0
450.0   150.0   33.333333333333336
450.0   120.0   50.0
500.0   150.0   50.0
500.0   120.0   50.0
500.0   120.0   33.333333333333336
450.0   120.0   50.0
500.0   150.0   50.0
500.0   120.0   33.333333333333336
450.0   150.0   33.333333333333336
             </DataArray>   
          </Points>  
          <Cells>  
             <DataArray type="Int32" Name="connectivity" format="ascii">   
0   1   2   3
4   5   6   7
8   9   10   11
12   13   14   15
16   17   18   19
20   21   22   23
24   25   26   27
28   29   30   31
32   33   34   35
36   37   38   39
40   41   42   43
44   45   46   47
48   49   50   51
52   53   54   55
56   57   58   59
60   61   62   63
64   65   66   67
68   69   70   71
72   73   74   75
76   77   78   79
80   81   82   83
84   85   86   87
88   89   90   91
92   93   94   95
96   97   98   99
100   101   102   103
104   105   106   107
108   109   110   111
112   113   114   115
116   117   118   119
120   121   122   123
124   125   126   127
128   129   130   131
132   133   134   135
136   137   138   139
140   141   142   143
144   145   146   147
148   149   150   151
152   153   154   155
156   157   158   159
160   161   162   163
164   165   166   167
168   169   170   171
172   173   174   175
176   177   178   179
180   181   182   183
184   185   186   187
188   189   190   191
192   193   194   195
196   197   198   199
200   201   202   203
204   205   206   207
208   209   210   211
212   213   214   215
216   217   218   219
220   221   222   223
224   225   226   227
228   229   230   231
232   233   234   235
236   237   238   239
240   241   242   243
244   245   246   247
248   249   250   251
252   253   254   255
256   257   258   259
260   261   262   263
264   265   266   267
268   269   270   271
272   273   274   275
276   277   278   279
280   281   282   283
284   285   286   287
288   289   290   291
292   293   294   295
296   297   298   299
300   301   302   303
304   305   306   307
308   309   310   311
312   313   314   315
316   317   318   319
320   321   322   323
324   325   326   327
328   329   330   331
332   333   334   335
336   337   338   339
340   341   342   343
344   345   346   347
348   349   350   351
352   353   354   355
356   357   358   359
360   361   362   363
364   365   366   367
368   369   370   371
372   373   374   375
376   377   378   379
380   381   382   383
384   385   386   387
388   389   390   391
392   393   394   395
396   397   398   399
400   401   402   403
404   405   406   407
408   409   410   411
412   413   414   415
416   417   418   419
420   421   422   423
424   425   426   427
428   429   430   431
432   433   434   435
436   437   438   439
440   441   442   443
444   445   446   447
448   449   450   451
452   453   454   455
456   457   458   459
460   461   462   463
464   465   466   467
468   469   470   471
472   473   474   475
476   477   478   479
480   481   482   483
484   485   486   487
488   489   490   491
492   493   494   495
496   497   498   499
500   501   502   503
504   505   506   507
508   509   510   511
512   513   514   515
516   517   518   519
520   521   522   523
524   525   526   527
528   529   530   531
532   533   534   535
536   537   538   539
540   541   542   543
544   545   546   547
548   549   550   551
552   553   554   555
556   557   558   559
560   561   562   563
564   565   566   567
568   569   570   571
572   573   574   575
576   577   578   579
580   581   582   583
584   585   586   587
588   589   590   591
592   593   594   595
596   597   598   599
600   601   602   603
604   605   606   607
608   609   610   611
612   613   614   615
616   617   618   619
620   621   622   623
624   625   626   627
628   629   630   631
632   633   634   635
636   637   638   639
640   641   642   643
644   645   646   647
648   649   650   651
652   653   654   655
656   657   658   659
660   661   662   663
664   665   666   667
668   669   670   671
672   673   674   675
676   677   678   679
680   681   682   683
684   685   686   687
688   689   690   691
692   693   694   695
696   697   698   699
700   701   702   703
704   705   706   707
708   709   710   711
712   713   714   715
716   717   718   719
720   721   722   723
724   725   726   727
728   729   730   731
732   733   734   735
736   737   738   739
740   741   742   743
744   745   746   747
748   749   750   751
752   753   754   755
756   757   758   759
760   761   762   763
764   765   766   767
768   769   770   771
772   773   774   775
776   777   778   779
780   781   782   783
784   785   786   787
788   789   790   791
792   793   794   795
796   797   798   799
800   801   802   803
804   805   806   807
808   809   810   811
812   813   814   815
816   817   818   819
820   821   822   823
824   825   826   827
828   829   830   831
832   833   834   835
836   837   838   839
840   841   842   843
844   845   846   847
848   849   850   851
852   853   854   855
856   857   858   859
860   861   862   863
864   865   866   867
868   869   870   871
872   873   874   875
876   877   878   879
880   881   882   883
884   885   886   887
888   889   890   891
892   893   894   895
896   897   898   899
900   901   902   903
904   905   906   907
908   909   910   911
912   913   914   915
916   917   918   919
920   921   922   923
924   925   926   927
928   929   930   931
932   933   934   935
936   937   938   939
940   941   942   943
944   945   946   947
948   949   950   951
952   953   954   955
956   957   958   959
960   961   962   963
964   965   966   967
968   969   970   971
972   973   974   975
976   977   978   979
980   981   982   983
984   985   986   987
988   989   990   991
992   993   994   995
996   997   998   999
1000   1001   1002   1003
1004   1005   1006   1007
1008   1009   1010   1011
1012   1013   1014   1015
1016   1017   1018   1019
1020   1021   1022   1023
1024   1025   1026   1027
1028   1029   1030   1031
1032   1033   1034   1035
1036   1037   1038   1039
1040   1041   1042   1043
1044   1045   1046   1047
1048   1049   1050   1051
1052   1053   1054   1055
1056   1057   1058   1059
1060   1061   1062   1063
1064   1065   1066   1067
1068   1069   1070   1071
1072   1073   1074   1075
1076   1077   1078   1079
1080   1081   1082   1083
1084   1085   1086   1087
1088   1089   1090   1091
1092   1093   1094   1095
1096   1097   1098   1099
1100   1101   1102   1103
1104   1105   1106   1107
1108   1109   1110   1111
1112   1113   1114   1115
1116   1117   1118   1119
1120   1121   1122   1123
1124   1125   1126   1127
1128   1129   1130   1131
1132   1133   1134   1135
1136   1137   1138   1139
1140   1141   1142   1143
1144   1145   1146   1147
1148   1149   1150   1151
1152   1153   1154   1155
1156   1157   1158   1159
1160   1161   1162   1163
1164   1165   1166   1167
1168   1169   1170   1171
1172   1173   1174   1175
1176   1177   1178   1179
1180   1181   1182   1183
1184   1185   1186   1187
1188   1189   1190   1191
1192   1193   1194   1195
1196   1197   1198   1199
1200   1201   1202   1203
1204   1205   1206   1207
1208   1209   1210   1211
1212   1213   1214   1215
1216   1217   1218   1219
1220   1221   1222   1223
1224   1225   1226   1227
1228   1229   1230   1231
1232   1233   1234   1235
1236   1237   1238   1239
1240   1241   1242   1243
1244   1245   1246   1247
1248   1249   1250   1251
1252   1253   1254   1255
1256   1257   1258   1259
1260   1261   1262   1263
1264   1265   1266   1267
1268   1269   1270   1271
1272   1273   1274   1275
1276   1277   1278   1279
1280   1281   1282   1283
1284   1285   1286   1287
1288   1289   1290   1291
1292   1293   1294   1295
1296   1297   1298   1299
1300   1301   1302   1303
1304   1305   1306   1307
1308   1309   1310   1311
1312   1313   1314   1315
1316   1317   1318   1319
1320   1321   1322   1323
1324   1325   1326   1327
1328   1329   1330   1331
1332   1333   1334   1335
1336   1337   1338   1339
1340   1341   1342   1343
1344   1345   1346   1347
1348   1349   1350   1351
1352   1353   1354   1355
1356   1357   1358   1359
1360   1361   1362   1363
1364   1365   1366   1367
1368   1369   1370   1371
1372   1373   1374   1375
1376   1377   1378   1379
1380   1381   1382   1383
1384   1385   1386   1387
1388   1389   1390   1391
1392   1393   1394   1395
1396   1397   1398   1399
1400   1401   1402   1403
1404   1405   1406   1407
1408   1409   1410   1411
1412   1413   1414   1415
1416   1417   1418   1419
1420   1421   1422   1423
1424   1425   1426   1427
1428   1429   1430   1431
1432   1433   1434   1435
1436   1437   1438   1439
1440   1441   1442   1443
1444   1445   1446   1447
1448   1449   1450   1451
1452   1453   1454   1455
1456   1457   1458   1459
1460   1461   1462   1463
1464   1465   1466   1467
1468   1469   1470   1471
1472   1473   1474   1475
1476   1477   1478   1479
1480   1481   1482   1483
1484   1485   1486   1487
1488   1489   1490   1491
1492   1493   1494   1495
1496   1497   1498   1499
1500   1501   1502   1503
1504   1505   1506   1507
1508   1509   1510   1511
1512   1513   1514   1515
1516   1517   1518   1519
1520   1521   1522   1523
1524   1525   1526   1527
1528   1529   1530   1531
1532   1533   1534   1535
1536   1537   1538   1539
1540   1541   1542   1543
1544   1545   1546   1547
1548   1549   1550   1551
1552   1553   1554   1555
1556   1557   1558   1559
1560   1561   1562   1563
1564   1565   1566   1567
1568   1569   1570   1571
1572   1573   1574   1575
1576   1577   1578   1579
1580   1581   1582   1583
1584   1585   1586   1587
1588   1589   1590   1591
1592   1593   1594   1595
1596   1597   1598   1599
1600   1601   1602   1603
1604   1605   1606   1607
1608   1609   1610   1611
1612   1613   1614   1615
1616   1617   1618   1619
1620   1621   1622   1623
1624   1625   1626   1627
1628   1629   1630   1631
1632   1633   1634   1635
1636   1637   1638   1639
1640   1641   1642   1643
1644   1645   1646   1647
1648   1649   1650   1651
1652   1653   1654   1655
1656   1657   1658   1659
1660   1661   1662   1663
1664   1665   1666   1667
1668   1669   1670   1671
1672   1673   1674   1675
1676   1677   1678   1679
1680   1681   1682   1683
1684   1685   1686   1687
1688   1689   1690   1691
1692   1693   1694   1695
1696   1697   1698   1699
1700   1701   1702   1703
1704   1705   1706   1707
1708   1709   1710   1711
1712   1713   1714   1715
1716   1717   1718   1719
1720   1721   1722   1723
1724   1725   1726   1727
1728   1729   1730   1731
1732   1733   1734   1735
1736   1737   1738   1739
1740   1741   1742   1743
1744   1745   1746   1747
1748   1749   1750   1751
1752   1753   1754   1755
1756   1757   1758   1759
1760   1761   1762   1763
1764   1765   1766   1767
1768   1769   1770   1771
1772   1773   1774   1775
1776   1777   1778   1779
1780   1781   1782   1783
1784   1785   1786   1787
1788   1789   1790   1791
1792   1793   1794   1795
1796   1797   1798   1799
1800   1801   1802   1803
1804   1805   1806   1807
1808   1809   1810   1811
1812   1813   1814   1815
1816   1817   1818   1819
1820   1821   1822   1823
1824   1825   1826   1827
1828   1829   1830   1831
1832   1833   1834   1835
1836   1837   1838   1839
1840   1841   1842   1843
1844   1845   1846   1847
1848   1849   1850   1851
1852   1853   1854   1855
1856   1857   1858   1859
1860   1861   1862   1863
1864   1865   1866   1867
1868   1869   1870   1871
1872   1873   1874   1875
1876   1877   1878   1879
1880   1881   1882   1883
1884   1885   1886   1887
1888   1889   1890   1891
1892   1893   1894   1895
1896   1897   1898   1899
1900   1901   1902   1903
1904   1905   1906   1907
1908   1909   1910   1911
1912   1913   1914   1915
1916   1917   1918   1919
1920   1921   1922   1923
1924   1925   1926   1927
1928   1929   1930   1931
1932   1933   1934   1935
1936   1937   1938   1939
1940   1941   1942   1943
1944   1945   1946   1947
1948   1949   1950   1951
1952   1953   1954   1955
1956   1957   1958   1959
1960   1961   1962   1963
1964   1965   1966   1967
1968   1969   1970   1971
1972   1973   1974   1975
1976   1977   1978   1979
1980   1981   1982   1983
1984   1985   1986   1987
1988   1989   1990   1991
1992   1993   1994   1995
1996   1997   1998   1999
2000   2001   2002   2003
2004   2005   2006   2007
2008   2009   2010   2011
2012   2013   2014   2015
2016   2017   2018   2019
2020   2021   2022   2023
2024   2025   2026   2027
2028   2029   2030   2031
2032   2033   2034   2035
2036   2037   2038   2039
2040   2041   2042   2043
2044   2045   2046   2047
2048   2049   2050   2051
2052   2053   2054   2055
2056   2057   2058   2059
2060   2061   2062   2063
2064   2065   2066   2067
2068   2069   2070   2071
2072   2073   2074   2075
2076   2077   2078   2079
2080   2081   2082   2083
2084   2085   2086   2087
2088   2089   2090   2091
2092   2093   2094   2095
2096   2097   2098   2099
2100   2101   2102   2103
2104   2105   2106   2107
2108   2109   2110   2111
2112   2113   2114   2115
2116   2117   2118   2119
2120   2121   2122   2123
2124   2125   2126   2127
2128   2129   2130   2131
2132   2133   2134   2135
2136   2137   2138   2139
2140   2141   2142   2143
2144   2145   2146   2147
2148   2149   2150   2151
2152   2153   2154   2155
2156   2157   2158   2159
2160   2161   2162   2163
2164   2165   2166   2167
2168   2169   2170   2171
2172   2173   2174   2175
2176   2177   2178   2179
2180   2181   2182   2183
2184   2185   2186   2187
2188   2189   2190   2191
2192   2193   2194   2195
2196   2197   2198   2199
2200   2201   2202   2203
2204   2205   2206   2207
2208   2209   2210   2211
2212   2213   2214   2215
2216   2217   2218   2219
2220   2221   2222   2223
2224   2225   2226   2227
2228   2229   2230   2231
2232   2233   2234   2235
2236   2237   2238   2239
2240   2241   2242   2243
2244   2245   2246   2247
2248   2249   2250   2251
2252   2253   2254   2255
2256   2257   2258   2259
2260   2261   2262   2263
2264   2265   2266   2267
2268   2269   2270   2271
2272   2273   2274   2275
2276   2277   2278   2279
2280   2281   2282   2283
2284   2285   2286   2287
2288   2289   2290   2291
2292   2293   2294   2295
2296   2297   2298   2299
2300   2301   2302   2303
2304   2305   2306   2307
2308   2309   2310   2311
2312   2313   2314   2315
2316   2317   2318   2319
2320   2321   2322   2323
2324   2325   2326   2327
2328   2329   2330   2331
2332   2333   2334   2335
2336   2337   2338   2339
2340   2341   2342   2343
2344   2345   2346   2347
2348   2349   2350   2351
2352   2353   2354   2355
2356   2357   2358   2359
2360   2361   2362   2363
2364   2365   2366   2367
2368   2369   2370   2371
2372   2373   2374   2375
2376   2377   2378   2379
2380   2381   2382   2383
2384   2385   2386   2387
2388   2389   2390   2391
2392   2393   2394   2395
2396   2397   2398   2399
2400   2401   2402   2403
2404   2405   2406   2407
2408   2409   2410   2411
2412   2413   2414   2415
2416   2417   2418   2419
2420   2421   2422   2423
2424   2425   2426   2427
2428   2429   2430   2431
2432   2433   2434   2435
2436   2437   2438   2439
2440   2441   2442   2443
2444   2445   2446   2447
2448   2449   2450   2451
2452   2453   2454   2455
2456   2457   2458   2459
2460   2461   2462   2463
2464   2465   2466   2467
2468   2469   2470   2471
2472   2473   2474   2475
2476   2477   2478   2479
2480   2481   2482   2483
2484   2485   2486   2487
2488   2489   2490   2491
2492   2493   2494   2495
2496   2497   2498   2499
2500   2501   2502   2503
2504   2505   2506   2507
2508   2509   2510   2511
2512   2513   2514   2515
2516   2517   2518   2519
2520   2521   2522   2523
2524   2525   2526   2527
2528   2529   2530   2531
2532   2533   2534   2535
2536   2537   2538   2539
2540   2541   2542   2543
2544   2545   2546   2547
2548   2549   2550   2551
2552   2553   2554   2555
2556   2557   2558   2559
2560   2561   2562   2563
2564   2565   2566   2567
2568   2569   2570   2571
2572   2573   2574   2575
2576   2577   2578   2579
2580   2581   2582   2583
2584   2585   2586   2587
2588   2589   2590   2591
2592   2593   2594   2595
2596   2597   2598   2599
2600   2601   2602   2603
2604   2605   2606   2607
2608   2609   2610   2611
2612   2613   2614   2615
2616   2617   2618   2619
2620   2621   2622   2623
2624   2625   2626   2627
2628   2629   2630   2631
2632   2633   2634   2635
2636   2637   2638   2639
2640   2641   2642   2643
2644   2645   2646   2647
2648   2649   2650   2651
2652   2653   2654   2655
2656   2657   2658   2659
2660   2661   2662   2663
2664   2665   2666   2667
2668   2669   2670   2671
2672   2673   2674   2675
2676   2677   2678   2679
2680   2681   2682   2683
2684   2685   2686   2687
2688   2689   2690   2691
2692   2693   2694   2695
2696   2697   2698   2699
2700   2701   2702   2703
2704   2705   2706   2707
2708   2709   2710   2711
2712   2713   2714   2715
2716   2717   2718   2719
2720   2721   2722   2723
2724   2725   2726   2727
2728   2729   2730   2731
2732   2733   2734   2735
2736   2737   2738   2739
2740   2741   2742   2743
2744   2745   2746   2747
2748   2749   2750   2751
2752   2753   2754   2755
2756   2757   2758   2759
2760   2761   2762   2763
2764   2765   2766   2767
2768   2769   2770   2771
2772   2773   2774   2775
2776   2777   2778   2779
2780   2781   2782   2783
2784   2785   2786   2787
2788   2789   2790   2791
2792   2793   2794   2795
2796   2797   2798   2799
2800   2801   2802   2803
2804   2805   2806   2807
2808   2809   2810   2811
2812   2813   2814   2815
2816   2817   2818   2819
2820   2821   2822   2823
2824   2825   2826   2827
2828   2829   2830   2831
2832   2833   2834   2835
2836   2837   2838   2839
2840   2841   2842   2843
2844   2845   2846   2847
2848   2849   2850   2851
2852   2853   2854   2855
2856   2857   2858   2859
2860   2861   2862   2863
2864   2865   2866   2867
2868   2869   2870   2871
2872   2873   2874   2875
2876   2877   2878   2879
2880   2881   2882   2883
2884   2885   2886   2887
2888   2889   2890   2891
2892   2893   2894   2895
2896   2897   2898   2899
2900   2901   2902   2903
2904   2905   2906   2907
2908   2909   2910   2911
2912   2913   2914   2915
2916   2917   2918   2919
2920   2921   2922   2923
2924   2925   2926   2927
2928   2929   2930   2931
2932   2933   2934   2935
2936   2937   2938   2939
2940   2941   2942   2943
2944   2945   2946   2947
2948   2949   2950   2951
2952   2953   2954   2955
2956   2957   2958   2959
2960   2961   2962   2963
2964   2965   2966   2967
2968   2969   2970   2971
2972   2973   2974   2975
2976   2977   2978   2979
2980   2981   2982   2983
2984   2985   2986   2987
2988   2989   2990   2991
2992   2993   2994   2995
2996   2997   2998   2999
3000   3001   3002   3003
3004   3005   3006   3007
3008   3009   3010   3011
3012   3013   3014   3015
3016   3017   3018   3019
3020   3021   3022   3023
3024   3025   3026   3027
3028   3029   3030   3031
3032   3033   3034   3035
3036   3037   3038   3039
3040   3041   3042   3043
3044   3045   3046   3047
3048   3049   3050   3051
3052   3053   3054   3055
3056   3057   3058   3059
3060   3061   3062   3063
3064   3065   3066   3067
3068   3069   3070   3071
3072   3073   3074   3075
3076   3077   3078   3079
3080   3081   3082   3083
3084   3085   3086   3087
3088   3089   3090   3091
3092   3093   3094   3095
3096   3097   3098   3099
3100   3101   3102   3103
3104   3105   3106   3107
3108   3109   3110   3111
3112   3113   3114   3115
3116   3117   3118   3119
3120   3121   3122   3123
3124   3125   3126   3127
3128   3129   3130   3131
3132   3133   3134   3135
3136   3137   3138   3139
3140   3141   3142   3143
3144   3145   3146   3147
3148   3149   3150   3151
3152   3153   3154   3155
3156   3157   3158   3159
3160   3161   3162   3163
3164   3165   3166   3167
3168   3169   3170   3171
3172   3173   3174   3175
3176   3177   3178   3179
3180   3181   3182   3183
3184   3185   3186   3187
3188   3189   3190   3191
3192   3193   3194   3195
3196   3197   3198   3199
3200   3201   3202   3203
3204   3205   3206   3207
3208   3209   3210   3211
3212   3213   3214   3215
3216   3217   3218   3219
3220   3221   3222   3223
3224   3225   3226   3227
3228   3229   3230   3231
3232   3233   3234   3235
3236   3237   3238   3239
3240   3241   3242   3243
3244   3245   3246   3247
3248   3249   3250   3251
3252   3253   3254   3255
3256   3257   3258   3259
3260   3261   3262   3263
3264   3265   3266   3267
3268   3269   3270   3271
3272   3273   3274   3275
3276   3277   3278   3279
3280   3281   3282   3283
3284   3285   3286   3287
3288   3289   3290   3291
3292   3293   3294   3295
3296   3297   3298   3299
3300   3301   3302   3303
3304   3305   3306   3307
3308   3309   3310   3311
3312   3313   3314   3315
3316   3317   3318   3319
3320   3321   3322   3323
3324   3325   3326   3327
3328   3329   3330   3331
3332   3333   3334   3335
3336   3337   3338   3339
3340   3341   3342   3343
3344   3345   3346   3347
3348   3349   3350   3351
3352   3353   3354   3355
3356   3357   3358   3359
3360   3361   3362   3363
3364   3365   3366   3367
3368   3369   3370   3371
3372   3373   3374   3375
3376   3377   3378   3379
3380   3381   3382   3383
3384   3385   3386   3387
3388   3389   3390   3391
3392   3393   3394   3395
3396   3397   3398   3399
3400   3401   3402   3403
3404   3405   3406   3407
3408   3409   3410   3411
3412   3413   3414   3415
3416   3417   3418   3419
3420   3421   3422   3423
3424   3425   3426   3427
3428   3429   3430   3431
3432   3433   3434   3435
3436   3437   3438   3439
3440   3441   3442   3443
3444   3445   3446   3447
3448   3449   3450   3451
3452   3453   3454   3455
3456   3457   3458   3459
3460   3461   3462   3463
3464   3465   3466   3467
3468   3469   3470   3471
3472   3473   3474   3475
3476   3477   3478   3479
3480   3481   3482   3483
3484   3485   3486   3487
3488   3489   3490   3491
3492   3493   3494   3495
3496   3497   3498   3499
3500   3501   3502   3503
3504   3505   3506   3507
3508   3509   3510   3511
3512   3513   3514   3515
3516   3517   3518   3519
3520   3521   3522   3523
3524   3525   3526   3527
3528   3529   3530   3531
3532   3533   3534   3535
3536   3537   3538   3539
3540   3541   3542   3543
3544   3545   3546   3547
3548   3549   3550   3551
3552   3553   3554   3555
3556   3557   3558   3559
3560   3561   3562   3563
3564   3565   3566   3567
3568   3569   3570   3571
3572   3573   3574   3575
3576   3577   3578   3579
3580   3581   3582   3583
3584   3585   3586   3587
3588   3589   3590   3591
3592   3593   3594   3595
3596   3597   3598   3599
3600   3601   3602   3603
3604   3605   3606   3607
3608   3609   3610   3611
3612   3613   3614   3615
3616   3617   3618   3619
3620   3621   3622   3623
3624   3625   3626   3627
3628   3629   3630   3631
3632   3633   3634   3635
3636   3637   3638   3639
3640   3641   3642   3643
3644   3645   3646   3647
3648   3649   3650   3651
3652   3653   3654   3655
3656   3657   3658   3659
3660   3661   3662   3663
3664   3665   3666   3667
3668   3669   3670   3671
3672   3673   3674   3675
3676   3677   3678   3679
3680   3681   3682   3683
3684   3685   3686   3687
3688   3689   3690   3691
3692   3693   3694   3695
3696   3697   3698   3699
3700   3701   3702   3703
3704   3705   3706   3707
3708   3709   3710   3711
3712   3713   3714   3715
3716   3717   3718   3719
3720   3721   3722   3723
3724   3725   3726   3727
3728   3729   3730   3731
3732   3733   3734   3735
3736   3737   3738   3739
3740   3741   3742   3743
3744   3745   3746   3747
3748   3749   3750   3751
3752   3753   3754   3755
3756   3757   3758   3759
3760   3761   3762   3763
3764   3765   3766   3767
3768   3769   3770   3771
3772   3773   3774   3775
3776   3777   3778   3779
3780   3781   3782   3783
3784   3785   3786   3787
3788   3789   3790   3791
3792   3793   3794   3795
3796   3797   3798   3799
3800   3801   3802   3803
3804   3805   3806   3807
3808   3809   3810   3811
3812   3813   3814   3815
3816   3817   3818   3819
3820   3821   3822   3823
3824   3825   3826   3827
3828   3829   3830   3831
3832   3833   3834   3835
3836   3837   3838   3839
3840   3841   3842   3843
3844   3845   3846   3847
3848   3849   3850   3851
3852   3853   3854   3855
3856   3857   3858   3859
3860   3861   3862   3863
3864   3865   3866   3867
3868   3869   3870   3871
3872   3873   3874   3875
3876   3877   3878   3879
3880   3881   3882   3883
3884   3885   3886   3887
3888   3889   3890   3891
3892   3893   3894   3895
3896   3897   3898   3899
3900   3901   3902   3903
3904   3905   3906   3907
3908   3909   3910   3911
3912   3913   3914   3915
3916   3917   3918   3919
3920   3921   3922   3923
3924   3925   3926   3927
3928   3929   3930   3931
3932   3933   3934   3935
3936   3937   3938   3939
3940   3941   3942   3943
3944   3945   3946   3947
3948   3949   3950   3951
3952   3953   3954   3955
3956   3957   3958   3959
3960   3961   3962   3963
3964   3965   3966   3967
3968   3969   3970   3971
3972   3973   3974   3975
3976   3977   3978   3979
3980   3981   3982   3983
3984   3985   3986   3987
3988   3989   3990   3991
3992   3993   3994   3995
3996   3997   3998   3999
4000   4001   4002   4003
4004   4005   4006   4007
4008   4009   4010   4011
4012   4013   4014   4015
4016   4017   4018   4019
4020   4021   4022   4023
4024   4025   4026   4027
4028   4029   4030   4031
4032   4033   4034   4035
4036   4037   4038   4039
4040   4041   4042   4043
4044   4045   4046   4047
4048   4049   4050   4051
4052   4053   4054   4055
4056   4057   4058   4059
4060   4061   4062   4063
4064   4065   4066   4067
4068   4069   4070   4071
4072   4073   4074   4075
4076   4077   4078   4079
4080   4081   4082   4083
4084   4085   4086   4087
4088   4089   4090   4091
4092   4093   4094   4095
4096   4097   4098   4099
4100   4101   4102   4103
4104   4105   4106   4107
4108   4109   4110   4111
4112   4113   4114   4115
4116   4117   4118   4119
4120   4121   4122   4123
4124   4125   4126   4127
4128   4129   4130   4131
4132   4133   4134   4135
4136   4137   4138   4139
4140   4141   4142   4143
4144   4145   4146   4147
4148   4149   4150   4151
4152   4153   4154   4155
4156   4157   4158   4159
4160   4161   4162   4163
4164   4165   4166   4167
4168   4169   4170   4171
4172   4173   4174   4175
4176   4177   4178   4179
4180   4181   4182   4183
4184   4185   4186   4187
4188   4189   4190   4191
4192   4193   4194   4195
4196   4197   4198   4199
4200   4201   4202   4203
4204   4205   4206   4207
4208   4209   4210   4211
4212   4213   4214   4215
4216   4217   4218   4219
4220   4221   4222   4223
4224   4225   4226   4227
4228   4229   4230   4231
4232   4233   4234   4235
4236   4237   4238   4239
4240   4241   4242   4243
4244   4245   4246   4247
4248   4249   4250   4251
4252   4253   4254   4255
4256   4257   4258   4259
4260   4261   4262   4263
4264   4265   4266   4267
4268   4269   4270   4271
4272   4273   4274   4275
4276   4277   4278   4279
4280   4281   4282   4283
4284   4285   4286   4287
4288   4289   4290   4291
4292   4293   4294   4295
4296   4297   4298   4299
4300   4301   4302   4303
4304   4305   4306   4307
4308   4309   4310   4311
4312   4313   4314   4315
4316   4317   4318   4319
4320   4321   4322   4323
4324   4325   4326   4327
4328   4329   4330   4331
4332   4333   4334   4335
4336   4337   4338   4339
4340   4341   4342   4343
4344   4345   4346   4347
4348   4349   4350   4351
4352   4353   4354   4355
4356   4357   4358   4359
4360   4361   4362   4363
4364   4365   4366   4367
4368   4369   4370   4371
4372   4373   4374   4375
4376   4377   4378   4379
4380   4381   4382   4383
4384   4385   4386   4387
4388   4389   4390   4391
4392   4393   4394   4395
4396   4397   4398   4399
4400   4401   4402   4403
4404   4405   4406   4407
4408   4409   4410   4411
4412   4413   4414   4415
4416   4417   4418   4419
4420   4421   4422   4423
4424   4425   4426   4427
4428   4429   4430   4431
4432   4433   4434   4435
4436   4437   4438   4439
4440   4441   4442   4443
4444   4445   4446   4447
4448   4449   4450   4451
4452   4453   4454   4455
4456   4457   4458   4459
4460   4461   4462   4463
4464   4465   4466   4467
4468   4469   4470   4471
4472   4473   4474   4475
4476   4477   4478   4479
4480   4481   4482   4483
4484   4485   4486   4487
4488   4489   4490   4491
4492   4493   4494   4495
4496   4497   4498   4499
4500   4501   4502   4503
4504   4505   4506   4507
4508   4509   4510   4511
4512   4513   4514   4515
4516   4517   4518   4519
4520   4521   4522   4523
4524   4525   4526   4527
4528   4529   4530   4531
4532   4533   4534   4535
4536   4537   4538   4539
4540   4541   4542   4543
4544   4545   4546   4547
4548   4549   4550   4551
4552   4553   4554   4555
4556   4557   4558   4559
4560   4561   4562   4563
4564   4565   4566   4567
4568   4569   4570   4571
4572   4573   4574   4575
4576   4577   4578   4579
4580   4581   4582   4583
4584   4585   4586   4587
4588   4589   4590   4591
4592   4593   4594   4595
4596   4597   4598   4599
4600   4601   4602   4603
4604   4605   4606   4607
4608   4609   4610   4611
4612   4613   4614   4615
4616   4617   4618   4619
4620   4621   4622   4623
4624   4625   4626   4627
4628   4629   4630   4631
4632   4633   4634   4635
4636   4637   4638   4639
4640   4641   4642   4643
4644   4645   4646   4647
4648   4649   4650   4651
4652   4653   4654   4655
4656   4657   4658   4659
4660   4661   4662   4663
4664   4665   4666   4667
4668   4669   4670   4671
4672   4673   4674   4675
4676   4677   4678   4679
4680   4681   4682   4683
4684   4685   4686   4687
4688   4689   4690   4691
4692   4693   4694   4695
4696   4697   4698   4699
4700   4701   4702   4703
4704   4705   4706   4707
4708   4709   4710   4711
4712   4713   4714   4715
4716   4717   4718   4719
4720   4721   4722   4723
4724   4725   4726   4727
4728   4729   4730   4731
4732   4733   4734   4735
4736   4737   4738   4739
4740   4741   4742   4743
4744   4745   4746   4747
4748   4749   4750   4751
4752   4753   4754   4755
4756   4757   4758   4759
4760   4761   4762   4763
4764   4765   4766   4767
4768   4769   4770   4771
4772   4773   4774   4775
4776   4777   4778   4779
4780   4781   4782   4783
4784   4785   4786   4787
4788   4789   4790   4791
4792   4793   4794   4795
4796   4797   4798   4799
4800   4801   4802   4803
4804   4805   4806   4807
4808   4809   4810   4811
4812   4813   4814   4815
4816   4817   4818   4819
4820   4821   4822   4823
4824   4825   4826   4827
4828   4829   4830   4831
4832   4833   4834   4835
4836   4837   4838   4839
4840   4841   4842   4843
4844   4845   4846   4847
4848   4849   4850   4851
4852   4853   4854   4855
4856   4857   4858   4859
4860   4861   4862   4863
4864   4865   4866   4867
4868   4869   4870   4871
4872   4873   4874   4875
4876   4877   4878   4879
4880   4881   4882   4883
4884   4885   4886   4887
4888   4889   4890   4891
4892   4893   4894   4895
4896   4897   4898   4899
4900   4901   4902   4903
4904   4905   4906   4907
4908   4909   4910   4911
4912   4913   4914   4915
4916   4917   4918   4919
4920   4921   4922   4923
4924   4925   4926   4927
4928   4929   4930   4931
4932   4933   4934   4935
4936   4937   4938   4939
4940   4941   4942   4943
4944   4945   4946   4947
4948   4949   4950   4951
4952   4953   4954   4955
4956   4957   4958   4959
4960   4961   4962   4963
4964   4965   4966   4967
4968   4969   4970   4971
4972   4973   4974   4975
4976   4977   4978   4979
4980   4981   4982   4983
4984   4985   4986   4987
4988   4989   4990   4991
4992   4993   4994   4995
4996   4997   4998   4999
5000   5001   5002   5003
5004   5005   5006   5007
5008   5009   5010   5011
5012   5013   5014   5015
5016   5017   5018   5019
5020   5021   5022   5023
5024   5025   5026   5027
5028   5029   5030   5031
5032   5033   5034   5035
5036   5037   5038   5039
5040   5041   5042   5043
5044   5045   5046   5047
5048   5049   5050   5051
5052   5053   5054   5055
5056   5057   5058   5059
5060   5061   5062   5063
5064   5065   5066   5067
5068   5069   5070   5071
5072   5073   5074   5075
5076   5077   5078   5079
5080   5081   5082   5083
5084   5085   5086   5087
5088   5089   5090   5091
5092   5093   5094   5095
5096   5097   5098   5099
5100   5101   5102   5103
5104   5105   5106   5107
5108   5109   5110   5111
5112   5113   5114   5115
5116   5117   5118   5119
5120   5121   5122   5123
5124   5125   5126   5127
5128   5129   5130   5131
5132   5133   5134   5135
5136   5137   5138   5139
5140   5141   5142   5143
5144   5145   5146   5147
5148   5149   5150   5151
5152   5153   5154   5155
5156   5157   5158   5159
5160   5161   5162   5163
5164   5165   5166   5167
5168   5169   5170   5171
5172   5173   5174   5175
5176   5177   5178   5179
5180   5181   5182   5183
5184   5185   5186   5187
5188   5189   5190   5191
5192   5193   5194   5195
5196   5197   5198   5199
5200   5201   5202   5203
5204   5205   5206   5207
5208   5209   5210   5211
5212   5213   5214   5215
5216   5217   5218   5219
5220   5221   5222   5223
5224   5225   5226   5227
5228   5229   5230   5231
5232   5233   5234   5235
5236   5237   5238   5239
5240   5241   5242   5243
5244   5245   5246   5247
5248   5249   5250   5251
5252   5253   5254   5255
5256   5257   5258   5259
5260   5261   5262   5263
5264   5265   5266   5267
5268   5269   5270   5271
5272   5273   5274   5275
5276   5277   5278   5279
5280   5281   5282   5283
5284   5285   5286   5287
5288   5289   5290   5291
5292   5293   5294   5295
5296   5297   5298   5299
5300   5301   5302   5303
5304   5305   5306   5307
5308   5309   5310   5311
5312   5313   5314   5315
5316   5317   5318   5319
5320   5321   5322   5323
5324   5325   5326   5327
5328   5329   5330   5331
5332   5333   5334   5335
5336   5337   5338   5339
5340   5341   5342   5343
5344   5345   5346   5347
5348   5349   5350   5351
5352   5353   5354   5355
5356   5357   5358   5359
5360   5361   5362   5363
5364   5365   5366   5367
5368   5369   5370   5371
5372   5373   5374   5375
5376   5377   5378   5379
5380   5381   5382   5383
5384   5385   5386   5387
5388   5389   5390   5391
5392   5393   5394   5395
5396   5397   5398   5399
5400   5401   5402   5403
5404   5405   5406   5407
5408   5409   5410   5411
5412   5413   5414   5415
5416   5417   5418   5419
5420   5421   5422   5423
5424   5425   5426   5427
5428   5429   5430   5431
5432   5433   5434   5435
5436   5437   5438   5439
5440   5441   5442   5443
5444   5445   5446   5447
5448   5449   5450   5451
5452   5453   5454   5455
5456   5457   5458   5459
5460   5461   5462   5463
5464   5465   5466   5467
5468   5469   5470   5471
5472   5473   5474   5475
5476   5477   5478   5479
5480   5481   5482   5483
5484   5485   5486   5487
5488   5489   5490   5491
5492   5493   5494   5495
5496   5497   5498   5499
5500   5501   5502   5503
5504   5505   5506   5507
5508   5509   5510   5511
5512   5513   5514   5515
5516   5517   5518   5519
5520   5521   5522   5523
5524   5525   5526   5527
5528   5529   5530   5531
5532   5533   5534   5535
5536   5537   5538   5539
5540   5541   5542   5543
5544   5545   5546   5547
5548   5549   5550   5551
5552   5553   5554   5555
5556   5557   5558   5559
5560   5561   5562   5563
5564   5565   5566   5567
5568   5569   5570   5571
5572   5573   5574   5575
5576   5577   5578   5579
5580   5581   5582   5583
5584   5585   5586   5587
5588   5589   5590   5591
5592   5593   5594   5595
5596   5597   5598   5599
5600   5601   5602   5603
5604   5605   5606   5607
5608   5609   5610   5611
5612   5613   5614   5615
5616   5617   5618   5619
5620   5621   5622   5623
5624   5625   5626   5627
5628   5629   5630   5631
5632   5633   5634   5635
5636   5637   5638   5639
5640   5641   5642   5643
5644   5645   5646   5647
5648   5649   5650   5651
5652   5653   5654   5655
5656   5657   5658   5659
5660   5661   5662   5663
5664   5665   5666   5667
5668   5669   5670   5671
5672   5673   5674   5675
5676   5677   5678   5679
5680   5681   5682   5683
5684   5685   5686   5687
5688   5689   5690   5691
5692   5693   5694   5695
5696   5697   5698   5699
5700   5701   5702   5703
5704   5705   5706   5707
5708   5709   5710   5711
5712   5713   5714   5715
5716   5717   5718   5719
5720   5721   5722   5723
5724   5725   5726   5727
5728   5729   5730   5731
5732   5733   5734   5735
5736   5737   5738   5739
5740   5741   5742   5743
5744   5745   5746   5747
5748   5749   5750   5751
5752   5753   5754   5755
5756   5757   5758   5759
5760   5761   5762   5763
5764   5765   5766   5767
5768   5769   5770   5771
5772   5773   5774   5775
5776   5777   5778   5779
5780   5781   5782   5783
5784   5785   5786   5787
5788   5789   5790   5791
5792   5793   5794   5795
5796   5797   5798   5799
5800   5801   5802   5803
5804   5805   5806   5807
5808   5809   5810   5811
5812   5813   5814   5815
5816   5817   5818   5819
5820   5821   5822   5823
5824   5825   5826   5827
5828   5829   5830   5831
5832   5833   5834   5835
5836   5837   5838   5839
5840   5841   5842   5843
5844   5845   5846   5847
5848   5849   5850   5851
5852   5853   5854   5855
5856   5857   5858   5859
5860   5861   5862   5863
5864   5865   5866   5867
5868   5869   5870   5871
5872   5873   5874   5875
5876   5877   5878   5879
5880   5881   5882   5883
5884   5885   5886   5887
5888   5889   5890   5891
5892   5893   5894   5895
5896   5897   5898   5899
5900   5901   5902   5903
5904   5905   5906   5907
5908   5909   5910   5911
5912   5913   5914   5915
5916   5917   5918   5919
5920   5921   5922   5923
5924   5925   5926   5927
5928   5929   5930   5931
5932   5933   5934   5935
5936   5937   5938   5939
5940   5941   5942   5943
5944   5945   5946   5947
5948   5949   5950   5951
5952   5953   5954   5955
5956   5957   5958   5959
5960   5961   5962   5963
5964   5965   5966   5967
5968   5969   5970   5971
5972   5973   5974   5975
5976   5977   5978   5979
5980   5981   5982   5983
5984   5985   5986   5987
5988   5989   5990   5991
5992   5993   5994   5995
5996   5997   5998   5999
              </DataArray>   
              <DataArray type="Int32" Name="offsets" format="ascii">   
4
8
12
16
20
24
28
32
36
40
44
48
52
56
60
64
68
72
76
80
84
88
92
96
100
104
108
112
116
120
124
128
132
136
140
144
148
152
156
160
164
168
172
176
180
184
188
192
196
200
204
208
212
216
220
224
228
232
236
240
244
248
252
256
260
264
268
272
276
280
284
288
292
296
300
304
308
312
316
320
324
328
332
336
340
344
348
352
356
360
364
368
372
376
380
384
388
392
396
400
404
408
412
416
420
424
428
432
436
440
444
448
452
456
460
464
468
472
476
480
484
488
492
496
500
504
508
512
516
520
524
528
532
536
540
544
548
552
556
560
564
568
572
576
580
584
588
592
596
600
604
608
612
616
620
624
628
632
636
640
644
648
652
656
660
664
668
672
676
680
684
688
692
696
700
704
708
712
716
720
724
728
732
736
740
744
748
752
756
760
764
768
772
776
780
784
788
792
796
800
804
808
812
816
820
824
828
832
836
840
844
848
852
856
860
864
868
872
876
880
884
888
892
896
900
904
908
912
916
920
924
928
932
936
940
944
948
952
956
960
964
968
972
976
980
984
988
992
996
1000
1004
1008
1012
1016
1020
1024
1028
1032
1036
1040
1044
1048
1052
1056
1060
1064
1068
1072
1076
1080
1084
1088
1092
1096
1100
1104
1108
1112
1116
1120
1124
1128
1132
1136
1140
1144
1148
1152
1156
1160
1164
1168
1172
1176
1180
1184
1188
1192
1196
1200
1204
1208
1212
1216
1220
1224
1228
1232
1236
1240
1244
1248
1252
1256
1260
1264
1268
1272
1276
1280
1284
1288
1292
1296
1300
1304
1308
1312
1316
1320
1324
1328
1332
1336
1340
1344
1348
1352
1356
1360
1364
1368
1372
1376
1380
1384
1388
1392
1396
1400
1404
1408
1412
1416
1420
1424
1428
1432
1436
1440
1444
1448
1452
1456
1460
1464
1468
1472
1476
1480
1484
1488
1492
1496
1500
1504
1508
1512
1516
1520
1524
1528
1532
1536
1540
1544
1548
1552
1556
1560
1564
1568
1572
1576
1580
1584
1588
1592
1596
1600
1604
1608
1612
1616
1620
1624
1628
1632
1636
1640
1644
1648
1652
1656
1660
1664
1668
1672
1676
1680
1684
1688
1692
1696
1700
1704
1708
1712
1716
1720
1724
1728
1732
1736
1740
1744
1748
1752
1756
1760
1764
1768
1772
1776
1780
1784
1788
1792
1796
1800
1804
1808
1812
1816
1820
1824
1828
1832
1836
1840
1844
1848
1852
1856
1860
1864
1868
1872
1876
1880
1884
1888
1892
1896
1900
1904
1908
1912
1916
1920
1924
1928
1932
1936
1940
1944
1948
1952
1956
1960
1964
1968
1972
1976
1980
1984
1988
1992
1996
2000
2004
2008
2012
2016
2020
2024
2028
2032
2036
2040
2044
2048
2052
2056
2060
2064
2068
2072
2076
2080
2084
2088
2092
2096
2100
2104
2108
2112
2116
2120
2124
2128
2132
2136
2140
2144
2148
2152
2156
2160
2164
2168
2172
2176
2180
2184
2188
2192
2196
2200
2204
2208
2212
2216
2220
2224
2228
2232
2236
2240
2244
2248
2252
2256
2260
2264
2268
2272
2276
2280
2284
2288
2292
2296
2300
2304
2308
2312
2316
2320
2324
2328
2332
2336
2340
2344
2348
2352
2356
2360
2364
2368
2372
2376
2380
2384
2388
2392
2396
2400
2404
2408
2412
2416
2420
2424
2428
2432
2436
2440
2444
2448
2452
2456
2460
2464
2468
2472
2476
2480
2484
2488
2492
2496
2500
2504
2508
2512
2516
2520
2524
2528
2532
2536
2540
2544
2548
2552
2556
2560
2564
2568
2572
2576
2580
2584
2588
2592
2596
2600
2604
2608
2612
2616
2620
2624
2628
2632
2636
2640
2644
2648
2652
2656
2660
2664
2668
2672
2676
2680
2684
2688
2692
2696
2700
2704
2708
2712
2716
2720
2724
2728
2732
2736
2740
2744
2748
2752
2756
2760
2764
2768
2772
2776
2780
2784
2788
2792
2796
2800
2804
2808
2812
2816
2820
2824
2828
2832
2836
2840
2844
2848
2852
2856
2860
2864
2868
2872
2876
2880
2884
2888
2892
2896
2900
2904
2908
2912
2916
2920
2924
2928
2932
2936
2940
2944
2948
2952
2956
2960
2964
2968
2972
2976
2980
2984
2988
2992
2996
3000
3004
3008
3012
3016
3020
3024
3028
3032
3036
3040
3044
3048
3052
3056
3060
3064
3068
3072
3076
3080
3084
3088
3092
3096
3100
3104
3108
3112
3116
3120
3124
3128
3132
3136
3140
3144
3148
3152
3156
3160
3164
3168
3172
3176
3180
3184
3188
3192
3196
3200
3204
3208
3212
3216
3220
3224
3228
3232
3236
3240
3244
3248
3252
3256
3260
3264
3268
3272
3276
3280
3284
3288
3292
3296
3300
3304
3308
3312
3316
3320
3324
3328
3332
3336
3340
3344
3348
3352
3356
3360
3364
3368
3372
3376
3380
3384
3388
3392
3396
3400
3404
3408
3412
3416
3420
3424
3428
3432
3436
3440
3444
3448
3452
3456
3460
3464
3468
3472
3476
3480
3484
3488
3492
3496
3500
3504
3508
3512
3516
3520
3524
3528
3532
3536
3540
3544
3548
3552
3556
3560
3564
3568
3572
3576
3580
3584
3588
3592
3596
3600
3604
3608
3612
3616
3620
3624
3628
3632
3636
3640
3644
3648
3652
3656
3660
3664
3668
3672
3676
3680
3684
3688
3692
3696
3700
3704
3708
3712
3716
3720
3724
3728
3732
3736
3740
3744
3748
3752
3756
3760
3764
3768
3772
3776
3780
3784
3788
3792
3796
3800
3804
3808
3812
3816
3820
3824
3828
3832
3836
3840
3844
3848
3852
3856
3860
3864
3868
3872
3876
3880
3884
3888
3892
3896
3900
3904
3908
3912
3916
3920
3924
3928
3932
3936
3940
3944
3948
3952
3956
3960
3964
3968
3972
3976
3980
3984
3988
3992
3996
4000
4004
4008
4012
4016
4020
4024
4028
4032
4036
4040
4044
4048
4052
4056
4060
4064
4068
4072
4076
4080
4084
4088
4092
4096
4100
4104
4108
4112
4116
4120
4124
4128
4132
4136
4140
4144
4148
4152
4156
4160
4164
4168
4172
4176
4180
4184
4188
4192
4196
4200
4204
4208
4212
4216
4220
4224
4228
4232
4236
4240
4244
4248
4252
4256
4260
4264
4268
4272
4276
4280
4284
4288
4292
4296
4300
4304
4308
4312
4316
4320
4324
4328
4332
4336
4340
4344
4348
4352
4356
4360
4364
4368
4372
4376
4380
4384
4388
4392
4396
4400
4404
4408
4412
4416
4420
4424
4428
4432
4436
4440
4444
4448
4452
4456
4460
4464
4468
4472
4476
4480
4484
4488
4492
4496
4500
4504
4508
4512
4516
4520
4524
4528
4532
4536
4540
4544
4548
4552
4556
4560
4564
4568
4572
4576
4580
4584
4588
4592
4596
4600
4604
4608
4612
4616
4620
4624
4628
4632
4636
4640
4644
4648
4652
4656
4660
4664
4668
4672
4676
4680
4684
4688
4692
4696
4700
4704
4708
4712
4716
4720
4724
4728
4732
4736
4740
4744
4748
4752
4756
4760
4764
4768
4772
4776
4780
4784
4788
4792
4796
4800
4804
4808
4812
4816
4820
4824
4828
4832
4836
4840
4844
4848
4852
4856
4860
4864
4868
4872
4876
4880
4884
4888
4892
4896
4900
4904
4908
4912
4916
4920
4924
4928
4932
4936
4940
4944
4948
4952
4956
4960
4964
4968
4972
4976
4980
4984
4988
4992
4996
5000
5004
5008
5012
5016
5020
5024
5028
5032
5036
5040
5044
5048
5052
5056
5060
5064
5068
5072
5076
5080
5084
5088
5092
5096
5100
5104
5108
5112
5116
5120
5124
5128
5132
5136
5140
5144
5148
5152
5156
5160
5164
5168
5172
5176
5180
5184
5188
5192
5196
5200
5204
5208
5212
5216
5220
5224
5228
5232
5236
5240
5244
5248
5252
5256
5260
5264
5268
5272
5276
5280
5284
5288
5292
5296
5300
5304
5308
5312
5316
5320
5324
5328
5332
5336
5340
5344
5348
5352
5356
5360
5364
5368
5372
5376
5380
5384
5388
5392
5396
5400
5404
5408
5412
5416
5420
5424
5428
5432
5436
5440
5444
5448
5452
5456
5460
5464
5468
5472
5476
5480
5484
5488
5492
5496
5500
5504
5508
5512
5516
5520
5524
5528
5532
5536
5540
5544
5548
5552
5556
5560
5564
5568
5572
5576
5580
5584
5588
5592
5596
5600
5604
5608
5612
5616
5620
5624
5628
5632
5636
5640
5644
5648
5652
5656
5660
5664
5668
5672
5676
5680
5684
5688
5692
5696
5700
5704
5708
5712
5716
5720
5724
5728
5732
5736
5740
5744
5748
5752
5756
5760
5764
5768
5772
5776
5780
5784
5788
5792
5796
5800
5804
5808
5812
5816
5820
5824
5828
5832
5836
5840
5844
5848
5852
5856
5860
5864
5868
5872
5876
5880
5884
5888
5892
5896
5900
5904
5908
5912
5916
5920
5924
5928
5932
5936
5940
5944
5948
5952
5956
5960
5964
5968
5972
5976
5980
5984
5988
5992
5996
6000
              </DataArray>   
              <DataArray type="UInt8" Name="types" format="ascii">   
10
10
10
10
10
10
10
10
10
10
10
10
10
10
10
10
10
10
10
10
10
10
10
10
10
10
10
10
10
10
10
10
10
10
10
10
10
10
10
10
10
10
10
10
10
10
10
10
10
10
10
10
10
10
10
10
10
10
10
10
10
10
10
10
10
10
10
10
10
10
10
10
10
10
10
10
10
10
10
10
10
10
10
10
10
10
10
10
10
10
10
10
10
10
10
10
10
10
10
10
10
10
10
10
10
10
10
10
10
10
10
10
10
10
10
10
10
10
10
10
10
10
10
10
10
10
10
10
10
10
10
10
10
10
10
10
10
10
10
10
10
10
10
10
10
10
10
10
10
10
10
10
10
10
10
10
10
10
10
10
10
10
10
10
10
10
10
10
10
10
10
10
10
10
10
10
10
10
10
10
10
10
10
10
10
10
10
10
10
10
10
10
10
10
10
10
10
10
10
10
10
10
10
10
10
10
10
10
10
10
10
10
10
10
10
10
10
10
10
10
10
10
10
10
10
10
10
10
10
10
10
10
10
10
10
10
10
10
10
10
10
10
10
10
10
10
10
10
10
10
10
10
10
10
10
10
10
10
10
10
10
10
10
10
10
10
10
10
10
10
10
10
10
10
10
10
10
10
10
10
10
10
10
10
10
10
10
10
10
10
10
10
10
10
10
10
10
10
10
10
10
10
10
10
10
10
10
10
10
10
10
10
10
10
10
10
10
10
10
10
10
10
10
10
10
10
10
10
10
10
10
10
10
10
10
10
10
10
10
10
10
10
10
10
10
10
10
10
10
10
10
10
10
10
10
10
10
10
10
10
10
10
10
10
10
10
10
10
10
10
10
10
10
10
10
10
10
10
10
10
10
10
10
10
10
10
10
10
10
10
10
10
10
10
10
10
10
10
10
10
10
10
10
10
10
10
10
10
10
10
10
10
10
10
10
10
10
10
10
10
10
10
10
10
10
10
10
10
10
10
10
10
10
10
10
10
10
10
10
10
10
10
10
10
10
10
10
10
10
10
10
10
10
10
10
10
10
10
10
10
10
10
10
10
10
10
10
10
10
10
10
10
10
10
10
10
10
10
10
10
10
10
10
10
10
10
10
10
10
10
10
10
10
10
10
10
10
10
10
10
10
10
10
10
10
10
10
10
10
10
10
10
10
10
10
10
10
10
10
10
10
10
10
10
10
10
10
10
10
10
10
10
10
10
10
10
10
10
10
10
10
10
10
10
10
10
10
10
10
10
10
10
10
10
10
10
10
10
10
10
10
10
10
10
10
10
10
10
10
10
10
10
10
10
10
10
10
10
10
10
10
10
10
10
10
10
10
10
10
10
10
10
10
10
10
10
10
10
10
10
10
10
10
10
10
10
10
10
10
10
10
10
10
10
10
10
10
10
10
10
10
10
10
10
10
10
10
10
10
10
10
10
10
10
10
10
10
10
10
10
10
10
10
10
10
10
10
10
10
10
10
10
10
10
10
10
10
10
10
10
10
10
10
10
10
10
10
10
10
10
10
10
10
10
10
10
10
10
10
10
10
10
10
10
10
10
10
10
10
10
10
10
10
10
10
10
10
10
10
10
10
10
10
10
10
10
10
10
10
10
10
10
10
10
10
10
10
10
10
10
10
10
10
10
10
10
10
10
10
10
10
10
10
10
10
10
10
10
10
10
10
10
10
10
10
10
10
10
10
10
10
10
10
10
10
10
10
10
10
10
10
10
10
10
10
10
10
10
10
10
10
10
10
10
10
10
10
10
10
10
10
10
10
10
10
10
10
10
10
10
10
10
10
10
10
10
10
10
10
10
10
10
10
10
10
10
10
10
10
10
10
10
10
10
10
10
10
10
10
10
10
10
10
10
10
10
10
10
10
10
10
10
10
10
10
10
10
10
10
10
10
10
10
10
10
10
10
10
10
10
10
10
10
10
10
10
10
10
10
10
10
10
10
10
10
10
10
10
10
10
10
10
10
10
10
10
10
10
10
10
10
10
10
10
10
10
10
10
10
10
10
10
10
10
10
10
10
10
10
10
10
10
10
10
10
10
10
10
10
10
10
10
10
10
10
10
10
10
10
10
10
10
10
10
10
10
10
10
10
10
10
10
10
10
10
10
10
10
10
10
10
10
10
10
10
10
10
10
10
10
10
10
10
10
10
10
10
10
10
10
10
10
10
10
10
10
10
10
10
10
10
10
10
10
10
10
10
10
10
10
10
10
10
10
10
10
10
10
10
10
10
10
10
10
10
10
10
10
10
10
10
10
10
10
10
10
10
10
10
10
10
10
10
10
10
10
10
10
10
10
10
10
10
10
10
10
10
10
10
10
10
10
10
10
10
10
10
10
10
10
10
10
10
10
10
10
10
10
10
10
10
10
10
10
10
10
10
10
10
10
10
10
10
10
10
10
10
10
10
10
10
10
10
10
10
10
10
10
10
10
10
10
10
10
10
10
10
10
10
10
10
10
10
10
10
10
10
10
10
10
10
10
10
10
10
10
10
10
10
10
10
10
10
10
10
10
10
10
10
10
10
10
10
10
10
10
10
10
10
10
10
10
10
10
10
10
10
10
10
10
10
10
10
10
10
10
10
10
10
10
10
10
10
10
10
10
10
10
10
10
10
10
10
10
10
10
10
10
10
10
10
10
10
10
10
10
10
10
10
10
10
10
10
10
10
10
10
10
10
10
10
10
10
10
10
10
10
10
10
10
10
10
10
10
10
10
10
10
10
10
10
10
10
10
10
10
10
10
10
10
10
10
10
10
10
10
10
10
10
10
10
10
10
10
10
10
10
10
10
10
10
10
10
10
10
10
10
10
10
10
10
10
10
10
10
10
10
10
10
10
10
10
10
10
10
10
10
10
10
10
10
10
10
10
10
10
10
10
10
10
10
10
10
10
10
10
10
10
10
10
10
10
10
10
10
10
10
10
10
10
10
10
10
10
10
10
10
10
10
10
10
10
10
10
10
10
10
10
10
10
10
10
10
10
10
10
10
10
10
10
10
10
10
10
10
10
10
10
10
10
10
10
10
10
10
10
10
10
10
10
10
10
10
10
10
10
10
10
10
10
10
10
10
10
10
10
10
10
10
10
10
10
10
10
10
10
10
10
10
10
10
10
10
10
10
10
10
10
10
10
10
10
10
10
10
10
10
10
10
10
10
10
10
10
10
10
10
10
10
10
10
10
10
10
10
10
10
10
10
10
10
10
10
10
10
10
10
10
10
10
10
10
10
10
10
10
10
10
10
10
10
10
10
10
10
10
10
10
10
10
10
10
10
10
10
10
10
10
10
10
10
10
10
10
10
10
10
10
10
10
10
10
10
10
10
10
10
10
10
10
10
10
10
10
10
10
10
10
10
10
10
10
10
10
10
10
10
10
10
10
              </DataArray>   
          </Cells>  
          <PointData>  
             <DataArray type="Float64" NumberOfComponents="3" Name="Strains" format="ascii">   
-2.5528758638573152e-05   0.0   -1.694577054644619e-05
-2.5528758638573152e-05   0.0   -1.694577054644619e-05
-2.5528758638573152e-05   0.0   -1.694577054644619e-05
-2.5528758638573152e-05   0.0   -1.694577054644619e-05
-1.6225530274967787e-05   2.802726497520198e-06   2.412459580748366e-07
-1.6225530274967787e-05   2.802726497520198e-06   2.412459580748366e-07
-1.6225530274967787e-05   2.802726497520198e-06   2.412459580748366e-07
-1.6225530274967787e-05   2.802726497520198e-06   2.412459580748366e-07
-1.5891603429222535e-05   0.0   -1.6018646170484742e-05
-1.5891603429222535e-05   0.0   -1.6018646170484742e-05
-1.5891603429222535e-05   0.0   -1.6018646170484742e-05
-1.5891603429222535e-05   0.0   -1.6018646170484742e-05
-2.670093080083203e-05   3.3755191901125576e-06   -2.8412065203045286e-08
-2.670093080083203e-05   3.3755191901125576e-06   -2.8412065203045286e-08
-2.670093080083203e-05   3.3755191901125576e-06   -2.8412065203045286e-08
-2.670093080083203e-05   3.3755191901125576e-06   -2.8412065203045286e-08
-2.071018103389781e-05   7.726036466345369e-07   -8.451245684006597e-06
-2.071018103389781e-05   7.726036466345369e-07   -8.451245684006597e-06
-2.071018103389781e-05   7.726036466345369e-07   -8.451245684006597e-06
-2.071018103389781e-05   7.726036466345369e-07   -8.451245684006597e-06
-2.6700930800832073e-05   0.0   -1.8043957684552283e-05
-2.6700930800832073e-05   0.0   -1.8043957684552283e-05
-2.6700930800832073e-05   0.0   -1.8043957684552283e-05
-2.6700930800832073e-05   0.0   -1.8043957684552283e-05
-1.5891603429222535e-05   3.3755191901125644e-06   1.9968994488644852e-06
-1.5891603429222535e-05   3.3755191901125644e-06   1.9968994488644852e-06
-1.5891603429222535e-05   3.3755191901125644e-06   1.9968994488644852e-06
-1.5891603429222535e-05   3.3755191901125644e-06   1.9968994488644852e-06
-1.5922321811396647e-05   0.0   -1.6406931503019347e-05
-1.5922321811396647e-05   0.0   -1.6406931503019347e-05
-1.5922321811396647e-05   0.0   -1.6406931503019347e-05
-1.5922321811396647e-05   0.0   -1.6406931503019347e-05
-2.7517663368398347e-05   3.6196570175016194e-06   7.468435481492559e-07
-2.7517663368398347e-05   3.6196570175016194e-06   7.468435481492559e-07
-2.7517663368398347e-05   3.6196570175016194e-06   7.468435481492559e-07
-2.7517663368398347e-05   3.6196570175016194e-06   7.468435481492559e-07
-2.1311626306114325e-05   1.3641884846107782e-06   -8.243270435922937e-06
-2.1311626306114325e-05   1.3641884846107782e-06   -8.243270435922937e-06
-2.1311626306114325e-05   1.3641884846107782e-06   -8.243270435922937e-06
-2.1311626306114325e-05   1.3641884846107782e-06   -8.243270435922937e-06
-2.7517663368398394e-05   0.0   -1.857872571352032e-05
-2.7517663368398394e-05   0.0   -1.857872571352032e-05
-2.7517663368398394e-05   0.0   -1.857872571352032e-05
-2.7517663368398394e-05   0.0   -1.857872571352032e-05
-1.5922321811396617e-05   3.6196570175016194e-06   2.918637758650227e-06
-1.5922321811396617e-05   3.6196570175016194e-06   2.918637758650227e-06
-1.5922321811396617e-05   3.6196570175016194e-06   2.918637758650227e-06
-1.5922321811396617e-05   3.6196570175016194e-06   2.918637758650227e-06
-1.5898059456590414e-05   0.0   -1.650892857290341e-05
-1.5898059456590414e-05   0.0   -1.650892857290341e-05
-1.5898059456590414e-05   0.0   -1.650892857290341e-05
-1.5898059456590414e-05   0.0   -1.650892857290341e-05
-2.9291121793443103e-05   4.133826614414917e-06   3.332546019868867e-06
-2.9291121793443103e-05   4.133826614414917e-06   3.332546019868867e-06
-2.9291121793443103e-05   4.133826614414917e-06   3.332546019868867e-06
-2.9291121793443103e-05   4.133826614414917e-06   3.332546019868867e-06
-2.170786141249437e-05   1.7248309505140912e-06   -7.86082388337186e-06
-2.170786141249437e-05   1.7248309505140912e-06   -7.86082388337186e-06
-2.170786141249437e-05   1.7248309505140912e-06   -7.86082388337186e-06
-2.170786141249437e-05   1.7248309505140912e-06   -7.86082388337186e-06
-1.6225530274967814e-05   0.0   -1.526413464793407e-05
-1.6225530274967814e-05   0.0   -1.526413464793407e-05
-1.6225530274967814e-05   0.0   -1.526413464793407e-05
-1.6225530274967814e-05   0.0   -1.526413464793407e-05
-7.405498406542282e-06   1.0230348251086038e-06   4.9739361173636333e-08
-7.405498406542282e-06   1.0230348251086038e-06   4.9739361173636333e-08
-7.405498406542282e-06   1.0230348251086038e-06   4.9739361173636333e-08
-7.405498406542282e-06   1.0230348251086038e-06   4.9739361173636333e-08
-7.108762416089258e-06   0.0   -1.5139740745718106e-05
-7.108762416089258e-06   0.0   -1.5139740745718106e-05
-7.108762416089258e-06   0.0   -1.5139740745718106e-05
-7.108762416089258e-06   0.0   -1.5139740745718106e-05
-1.5891603429222535e-05   1.4648423746110188e-06   -1.3805778152626408e-06
-1.5891603429222535e-05   1.4648423746110188e-06   -1.3805778152626408e-06
-1.5891603429222535e-05   1.4648423746110188e-06   -1.3805778152626408e-06
-1.5891603429222535e-05   1.4648423746110188e-06   -1.3805778152626408e-06
-1.1667146345528522e-05   1.0366158517994733e-07   -7.604631147760628e-06
-1.1667146345528522e-05   1.0366158517994733e-07   -7.604631147760628e-06
-1.1667146345528522e-05   1.0366158517994733e-07   -7.604631147760628e-06
-1.1667146345528522e-05   1.0366158517994733e-07   -7.604631147760628e-06
-1.589160342922252e-05   0.0   -1.601864617048473e-05
-1.589160342922252e-05   0.0   -1.601864617048473e-05
-1.589160342922252e-05   0.0   -1.601864617048473e-05
-1.589160342922252e-05   0.0   -1.601864617048473e-05
-7.108762416089258e-06   1.4648423746110154e-06   -5.016723904960282e-07
-7.108762416089258e-06   1.4648423746110154e-06   -5.016723904960282e-07
-7.108762416089258e-06   1.4648423746110154e-06   -5.016723904960282e-07
-7.108762416089258e-06   1.4648423746110154e-06   -5.016723904960282e-07
-6.9363431323876406e-06   0.0   -1.5326869693172156e-05
-6.9363431323876406e-06   0.0   -1.5326869693172156e-05
-6.9363431323876406e-06   0.0   -1.5326869693172156e-05
-6.9363431323876406e-06   0.0   -1.5326869693172156e-05
-1.5922321811396647e-05   1.8001030164119459e-06   -1.4303003713376945e-06
-1.5922321811396647e-05   1.8001030164119459e-06   -1.4303003713376945e-06
-1.5922321811396647e-05   1.8001030164119459e-06   -1.4303003713376945e-06
-1.5922321811396647e-05   1.8001030164119459e-06   -1.4303003713376945e-06
-1.141397328080509e-05   5.76480397760469e-07   -8.210041017799382e-06
-1.141397328080509e-05   5.76480397760469e-07   -8.210041017799382e-06
-1.141397328080509e-05   5.76480397760469e-07   -8.210041017799382e-06
-1.141397328080509e-05   5.76480397760469e-07   -8.210041017799382e-06
-1.5922321811396647e-05   0.0   -1.6406931503019347e-05
-1.5922321811396647e-05   0.0   -1.6406931503019347e-05
-1.5922321811396647e-05   0.0   -1.6406931503019347e-05
-1.5922321811396647e-05   0.0   -1.6406931503019347e-05
-6.936343132387652e-06   1.8001030164119459e-06   -3.502385614905287e-07
-6.936343132387652e-06   1.8001030164119459e-06   -3.502385614905287e-07
-6.936343132387652e-06   1.8001030164119459e-06   -3.502385614905287e-07
-6.936343132387652e-06   1.8001030164119459e-06   -3.502385614905287e-07
-6.7770128348060554e-06   0.0   -1.5250144078620907e-05
-6.7770128348060554e-06   0.0   -1.5250144078620907e-05
-6.7770128348060554e-06   0.0   -1.5250144078620907e-05
-6.7770128348060554e-06   0.0   -1.5250144078620907e-05
-1.589805945659037e-05   2.0979741571374745e-06   -1.3071842032628076e-06
-1.589805945659037e-05   2.0979741571374745e-06   -1.3071842032628076e-06
-1.589805945659037e-05   2.0979741571374745e-06   -1.3071842032628076e-06
-1.589805945659037e-05   2.0979741571374745e-06   -1.3071842032628076e-06
-1.1349667323101348e-05   9.639895203320222e-07   -8.207446976994633e-06
-1.1349667323101348e-05   9.639895203320222e-07   -8.207446976994633e-06
-1.1349667323101348e-05   9.639895203320222e-07   -8.207446976994633e-06
-1.1349667323101348e-05   9.639895203320222e-07   -8.207446976994633e-06
-7.405498406542295e-06   0.0   -1.4650313752868908e-05
-7.405498406542295e-06   0.0   -1.4650313752868908e-05
-7.405498406542295e-06   0.0   -1.4650313752868908e-05
-7.405498406542295e-06   0.0   -1.4650313752868908e-05
9.157255546265107e-07   -1.3475004979051502e-07   -8.624571807951902e-07
9.157255546265107e-07   -1.3475004979051502e-07   -8.624571807951902e-07
9.157255546265107e-07   -1.3475004979051502e-07   -8.624571807951902e-07
9.157255546265107e-07   -1.3475004979051502e-07   -8.624571807951902e-07
1.1116672078368879e-06   0.0   -1.4982953037877911e-05
1.1116672078368879e-06   0.0   -1.4982953037877911e-05
1.1116672078368879e-06   0.0   -1.4982953037877911e-05
1.1116672078368879e-06   0.0   -1.4982953037877911e-05
-7.108762416089258e-06   2.6131284640028464e-07   -1.4390247058411946e-06
-7.108762416089258e-06   2.6131284640028464e-07   -1.4390247058411946e-06
-7.108762416089258e-06   2.6131284640028464e-07   -1.4390247058411946e-06
-7.108762416089258e-06   2.6131284640028464e-07   -1.4390247058411946e-06
-3.1469155993526963e-06   -2.7719940417421226e-07   -7.718995383390761e-06
-3.1469155993526963e-06   -2.7719940417421226e-07   -7.718995383390761e-06
-3.1469155993526963e-06   -2.7719940417421226e-07   -7.718995383390761e-06
-3.1469155993526963e-06   -2.7719940417421226e-07   -7.718995383390761e-06
-7.10876241608927e-06   0.0   -1.5139740745718133e-05
-7.10876241608927e-06   0.0   -1.5139740745718133e-05
-7.10876241608927e-06   0.0   -1.5139740745718133e-05
-7.10876241608927e-06   0.0   -1.5139740745718133e-05
1.1116672078368898e-06   2.6131284640028464e-07   -1.282236998001024e-06
1.1116672078368898e-06   2.6131284640028464e-07   -1.282236998001024e-06
1.1116672078368898e-06   2.6131284640028464e-07   -1.282236998001024e-06
1.1116672078368898e-06   2.6131284640028464e-07   -1.282236998001024e-06
1.2681802743201594e-06   0.0   -1.4960434973860696e-05
1.2681802743201594e-06   0.0   -1.4960434973860696e-05
1.2681802743201594e-06   0.0   -1.4960434973860696e-05
1.2681802743201594e-06   0.0   -1.4960434973860696e-05
-6.936343132387629e-06   6.107245321857657e-07   -1.652664015325823e-06
-6.936343132387629e-06   6.107245321857657e-07   -1.652664015325823e-06
-6.936343132387629e-06   6.107245321857657e-07   -1.652664015325823e-06
-6.936343132387629e-06   6.107245321857657e-07   -1.652664015325823e-06
-2.9202910708845495e-06   1.4942147654784247e-07   -8.069302284448215e-06
-2.9202910708845495e-06   1.4942147654784247e-07   -8.069302284448215e-06
-2.9202910708845495e-06   1.4942147654784247e-07   -8.069302284448215e-06
-2.9202910708845495e-06   1.4942147654784247e-07   -8.069302284448215e-06
-6.936343132387652e-06   0.0   -1.5326869693172183e-05
-6.936343132387652e-06   0.0   -1.5326869693172183e-05
-6.936343132387652e-06   0.0   -1.5326869693172183e-05
-6.936343132387652e-06   0.0   -1.5326869693172183e-05
1.2681802743201615e-06   6.107245321857657e-07   -1.2862292960143683e-06
1.2681802743201615e-06   6.107245321857657e-07   -1.2862292960143683e-06
1.2681802743201615e-06   6.107245321857657e-07   -1.2862292960143683e-06
1.2681802743201615e-06   6.107245321857657e-07   -1.2862292960143683e-06
1.4740891863790351e-06   0.0   -1.4641387646054058e-05
1.4740891863790351e-06   0.0   -1.4641387646054058e-05
1.4740891863790351e-06   0.0   -1.4641387646054058e-05
1.4740891863790351e-06   0.0   -1.4641387646054058e-05
-6.7770128348060495e-06   1.01459405427806e-06   -1.4983073766457544e-06
-6.7770128348060495e-06   1.01459405427806e-06   -1.4983073766457544e-06
-6.7770128348060495e-06   1.01459405427806e-06   -1.4983073766457544e-06
-6.7770128348060495e-06   1.01459405427806e-06   -1.4983073766457544e-06
-2.731126973004303e-06   5.71235039265081e-07   -7.975435070640871e-06
-2.731126973004303e-06   5.71235039265081e-07   -7.975435070640871e-06
-2.731126973004303e-06   5.71235039265081e-07   -7.975435070640871e-06
-2.731126973004303e-06   5.71235039265081e-07   -7.975435070640871e-06
9.157255546265124e-07   0.0   -1.4731163782743215e-05
9.157255546265124e-07   0.0   -1.4731163782743215e-05
9.157255546265124e-07   0.0   -1.4731163782743215e-05
9.157255546265124e-07   0.0   -1.4731163782743215e-05
9.960283126514402e-06   -1.1683137618330668e-06   -3.578894200298407e-07
9.960283126514402e-06   -1.1683137618330668e-06   -3.578894200298407e-07
9.960283126514402e-06   -1.1683137618330668e-06   -3.578894200298407e-07
9.960283126514402e-06   -1.1683137618330668e-06   -3.578894200298407e-07
9.99555269065783e-06   0.0   -1.5509021003001676e-05
9.99555269065783e-06   0.0   -1.5509021003001676e-05
9.99555269065783e-06   0.0   -1.5509021003001676e-05
9.99555269065783e-06   0.0   -1.5509021003001676e-05
1.1116672078368898e-06   -8.767799418728554e-07   -1.764772331764012e-07
1.1116672078368898e-06   -8.767799418728554e-07   -1.764772331764012e-07
1.1116672078368898e-06   -8.767799418728554e-07   -1.764772331764012e-07
1.1116672078368898e-06   -8.767799418728554e-07   -1.764772331764012e-07
5.4556391226421706e-06   -6.482143502153841e-07   -7.55356977951301e-06
5.4556391226421706e-06   -6.482143502153841e-07   -7.55356977951301e-06
5.4556391226421706e-06   -6.482143502153841e-07   -7.55356977951301e-06
5.4556391226421706e-06   -6.482143502153841e-07   -7.55356977951301e-06
1.1116672078368917e-06   0.0   -1.4982953037877963e-05
1.1116672078368917e-06   0.0   -1.4982953037877963e-05
1.1116672078368917e-06   0.0   -1.4982953037877963e-05
1.1116672078368917e-06   0.0   -1.4982953037877963e-05
9.99555269065781e-06   -8.767799418728554e-07   -7.025451983001117e-07
9.99555269065781e-06   -8.767799418728554e-07   -7.025451983001117e-07
9.99555269065781e-06   -8.767799418728554e-07   -7.025451983001117e-07
9.99555269065781e-06   -8.767799418728554e-07   -7.025451983001117e-07
9.967874774133469e-06   0.0   -1.5287683830315545e-05
9.967874774133469e-06   0.0   -1.5287683830315545e-05
9.967874774133469e-06   0.0   -1.5287683830315545e-05
9.967874774133469e-06   0.0   -1.5287683830315545e-05
1.2681802743201615e-06   -5.45414760758042e-07   -4.6094414083854793e-07
1.2681802743201615e-06   -5.45414760758042e-07   -4.6094414083854793e-07
1.2681802743201615e-06   -5.45414760758042e-07   -4.6094414083854793e-07
1.2681802743201615e-06   -5.45414760758042e-07   -4.6094414083854793e-07
5.5397709909851805e-06   -2.539423270313192e-07   -7.755145462182934e-06
5.5397709909851805e-06   -2.539423270313192e-07   -7.755145462182934e-06
5.5397709909851805e-06   -2.539423270313192e-07   -7.755145462182934e-06
5.5397709909851805e-06   -2.539423270313192e-07   -7.755145462182934e-06
1.2681802743201615e-06   0.0   -1.4960434973860721e-05
1.2681802743201615e-06   0.0   -1.4960434973860721e-05
1.2681802743201615e-06   0.0   -1.4960434973860721e-05
1.2681802743201615e-06   0.0   -1.4960434973860721e-05
9.967874774133452e-06   -5.454147607580387e-07   -7.881929972933684e-07
9.967874774133452e-06   -5.454147607580387e-07   -7.881929972933684e-07
9.967874774133452e-06   -5.454147607580387e-07   -7.881929972933684e-07
9.967874774133452e-06   -5.454147607580387e-07   -7.881929972933684e-07
1.0175461959670641e-05   0.0   -1.470202126999582e-05
1.0175461959670641e-05   0.0   -1.470202126999582e-05
1.0175461959670641e-05   0.0   -1.470202126999582e-05
1.0175461959670641e-05   0.0   -1.470202126999582e-05
1.4740891863790377e-06   -1.0105603990289314e-07   -1.3909969056808214e-07
1.4740891863790377e-06   -1.0105603990289314e-07   -1.3909969056808214e-07
1.4740891863790377e-06   -1.0105603990289314e-07   -1.3909969056808214e-07
1.4740891863790377e-06   -1.0105603990289314e-07   -1.3909969056808214e-07
5.721821116995401e-06   2.153447532207532e-07   -7.408493384136199e-06
5.721821116995401e-06   2.153447532207532e-07   -7.408493384136199e-06
5.721821116995401e-06   2.153447532207532e-07   -7.408493384136199e-06
5.721821116995401e-06   2.153447532207532e-07   -7.408493384136199e-06
9.960283126514435e-06   0.0   -1.5432152039843057e-05
9.960283126514435e-06   0.0   -1.5432152039843057e-05
9.960283126514435e-06   0.0   -1.5432152039843057e-05
9.960283126514435e-06   0.0   -1.5432152039843057e-05
2.25796000955431e-05   -2.9734822732021715e-06   3.8159535446168115e-06
2.25796000955431e-05   -2.9734822732021715e-06   3.8159535446168115e-06
2.25796000955431e-05   -2.9734822732021715e-06   3.8159535446168115e-06
2.25796000955431e-05   -2.9734822732021715e-06   3.8159535446168115e-06
2.1228695575568712e-05   0.0   -1.7021432787981812e-05
2.1228695575568712e-05   0.0   -1.7021432787981812e-05
2.1228695575568712e-05   0.0   -1.7021432787981812e-05
2.1228695575568712e-05   0.0   -1.7021432787981812e-05
9.99555269065781e-06   -2.5206863083002225e-06   3.212883805183124e-06
9.99555269065781e-06   -2.5206863083002225e-06   3.212883805183124e-06
9.99555269065781e-06   -2.5206863083002225e-06   3.212883805183124e-06
9.99555269065781e-06   -2.5206863083002225e-06   3.212883805183124e-06
1.5594489351041574e-05   -1.3244006234489637e-06   -6.836448706367196e-06
1.5594489351041574e-05   -1.3244006234489637e-06   -6.836448706367196e-06
1.5594489351041574e-05   -1.3244006234489637e-06   -6.836448706367196e-06
1.5594489351041574e-05   -1.3244006234489637e-06   -6.836448706367196e-06
9.995552690657819e-06   0.0   -1.5509021003001662e-05
9.995552690657819e-06   0.0   -1.5509021003001662e-05
9.995552690657819e-06   0.0   -1.5509021003001662e-05
9.995552690657819e-06   0.0   -1.5509021003001662e-05
2.1228695575568712e-05   -2.5206863083002293e-06   1.7004720202029878e-06
2.1228695575568712e-05   -2.5206863083002293e-06   1.7004720202029878e-06
2.1228695575568712e-05   -2.5206863083002293e-06   1.7004720202029878e-06
2.1228695575568712e-05   -2.5206863083002293e-06   1.7004720202029878e-06
2.0612574270586388e-05   0.0   -1.6667713757684583e-05
2.0612574270586388e-05   0.0   -1.6667713757684583e-05
2.0612574270586388e-05   0.0   -1.6667713757684583e-05
2.0612574270586388e-05   0.0   -1.6667713757684583e-05
9.967874774133452e-06   -2.3000498789483956e-06   2.4534819971059834e-06
9.967874774133452e-06   -2.3000498789483956e-06   2.4534819971059834e-06
9.967874774133452e-06   -2.3000498789483956e-06   2.4534819971059834e-06
9.967874774133452e-06   -2.3000498789483956e-06   2.4534819971059834e-06
1.53040634806221e-05   -9.65577295569091e-07   -7.2408493970693175e-06
1.53040634806221e-05   -9.65577295569091e-07   -7.2408493970693175e-06
1.53040634806221e-05   -9.65577295569091e-07   -7.2408493970693175e-06
1.53040634806221e-05   -9.65577295569091e-07   -7.2408493970693175e-06
9.967874774133469e-06   0.0   -1.5287683830315545e-05
9.967874774133469e-06   0.0   -1.5287683830315545e-05
9.967874774133469e-06   0.0   -1.5287683830315545e-05
9.967874774133469e-06   0.0   -1.5287683830315545e-05
2.061257427058635e-05   -2.3000498789483956e-06   1.0734520697369454e-06
2.061257427058635e-05   -2.3000498789483956e-06   1.0734520697369454e-06
2.061257427058635e-05   -2.3000498789483956e-06   1.0734520697369454e-06
2.061257427058635e-05   -2.3000498789483956e-06   1.0734520697369454e-06
1.9684766826100566e-05   0.0   -1.5768073434094918e-05
1.9684766826100566e-05   0.0   -1.5768073434094918e-05
1.9684766826100566e-05   0.0   -1.5768073434094918e-05
1.9684766826100566e-05   0.0   -1.5768073434094918e-05
1.0175461959670615e-05   -1.7767536068318297e-06   1.1468201740540647e-06
1.0175461959670615e-05   -1.7767536068318297e-06   1.1468201740540647e-06
1.0175461959670615e-05   -1.7767536068318297e-06   1.1468201740540647e-06
1.0175461959670615e-05   -1.7767536068318297e-06   1.1468201740540647e-06
1.4826320800116992e-05   -4.00324669816144e-07   -7.430468588899299e-06
1.4826320800116992e-05   -4.00324669816144e-07   -7.430468588899299e-06
1.4826320800116992e-05   -4.00324669816144e-07   -7.430468588899299e-06
1.4826320800116992e-05   -4.00324669816144e-07   -7.430468588899299e-06
-2.2008279084305762e-05   2.802726497520191e-06   -1.456743112888738e-05
-2.2008279084305762e-05   2.802726497520191e-06   -1.456743112888738e-05
-2.2008279084305762e-05   2.802726497520191e-06   -1.456743112888738e-05
-2.2008279084305762e-05   2.802726497520191e-06   -1.456743112888738e-05
-1.4108850907943333e-05   2.511873962234739e-06   -1.5762290227879167e-06
-1.4108850907943333e-05   2.511873962234739e-06   -1.5762290227879167e-06
-1.4108850907943333e-05   2.511873962234739e-06   -1.5762290227879167e-06
-1.4108850907943333e-05   2.511873962234739e-06   -1.5762290227879167e-06
-1.4456268758818418e-05   3.3755191901125542e-06   -1.2246370620178682e-05
-1.4456268758818418e-05   3.3755191901125542e-06   -1.2246370620178682e-05
-1.4456268758818418e-05   3.3755191901125542e-06   -1.2246370620178682e-05
-1.4456268758818418e-05   3.3755191901125542e-06   -1.2246370620178682e-05
-2.2230673912572528e-05   3.0226178234867463e-06   9.227121227203458e-07
-2.2230673912572528e-05   3.0226178234867463e-06   9.227121227203458e-07
-2.2230673912572528e-05   3.0226178234867463e-06   9.227121227203458e-07
-2.2230673912572528e-05   3.0226178234867463e-06   9.227121227203458e-07
-1.747922441756002e-05   2.931535756623354e-06   -6.941721128849201e-06
-1.747922441756002e-05   2.931535756623354e-06   -6.941721128849201e-06
-1.747922441756002e-05   2.931535756623354e-06   -6.941721128849201e-06
-1.747922441756002e-05   2.931535756623354e-06   -6.941721128849201e-06
-2.2230673912572528e-05   3.375519190112555e-06   -1.2034629800203187e-05
-2.2230673912572528e-05   3.375519190112555e-06   -1.2034629800203187e-05
-2.2230673912572528e-05   3.375519190112555e-06   -1.2034629800203187e-05
-2.2230673912572528e-05   3.375519190112555e-06   -1.2034629800203187e-05
-1.4456268758818465e-05   3.02261782348676e-06   7.109713027448841e-07
-1.4456268758818465e-05   3.02261782348676e-06   7.109713027448841e-07
-1.4456268758818465e-05   3.02261782348676e-06   7.109713027448841e-07
-1.4456268758818465e-05   3.02261782348676e-06   7.109713027448841e-07
-1.4521056770718428e-05   3.6196570175016126e-06   -1.1018966079220699e-05
-1.4521056770718428e-05   3.6196570175016126e-06   -1.1018966079220699e-05
-1.4521056770718428e-05   3.6196570175016126e-06   -1.1018966079220699e-05
-1.4521056770718428e-05   3.6196570175016126e-06   -1.1018966079220699e-05
-2.2373446075058318e-05   3.2534322077780892e-06   2.2880843138465157e-06
-2.2373446075058318e-05   3.2534322077780892e-06   2.2880843138465157e-06
-2.2373446075058318e-05   3.2534322077780892e-06   2.2880843138465157e-06
-2.2373446075058318e-05   3.2534322077780892e-06   2.2880843138465157e-06
-1.7982858248949406e-05   3.252288169358888e-06   -5.028875639950129e-06
-1.7982858248949406e-05   3.252288169358888e-06   -5.028875639950129e-06
-1.7982858248949406e-05   3.252288169358888e-06   -5.028875639950129e-06
-1.7982858248949406e-05   3.252288169358888e-06   -5.028875639950129e-06
-2.2373446075058277e-05   3.619657017501613e-06   -1.0799231193386588e-05
-2.2373446075058277e-05   3.619657017501613e-06   -1.0799231193386588e-05
-2.2373446075058277e-05   3.619657017501613e-06   -1.0799231193386588e-05
-2.2373446075058277e-05   3.619657017501613e-06   -1.0799231193386588e-05
-1.4521056770718455e-05   3.2534322077780757e-06   2.0683494280123645e-06
-1.4521056770718455e-05   3.2534322077780757e-06   2.0683494280123645e-06
-1.4521056770718455e-05   3.2534322077780757e-06   2.0683494280123645e-06
-1.4521056770718455e-05   3.2534322077780757e-06   2.0683494280123645e-06
-1.4429707549563508e-05   4.13382661441491e-06   -8.168545271211897e-06
-1.4429707549563508e-05   4.13382661441491e-06   -8.168545271211897e-06
-1.4429707549563508e-05   4.13382661441491e-06   -8.168545271211897e-06
-1.4429707549563508e-05   4.13382661441491e-06   -8.168545271211897e-06
-2.173306012067812e-05   3.4411539831083108e-06   4.419312592763021e-06
-2.173306012067812e-05   3.4411539831083108e-06   4.419312592763021e-06
-2.173306012067812e-05   3.4411539831083108e-06   4.419312592763021e-06
-2.173306012067812e-05   3.4411539831083108e-06   4.419312592763021e-06
-1.750271642238543e-05   3.572145667977476e-06   -2.709855248646274e-06
-1.750271642238543e-05   3.572145667977476e-06   -2.709855248646274e-06
-1.750271642238543e-05   3.572145667977476e-06   -2.709855248646274e-06
-1.750271642238543e-05   3.572145667977476e-06   -2.709855248646274e-06
-1.4108850907943333e-05   1.0230348251086008e-06   -1.5547270142025003e-05
-1.4108850907943333e-05   1.0230348251086008e-06   -1.5547270142025003e-05
-1.4108850907943333e-05   1.0230348251086008e-06   -1.5547270142025003e-05
-1.4108850907943333e-05   1.0230348251086008e-06   -1.5547270142025003e-05
-6.708287158592326e-06   1.1690825842926235e-06   -3.1253685709295525e-06
-6.708287158592326e-06   1.1690825842926235e-06   -3.1253685709295525e-06
-6.708287158592326e-06   1.1690825842926235e-06   -3.1253685709295525e-06
-6.708287158592326e-06   1.1690825842926235e-06   -3.1253685709295525e-06
-6.860500670246156e-06   1.4648423746110188e-06   -1.5519616534671852e-05
-6.860500670246156e-06   1.4648423746110188e-06   -1.5519616534671852e-05
-6.860500670246156e-06   1.4648423746110188e-06   -1.5519616534671852e-05
-6.860500670246156e-06   1.4648423746110188e-06   -1.5519616534671852e-05
-1.4456268758818416e-05   1.6385612906676177e-06   -2.9642344033520014e-06
-1.4456268758818416e-05   1.6385612906676177e-06   -2.9642344033520014e-06
-1.4456268758818416e-05   1.6385612906676177e-06   -2.9642344033520014e-06
-1.4456268758818416e-05   1.6385612906676177e-06   -2.9642344033520014e-06
-1.0503271216740883e-05   1.3186372383378045e-06   -9.360609208750048e-06
-1.0503271216740883e-05   1.3186372383378045e-06   -9.360609208750048e-06
-1.0503271216740883e-05   1.3186372383378045e-06   -9.360609208750048e-06
-1.0503271216740883e-05   1.3186372383378045e-06   -9.360609208750048e-06
-1.4456268758818404e-05   1.4648423746110152e-06   -1.562384788430577e-05
-1.4456268758818404e-05   1.4648423746110152e-06   -1.562384788430577e-05
-1.4456268758818404e-05   1.4648423746110152e-06   -1.562384788430577e-05
-1.4456268758818404e-05   1.4648423746110152e-06   -1.562384788430577e-05
-6.8605006702461434e-06   1.6385612906676312e-06   -2.8600030537180083e-06
-6.8605006702461434e-06   1.6385612906676312e-06   -2.8600030537180083e-06
-6.8605006702461434e-06   1.6385612906676312e-06   -2.8600030537180083e-06
-6.8605006702461434e-06   1.6385612906676312e-06   -2.8600030537180083e-06
-6.902286237261181e-06   1.8001030164119425e-06   -1.5231096829332059e-05
-6.902286237261181e-06   1.8001030164119425e-06   -1.5231096829332059e-05
-6.902286237261181e-06   1.8001030164119425e-06   -1.5231096829332059e-05
-6.902286237261181e-06   1.8001030164119425e-06   -1.5231096829332059e-05
-1.452105677071843e-05   2.028115316206252e-06   -2.669953320113183e-06
-1.452105677071843e-05   2.028115316206252e-06   -2.669953320113183e-06
-1.452105677071843e-05   2.028115316206252e-06   -2.669953320113183e-06
-1.452105677071843e-05   2.028115316206252e-06   -2.669953320113183e-06
-1.057770866510194e-05   1.6776295942733335e-06   -9.031908729647577e-06
-1.057770866510194e-05   1.6776295942733335e-06   -9.031908729647577e-06
-1.057770866510194e-05   1.6776295942733335e-06   -9.031908729647577e-06
-1.057770866510194e-05   1.6776295942733335e-06   -9.031908729647577e-06
-1.4521056770718428e-05   1.8001030164119389e-06   -1.536790420920862e-05
-1.4521056770718428e-05   1.8001030164119389e-06   -1.536790420920862e-05
-1.4521056770718428e-05   1.8001030164119389e-06   -1.536790420920862e-05
-1.4521056770718428e-05   1.8001030164119389e-06   -1.536790420920862e-05
-6.902286237261194e-06   2.028115316206252e-06   -2.5331459402366243e-06
-6.902286237261194e-06   2.028115316206252e-06   -2.5331459402366243e-06
-6.902286237261194e-06   2.028115316206252e-06   -2.5331459402366243e-06
-6.902286237261194e-06   2.028115316206252e-06   -2.5331459402366243e-06
-6.877289008698607e-06   2.097974157137478e-06   -1.5078518296589966e-05
-6.877289008698607e-06   2.097974157137478e-06   -1.5078518296589966e-05
-6.877289008698607e-06   2.097974157137478e-06   -1.5078518296589966e-05
-6.877289008698607e-06   2.097974157137478e-06   -1.5078518296589966e-05
-1.4429707549563495e-05   2.4480627678083943e-06   -2.7012072282176655e-06
-1.4429707549563495e-05   2.4480627678083943e-06   -2.7012072282176655e-06
-1.4429707549563495e-05   2.4480627678083943e-06   -2.7012072282176655e-06
-1.4429707549563495e-05   2.4480627678083943e-06   -2.7012072282176655e-06
-1.0631638918320843e-05   2.0025991489911344e-06   -8.764043442331783e-06
-1.0631638918320843e-05   2.0025991489911344e-06   -8.764043442331783e-06
-1.0631638918320843e-05   2.0025991489911344e-06   -8.764043442331783e-06
-1.0631638918320843e-05   2.0025991489911344e-06   -8.764043442331783e-06
-6.708287158592313e-06   -1.3475004979051166e-07   -1.629098799860911e-05
-6.708287158592313e-06   -1.3475004979051166e-07   -1.629098799860911e-05
-6.708287158592313e-06   -1.3475004979051166e-07   -1.629098799860911e-05
-6.708287158592313e-06   -1.3475004979051166e-07   -1.629098799860911e-05
5.975427821225805e-07   -3.708348124607211e-08   -4.056004822957619e-06
5.975427821225805e-07   -3.708348124607211e-08   -4.056004822957619e-06
5.975427821225805e-07   -3.708348124607211e-08   -4.056004822957619e-06
5.975427821225805e-07   -3.708348124607211e-08   -4.056004822957619e-06
5.752816430084411e-07   2.6131284640028125e-07   -1.6376211064310727e-05
5.752816430084411e-07   2.6131284640028125e-07   -1.6376211064310727e-05
5.752816430084411e-07   2.6131284640028125e-07   -1.6376211064310727e-05
5.752816430084411e-07   2.6131284640028125e-07   -1.6376211064310727e-05
-6.860500670246144e-06   3.959091559107376e-07   -4.063998327926019e-06
-6.860500670246144e-06   3.959091559107376e-07   -4.063998327926019e-06
-6.860500670246144e-06   3.959091559107376e-07   -4.063998327926019e-06
-6.860500670246144e-06   3.959091559107376e-07   -4.063998327926019e-06
-3.1168999264132586e-06   1.3225431194609975e-07   -1.014513999460205e-05
-3.1168999264132586e-06   1.3225431194609975e-07   -1.014513999460205e-05
-3.1168999264132586e-06   1.3225431194609975e-07   -1.014513999460205e-05
-3.1168999264132586e-06   1.3225431194609975e-07   -1.014513999460205e-05
-6.8605006702461434e-06   2.6131284640028273e-07   -1.6456968850016998e-05
-6.8605006702461434e-06   2.6131284640028273e-07   -1.6456968850016998e-05
-6.8605006702461434e-06   2.6131284640028273e-07   -1.6456968850016998e-05
-6.8605006702461434e-06   2.6131284640028273e-07   -1.6456968850016998e-05
5.752816430084422e-07   3.959091559107376e-07   -3.983240542219724e-06
5.752816430084422e-07   3.959091559107376e-07   -3.983240542219724e-06
5.752816430084422e-07   3.959091559107376e-07   -3.983240542219724e-06
5.752816430084422e-07   3.959091559107376e-07   -3.983240542219724e-06
5.428561913534166e-07   6.107245321857624e-07   -1.6408403034667092e-05
5.428561913534166e-07   6.107245321857624e-07   -1.6408403034667092e-05
5.428561913534166e-07   6.107245321857624e-07   -1.6408403034667092e-05
5.428561913534166e-07   6.107245321857624e-07   -1.6408403034667092e-05
-6.902286237261169e-06   8.192566130194961e-07   -4.124951568809683e-06
-6.902286237261169e-06   8.192566130194961e-07   -4.124951568809683e-06
-6.902286237261169e-06   8.192566130194961e-07   -4.124951568809683e-06
-6.902286237261169e-06   8.192566130194961e-07   -4.124951568809683e-06
-3.166775348055543e-06   4.985821704434456e-07   -1.015839838527344e-05
-3.166775348055543e-06   4.985821704434456e-07   -1.015839838527344e-05
-3.166775348055543e-06   4.985821704434456e-07   -1.015839838527344e-05
-3.166775348055543e-06   4.985821704434456e-07   -1.015839838527344e-05
-6.902286237261169e-06   6.10724532185764e-07   -1.653352228316733e-05
-6.902286237261169e-06   6.10724532185764e-07   -1.653352228316733e-05
-6.902286237261169e-06   6.10724532185764e-07   -1.653352228316733e-05
-6.902286237261169e-06   6.10724532185764e-07   -1.653352228316733e-05
5.428561913534166e-07   8.192566130194961e-07   -3.999832320309466e-06
5.428561913534166e-07   8.192566130194961e-07   -3.999832320309466e-06
5.428561913534166e-07   8.192566130194961e-07   -3.999832320309466e-06
5.428561913534166e-07   8.192566130194961e-07   -3.999832320309466e-06
4.6837887467981007e-07   1.0145940542780566e-06   -1.6381176061432575e-05
4.6837887467981007e-07   1.0145940542780566e-06   -1.6381176061432575e-05
4.6837887467981007e-07   1.0145940542780566e-06   -1.6381176061432575e-05
4.6837887467981007e-07   1.0145940542780566e-06   -1.6381176061432575e-05
-6.877289008698601e-06   1.2600105589827498e-06   -4.2856461586247216e-06
-6.877289008698601e-06   1.2600105589827498e-06   -4.2856461586247216e-06
-6.877289008698601e-06   1.2600105589827498e-06   -4.2856461586247216e-06
-6.877289008698601e-06   1.2600105589827498e-06   -4.2856461586247216e-06
-3.1936643740520372e-06   8.749219579035341e-07   -1.0193967389054785e-05
-3.1936643740520372e-06   8.749219579035341e-07   -1.0193967389054785e-05
-3.1936643740520372e-06   8.749219579035341e-07   -1.0193967389054785e-05
-3.1936643740520372e-06   8.749219579035341e-07   -1.0193967389054785e-05
5.975427821225805e-07   -1.1683137618330666e-06   -1.5026832039617253e-05
5.975427821225805e-07   -1.1683137618330666e-06   -1.5026832039617253e-05
5.975427821225805e-07   -1.1683137618330666e-06   -1.5026832039617253e-05
5.975427821225805e-07   -1.1683137618330666e-06   -1.5026832039617253e-05
8.125926848634415e-06   -1.200452800012534e-06   -2.4988086850051997e-06
8.125926848634415e-06   -1.200452800012534e-06   -2.4988086850051997e-06
8.125926848634415e-06   -1.200452800012534e-06   -2.4988086850051997e-06
8.125926848634415e-06   -1.200452800012534e-06   -2.4988086850051997e-06
8.201957655680542e-06   -8.76779941872852e-07   -1.5227658279429901e-05
8.201957655680542e-06   -8.76779941872852e-07   -1.5227658279429901e-05
8.201957655680542e-06   -8.76779941872852e-07   -1.5227658279429901e-05
8.201957655680542e-06   -8.76779941872852e-07   -1.5227658279429901e-05
5.752816430084422e-07   -8.054582417791744e-07   -2.559324611699268e-06
5.752816430084422e-07   -8.054582417791744e-07   -2.559324611699268e-06
5.752816430084422e-07   -8.054582417791744e-07   -2.559324611699268e-06
5.752816430084422e-07   -8.054582417791744e-07   -2.559324611699268e-06
4.319414174368068e-06   -9.667463724371322e-07   -8.702772618903872e-06
4.319414174368068e-06   -9.667463724371322e-07   -8.702772618903872e-06
4.319414174368068e-06   -9.667463724371322e-07   -8.702772618903872e-06
4.319414174368068e-06   -9.667463724371322e-07   -8.702772618903872e-06
5.752816430084411e-07   -8.767799418728508e-07   -1.5270451299486108e-05
5.752816430084411e-07   -8.767799418728508e-07   -1.5270451299486108e-05
5.752816430084411e-07   -8.767799418728508e-07   -1.5270451299486108e-05
5.752816430084411e-07   -8.767799418728508e-07   -1.5270451299486108e-05
8.201957655680542e-06   -8.054582417791744e-07   -2.516531591643027e-06
8.201957655680542e-06   -8.054582417791744e-07   -2.516531591643027e-06
8.201957655680542e-06   -8.054582417791744e-07   -2.516531591643027e-06
8.201957655680542e-06   -8.054582417791744e-07   -2.516531591643027e-06
8.17130614639345e-06   -5.454147607580387e-07   -1.550758586481115e-05
8.17130614639345e-06   -5.454147607580387e-07   -1.550758586481115e-05
8.17130614639345e-06   -5.454147607580387e-07   -1.550758586481115e-05
8.17130614639345e-06   -5.454147607580387e-07   -1.550758586481115e-05
5.428561913534166e-07   -4.1952806962445644e-07   -2.8690346210912336e-06
5.428561913534166e-07   -4.1952806962445644e-07   -2.8690346210912336e-06
5.428561913534166e-07   -4.1952806962445644e-07   -2.8690346210912336e-06
5.428561913534166e-07   -4.1952806962445644e-07   -2.8690346210912336e-06
4.281198403197132e-06   -6.528886793534603e-07   -8.959588608326684e-06
4.281198403197132e-06   -6.528886793534603e-07   -8.959588608326684e-06
4.281198403197132e-06   -6.528886793534603e-07   -8.959588608326684e-06
4.281198403197132e-06   -6.528886793534603e-07   -8.959588608326684e-06
5.428561913534166e-07   -5.454147607580364e-07   -1.558311787949127e-05
5.428561913534166e-07   -5.454147607580364e-07   -1.558311787949127e-05
5.428561913534166e-07   -5.454147607580364e-07   -1.558311787949127e-05
5.428561913534166e-07   -5.454147607580364e-07   -1.558311787949127e-05
8.17130614639345e-06   -4.1952806962445644e-07   -2.7935026064111125e-06
8.17130614639345e-06   -4.1952806962445644e-07   -2.7935026064111125e-06
8.17130614639345e-06   -4.1952806962445644e-07   -2.7935026064111125e-06
8.17130614639345e-06   -4.1952806962445644e-07   -2.7935026064111125e-06
7.939636491570615e-06   -1.0105603990288975e-07   -1.553613826097514e-05
7.939636491570615e-06   -1.0105603990288975e-07   -1.553613826097514e-05
7.939636491570615e-06   -1.0105603990288975e-07   -1.553613826097514e-05
7.939636491570615e-06   -1.0105603990288975e-07   -1.553613826097514e-05
4.683788746798102e-07   5.658820500809838e-08   -3.1786287797704115e-06
4.683788746798102e-07   5.658820500809838e-08   -3.1786287797704115e-06
4.683788746798102e-07   5.658820500809838e-08   -3.1786287797704115e-06
4.683788746798102e-07   5.658820500809838e-08   -3.1786287797704115e-06
4.242085478201171e-06   -2.8641665362021243e-07   -9.26233687046235e-06
4.242085478201171e-06   -2.8641665362021243e-07   -9.26233687046235e-06
4.242085478201171e-06   -2.8641665362021243e-07   -9.26233687046235e-06
4.242085478201171e-06   -2.8641665362021243e-07   -9.26233687046235e-06
8.125926848634415e-06   -2.9734822732021655e-06   -9.088183133956989e-06
8.125926848634415e-06   -2.9734822732021655e-06   -9.088183133956989e-06
8.125926848634415e-06   -2.9734822732021655e-06   -9.088183133956989e-06
8.125926848634415e-06   -2.9734822732021655e-06   -9.088183133956989e-06
1.5538850324347877e-05   -2.223747307802563e-06   3.7165303048052257e-06
1.5538850324347877e-05   -2.223747307802563e-06   3.7165303048052257e-06
1.5538850324347877e-05   -2.223747307802563e-06   3.7165303048052257e-06
1.5538850324347877e-05   -2.223747307802563e-06   3.7165303048052257e-06
1.6152339969942555e-05   -2.520686308300226e-06   -1.1005779630070553e-05
1.6152339969942555e-05   -2.520686308300226e-06   -1.1005779630070553e-05
1.6152339969942555e-05   -2.520686308300226e-06   -1.1005779630070553e-05
1.6152339969942555e-05   -2.520686308300226e-06   -1.1005779630070553e-05
8.201957655680555e-06   -2.0099368985066797e-06   1.9384079144899946e-06
8.201957655680555e-06   -2.0099368985066797e-06   1.9384079144899946e-06
8.201957655680555e-06   -2.0099368985066797e-06   1.9384079144899946e-06
8.201957655680555e-06   -2.0099368985066797e-06   1.9384079144899946e-06
1.1446046367229584e-05   -2.4198395873488614e-06   -3.2224649914530743e-06
1.1446046367229584e-05   -2.4198395873488614e-06   -3.2224649914530743e-06
1.1446046367229584e-05   -2.4198395873488614e-06   -3.2224649914530743e-06
1.1446046367229584e-05   -2.4198395873488614e-06   -3.2224649914530743e-06
8.201957655680533e-06   -2.520686308300221e-06   -1.1312229275946647e-05
8.201957655680533e-06   -2.520686308300221e-06   -1.1312229275946647e-05
8.201957655680533e-06   -2.520686308300221e-06   -1.1312229275946647e-05
8.201957655680533e-06   -2.520686308300221e-06   -1.1312229275946647e-05
1.6152339969942525e-05   -2.009936898506666e-06   2.244857560366144e-06
1.6152339969942525e-05   -2.009936898506666e-06   2.244857560366144e-06
1.6152339969942525e-05   -2.009936898506666e-06   2.244857560366144e-06
1.6152339969942525e-05   -2.009936898506666e-06   2.244857560366144e-06
1.6106195948247955e-05   -2.300049878948392e-06   -1.1958709776816277e-05
1.6106195948247955e-05   -2.300049878948392e-06   -1.1958709776816277e-05
1.6106195948247955e-05   -2.300049878948392e-06   -1.1958709776816277e-05
1.6106195948247955e-05   -2.300049878948392e-06   -1.1958709776816277e-05
8.171306146393449e-06   -1.7880480562892172e-06   9.589054660124374e-07
8.171306146393449e-06   -1.7880480562892172e-06   9.589054660124374e-07
8.171306146393449e-06   -1.7880480562892172e-06   9.589054660124374e-07
8.171306146393449e-06   -1.7880480562892172e-06   9.589054660124374e-07
1.1859855107735272e-05   -2.131819360379577e-06   -4.9824133537697314e-06
1.1859855107735272e-05   -2.131819360379577e-06   -4.9824133537697314e-06
1.1859855107735272e-05   -2.131819360379577e-06   -4.9824133537697314e-06
1.1859855107735272e-05   -2.131819360379577e-06   -4.9824133537697314e-06
8.171306146393433e-06   -2.300049878948392e-06   -1.2265910870411776e-05
8.171306146393433e-06   -2.300049878948392e-06   -1.2265910870411776e-05
8.171306146393433e-06   -2.300049878948392e-06   -1.2265910870411776e-05
8.171306146393433e-06   -2.300049878948392e-06   -1.2265910870411776e-05
1.6106195948247955e-05   -1.7880480562892172e-06   1.2661065596079098e-06
1.6106195948247955e-05   -1.7880480562892172e-06   1.2661065596079098e-06
1.6106195948247955e-05   -1.7880480562892172e-06   1.2661065596079098e-06
1.6106195948247955e-05   -1.7880480562892172e-06   1.2661065596079098e-06
1.6025417762535472e-05   -1.7767536068318263e-06   -1.3910270221674061e-05
1.6025417762535472e-05   -1.7767536068318263e-06   -1.3910270221674061e-05
1.6025417762535472e-05   -1.7767536068318263e-06   -1.3910270221674061e-05
1.6025417762535472e-05   -1.7767536068318263e-06   -1.3910270221674061e-05
7.939636491570619e-06   -1.3112293556031282e-06   -7.13282654136504e-07
7.939636491570619e-06   -1.3112293556031282e-06   -7.13282654136504e-07
7.939636491570619e-06   -1.3112293556031282e-06   -7.13282654136504e-07
7.939636491570619e-06   -1.3112293556031282e-06   -7.13282654136504e-07
1.1530664639452988e-05   -1.8317642161323012e-06   -6.38600865095627e-06
1.1530664639452988e-05   -1.8317642161323012e-06   -6.38600865095627e-06
1.1530664639452988e-05   -1.8317642161323012e-06   -6.38600865095627e-06
1.1530664639452988e-05   -1.8317642161323012e-06   -6.38600865095627e-06
-1.741515404727323e-05   2.5118739622347482e-06   -1.2107725339459446e-05
-1.741515404727323e-05   2.5118739622347482e-06   -1.2107725339459446e-05
-1.741515404727323e-05   2.5118739622347482e-06   -1.2107725339459446e-05
-1.741515404727323e-05   2.5118739622347482e-06   -1.2107725339459446e-05
-1.1445343789293948e-05   1.9092231879086637e-06   -2.5196320407562773e-06
-1.1445343789293948e-05   1.9092231879086637e-06   -2.5196320407562773e-06
-1.1445343789293948e-05   1.9092231879086637e-06   -2.5196320407562773e-06
-1.1445343789293948e-05   1.9092231879086637e-06   -2.5196320407562773e-06
-1.1496175304805733e-05   3.0226178234867463e-06   -1.005829601363856e-05
-1.1496175304805733e-05   3.0226178234867463e-06   -1.005829601363856e-05
-1.1496175304805733e-05   3.0226178234867463e-06   -1.005829601363856e-05
-1.1496175304805733e-05   3.0226178234867463e-06   -1.005829601363856e-05
-1.7138098462467594e-05   2.3150839907085878e-06   -2.3057045120187635e-07
-1.7138098462467594e-05   2.3150839907085878e-06   -2.3057045120187635e-07
-1.7138098462467594e-05   2.3150839907085878e-06   -2.3057045120187635e-07
-1.7138098462467594e-05   2.3150839907085878e-06   -2.3057045120187635e-07
-1.376512668334156e-05   2.556942573550563e-06   -5.997305232783822e-06
-1.376512668334156e-05   2.556942573550563e-06   -5.997305232783822e-06
-1.376512668334156e-05   2.556942573550563e-06   -5.997305232783822e-06
-1.376512668334156e-05   2.556942573550563e-06   -5.997305232783822e-06
-1.7138098462467594e-05   3.0226178234867513e-06   -9.633775713971655e-06
-1.7138098462467594e-05   3.0226178234867513e-06   -9.633775713971655e-06
-1.7138098462467594e-05   3.0226178234867513e-06   -9.633775713971655e-06
-1.7138098462467594e-05   3.0226178234867513e-06   -9.633775713971655e-06
-1.1496175304805733e-05   2.3150839907085878e-06   -6.550907508687708e-07
-1.1496175304805733e-05   2.3150839907085878e-06   -6.550907508687708e-07
-1.1496175304805733e-05   2.3150839907085878e-06   -6.550907508687708e-07
-1.1496175304805733e-05   2.3150839907085878e-06   -6.550907508687708e-07
-1.1479741113125028e-05   3.2534322077780757e-06   -8.608841977228074e-06
-1.1479741113125028e-05   3.2534322077780757e-06   -8.608841977228074e-06
-1.1479741113125028e-05   3.2534322077780757e-06   -8.608841977228074e-06
-1.1479741113125028e-05   3.2534322077780757e-06   -8.608841977228074e-06
-1.6870568881816304e-05   2.4943560166715403e-06   8.313166852546319e-07
-1.6870568881816304e-05   2.4943560166715403e-06   8.313166852546319e-07
-1.6870568881816304e-05   2.4943560166715403e-06   8.313166852546319e-07
-1.6870568881816304e-05   2.4943560166715403e-06   8.313166852546319e-07
-1.387692061980734e-05   2.792138774060463e-06   -4.336766739193655e-06
-1.387692061980734e-05   2.792138774060463e-06   -4.336766739193655e-06
-1.387692061980734e-05   2.792138774060463e-06   -4.336766739193655e-06
-1.387692061980734e-05   2.792138774060463e-06   -4.336766739193655e-06
-1.68705688818163e-05   3.253432207778082e-06   -8.153396262564165e-06
-1.68705688818163e-05   3.253432207778082e-06   -8.153396262564165e-06
-1.68705688818163e-05   3.253432207778082e-06   -8.153396262564165e-06
-1.68705688818163e-05   3.253432207778082e-06   -8.153396262564165e-06
-1.1479741113125041e-05   2.4943560166715674e-06   3.7587097059079406e-07
-1.1479741113125041e-05   2.4943560166715674e-06   3.7587097059079406e-07
-1.1479741113125041e-05   2.4943560166715674e-06   3.7587097059079406e-07
-1.1479741113125041e-05   2.4943560166715674e-06   3.7587097059079406e-07
-1.1487907642340142e-05   3.4411539831083108e-06   -6.5869330128119695e-06
-1.1487907642340142e-05   3.4411539831083108e-06   -6.5869330128119695e-06
-1.1487907642340142e-05   3.4411539831083108e-06   -6.5869330128119695e-06
-1.1487907642340142e-05   3.4411539831083108e-06   -6.5869330128119695e-06
-1.652480218042754e-05   2.6739491406892137e-06   2.268214122785081e-06
-1.652480218042754e-05   2.6739491406892137e-06   2.268214122785081e-06
-1.652480218042754e-05   2.6739491406892137e-06   2.268214122785081e-06
-1.652480218042754e-05   2.6739491406892137e-06   2.268214122785081e-06
-1.3554896238765366e-05   2.918395738812178e-06   -2.828297072192103e-06
-1.3554896238765366e-05   2.918395738812178e-06   -2.828297072192103e-06
-1.3554896238765366e-05   2.918395738812178e-06   -2.828297072192103e-06
-1.3554896238765366e-05   2.918395738812178e-06   -2.828297072192103e-06
-1.1445343789293948e-05   1.1690825842926222e-06   -1.4106084007707126e-05
-1.1445343789293948e-05   1.1690825842926222e-06   -1.4106084007707126e-05
-1.1445343789293948e-05   1.1690825842926222e-06   -1.4106084007707126e-05
-1.1445343789293948e-05   1.1690825842926222e-06   -1.4106084007707126e-05
-5.8558314919080455e-06   9.55816899484086e-07   -4.918189589615723e-06
-5.8558314919080455e-06   9.55816899484086e-07   -4.918189589615723e-06
-5.8558314919080455e-06   9.55816899484086e-07   -4.918189589615723e-06
-5.8558314919080455e-06   9.55816899484086e-07   -4.918189589615723e-06
-5.923255507459787e-06   1.6385612906676312e-06   -1.3903163554409659e-05
-5.923255507459787e-06   1.6385612906676312e-06   -1.3903163554409659e-05
-5.923255507459787e-06   1.6385612906676312e-06   -1.3903163554409659e-05
-5.923255507459787e-06   1.6385612906676312e-06   -1.3903163554409659e-05
-1.1496175304805731e-05   1.3557915662105037e-06   -4.4453020574921666e-06
-1.1496175304805731e-05   1.3557915662105037e-06   -4.4453020574921666e-06
-1.1496175304805731e-05   1.3557915662105037e-06   -4.4453020574921666e-06
-1.1496175304805731e-05   1.3557915662105037e-06   -4.4453020574921666e-06
-8.605292906412371e-06   1.3534591431043947e-06   -9.26203993428409e-06
-8.605292906412371e-06   1.3534591431043947e-06   -9.26203993428409e-06
-8.605292906412371e-06   1.3534591431043947e-06   -9.26203993428409e-06
-8.605292906412371e-06   1.3534591431043947e-06   -9.26203993428409e-06
-1.149617530480572e-05   1.6385612906676249e-06   -1.373350171973537e-05
-1.149617530480572e-05   1.6385612906676249e-06   -1.373350171973537e-05
-1.149617530480572e-05   1.6385612906676249e-06   -1.373350171973537e-05
-1.149617530480572e-05   1.6385612906676249e-06   -1.373350171973537e-05
-5.923255507459797e-06   1.3557915662105037e-06   -4.614963892166438e-06
-5.923255507459797e-06   1.3557915662105037e-06   -4.614963892166438e-06
-5.923255507459797e-06   1.3557915662105037e-06   -4.614963892166438e-06
-5.923255507459797e-06   1.3557915662105037e-06   -4.614963892166438e-06
-5.9657027949747495e-06   2.028115316206252e-06   -1.3536607162456502e-05
-5.9657027949747495e-06   2.028115316206252e-06   -1.3536607162456502e-05
-5.9657027949747495e-06   2.028115316206252e-06   -1.3536607162456502e-05
-5.9657027949747495e-06   2.028115316206252e-06   -1.3536607162456502e-05
-1.1479741113125026e-05   1.7123445877014853e-06   -4.157080861769857e-06
-1.1479741113125026e-05   1.7123445877014853e-06   -4.157080861769857e-06
-1.1479741113125026e-05   1.7123445877014853e-06   -4.157080861769857e-06
-1.1479741113125026e-05   1.7123445877014853e-06   -4.157080861769857e-06
-8.617868994509872e-06   1.683333614001676e-06   -8.909461141908512e-06
-8.617868994509872e-06   1.683333614001676e-06   -8.909461141908512e-06
-8.617868994509872e-06   1.683333614001676e-06   -8.909461141908512e-06
-8.617868994509872e-06   1.683333614001676e-06   -8.909461141908512e-06
-1.1479741113125028e-05   2.028115316206255e-06   -1.3347144725353656e-05
-1.1479741113125028e-05   2.028115316206255e-06   -1.3347144725353656e-05
-1.1479741113125028e-05   2.028115316206255e-06   -1.3347144725353656e-05
-1.1479741113125028e-05   2.028115316206255e-06   -1.3347144725353656e-05
-5.965702794974758e-06   1.7123445877014853e-06   -4.346543298872659e-06
-5.965702794974758e-06   1.7123445877014853e-06   -4.346543298872659e-06
-5.965702794974758e-06   1.7123445877014853e-06   -4.346543298872659e-06
-5.965702794974758e-06   1.7123445877014853e-06   -4.346543298872659e-06
-6.022001540328338e-06   2.4480627678083808e-06   -1.3504942548102594e-05
-6.022001540328338e-06   2.4480627678083808e-06   -1.3504942548102594e-05
-6.022001540328338e-06   2.4480627678083808e-06   -1.3504942548102594e-05
-6.022001540328338e-06   2.4480627678083808e-06   -1.3504942548102594e-05
-1.1487907642340132e-05   2.0929072793185748e-06   -4.182005751655752e-06
-1.1487907642340132e-05   2.0929072793185748e-06   -4.182005751655752e-06
-1.1487907642340132e-05   2.0929072793185748e-06   -4.182005751655752e-06
-1.1487907642340132e-05   2.0929072793185748e-06   -4.182005751655752e-06
-8.716513351635172e-06   2.011152036684679e-06   -8.751943090583524e-06
-8.716513351635172e-06   2.011152036684679e-06   -8.751943090583524e-06
-8.716513351635172e-06   2.011152036684679e-06   -8.751943090583524e-06
-8.716513351635172e-06   2.011152036684679e-06   -8.751943090583524e-06
-5.855831491908032e-06   -3.70834812460752e-08   -1.5223279611746957e-05
-5.855831491908032e-06   -3.70834812460752e-08   -1.5223279611746957e-05
-5.855831491908032e-06   -3.70834812460752e-08   -1.5223279611746957e-05
-5.855831491908032e-06   -3.70834812460752e-08   -1.5223279611746957e-05
-3.248827958661234e-07   5.163696079719341e-08   -5.951799519784482e-06
-3.248827958661234e-07   5.163696079719341e-08   -5.951799519784482e-06
-3.248827958661234e-07   5.163696079719341e-08   -5.951799519784482e-06
-3.248827958661234e-07   5.163696079719341e-08   -5.951799519784482e-06
-3.7851407465879266e-07   3.9590915591072406e-07   -1.5076827070626507e-05
-3.7851407465879266e-07   3.9590915591072406e-07   -1.5076827070626507e-05
-3.7851407465879266e-07   3.9590915591072406e-07   -1.5076827070626507e-05
-3.7851407465879266e-07   3.9590915591072406e-07   -1.5076827070626507e-05
-5.923255507459777e-06   4.464620858959706e-07   -5.865923107282656e-06
-5.923255507459777e-06   4.464620858959706e-07   -5.865923107282656e-06
-5.923255507459777e-06   4.464620858959706e-07   -5.865923107282656e-06
-5.923255507459777e-06   4.464620858959706e-07   -5.865923107282656e-06
-3.1025937656348896e-06   2.6095935035347177e-07   -1.0455724368998663e-05
-3.1025937656348896e-06   2.6095935035347177e-07   -1.0455724368998663e-05
-3.1025937656348896e-06   2.6095935035347177e-07   -1.0455724368998663e-05
-3.1025937656348896e-06   2.6095935035347177e-07   -1.0455724368998663e-05
-5.923255507459787e-06   3.9590915591073015e-07   -1.5107158828617653e-05
-5.923255507459787e-06   3.9590915591073015e-07   -1.5107158828617653e-05
-5.923255507459787e-06   3.9590915591073015e-07   -1.5107158828617653e-05
-5.923255507459787e-06   3.9590915591073015e-07   -1.5107158828617653e-05
-3.7851407465879266e-07   4.464620858959706e-07   -5.835591349291516e-06
-3.7851407465879266e-07   4.464620858959706e-07   -5.835591349291516e-06
-3.7851407465879266e-07   4.464620858959706e-07   -5.835591349291516e-06
-3.7851407465879266e-07   4.464620858959706e-07   -5.835591349291516e-06
-4.159799630049784e-07   8.192566130194961e-07   -1.5115832261265811e-05
-4.159799630049784e-07   8.192566130194961e-07   -1.5115832261265811e-05
-4.159799630049784e-07   8.192566130194961e-07   -1.5115832261265811e-05
-4.159799630049784e-07   8.192566130194961e-07   -1.5115832261265811e-05
-5.96570279497475e-06   8.402241626257975e-07   -5.878874737746647e-06
-5.96570279497475e-06   8.402241626257975e-07   -5.878874737746647e-06
-5.96570279497475e-06   8.402241626257975e-07   -5.878874737746647e-06
-5.96570279497475e-06   8.402241626257975e-07   -5.878874737746647e-06
-3.1728907861615567e-06   6.094468320615794e-07   -1.039509502076343e-05
-3.1728907861615567e-06   6.094468320615794e-07   -1.039509502076343e-05
-3.1728907861615567e-06   6.094468320615794e-07   -1.039509502076343e-05
-3.1728907861615567e-06   6.094468320615794e-07   -1.039509502076343e-05
-5.9657027949747495e-06   8.192566130195013e-07   -1.512841279102959e-05
-5.9657027949747495e-06   8.192566130195013e-07   -1.512841279102959e-05
-5.9657027949747495e-06   8.192566130195013e-07   -1.512841279102959e-05
-5.9657027949747495e-06   8.192566130195013e-07   -1.512841279102959e-05
-4.159799630049784e-07   8.402241626258246e-07   -5.8662942079827995e-06
-4.159799630049784e-07   8.402241626258246e-07   -5.8662942079827995e-06
-4.159799630049784e-07   8.402241626258246e-07   -5.8662942079827995e-06
-4.159799630049784e-07   8.402241626258246e-07   -5.8662942079827995e-06
-4.769547920123342e-07   1.2600105589827634e-06   -1.5309630650366915e-05
-4.769547920123342e-07   1.2600105589827634e-06   -1.5309630650366915e-05
-4.769547920123342e-07   1.2600105589827634e-06   -1.5309630650366915e-05
-4.769547920123342e-07   1.2600105589827634e-06   -1.5309630650366915e-05
-6.022001540328343e-06   1.2430172165582315e-06   -6.05769006438555e-06
-6.022001540328343e-06   1.2430172165582315e-06   -6.05769006438555e-06
-6.022001540328343e-06   1.2430172165582315e-06   -6.05769006438555e-06
-6.022001540328343e-06   1.2430172165582315e-06   -6.05769006438555e-06
-3.247776758872987e-06   9.620852737185964e-07   -1.0512838867773907e-05
-3.247776758872987e-06   9.620852737185964e-07   -1.0512838867773907e-05
-3.247776758872987e-06   9.620852737185964e-07   -1.0512838867773907e-05
-3.247776758872987e-06   9.620852737185964e-07   -1.0512838867773907e-05
-3.24882795866124e-07   -1.2004528000125338e-06   -1.3593567785660905e-05
-3.24882795866124e-07   -1.2004528000125338e-06   -1.3593567785660905e-05
-3.24882795866124e-07   -1.2004528000125338e-06   -1.3593567785660905e-05
-3.24882795866124e-07   -1.2004528000125338e-06   -1.3593567785660905e-05
5.170879140065721e-06   -7.983902087856272e-07   -4.1927270043717185e-06
5.170879140065721e-06   -7.983902087856272e-07   -4.1927270043717185e-06
5.170879140065721e-06   -7.983902087856272e-07   -4.1927270043717185e-06
5.170879140065721e-06   -7.983902087856272e-07   -4.1927270043717185e-06
5.170590564669639e-06   -8.054582417791744e-07   -1.3430580948333512e-05
5.170590564669639e-06   -8.054582417791744e-07   -1.3430580948333512e-05
5.170590564669639e-06   -8.054582417791744e-07   -1.3430580948333512e-05
5.170590564669639e-06   -8.054582417791744e-07   -1.3430580948333512e-05
-3.7851407465879266e-07   -4.349079221583024e-07   -4.404403407891963e-06
-3.7851407465879266e-07   -4.349079221583024e-07   -4.404403407891963e-06
-3.7851407465879266e-07   -4.349079221583024e-07   -4.404403407891963e-06
-3.7851407465879266e-07   -4.349079221583024e-07   -4.404403407891963e-06
2.391663812948397e-06   -7.804940690858984e-07   -8.814014865747394e-06
2.391663812948397e-06   -7.804940690858984e-07   -8.814014865747394e-06
2.391663812948397e-06   -7.804940690858984e-07   -8.814014865747394e-06
2.391663812948397e-06   -7.804940690858984e-07   -8.814014865747394e-06
-3.7851407465879266e-07   -8.054582417791697e-07   -1.3652911140106029e-05
-3.7851407465879266e-07   -8.054582417791697e-07   -1.3652911140106029e-05
-3.7851407465879266e-07   -8.054582417791697e-07   -1.3652911140106029e-05
-3.7851407465879266e-07   -8.054582417791697e-07   -1.3652911140106029e-05
5.170590564669649e-06   -4.349079221583024e-07   -4.1820732161194685e-06
5.170590564669649e-06   -4.349079221583024e-07   -4.1820732161194685e-06
5.170590564669649e-06   -4.349079221583024e-07   -4.1820732161194685e-06
5.170590564669649e-06   -4.349079221583024e-07   -4.1820732161194685e-06
5.200535846765869e-06   -4.1952806962445644e-07   -1.378076962195296e-05
5.200535846765869e-06   -4.1952806962445644e-07   -1.378076962195296e-05
5.200535846765869e-06   -4.1952806962445644e-07   -1.378076962195296e-05
5.200535846765869e-06   -4.1952806962445644e-07   -1.378076962195296e-05
-4.1597996300497915e-07   -7.90865028000643e-08   -4.6241748790961964e-06
-4.1597996300497915e-07   -7.90865028000643e-08   -4.6241748790961964e-06
-4.1597996300497915e-07   -7.90865028000643e-08   -4.6241748790961964e-06
-4.1597996300497915e-07   -7.90865028000643e-08   -4.6241748790961964e-06
2.319802365733688e-06   -4.656848896857801e-07   -8.951853061529211e-06
2.319802365733688e-06   -4.656848896857801e-07   -8.951853061529211e-06
2.319802365733688e-06   -4.656848896857801e-07   -8.951853061529211e-06
2.319802365733688e-06   -4.656848896857801e-07   -8.951853061529211e-06
-4.159799630049784e-07   -4.1952806962445014e-07   -1.398503456204761e-05
-4.159799630049784e-07   -4.1952806962445014e-07   -1.398503456204761e-05
-4.159799630049784e-07   -4.1952806962445014e-07   -1.398503456204761e-05
-4.159799630049784e-07   -4.1952806962445014e-07   -1.398503456204761e-05
5.200535846765879e-06   -7.90865028000643e-08   -4.419909939001494e-06
5.200535846765879e-06   -7.90865028000643e-08   -4.419909939001494e-06
5.200535846765879e-06   -7.90865028000643e-08   -4.419909939001494e-06
5.200535846765879e-06   -7.90865028000643e-08   -4.419909939001494e-06
5.164818844873377e-06   5.658820500808483e-08   -1.4182493004868789e-05
5.164818844873377e-06   5.658820500808483e-08   -1.4182493004868789e-05
5.164818844873377e-06   5.658820500808483e-08   -1.4182493004868789e-05
5.164818844873377e-06   5.658820500808483e-08   -1.4182493004868789e-05
-4.769547920123352e-07   3.355384874525341e-07   -4.946907112859303e-06
-4.769547920123352e-07   3.355384874525341e-07   -4.946907112859303e-06
-4.769547920123352e-07   3.355384874525341e-07   -4.946907112859303e-06
-4.769547920123352e-07   3.355384874525341e-07   -4.946907112859303e-06
2.296662408598739e-06   -1.3002687817165876e-07   -9.290263227836505e-06
2.296662408598739e-06   -1.3002687817165876e-07   -9.290263227836505e-06
2.296662408598739e-06   -1.3002687817165876e-07   -9.290263227836505e-06
2.296662408598739e-06   -1.3002687817165876e-07   -9.290263227836505e-06
5.170879140065711e-06   -2.2237473078025567e-06   -7.586832220354104e-06
5.170879140065711e-06   -2.2237473078025567e-06   -7.586832220354104e-06
5.170879140065711e-06   -2.2237473078025567e-06   -7.586832220354104e-06
5.170879140065711e-06   -2.2237473078025567e-06   -7.586832220354104e-06
1.0287566734951488e-05   -1.4379669575670698e-06   1.4124486479301737e-06
1.0287566734951488e-05   -1.4379669575670698e-06   1.4124486479301737e-06
1.0287566734951488e-05   -1.4379669575670698e-06   1.4124486479301737e-06
1.0287566734951488e-05   -1.4379669575670698e-06   1.4124486479301737e-06
1.0648962627263319e-05   -2.009936898506666e-06   -8.505294330323305e-06
1.0648962627263319e-05   -2.009936898506666e-06   -8.505294330323305e-06
1.0648962627263319e-05   -2.009936898506666e-06   -8.505294330323305e-06
1.0648962627263319e-05   -2.009936898506666e-06   -8.505294330323305e-06
5.17059056466964e-06   -1.2260250453781027e-06   1.549786621223557e-07
5.17059056466964e-06   -1.2260250453781027e-06   1.549786621223557e-07
5.17059056466964e-06   -1.2260250453781027e-06   1.549786621223557e-07
5.17059056466964e-06   -1.2260250453781027e-06   1.549786621223557e-07
7.485563260879877e-06   -1.7034560203938305e-06   -3.4168505798852687e-06
7.485563260879877e-06   -1.7034560203938305e-06   -3.4168505798852687e-06
7.485563260879877e-06   -1.7034560203938305e-06   -3.4168505798852687e-06
7.485563260879877e-06   -1.7034560203938305e-06   -3.4168505798852687e-06
5.170590564669636e-06   -2.009936898506668e-06   -8.975641442200423e-06
5.170590564669636e-06   -2.009936898506668e-06   -8.975641442200423e-06
5.170590564669636e-06   -2.009936898506668e-06   -8.975641442200423e-06
5.170590564669636e-06   -2.009936898506668e-06   -8.975641442200423e-06
1.0648962627263319e-05   -1.2260250453781027e-06   6.253257739995209e-07
1.0648962627263319e-05   -1.2260250453781027e-06   6.253257739995209e-07
1.0648962627263319e-05   -1.2260250453781027e-06   6.253257739995209e-07
1.0648962627263319e-05   -1.2260250453781027e-06   6.253257739995209e-07
1.0929545252254862e-05   -1.7880480562892172e-06   -9.583797236224126e-06
1.0929545252254862e-05   -1.7880480562892172e-06   -9.583797236224126e-06
1.0929545252254862e-05   -1.7880480562892172e-06   -9.583797236224126e-06
1.0929545252254862e-05   -1.7880480562892172e-06   -9.583797236224126e-06
5.200535846765862e-06   -1.047107534113699e-06   -4.800125403811231e-07
5.200535846765862e-06   -1.047107534113699e-06   -4.800125403811231e-07
5.200535846765862e-06   -1.047107534113699e-06   -4.800125403811231e-07
5.200535846765862e-06   -1.047107534113699e-06   -4.800125403811231e-07
7.748099958029514e-06   -1.5669891101045765e-06   -4.414023780226007e-06
7.748099958029514e-06   -1.5669891101045765e-06   -4.414023780226007e-06
7.748099958029514e-06   -1.5669891101045765e-06   -4.414023780226007e-06
7.748099958029514e-06   -1.5669891101045765e-06   -4.414023780226007e-06
5.200535846765869e-06   -1.7880480562892138e-06   -1.002836154952945e-05
5.200535846765869e-06   -1.7880480562892138e-06   -1.002836154952945e-05
5.200535846765869e-06   -1.7880480562892138e-06   -1.002836154952945e-05
5.200535846765869e-06   -1.7880480562892138e-06   -1.002836154952945e-05
1.0929545252254842e-05   -1.047107534113699e-06   -3.544822707574448e-08
1.0929545252254842e-05   -1.047107534113699e-06   -3.544822707574448e-08
1.0929545252254842e-05   -1.047107534113699e-06   -3.544822707574448e-08
1.0929545252254842e-05   -1.047107534113699e-06   -3.544822707574448e-08
1.123093722329163e-05   -1.3112293556031418e-06   -1.1425325754902138e-05
1.123093722329163e-05   -1.3112293556031418e-06   -1.1425325754902138e-05
1.123093722329163e-05   -1.3112293556031418e-06   -1.1425325754902138e-05
1.123093722329163e-05   -1.3112293556031418e-06   -1.1425325754902138e-05
5.164818844873354e-06   -6.672165701375953e-07   -1.7015361288176743e-06
5.164818844873354e-06   -6.672165701375953e-07   -1.7015361288176743e-06
5.164818844873354e-06   -6.672165701375953e-07   -1.7015361288176743e-06
5.164818844873354e-06   -6.672165701375953e-07   -1.7015361288176743e-06
7.723484954572448e-06   -1.346410042489082e-06   -5.558463561571897e-06
7.723484954572448e-06   -1.346410042489082e-06   -5.558463561571897e-06
7.723484954572448e-06   -1.346410042489082e-06   -5.558463561571897e-06
7.723484954572448e-06   -1.346410042489082e-06   -5.558463561571897e-06
-1.2415305506089145e-05   1.909223187908675e-06   -9.51010520763329e-06
-1.2415305506089145e-05   1.909223187908675e-06   -9.51010520763329e-06
-1.2415305506089145e-05   1.909223187908675e-06   -9.51010520763329e-06
-1.2415305506089145e-05   1.909223187908675e-06   -9.51010520763329e-06
-8.492295479210163e-06   1.2050138331627777e-06   -3.3942807756825075e-06
-8.492295479210163e-06   1.2050138331627777e-06   -3.3942807756825075e-06
-8.492295479210163e-06   1.2050138331627777e-06   -3.3942807756825075e-06
-8.492295479210163e-06   1.2050138331627777e-06   -3.3942807756825075e-06
-8.46062017655117e-06   2.3150839907085878e-06   -8.081097147365869e-06
-8.46062017655117e-06   2.3150839907085878e-06   -8.081097147365869e-06
-8.46062017655117e-06   2.3150839907085878e-06   -8.081097147365869e-06
-8.46062017655117e-06   2.3150839907085878e-06   -8.081097147365869e-06
-1.2034715898768123e-05   1.538801388119369e-06   -1.6585013821174407e-06
-1.2034715898768123e-05   1.538801388119369e-06   -1.6585013821174407e-06
-1.2034715898768123e-05   1.538801388119369e-06   -1.6585013821174407e-06
-1.2034715898768123e-05   1.538801388119369e-06   -1.6585013821174407e-06
-9.91136839878092e-06   1.8402312991447367e-06   -5.378271828711302e-06
-9.91136839878092e-06   1.8402312991447367e-06   -5.378271828711302e-06
-9.91136839878092e-06   1.8402312991447367e-06   -5.378271828711302e-06
-9.91136839878092e-06   1.8402312991447367e-06   -5.378271828711302e-06
-1.2034715898768123e-05   2.3150839907085746e-06   -7.6153275858123454e-06
-1.2034715898768123e-05   2.3150839907085746e-06   -7.6153275858123454e-06
-1.2034715898768123e-05   2.3150839907085746e-06   -7.6153275858123454e-06
-1.2034715898768123e-05   2.3150839907085746e-06   -7.6153275858123454e-06
-8.46062017655119e-06   1.538801388119369e-06   -2.1242709436709736e-06
-8.46062017655119e-06   1.538801388119369e-06   -2.1242709436709736e-06
-8.46062017655119e-06   1.538801388119369e-06   -2.1242709436709736e-06
-8.46062017655119e-06   1.538801388119369e-06   -2.1242709436709736e-06
-8.395941479796186e-06   2.4943560166715403e-06   -7.047376139488712e-06
-8.395941479796186e-06   2.4943560166715403e-06   -7.047376139488712e-06
-8.395941479796186e-06   2.4943560166715403e-06   -7.047376139488712e-06
-8.395941479796186e-06   2.4943560166715403e-06   -7.047376139488712e-06
-1.1751846113339323e-05   1.6956607257213852e-06   -9.7498457568004e-07
-1.1751846113339323e-05   1.6956607257213852e-06   -9.7498457568004e-07
-1.1751846113339323e-05   1.6956607257213852e-06   -9.7498457568004e-07
-1.1751846113339323e-05   1.6956607257213852e-06   -9.7498457568004e-07
-9.908877215778494e-06   2.0267587825606524e-06   -4.2452582390517085e-06
-9.908877215778494e-06   2.0267587825606524e-06   -4.2452582390517085e-06
-9.908877215778494e-06   2.0267587825606524e-06   -4.2452582390517085e-06
-9.908877215778494e-06   2.0267587825606524e-06   -4.2452582390517085e-06
-1.1751846113339321e-05   2.49435601667154e-06   -6.568158964918603e-06
-1.1751846113339321e-05   2.49435601667154e-06   -6.568158964918603e-06
-1.1751846113339321e-05   2.49435601667154e-06   -6.568158964918603e-06
-1.1751846113339321e-05   2.49435601667154e-06   -6.568158964918603e-06
-8.395941479796206e-06   1.6956607257213852e-06   -1.4542017502501197e-06
-8.395941479796206e-06   1.6956607257213852e-06   -1.4542017502501197e-06
-8.395941479796206e-06   1.6956607257213852e-06   -1.4542017502501197e-06
-8.395941479796206e-06   1.6956607257213852e-06   -1.4542017502501197e-06
-8.371115608658346e-06   2.6739491406892137e-06   -5.621433520669672e-06
-8.371115608658346e-06   2.6739491406892137e-06   -5.621433520669672e-06
-8.371115608658346e-06   2.6739491406892137e-06   -5.621433520669672e-06
-8.371115608658346e-06   2.6739491406892137e-06   -5.621433520669672e-06
-1.1383630518831334e-05   1.894966538391131e-06   -1.331857756691878e-07
-1.1383630518831334e-05   1.894966538391131e-06   -1.331857756691878e-07
-1.1383630518831334e-05   1.894966538391131e-06   -1.331857756691878e-07
-1.1383630518831334e-05   1.894966538391131e-06   -1.331857756691878e-07
-9.614105452987913e-06   2.1303809821908177e-06   -3.223642885021361e-06
-9.614105452987913e-06   2.1303809821908177e-06   -3.223642885021361e-06
-9.614105452987913e-06   2.1303809821908177e-06   -3.223642885021361e-06
-9.614105452987913e-06   2.1303809821908177e-06   -3.223642885021361e-06
-8.49229547921015e-06   9.558168994841168e-07   -1.220322895845516e-05
-8.49229547921015e-06   9.558168994841168e-07   -1.220322895845516e-05
-8.49229547921015e-06   9.558168994841168e-07   -1.220322895845516e-05
-8.49229547921015e-06   9.558168994841168e-07   -1.220322895845516e-05
-4.924394346008812e-06   6.293591301481021e-07   -6.452601731387853e-06
-4.924394346008812e-06   6.293591301481021e-07   -6.452601731387853e-06
-4.924394346008812e-06   6.293591301481021e-07   -6.452601731387853e-06
-4.924394346008812e-06   6.293591301481021e-07   -6.452601731387853e-06
-4.9271604815825945e-06   1.3557915662105037e-06   -1.2095182744954503e-05
-4.9271604815825945e-06   1.3557915662105037e-06   -1.2095182744954503e-05
-4.9271604815825945e-06   1.3557915662105037e-06   -1.2095182744954503e-05
-4.9271604815825945e-06   1.3557915662105037e-06   -1.2095182744954503e-05
-8.460620176551173e-06   9.82667747935137e-07   -5.982208962374949e-06
-8.460620176551173e-06   9.82667747935137e-07   -5.982208962374949e-06
-8.460620176551173e-06   9.82667747935137e-07   -5.982208962374949e-06
-8.460620176551173e-06   9.82667747935137e-07   -5.982208962374949e-06
-6.639017488451867e-06   1.0494247109186518e-06   -9.058267620330614e-06
-6.639017488451867e-06   1.0494247109186518e-06   -9.058267620330614e-06
-6.639017488451867e-06   1.0494247109186518e-06   -9.058267620330614e-06
-6.639017488451867e-06   1.0494247109186518e-06   -9.058267620330614e-06
-8.46062017655117e-06   1.3557915662105007e-06   -1.1871308453989234e-05
-8.46062017655117e-06   1.3557915662105007e-06   -1.1871308453989234e-05
-8.46062017655117e-06   1.3557915662105007e-06   -1.1871308453989234e-05
-8.46062017655117e-06   1.3557915662105007e-06   -1.1871308453989234e-05
-4.9271604815825775e-06   9.82667747935137e-07   -6.206083253340163e-06
-4.9271604815825775e-06   9.82667747935137e-07   -6.206083253340163e-06
-4.9271604815825775e-06   9.82667747935137e-07   -6.206083253340163e-06
-4.9271604815825775e-06   9.82667747935137e-07   -6.206083253340163e-06
-4.9240676744190495e-06   1.7123445877014853e-06   -1.1824438873801925e-05
-4.9240676744190495e-06   1.7123445877014853e-06   -1.1824438873801925e-05
-4.9240676744190495e-06   1.7123445877014853e-06   -1.1824438873801925e-05
-4.9240676744190495e-06   1.7123445877014853e-06   -1.1824438873801925e-05
-8.395941479796184e-06   1.3054930844471084e-06   -5.7938716295540595e-06
-8.395941479796184e-06   1.3054930844471084e-06   -5.7938716295540595e-06
-8.395941479796184e-06   1.3054930844471084e-06   -5.7938716295540595e-06
-8.395941479796184e-06   1.3054930844471084e-06   -5.7938716295540595e-06
-6.608714609702576e-06   1.3408224054940038e-06   -8.793780672338137e-06
-6.608714609702576e-06   1.3408224054940038e-06   -8.793780672338137e-06
-6.608714609702576e-06   1.3408224054940038e-06   -8.793780672338137e-06
-6.608714609702576e-06   1.3408224054940038e-06   -8.793780672338137e-06
-8.395941479796186e-06   1.712344587701495e-06   -1.1580327971849285e-05
-8.395941479796186e-06   1.712344587701495e-06   -1.1580327971849285e-05
-8.395941479796186e-06   1.712344587701495e-06   -1.1580327971849285e-05
-8.395941479796186e-06   1.712344587701495e-06   -1.1580327971849285e-05
-4.9240676744190495e-06   1.3054930844471084e-06   -6.037982531506645e-06
-4.9240676744190495e-06   1.3054930844471084e-06   -6.037982531506645e-06
-4.9240676744190495e-06   1.3054930844471084e-06   -6.037982531506645e-06
-4.9240676744190495e-06   1.3054930844471084e-06   -6.037982531506645e-06
-4.9288216905976e-06   2.092907279318602e-06   -1.1872564757083558e-05
-4.9288216905976e-06   2.092907279318602e-06   -1.1872564757083558e-05
-4.9288216905976e-06   2.092907279318602e-06   -1.1872564757083558e-05
-4.9288216905976e-06   2.092907279318602e-06   -1.1872564757083558e-05
-8.371115608658346e-06   1.6575168336111065e-06   -5.874173959557783e-06
-8.371115608658346e-06   1.6575168336111065e-06   -5.874173959557783e-06
-8.371115608658346e-06   1.6575168336111065e-06   -5.874173959557783e-06
-8.371115608658346e-06   1.6575168336111065e-06   -5.874173959557783e-06
-6.65208971817462e-06   1.6305067596418142e-06   -8.723011065982451e-06
-6.65208971817462e-06   1.6305067596418142e-06   -8.723011065982451e-06
-6.65208971817462e-06   1.6305067596418142e-06   -8.723011065982451e-06
-6.65208971817462e-06   1.6305067596418142e-06   -8.723011065982451e-06
-4.924394346008819e-06   5.1636960797204515e-08   -1.3485945815451468e-05
-4.924394346008819e-06   5.1636960797204515e-08   -1.3485945815451468e-05
-4.924394346008819e-06   5.1636960797204515e-08   -1.3485945815451468e-05
-4.924394346008819e-06   5.1636960797204515e-08   -1.3485945815451468e-05
-1.4002166247807023e-06   1.123190459754043e-07   -7.5759070289643684e-06
-1.4002166247807023e-06   1.123190459754043e-07   -7.5759070289643684e-06
-1.4002166247807023e-06   1.123190459754043e-07   -7.5759070289643684e-06
-1.4002166247807023e-06   1.123190459754043e-07   -7.5759070289643684e-06
-1.403506407557232e-06   4.464620858959706e-07   -1.3332652878388939e-05
-1.403506407557232e-06   4.464620858959706e-07   -1.3332652878388939e-05
-1.403506407557232e-06   4.464620858959706e-07   -1.3332652878388939e-05
-1.403506407557232e-06   4.464620858959706e-07   -1.3332652878388939e-05
-4.9271604815825775e-06   4.689438886989409e-07   -7.4733851700284346e-06
-4.9271604815825775e-06   4.689438886989409e-07   -7.4733851700284346e-06
-4.9271604815825775e-06   4.689438886989409e-07   -7.4733851700284346e-06
-4.9271604815825775e-06   4.689438886989409e-07   -7.4733851700284346e-06
-3.1424749907549606e-06   3.171397874874161e-07   -1.035677852734759e-05
-3.1424749907549606e-06   3.171397874874161e-07   -1.035677852734759e-05
-3.1424749907549606e-06   3.171397874874161e-07   -1.035677852734759e-05
-3.1424749907549606e-06   3.171397874874161e-07   -1.035677852734759e-05
-4.927160481582588e-06   4.464620858959728e-07   -1.3346141960070724e-05
-4.927160481582588e-06   4.464620858959728e-07   -1.3346141960070724e-05
-4.927160481582588e-06   4.464620858959728e-07   -1.3346141960070724e-05
-4.927160481582588e-06   4.464620858959728e-07   -1.3346141960070724e-05
-1.403506407557232e-06   4.689438886989409e-07   -7.45989608834667e-06
-1.403506407557232e-06   4.689438886989409e-07   -7.45989608834667e-06
-1.403506407557232e-06   4.689438886989409e-07   -7.45989608834667e-06
-1.403506407557232e-06   4.689438886989409e-07   -7.45989608834667e-06
-1.3992689515109921e-06   8.402241626257975e-07   -1.3364866305990014e-05
-1.3992689515109921e-06   8.402241626257975e-07   -1.3364866305990014e-05
-1.3992689515109921e-06   8.402241626257975e-07   -1.3364866305990014e-05
-1.3992689515109921e-06   8.402241626257975e-07   -1.3364866305990014e-05
-4.9240676744190495e-06   8.267308404355284e-07   -7.4821057744957505e-06
-4.9240676744190495e-06   8.267308404355284e-07   -7.4821057744957505e-06
-4.9240676744190495e-06   8.267308404355284e-07   -7.4821057744957505e-06
-4.9240676744190495e-06   8.267308404355284e-07   -7.4821057744957505e-06
-3.163997067891575e-06   6.299127008414557e-07   -1.029746590161842e-05
-3.163997067891575e-06   6.299127008414557e-07   -1.029746590161842e-05
-3.163997067891575e-06   6.299127008414557e-07   -1.029746590161842e-05
-3.163997067891575e-06   6.299127008414557e-07   -1.029746590161842e-05
-4.9240676744190495e-06   8.402241626258105e-07   -1.3356770312675841e-05
-4.9240676744190495e-06   8.402241626258105e-07   -1.3356770312675841e-05
-4.9240676744190495e-06   8.402241626258105e-07   -1.3356770312675841e-05
-4.9240676744190495e-06   8.402241626258105e-07   -1.3356770312675841e-05
-1.3992689515109921e-06   8.267308404355284e-07   -7.490201767809882e-06
-1.3992689515109921e-06   8.267308404355284e-07   -7.490201767809882e-06
-1.3992689515109921e-06   8.267308404355284e-07   -7.490201767809882e-06
-1.3992689515109921e-06   8.267308404355284e-07   -7.490201767809882e-06
-1.4016822293120925e-06   1.2430172165582315e-06   -1.3566502579406733e-05
-1.4016822293120925e-06   1.2430172165582315e-06   -1.3566502579406733e-05
-1.4016822293120925e-06   1.2430172165582315e-06   -1.3566502579406733e-05
-1.4016822293120925e-06   1.2430172165582315e-06   -1.3566502579406733e-05
-4.928821690597604e-06   1.1907725454127942e-06   -7.656590007910274e-06
-4.928821690597604e-06   1.1907725454127942e-06   -7.656590007910274e-06
-4.928821690597604e-06   1.1907725454127942e-06   -7.656590007910274e-06
-4.928821690597604e-06   1.1907725454127942e-06   -7.656590007910274e-06
-3.1916609590718972e-06   9.46804931778282e-07   -1.0405477325605758e-05
-3.1916609590718972e-06   9.46804931778282e-07   -1.0405477325605758e-05
-3.1916609590718972e-06   9.46804931778282e-07   -1.0405477325605758e-05
-3.1916609590718972e-06   9.46804931778282e-07   -1.0405477325605758e-05
-1.4002166247807e-06   -7.983902087856158e-07   -1.1931701603667922e-05
-1.4002166247807e-06   -7.983902087856158e-07   -1.1931701603667922e-05
-1.4002166247807e-06   -7.983902087856158e-07   -1.1931701603667922e-05
-1.4002166247807e-06   -7.983902087856158e-07   -1.1931701603667922e-05
2.0636145607450437e-06   -3.5942478804226697e-07   -5.895270375345685e-06
2.0636145607450437e-06   -3.5942478804226697e-07   -5.895270375345685e-06
2.0636145607450437e-06   -3.5942478804226697e-07   -5.895270375345685e-06
2.0636145607450437e-06   -3.5942478804226697e-07   -5.895270375345685e-06
2.091571328428954e-06   -4.349079221583024e-07   -1.165378379312706e-05
2.091571328428954e-06   -4.349079221583024e-07   -1.165378379312706e-05
2.091571328428954e-06   -4.349079221583024e-07   -1.165378379312706e-05
2.091571328428954e-06   -4.349079221583024e-07   -1.165378379312706e-05
-1.4035064075572298e-06   -2.2106015721098287e-08   -6.076335377012425e-06
-1.4035064075572298e-06   -2.2106015721098287e-08   -6.076335377012425e-06
-1.4035064075572298e-06   -2.2106015721098287e-08   -6.076335377012425e-06
-1.4035064075572298e-06   -2.2106015721098287e-08   -6.076335377012425e-06
3.4115863206906503e-07   -3.724988907016205e-07   -8.773874718067922e-06
3.4115863206906503e-07   -3.724988907016205e-07   -8.773874718067922e-06
3.4115863206906503e-07   -3.724988907016205e-07   -8.773874718067922e-06
3.4115863206906503e-07   -3.724988907016205e-07   -8.773874718067922e-06
-1.403506407557232e-06   -4.349079221583109e-07   -1.1901464936989387e-05
-1.403506407557232e-06   -4.349079221583109e-07   -1.1901464936989387e-05
-1.403506407557232e-06   -4.349079221583109e-07   -1.1901464936989387e-05
-1.403506407557232e-06   -4.349079221583109e-07   -1.1901464936989387e-05
2.091571328428954e-06   -2.2106015721098287e-08   -5.828654233150089e-06
2.091571328428954e-06   -2.2106015721098287e-08   -5.828654233150089e-06
2.091571328428954e-06   -2.2106015721098287e-08   -5.828654233150089e-06
2.091571328428954e-06   -2.2106015721098287e-08   -5.828654233150089e-06
2.159740187887278e-06   -7.90865028000372e-08   -1.1894636182299567e-05
2.159740187887278e-06   -7.90865028000372e-08   -1.1894636182299567e-05
2.159740187887278e-06   -7.90865028000372e-08   -1.1894636182299567e-05
2.159740187887278e-06   -7.90865028000372e-08   -1.1894636182299567e-05
-1.3992689515109898e-06   3.010981552062624e-07   -6.1910650781062345e-06
-1.3992689515109898e-06   3.010981552062624e-07   -6.1910650781062345e-06
-1.3992689515109898e-06   3.010981552062624e-07   -6.1910650781062345e-06
-1.3992689515109898e-06   3.010981552062624e-07   -6.1910650781062345e-06
3.20613955066376e-07   -9.157620829697418e-08   -8.821931970966572e-06
3.20613955066376e-07   -9.157620829697418e-08   -8.821931970966572e-06
3.20613955066376e-07   -9.157620829697418e-08   -8.821931970966572e-06
3.20613955066376e-07   -9.157620829697418e-08   -8.821931970966572e-06
-1.3992689515109921e-06   -7.908650280004219e-08   -1.2122746977103344e-05
-1.3992689515109921e-06   -7.908650280004219e-08   -1.2122746977103344e-05
-1.3992689515109921e-06   -7.908650280004219e-08   -1.2122746977103344e-05
-1.3992689515109921e-06   -7.908650280004219e-08   -1.2122746977103344e-05
2.1597401878872814e-06   3.010981552062353e-07   -5.962954283302425e-06
2.1597401878872814e-06   3.010981552062353e-07   -5.962954283302425e-06
2.1597401878872814e-06   3.010981552062353e-07   -5.962954283302425e-06
2.1597401878872814e-06   3.010981552062353e-07   -5.962954283302425e-06
2.1936831286055198e-06   3.35538487452507e-07   -1.2244803811041328e-05
2.1936831286055198e-06   3.35538487452507e-07   -1.2244803811041328e-05
2.1936831286055198e-06   3.35538487452507e-07   -1.2244803811041328e-05
2.1936831286055198e-06   3.35538487452507e-07   -1.2244803811041328e-05
-1.4016822293120925e-06   6.70071506426545e-07   -6.453248025896372e-06
-1.4016822293120925e-06   6.70071506426545e-07   -6.453248025896372e-06
-1.4016822293120925e-06   6.70071506426545e-07   -6.453248025896372e-06
-1.4016822293120925e-06   6.70071506426545e-07   -6.453248025896372e-06
3.320789697692317e-07   2.0742340509465594e-07   -9.06526116356612e-06
3.320789697692317e-07   2.0742340509465594e-07   -9.06526116356612e-06
3.320789697692317e-07   2.0742340509465594e-07   -9.06526116356612e-06
3.320789697692317e-07   2.0742340509465594e-07   -9.06526116356612e-06
2.0636145607450403e-06   -1.4379669575670669e-06   -6.534614909061307e-06
2.0636145607450403e-06   -1.4379669575670669e-06   -6.534614909061307e-06
2.0636145607450403e-06   -1.4379669575670669e-06   -6.534614909061307e-06
2.0636145607450403e-06   -1.4379669575670669e-06   -6.534614909061307e-06
5.106011997125612e-06   -6.523783747506326e-07   -9.92599365403805e-07
5.106011997125612e-06   -6.523783747506326e-07   -9.92599365403805e-07
5.106011997125612e-06   -6.523783747506326e-07   -9.92599365403805e-07
5.106011997125612e-06   -6.523783747506326e-07   -9.92599365403805e-07
5.479480572562369e-06   -1.2260250453781027e-06   -6.834362757568554e-06
5.479480572562369e-06   -1.2260250453781027e-06   -6.834362757568554e-06
5.479480572562369e-06   -1.2260250453781027e-06   -6.834362757568554e-06
5.479480572562369e-06   -1.2260250453781027e-06   -6.834362757568554e-06
2.091571328428953e-06   -4.2207644985027895e-07   -1.6702165079962331e-06
2.091571328428953e-06   -4.2207644985027895e-07   -1.6702165079962331e-06
2.091571328428953e-06   -4.2207644985027895e-07   -1.6702165079962331e-06
2.091571328428953e-06   -4.2207644985027895e-07   -1.6702165079962331e-06
3.528032177723007e-06   -9.053542393100238e-07   -3.7743512498104685e-06
3.528032177723007e-06   -9.053542393100238e-07   -3.7743512498104685e-06
3.528032177723007e-06   -9.053542393100238e-07   -3.7743512498104685e-06
3.528032177723007e-06   -9.053542393100238e-07   -3.7743512498104685e-06
2.091571328428951e-06   -1.2260250453781105e-06   -7.316731914885208e-06
2.091571328428951e-06   -1.2260250453781105e-06   -7.316731914885208e-06
2.091571328428951e-06   -1.2260250453781105e-06   -7.316731914885208e-06
2.091571328428951e-06   -1.2260250453781105e-06   -7.316731914885208e-06
5.479480572562355e-06   -4.2207644985027895e-07   -1.1878473506795456e-06
5.479480572562355e-06   -4.2207644985027895e-07   -1.1878473506795456e-06
5.479480572562355e-06   -4.2207644985027895e-07   -1.1878473506795456e-06
5.479480572562355e-06   -4.2207644985027895e-07   -1.1878473506795456e-06
5.7684206091452605e-06   -1.047107534113699e-06   -7.485302091785791e-06
5.7684206091452605e-06   -1.047107534113699e-06   -7.485302091785791e-06
5.7684206091452605e-06   -1.047107534113699e-06   -7.485302091785791e-06
5.7684206091452605e-06   -1.047107534113699e-06   -7.485302091785791e-06
2.159740187887281e-06   -2.6471304762477974e-07   -1.94027141491585e-06
2.159740187887281e-06   -2.6471304762477974e-07   -1.94027141491585e-06
2.159740187887281e-06   -2.6471304762477974e-07   -1.94027141491585e-06
2.159740187887281e-06   -2.6471304762477974e-07   -1.94027141491585e-06
3.7533466898020152e-06   -7.863489955378341e-07   -4.283300682692543e-06
3.7533466898020152e-06   -7.863489955378341e-07   -4.283300682692543e-06
3.7533466898020152e-06   -7.863489955378341e-07   -4.283300682692543e-06
3.7533466898020152e-06   -7.863489955378341e-07   -4.283300682692543e-06
2.159740187887278e-06   -1.0471075341137054e-06   -7.954738783679143e-06
2.159740187887278e-06   -1.0471075341137054e-06   -7.954738783679143e-06
2.159740187887278e-06   -1.0471075341137054e-06   -7.954738783679143e-06
2.159740187887278e-06   -1.0471075341137054e-06   -7.954738783679143e-06
5.768420609145254e-06   -2.6471304762477974e-07   -1.470834723022444e-06
5.768420609145254e-06   -2.6471304762477974e-07   -1.470834723022444e-06
5.768420609145254e-06   -2.6471304762477974e-07   -1.470834723022444e-06
5.768420609145254e-06   -2.6471304762477974e-07   -1.470834723022444e-06
6.154496806854433e-06   -6.672165701375953e-07   -8.741541982789543e-06
6.154496806854433e-06   -6.672165701375953e-07   -8.741541982789543e-06
6.154496806854433e-06   -6.672165701375953e-07   -8.741541982789543e-06
6.154496806854433e-06   -6.672165701375953e-07   -8.741541982789543e-06
2.1936831286055244e-06   4.1551785990564865e-08   -2.565446866051507e-06
2.1936831286055244e-06   4.1551785990564865e-08   -2.565446866051507e-06
2.1936831286055244e-06   4.1551785990564865e-08   -2.565446866051507e-06
2.1936831286055244e-06   4.1551785990564865e-08   -2.565446866051507e-06
3.833421403379196e-06   -6.136727902962959e-07   -4.905209244902243e-06
3.833421403379196e-06   -6.136727902962959e-07   -4.905209244902243e-06
3.833421403379196e-06   -6.136727902962959e-07   -4.905209244902243e-06
3.833421403379196e-06   -6.136727902962959e-07   -4.905209244902243e-06
-7.427146676043295e-06   1.2050138331627923e-06   -7.019298936623917e-06
-7.427146676043295e-06   1.2050138331627923e-06   -7.019298936623917e-06
-7.427146676043295e-06   1.2050138331627923e-06   -7.019298936623917e-06
-7.427146676043295e-06   1.2050138331627923e-06   -7.019298936623917e-06
-5.536007438152066e-06   4.822809664569144e-07   -4.301039926828714e-06
-5.536007438152066e-06   4.822809664569144e-07   -4.301039926828714e-06
-5.536007438152066e-06   4.822809664569144e-07   -4.301039926828714e-06
-5.536007438152066e-06   4.822809664569144e-07   -4.301039926828714e-06
-5.457467124299127e-06   1.538801388119369e-06   -6.192625580305573e-06
-5.457467124299127e-06   1.538801388119369e-06   -6.192625580305573e-06
-5.457467124299127e-06   1.538801388119369e-06   -6.192625580305573e-06
-5.457467124299127e-06   1.538801388119369e-06   -6.192625580305573e-06
-7.017166827984446e-06   7.581680204097143e-07   -3.12474605353749e-06
-7.017166827984446e-06   7.581680204097143e-07   -3.12474605353749e-06
-7.017166827984446e-06   7.581680204097143e-07   -3.12474605353749e-06
-7.017166827984446e-06   7.581680204097143e-07   -3.12474605353749e-06
-6.090169609963013e-06   1.0826429347722218e-06   -4.864426365524375e-06
-6.090169609963013e-06   1.0826429347722218e-06   -4.864426365524375e-06
-6.090169609963013e-06   1.0826429347722218e-06   -4.864426365524375e-06
-6.090169609963013e-06   1.0826429347722218e-06   -4.864426365524375e-06
-7.0171668279844416e-06   1.538801388119363e-06   -5.724245559679796e-06
-7.0171668279844416e-06   1.538801388119363e-06   -5.724245559679796e-06
-7.0171668279844416e-06   1.538801388119363e-06   -5.724245559679796e-06
-7.0171668279844416e-06   1.538801388119363e-06   -5.724245559679796e-06
-5.45746712429914e-06   7.581680204097143e-07   -3.5931260741633205e-06
-5.45746712429914e-06   7.581680204097143e-07   -3.5931260741633205e-06
-5.45746712429914e-06   7.581680204097143e-07   -3.5931260741633205e-06
-5.45746712429914e-06   7.581680204097143e-07   -3.5931260741633205e-06
-5.344485921930123e-06   1.6956607257213852e-06   -5.52846282956816e-06
-5.344485921930123e-06   1.6956607257213852e-06   -5.52846282956816e-06
-5.344485921930123e-06   1.6956607257213852e-06   -5.52846282956816e-06
-5.344485921930123e-06   1.6956607257213852e-06   -5.52846282956816e-06
-6.6927255752465e-06   8.991837696944549e-07   -2.803510567091379e-06
-6.6927255752465e-06   8.991837696944549e-07   -2.803510567091379e-06
-6.6927255752465e-06   8.991837696944549e-07   -2.803510567091379e-06
-6.6927255752465e-06   8.991837696944549e-07   -2.803510567091379e-06
-5.9834704457905255e-06   1.2321724176612482e-06   -4.185395638298098e-06
-5.9834704457905255e-06   1.2321724176612482e-06   -4.185395638298098e-06
-5.9834704457905255e-06   1.2321724176612482e-06   -4.185395638298098e-06
-5.9834704457905255e-06   1.2321724176612482e-06   -4.185395638298098e-06
-6.692725575246488e-06   1.6956607257213744e-06   -5.050576655952035e-06
-6.692725575246488e-06   1.6956607257213744e-06   -5.050576655952035e-06
-6.692725575246488e-06   1.6956607257213744e-06   -5.050576655952035e-06
-6.692725575246488e-06   1.6956607257213744e-06   -5.050576655952035e-06
-5.34448592193013e-06   8.991837696944549e-07   -3.2813967407075386e-06
-5.34448592193013e-06   8.991837696944549e-07   -3.2813967407075386e-06
-5.34448592193013e-06   8.991837696944549e-07   -3.2813967407075386e-06
-5.34448592193013e-06   8.991837696944549e-07   -3.2813967407075386e-06
-5.2698358861733545e-06   1.894966538391131e-06   -4.6799388279444225e-06
-5.2698358861733545e-06   1.894966538391131e-06   -4.6799388279444225e-06
-5.2698358861733545e-06   1.894966538391131e-06   -4.6799388279444225e-06
-5.2698358861733545e-06   1.894966538391131e-06   -4.6799388279444225e-06
-6.280227011306312e-06   1.1233577073239487e-06   -2.53298832074921e-06
-6.280227011306312e-06   1.1233577073239487e-06   -2.53298832074921e-06
-6.280227011306312e-06   1.1233577073239487e-06   -2.53298832074921e-06
-6.280227011306312e-06   1.1233577073239487e-06   -2.53298832074921e-06
-5.705600184384099e-06   1.3383991933797203e-06   -3.6197245905863237e-06
-5.705600184384099e-06   1.3383991933797203e-06   -3.6197245905863237e-06
-5.705600184384099e-06   1.3383991933797203e-06   -3.6197245905863237e-06
-5.705600184384099e-06   1.3383991933797203e-06   -3.6197245905863237e-06
-5.536007438152066e-06   6.293591301481112e-07   -1.0315384950751179e-05
-5.536007438152066e-06   6.293591301481112e-07   -1.0315384950751179e-05
-5.536007438152066e-06   6.293591301481112e-07   -1.0315384950751179e-05
-5.536007438152066e-06   6.293591301481112e-07   -1.0315384950751179e-05
-3.993058550957001e-06   2.8564660068801937e-07   -7.950030989768833e-06
-3.993058550957001e-06   2.8564660068801937e-07   -7.950030989768833e-06
-3.993058550957001e-06   2.8564660068801937e-07   -7.950030989768833e-06
-3.993058550957001e-06   2.8564660068801937e-07   -7.950030989768833e-06
-3.943620045177524e-06   9.82667747935137e-07   -1.027843553859633e-05
-3.943620045177524e-06   9.82667747935137e-07   -1.027843553859633e-05
-3.943620045177524e-06   9.82667747935137e-07   -1.027843553859633e-05
-3.943620045177524e-06   9.82667747935137e-07   -1.027843553859633e-05
-5.457467124299152e-06   6.028811819571464e-07   -7.527485133806809e-06
-5.457467124299152e-06   6.028811819571464e-07   -7.527485133806809e-06
-5.457467124299152e-06   6.028811819571464e-07   -7.527485133806809e-06
-5.457467124299152e-06   6.028811819571464e-07   -7.527485133806809e-06
-4.68632396883666e-06   6.882219135367451e-07   -8.863928165192246e-06
-4.68632396883666e-06   6.882219135367451e-07   -8.863928165192246e-06
-4.68632396883666e-06   6.882219135367451e-07   -8.863928165192246e-06
-4.68632396883666e-06   6.882219135367451e-07   -8.863928165192246e-06
-5.457467124299127e-06   9.826677479351281e-07   -1.0050563599009476e-05
-5.457467124299127e-06   9.826677479351281e-07   -1.0050563599009476e-05
-5.457467124299127e-06   9.826677479351281e-07   -1.0050563599009476e-05
-5.457467124299127e-06   9.826677479351281e-07   -1.0050563599009476e-05
-3.943620045177534e-06   6.028811819571464e-07   -7.755357073393609e-06
-3.943620045177534e-06   6.028811819571464e-07   -7.755357073393609e-06
-3.943620045177534e-06   6.028811819571464e-07   -7.755357073393609e-06
-3.943620045177534e-06   6.028811819571464e-07   -7.755357073393609e-06
-3.888748100661209e-06   1.3054930844471084e-06   -1.0111894633256703e-05
-3.888748100661209e-06   1.3054930844471084e-06   -1.0111894633256703e-05
-3.888748100661209e-06   1.3054930844471084e-06   -1.0111894633256703e-05
-3.888748100661209e-06   1.3054930844471084e-06   -1.0111894633256703e-05
-5.344485921930138e-06   8.992232104727891e-07   -7.441903006757177e-06
-5.344485921930138e-06   8.992232104727891e-07   -7.441903006757177e-06
-5.344485921930138e-06   8.992232104727891e-07   -7.441903006757177e-06
-5.344485921930138e-06   8.992232104727891e-07   -7.441903006757177e-06
-4.620271241493367e-06   9.462035237996344e-07   -8.677115662147826e-06
-4.620271241493367e-06   9.462035237996344e-07   -8.677115662147826e-06
-4.620271241493367e-06   9.462035237996344e-07   -8.677115662147826e-06
-4.620271241493367e-06   9.462035237996344e-07   -8.677115662147826e-06
-5.344485921930123e-06   1.305493084447099e-06   -9.868132708872057e-06
-5.344485921930123e-06   1.305493084447099e-06   -9.868132708872057e-06
-5.344485921930123e-06   1.305493084447099e-06   -9.868132708872057e-06
-5.344485921930123e-06   1.305493084447099e-06   -9.868132708872057e-06
-3.8887481006612025e-06   8.992232104727891e-07   -7.685664931141755e-06
-3.8887481006612025e-06   8.992232104727891e-07   -7.685664931141755e-06
-3.8887481006612025e-06   8.992232104727891e-07   -7.685664931141755e-06
-3.8887481006612025e-06   8.992232104727891e-07   -7.685664931141755e-06
-3.840723672050328e-06   1.6575168336110794e-06   -1.0210140563525363e-05
-3.840723672050328e-06   1.6575168336110794e-06   -1.0210140563525363e-05
-3.840723672050328e-06   1.6575168336110794e-06   -1.0210140563525363e-05
-3.840723672050328e-06   1.6575168336110794e-06   -1.0210140563525363e-05
-5.269835886173364e-06   1.2298449784924471e-06   -7.571683760249076e-06
-5.269835886173364e-06   1.2298449784924471e-06   -7.571683760249076e-06
-5.269835886173364e-06   1.2298449784924471e-06   -7.571683760249076e-06
-5.269835886173364e-06   1.2298449784924471e-06   -7.571683760249076e-06
-4.597102873626152e-06   1.2089930708067322e-06   -8.68039430321633e-06
-4.597102873626152e-06   1.2089930708067322e-06   -8.68039430321633e-06
-4.597102873626152e-06   1.2089930708067322e-06   -8.68039430321633e-06
-4.597102873626152e-06   1.2089930708067322e-06   -8.68039430321633e-06
-3.993058550956988e-06   1.1231904597541124e-07   -1.1681327017110669e-05
-3.993058550956988e-06   1.1231904597541124e-07   -1.1681327017110669e-05
-3.993058550956988e-06   1.1231904597541124e-07   -1.1681327017110669e-05
-3.993058550956988e-06   1.1231904597541124e-07   -1.1681327017110669e-05
-2.484106916419789e-06   1.6951859841627661e-07   -9.132087894750878e-06
-2.484106916419789e-06   1.6951859841627661e-07   -9.132087894750878e-06
-2.484106916419789e-06   1.6951859841627661e-07   -9.132087894750878e-06
-2.484106916419789e-06   1.6951859841627661e-07   -9.132087894750878e-06
-2.4364009471684162e-06   4.689438886989409e-07   -1.1530608699365455e-05
-2.4364009471684162e-06   4.689438886989409e-07   -1.1530608699365455e-05
-2.4364009471684162e-06   4.689438886989409e-07   -1.1530608699365455e-05
-2.4364009471684162e-06   4.689438886989409e-07   -1.1530608699365455e-05
-3.943620045177523e-06   4.941584818975533e-07   -9.033705625269356e-06
-3.943620045177523e-06   4.941584818975533e-07   -9.033705625269356e-06
-3.943620045177523e-06   4.941584818975533e-07   -9.033705625269356e-06
-3.943620045177523e-06   4.941584818975533e-07   -9.033705625269356e-06
-3.193516186636026e-06   3.5730350316165926e-07   -1.0201765735597213e-05
-3.193516186636026e-06   3.5730350316165926e-07   -1.0201765735597213e-05
-3.193516186636026e-06   3.5730350316165926e-07   -1.0201765735597213e-05
-3.193516186636026e-06   3.5730350316165926e-07   -1.0201765735597213e-05
-3.943620045177517e-06   4.689438886989287e-07   -1.1545737455284622e-05
-3.943620045177517e-06   4.689438886989287e-07   -1.1545737455284622e-05
-3.943620045177517e-06   4.689438886989287e-07   -1.1545737455284622e-05
-3.943620045177517e-06   4.689438886989287e-07   -1.1545737455284622e-05
-2.4364009471684124e-06   4.941584818976075e-07   -9.018576869350209e-06
-2.4364009471684124e-06   4.941584818976075e-07   -9.018576869350209e-06
-2.4364009471684124e-06   4.941584818976075e-07   -9.018576869350209e-06
-2.4364009471684124e-06   4.941584818976075e-07   -9.018576869350209e-06
-2.381864534821094e-06   8.267308404355284e-07   -1.1559112998853807e-05
-2.381864534821094e-06   8.267308404355284e-07   -1.1559112998853807e-05
-2.381864534821094e-06   8.267308404355284e-07   -1.1559112998853807e-05
-2.381864534821094e-06   8.267308404355284e-07   -1.1559112998853807e-05
-3.888748100661204e-06   8.215723027554496e-07   -9.044545266512182e-06
-3.888748100661204e-06   8.215723027554496e-07   -9.044545266512182e-06
-3.888748100661204e-06   8.215723027554496e-07   -9.044545266512182e-06
-3.888748100661204e-06   8.215723027554496e-07   -9.044545266512182e-06
-3.1629523169027413e-06   6.372744863246751e-07   -1.0143626216251184e-05
-3.1629523169027413e-06   6.372744863246751e-07   -1.0143626216251184e-05
-3.1629523169027413e-06   6.372744863246751e-07   -1.0143626216251184e-05
-3.1629523169027413e-06   6.372744863246751e-07   -1.0143626216251184e-05
-3.888748100661199e-06   8.267308404355055e-07   -1.1556017876245727e-05
-3.888748100661199e-06   8.267308404355055e-07   -1.1556017876245727e-05
-3.888748100661199e-06   8.267308404355055e-07   -1.1556017876245727e-05
-3.888748100661199e-06   8.267308404355055e-07   -1.1556017876245727e-05
-2.381864534821086e-06   8.215723027554496e-07   -9.047640389120187e-06
-2.381864534821086e-06   8.215723027554496e-07   -9.047640389120187e-06
-2.381864534821086e-06   8.215723027554496e-07   -9.047640389120187e-06
-2.381864534821086e-06   8.215723027554496e-07   -9.047640389120187e-06
-2.333116650103278e-06   1.1907725454128213e-06   -1.1753380727589925e-05
-2.333116650103278e-06   1.1907725454128213e-06   -1.1753380727589925e-05
-2.333116650103278e-06   1.1907725454128213e-06   -1.1753380727589925e-05
-2.333116650103278e-06   1.1907725454128213e-06   -1.1753380727589925e-05
-3.840723672050338e-06   1.1540085735184781e-06   -9.218643974541565e-06
-3.840723672050338e-06   1.1540085735184781e-06   -9.218643974541565e-06
-3.840723672050338e-06   1.1540085735184781e-06   -9.218643974541565e-06
-3.840723672050338e-06   1.1540085735184781e-06   -9.218643974541565e-06
-3.1385480133998403e-06   9.209927557417741e-07   -1.0249127248293035e-05
-3.1385480133998403e-06   9.209927557417741e-07   -1.0249127248293035e-05
-3.1385480133998403e-06   9.209927557417741e-07   -1.0249127248293035e-05
-3.1385480133998403e-06   9.209927557417741e-07   -1.0249127248293035e-05
-2.4841069164197804e-06   -3.594247880422698e-07   -1.02297498844735e-05
-2.4841069164197804e-06   -3.594247880422698e-07   -1.02297498844735e-05
-2.4841069164197804e-06   -3.594247880422698e-07   -1.02297498844735e-05
-2.4841069164197804e-06   -3.594247880422698e-07   -1.02297498844735e-05
-1.0312955533691497e-06   8.29047578374876e-08   -7.54299988519461e-06
-1.0312955533691497e-06   8.29047578374876e-08   -7.54299988519461e-06
-1.0312955533691497e-06   8.29047578374876e-08   -7.54299988519461e-06
-1.0312955533691497e-06   8.29047578374876e-08   -7.54299988519461e-06
-9.579449875257182e-07   -2.2106015721098287e-08   -9.894651314819959e-06
-9.579449875257182e-07   -2.2106015721098287e-08   -9.894651314819959e-06
-9.579449875257182e-07   -2.2106015721098287e-08   -9.894651314819959e-06
-9.579449875257182e-07   -2.2106015721098287e-08   -9.894651314819959e-06
-2.4364009471684124e-06   3.9855510629765783e-07   -7.682954721959918e-06
-2.4364009471684124e-06   3.9855510629765783e-07   -7.682954721959918e-06
-2.4364009471684124e-06   3.9855510629765783e-07   -7.682954721959918e-06
-2.4364009471684124e-06   3.9855510629765783e-07   -7.682954721959918e-06
-1.7099213964975885e-06   5.7637418731705265e-08   -8.689203360538596e-06
-1.7099213964975885e-06   5.7637418731705265e-08   -8.689203360538596e-06
-1.7099213964975885e-06   5.7637418731705265e-08   -8.689203360538596e-06
-1.7099213964975885e-06   5.7637418731705265e-08   -8.689203360538596e-06
-2.4364009471684078e-06   -2.2106015721112253e-08   -1.0147047988031148e-05
-2.4364009471684078e-06   -2.2106015721112253e-08   -1.0147047988031148e-05
-2.4364009471684078e-06   -2.2106015721112253e-08   -1.0147047988031148e-05
-2.4364009471684078e-06   -2.2106015721112253e-08   -1.0147047988031148e-05
-9.579449875257148e-07   3.985551062976036e-07   -7.430558048748733e-06
-9.579449875257148e-07   3.985551062976036e-07   -7.430558048748733e-06
-9.579449875257148e-07   3.985551062976036e-07   -7.430558048748733e-06
-9.579449875257148e-07   3.985551062976036e-07   -7.430558048748733e-06
-8.45677075400767e-07   3.010981552062624e-07   -1.0023733864263556e-05
-8.45677075400767e-07   3.010981552062624e-07   -1.0023733864263556e-05
-8.45677075400767e-07   3.010981552062624e-07   -1.0023733864263556e-05
-8.45677075400767e-07   3.010981552062624e-07   -1.0023733864263556e-05
-2.3818645348210903e-06   6.948355633504743e-07   -7.699663876782834e-06
-2.3818645348210903e-06   6.948355633504743e-07   -7.699663876782834e-06
-2.3818645348210903e-06   6.948355633504743e-07   -7.699663876782834e-06
-2.3818645348210903e-06   6.948355633504743e-07   -7.699663876782834e-06
-1.6665762446771936e-06   3.131945989728359e-07   -8.662826448396097e-06
-1.6665762446771936e-06   3.131945989728359e-07   -8.662826448396097e-06
-1.6665762446771936e-06   3.131945989728359e-07   -8.662826448396097e-06
-1.6665762446771936e-06   3.131945989728359e-07   -8.662826448396097e-06
-2.381864534821086e-06   3.0109815520625125e-07   -1.02599763091501e-05
-2.381864534821086e-06   3.0109815520625125e-07   -1.02599763091501e-05
-2.381864534821086e-06   3.0109815520625125e-07   -1.02599763091501e-05
-2.381864534821086e-06   3.0109815520625125e-07   -1.02599763091501e-05
-8.45677075400767e-07   6.948355633505285e-07   -7.463421431896304e-06
-8.45677075400767e-07   6.948355633505285e-07   -7.463421431896304e-06
-8.45677075400767e-07   6.948355633505285e-07   -7.463421431896304e-06
-8.45677075400767e-07   6.948355633505285e-07   -7.463421431896304e-06
-7.678626617679724e-07   6.70071506426545e-07   -1.0303721297357562e-05
-7.678626617679724e-07   6.70071506426545e-07   -1.0303721297357562e-05
-7.678626617679724e-07   6.70071506426545e-07   -1.0303721297357562e-05
-7.678626617679724e-07   6.70071506426545e-07   -1.0303721297357562e-05
-2.333116650103278e-06   1.0283559156452405e-06   -7.909935295663223e-06
-2.333116650103278e-06   1.0283559156452405e-06   -7.909935295663223e-06
-2.333116650103278e-06   1.0283559156452405e-06   -7.909935295663223e-06
-2.333116650103278e-06   1.0283559156452405e-06   -7.909935295663223e-06
-1.6218136078128918e-06   5.795473670834172e-07   -8.826155237010116e-06
-1.6218136078128918e-06   5.795473670834172e-07   -8.826155237010116e-06
-1.6218136078128918e-06   5.795473670834172e-07   -8.826155237010116e-06
-1.6218136078128918e-06   5.795473670834172e-07   -8.826155237010116e-06
-1.0312955533691463e-06   -6.523783747506315e-07   -5.5330342966936345e-06
-1.0312955533691463e-06   -6.523783747506315e-07   -5.5330342966936345e-06
-1.0312955533691463e-06   -6.523783747506315e-07   -5.5330342966936345e-06
-1.0312955533691463e-06   -6.523783747506315e-07   -5.5330342966936345e-06
2.568580034268981e-10   1.266331605284882e-07   -3.34637335657186e-06
2.568580034268981e-10   1.266331605284882e-07   -3.34637335657186e-06
2.568580034268981e-10   1.266331605284882e-07   -3.34637335657186e-06
2.568580034268981e-10   1.266331605284882e-07   -3.34637335657186e-06
4.091039789551142e-07   -4.2207644985027895e-07   -5.256410843672957e-06
4.091039789551142e-07   -4.2207644985027895e-07   -5.256410843672957e-06
4.091039789551142e-07   -4.2207644985027895e-07   -5.256410843672957e-06
4.091039789551142e-07   -4.2207644985027895e-07   -5.256410843672957e-06
-9.579449875257165e-07   3.775947934716098e-07   -3.4577986455312703e-06
-9.579449875257165e-07   3.775947934716098e-07   -3.4577986455312703e-06
-9.579449875257165e-07   3.775947934716098e-07   -3.4577986455312703e-06
-9.579449875257165e-07   3.775947934716098e-07   -3.4577986455312703e-06
-3.818552722612953e-07   -1.1015374296600077e-07   -4.125299049109564e-06
-3.818552722612953e-07   -1.1015374296600077e-07   -4.125299049109564e-06
-3.818552722612953e-07   -1.1015374296600077e-07   -4.125299049109564e-06
-3.818552722612953e-07   -1.1015374296600077e-07   -4.125299049109564e-06
-9.579449875257114e-07   -4.220764498502645e-07   -5.736213589666001e-06
-9.579449875257114e-07   -4.220764498502645e-07   -5.736213589666001e-06
-9.579449875257114e-07   -4.220764498502645e-07   -5.736213589666001e-06
-9.579449875257114e-07   -4.220764498502645e-07   -5.736213589666001e-06
4.091039789551142e-07   3.775947934716098e-07   -2.9779958995381926e-06
4.091039789551142e-07   3.775947934716098e-07   -2.9779958995381926e-06
4.091039789551142e-07   3.775947934716098e-07   -2.9779958995381926e-06
4.091039789551142e-07   3.775947934716098e-07   -2.9779958995381926e-06
7.324329386919961e-07   -2.6471304762477974e-07   -5.531439959188559e-06
7.324329386919961e-07   -2.6471304762477974e-07   -5.531439959188559e-06
7.324329386919961e-07   -2.6471304762477974e-07   -5.531439959188559e-06
7.324329386919961e-07   -2.6471304762477974e-07   -5.531439959188559e-06
-8.456770754007669e-07   5.179720135225227e-07   -3.370867639055623e-06
-8.456770754007669e-07   5.179720135225227e-07   -3.370867639055623e-06
-8.456770754007669e-07   5.179720135225227e-07   -3.370867639055623e-06
-8.456770754007669e-07   5.179720135225227e-07   -3.370867639055623e-06
-1.7901971483966534e-07   1.131575005702476e-08   -4.177969481911482e-06
-1.7901971483966534e-07   1.131575005702476e-08   -4.177969481911482e-06
-1.7901971483966534e-07   1.131575005702476e-08   -4.177969481911482e-06
-1.7901971483966534e-07   1.131575005702476e-08   -4.177969481911482e-06
-8.45677075400767e-07   -2.647130476247973e-07   -6.0010509958768996e-06
-8.45677075400767e-07   -2.647130476247973e-07   -6.0010509958768996e-06
-8.45677075400767e-07   -2.647130476247973e-07   -6.0010509958768996e-06
-8.45677075400767e-07   -2.647130476247973e-07   -6.0010509958768996e-06
7.324329386919893e-07   5.179720135225227e-07   -2.901256602367262e-06
7.324329386919893e-07   5.179720135225227e-07   -2.901256602367262e-06
7.324329386919893e-07   5.179720135225227e-07   -2.901256602367262e-06
7.324329386919893e-07   5.179720135225227e-07   -2.901256602367262e-06
1.1434910197007824e-06   4.1551785990564865e-08   -6.183560755324233e-06
1.1434910197007824e-06   4.1551785990564865e-08   -6.183560755324233e-06
1.1434910197007824e-06   4.1551785990564865e-08   -6.183560755324233e-06
1.1434910197007824e-06   4.1551785990564865e-08   -6.183560755324233e-06
-7.678626617679711e-07   7.63350441945461e-07   -3.431050479782499e-06
-7.678626617679711e-07   7.63350441945461e-07   -3.431050479782499e-06
-7.678626617679711e-07   7.63350441945461e-07   -3.431050479782499e-06
-7.678626617679711e-07   7.63350441945461e-07   -3.431050479782499e-06
1.2765066538067856e-09   1.4641252935520752e-07   -4.342786346264748e-06
1.2765066538067856e-09   1.4641252935520752e-07   -4.342786346264748e-06
1.2765066538067856e-09   1.4641252935520752e-07   -4.342786346264748e-06
1.2765066538067856e-09   1.4641252935520752e-07   -4.342786346264748e-06
-2.4933067521238966e-06   4.822809664568878e-07   -4.606714307384038e-06
-2.4933067521238966e-06   4.822809664568878e-07   -4.606714307384038e-06
-2.4933067521238966e-06   4.822809664568878e-07   -4.606714307384038e-06
-2.4933067521238966e-06   4.822809664568878e-07   -4.606714307384038e-06
-2.617523263659899e-06   -2.3811007760616253e-07   -5.245976453048526e-06
-2.617523263659899e-06   -2.3811007760616253e-07   -5.245976453048526e-06
-2.617523263659899e-06   -2.3811007760616253e-07   -5.245976453048526e-06
-2.617523263659899e-06   -2.3811007760616253e-07   -5.245976453048526e-06
-2.491695687545278e-06   7.581680204097685e-07   -4.330573309022415e-06
-2.491695687545278e-06   7.581680204097685e-07   -4.330573309022415e-06
-2.491695687545278e-06   7.581680204097685e-07   -4.330573309022415e-06
-2.491695687545278e-06   7.581680204097685e-07   -4.330573309022415e-06
-2.041767773465644e-06   -1.671166635988392e-08   -4.615525353759975e-06
-2.041767773465644e-06   -1.671166635988392e-08   -4.615525353759975e-06
-2.041767773465644e-06   -1.671166635988392e-08   -4.615525353759975e-06
-2.041767773465644e-06   -1.671166635988392e-08   -4.615525353759975e-06
-2.3060836967293394e-06   3.3251553899769134e-07   -4.38453513820189e-06
-2.3060836967293394e-06   3.3251553899769134e-07   -4.38453513820189e-06
-2.3060836967293394e-06   3.3251553899769134e-07   -4.38453513820189e-06
-2.3060836967293394e-06   3.3251553899769134e-07   -4.38453513820189e-06
-2.041767773465643e-06   7.581680204097626e-07   -3.865645496960656e-06
-2.041767773465643e-06   7.581680204097626e-07   -3.865645496960656e-06
-2.041767773465643e-06   7.581680204097626e-07   -3.865645496960656e-06
-2.041767773465643e-06   7.581680204097626e-07   -3.865645496960656e-06
-2.4916956875452846e-06   -1.671166635982971e-08   -5.080453165821829e-06
-2.4916956875452846e-06   -1.671166635982971e-08   -5.080453165821829e-06
-2.4916956875452846e-06   -1.671166635982971e-08   -5.080453165821829e-06
-2.4916956875452846e-06   -1.671166635982971e-08   -5.080453165821829e-06
-2.3318757142695202e-06   8.991837696944549e-07   -4.017972991315812e-06
-2.3318757142695202e-06   8.991837696944549e-07   -4.017972991315812e-06
-2.3318757142695202e-06   8.991837696944549e-07   -4.017972991315812e-06
-2.3318757142695202e-06   8.991837696944549e-07   -4.017972991315812e-06
-1.6714389019332679e-06   1.1040217577233712e-07   -4.645432055522985e-06
-1.6714389019332679e-06   1.1040217577233712e-07   -4.645432055522985e-06
-1.6714389019332679e-06   1.1040217577233712e-07   -4.645432055522985e-06
-1.6714389019332679e-06   1.1040217577233712e-07   -4.645432055522985e-06
-2.0951958398852885e-06   4.472199164717969e-07   -4.141261136689448e-06
-2.0951958398852885e-06   4.472199164717969e-07   -4.141261136689448e-06
-2.0951958398852885e-06   4.472199164717969e-07   -4.141261136689448e-06
-2.0951958398852885e-06   4.472199164717969e-07   -4.141261136689448e-06
-1.671438901933262e-06   8.991837696944476e-07   -3.5447040349625633e-06
-1.671438901933262e-06   8.991837696944476e-07   -3.5447040349625633e-06
-1.671438901933262e-06   8.991837696944476e-07   -3.5447040349625633e-06
-1.671438901933262e-06   8.991837696944476e-07   -3.5447040349625633e-06
-2.3318757142695338e-06   1.1040217577233712e-07   -5.118701011876261e-06
-2.3318757142695338e-06   1.1040217577233712e-07   -5.118701011876261e-06
-2.3318757142695338e-06   1.1040217577233712e-07   -5.118701011876261e-06
-2.3318757142695338e-06   1.1040217577233712e-07   -5.118701011876261e-06
-2.2097658068606323e-06   1.123357707324003e-06   -3.7309665748508857e-06
-2.2097658068606323e-06   1.123357707324003e-06   -3.7309665748508857e-06
-2.2097658068606323e-06   1.123357707324003e-06   -3.7309665748508857e-06
-2.2097658068606323e-06   1.123357707324003e-06   -3.7309665748508857e-06
-1.2141975536344381e-06   3.6327330501899346e-07   -4.934196355511607e-06
-1.2141975536344381e-06   3.6327330501899346e-07   -4.934196355511607e-06
-1.2141975536344381e-06   3.6327330501899346e-07   -4.934196355511607e-06
-1.2141975536344381e-06   3.6327330501899346e-07   -4.934196355511607e-06
-1.8338460721628338e-06   5.595067268410626e-07   -4.019188877723957e-06
-1.8338460721628338e-06   5.595067268410626e-07   -4.019188877723957e-06
-1.8338460721628338e-06   5.595067268410626e-07   -4.019188877723957e-06
-1.8338460721628338e-06   5.595067268410626e-07   -4.019188877723957e-06
-2.6175232636598854e-06   2.8564660068799554e-07   -8.48171247908589e-06
-2.6175232636598854e-06   2.8564660068799554e-07   -8.48171247908589e-06
-2.6175232636598854e-06   2.8564660068799554e-07   -8.48171247908589e-06
-2.6175232636598854e-06   2.8564660068799554e-07   -8.48171247908589e-06
-3.086173842101085e-06   -4.5468179962358714e-08   -9.461465644878148e-06
-3.086173842101085e-06   -4.5468179962358714e-08   -9.461465644878148e-06
-3.086173842101085e-06   -4.5468179962358714e-08   -9.461465644878148e-06
-3.086173842101085e-06   -4.5468179962358714e-08   -9.461465644878148e-06
-2.9865336081590474e-06   6.028811819571464e-07   -8.485601713711813e-06
-2.9865336081590474e-06   6.028811819571464e-07   -8.485601713711813e-06
-2.9865336081590474e-06   6.028811819571464e-07   -8.485601713711813e-06
-2.9865336081590474e-06   6.028811819571464e-07   -8.485601713711813e-06
-2.491695687545285e-06   2.3509894021405417e-07   -9.089662236355482e-06
-2.491695687545285e-06   2.3509894021405417e-07   -9.089662236355482e-06
-2.491695687545285e-06   2.3509894021405417e-07   -9.089662236355482e-06
-2.491695687545285e-06   2.3509894021405417e-07   -9.089662236355482e-06
-2.7630895671180635e-06   3.328593380469251e-07   -8.695995342434081e-06
-2.7630895671180635e-06   3.328593380469251e-07   -8.695995342434081e-06
-2.7630895671180635e-06   3.328593380469251e-07   -8.695995342434081e-06
-2.7630895671180635e-06   3.328593380469251e-07   -8.695995342434081e-06
-2.491695687545278e-06   6.028811819571494e-07   -8.26493236866585e-06
-2.491695687545278e-06   6.028811819571494e-07   -8.26493236866585e-06
-2.491695687545278e-06   6.028811819571494e-07   -8.26493236866585e-06
-2.491695687545278e-06   6.028811819571494e-07   -8.26493236866585e-06
-2.986533608159044e-06   2.3509894021405417e-07   -9.310331581401365e-06
-2.986533608159044e-06   2.3509894021405417e-07   -9.310331581401365e-06
-2.986533608159044e-06   2.3509894021405417e-07   -9.310331581401365e-06
-2.986533608159044e-06   2.3509894021405417e-07   -9.310331581401365e-06
-2.882724484455535e-06   8.992232104727349e-07   -8.414139083983308e-06
-2.882724484455535e-06   8.992232104727349e-07   -8.414139083983308e-06
-2.882724484455535e-06   8.992232104727349e-07   -8.414139083983308e-06
-2.882724484455535e-06   8.992232104727349e-07   -8.414139083983308e-06
-2.3318757142695325e-06   5.064568327764669e-07   -9.096560541008787e-06
-2.3318757142695325e-06   5.064568327764669e-07   -9.096560541008787e-06
-2.3318757142695325e-06   5.064568327764669e-07   -9.096560541008787e-06
-2.3318757142695325e-06   5.064568327764669e-07   -9.096560541008787e-06
-2.663428343939942e-06   5.606528721712909e-07   -8.576490448528368e-06
-2.663428343939942e-06   5.606528721712909e-07   -8.576490448528368e-06
-2.663428343939942e-06   5.606528721712909e-07   -8.576490448528368e-06
-2.663428343939942e-06   5.606528721712909e-07   -8.576490448528368e-06
-2.3318757142695202e-06   8.99223210472761e-07   -8.178479257365471e-06
-2.3318757142695202e-06   8.99223210472761e-07   -8.178479257365471e-06
-2.3318757142695202e-06   8.99223210472761e-07   -8.178479257365471e-06
-2.3318757142695202e-06   8.99223210472761e-07   -8.178479257365471e-06
-2.882724484455525e-06   5.064568327764669e-07   -9.332220367626543e-06
-2.882724484455525e-06   5.064568327764669e-07   -9.332220367626543e-06
-2.882724484455525e-06   5.064568327764669e-07   -9.332220367626543e-06
-2.882724484455525e-06   5.064568327764669e-07   -9.332220367626543e-06
-2.7856629913489255e-06   1.2298449784924471e-06   -8.554051551981948e-06
-2.7856629913489255e-06   1.2298449784924471e-06   -8.554051551981948e-06
-2.7856629913489255e-06   1.2298449784924471e-06   -8.554051551981948e-06
-2.7856629913489255e-06   1.2298449784924471e-06   -8.554051551981948e-06
-2.2097658068606416e-06   8.175869180400094e-07   -9.266525356524318e-06
-2.2097658068606416e-06   8.175869180400094e-07   -9.266525356524318e-06
-2.2097658068606416e-06   8.175869180400094e-07   -9.266525356524318e-06
-2.2097658068606416e-06   8.175869180400094e-07   -9.266525356524318e-06
-2.5765802330181017e-06   8.010318495492376e-07   -8.64523493850063e-06
-2.5765802330181017e-06   8.010318495492376e-07   -8.64523493850063e-06
-2.5765802330181017e-06   8.010318495492376e-07   -8.64523493850063e-06
-2.5765802330181017e-06   8.010318495492376e-07   -8.64523493850063e-06
-3.0861738421010747e-06   1.6951859841624866e-07   -9.896757983922632e-06
-3.0861738421010747e-06   1.6951859841624866e-07   -9.896757983922632e-06
-3.0861738421010747e-06   1.6951859841624866e-07   -9.896757983922632e-06
-3.0861738421010747e-06   1.6951859841624866e-07   -9.896757983922632e-06
-3.570092137064288e-06   2.4115942182643436e-07   -1.0660303981481896e-05
-3.570092137064288e-06   2.4115942182643436e-07   -1.0660303981481896e-05
-3.570092137064288e-06   2.4115942182643436e-07   -1.0660303981481896e-05
-3.570092137064288e-06   2.4115942182643436e-07   -1.0660303981481896e-05
-3.4726480881618053e-06   4.941584818976075e-07   -9.740800346765612e-06
-3.4726480881618053e-06   4.941584818976075e-07   -9.740800346765612e-06
-3.4726480881618053e-06   4.941584818976075e-07   -9.740800346765612e-06
-3.4726480881618053e-06   4.941584818976075e-07   -9.740800346765612e-06
-2.9865336081590466e-06   5.327416799341309e-07   -1.0574141065592093e-05
-2.9865336081590466e-06   5.327416799341309e-07   -1.0574141065592093e-05
-2.9865336081590466e-06   5.327416799341309e-07   -1.0574141065592093e-05
-2.9865336081590466e-06   5.327416799341309e-07   -1.0574141065592093e-05
-3.259063670968809e-06   4.0528297622478924e-07   -1.0043449072017018e-05
-3.259063670968809e-06   4.0528297622478924e-07   -1.0043449072017018e-05
-3.259063670968809e-06   4.0528297622478924e-07   -1.0043449072017018e-05
-3.259063670968809e-06   4.0528297622478924e-07   -1.0043449072017018e-05
-2.9865336081590407e-06   4.941584818975873e-07   -9.763950265587526e-06
-2.9865336081590407e-06   4.941584818975873e-07   -9.763950265587526e-06
-2.9865336081590407e-06   4.941584818975873e-07   -9.763950265587526e-06
-2.9865336081590407e-06   4.941584818975873e-07   -9.763950265587526e-06
-3.4726480881618053e-06   5.327416799341851e-07   -1.0550991146770193e-05
-3.4726480881618053e-06   5.327416799341851e-07   -1.0550991146770193e-05
-3.4726480881618053e-06   5.327416799341851e-07   -1.0550991146770193e-05
-3.4726480881618053e-06   5.327416799341851e-07   -1.0550991146770193e-05
-3.3694362033214007e-06   8.215723027554496e-07   -9.767674039216657e-06
-3.3694362033214007e-06   8.215723027554496e-07   -9.767674039216657e-06
-3.3694362033214007e-06   8.215723027554496e-07   -9.767674039216657e-06
-3.3694362033214007e-06   8.215723027554496e-07   -9.767674039216657e-06
-2.8827244844555333e-06   8.304812696506006e-07   -1.0584205617463396e-05
-2.8827244844555333e-06   8.304812696506006e-07   -1.0584205617463396e-05
-2.8827244844555333e-06   8.304812696506006e-07   -1.0584205617463396e-05
-2.8827244844555333e-06   8.304812696506006e-07   -1.0584205617463396e-05
-3.1783626987281603e-06   6.558116726019733e-07   -9.986673502113355e-06
-3.1783626987281603e-06   6.558116726019733e-07   -9.986673502113355e-06
-3.1783626987281603e-06   6.558116726019733e-07   -9.986673502113355e-06
-3.1783626987281603e-06   6.558116726019733e-07   -9.986673502113355e-06
-2.882724484455525e-06   8.215723027554803e-07   -9.77301941935366e-06
-2.882724484455525e-06   8.215723027554803e-07   -9.77301941935366e-06
-2.882724484455525e-06   8.215723027554803e-07   -9.77301941935366e-06
-2.882724484455525e-06   8.215723027554803e-07   -9.77301941935366e-06
-3.369436203321395e-06   8.304812696506006e-07   -1.0578860237326352e-05
-3.369436203321395e-06   8.304812696506006e-07   -1.0578860237326352e-05
-3.369436203321395e-06   8.304812696506006e-07   -1.0578860237326352e-05
-3.369436203321395e-06   8.304812696506006e-07   -1.0578860237326352e-05
-3.272282036648205e-06   1.1540085735184781e-06   -9.95733542929507e-06
-3.272282036648205e-06   1.1540085735184781e-06   -9.95733542929507e-06
-3.272282036648205e-06   1.1540085735184781e-06   -9.95733542929507e-06
-3.272282036648205e-06   1.1540085735184781e-06   -9.95733542929507e-06
-2.785662991348931e-06   1.1324639466988098e-06   -1.075544039536872e-05
-2.785662991348931e-06   1.1324639466988098e-06   -1.075544039536872e-05
-2.785662991348931e-06   1.1324639466988098e-06   -1.075544039536872e-05
-2.785662991348931e-06   1.1324639466988098e-06   -1.075544039536872e-05
-3.1047571705159953e-06   9.098990686418561e-07   -1.0090077836589313e-05
-3.1047571705159953e-06   9.098990686418561e-07   -1.0090077836589313e-05
-3.1047571705159953e-06   9.098990686418561e-07   -1.0090077836589313e-05
-3.1047571705159953e-06   9.098990686418561e-07   -1.0090077836589313e-05
-3.570092137064282e-06   8.290475783751721e-08   -8.530083207848165e-06
-3.570092137064282e-06   8.290475783751721e-08   -8.530083207848165e-06
-3.570092137064282e-06   8.290475783751721e-08   -8.530083207848165e-06
-3.570092137064282e-06   8.290475783751721e-08   -8.530083207848165e-06
-4.087838281387475e-06   5.326008584527562e-07   -9.123175788017701e-06
-4.087838281387475e-06   5.326008584527562e-07   -9.123175788017701e-06
-4.087838281387475e-06   5.326008584527562e-07   -9.123175788017701e-06
-4.087838281387475e-06   5.326008584527562e-07   -9.123175788017701e-06
-3.968517133100708e-06   3.9855510629765783e-07   -8.148705284198479e-06
-3.968517133100708e-06   3.9855510629765783e-07   -8.148705284198479e-06
-3.968517133100708e-06   3.9855510629765783e-07   -8.148705284198479e-06
-3.968517133100708e-06   3.9855510629765783e-07   -8.148705284198479e-06
-3.4726480881618053e-06   8.260099649258523e-07   -9.231626607606824e-06
-3.4726480881618053e-06   8.260099649258523e-07   -9.231626607606824e-06
-3.4726480881618053e-06   8.260099649258523e-07   -9.231626607606824e-06
-3.4726480881618053e-06   8.260099649258523e-07   -9.231626607606824e-06
-3.7453777813113104e-06   4.920813857444382e-07   -8.576719971515612e-06
-3.7453777813113104e-06   4.920813857444382e-07   -8.576719971515612e-06
-3.7453777813113104e-06   4.920813857444382e-07   -8.576719971515612e-06
-3.7453777813113104e-06   4.920813857444382e-07   -8.576719971515612e-06
-3.4726480881617998e-06   3.985551062976038e-07   -8.405178199375325e-06
-3.4726480881617998e-06   3.985551062976038e-07   -8.405178199375325e-06
-3.4726480881617998e-06   3.985551062976038e-07   -8.405178199375325e-06
-3.4726480881617998e-06   3.985551062976038e-07   -8.405178199375325e-06
-3.968517133100708e-06   8.260099649258523e-07   -8.975153692429973e-06
-3.968517133100708e-06   8.260099649258523e-07   -8.975153692429973e-06
-3.968517133100708e-06   8.260099649258523e-07   -8.975153692429973e-06
-3.968517133100708e-06   8.260099649258523e-07   -8.975153692429973e-06
-3.811065707627681e-06   6.948355633504743e-07   -8.179200572696504e-06
-3.811065707627681e-06   6.948355633504743e-07   -8.179200572696504e-06
-3.811065707627681e-06   6.948355633504743e-07   -8.179200572696504e-06
-3.811065707627681e-06   6.948355633504743e-07   -8.179200572696504e-06
-3.369436203321395e-06   1.0956638203216845e-06   -9.155746700722992e-06
-3.369436203321395e-06   1.0956638203216845e-06   -9.155746700722992e-06
-3.369436203321395e-06   1.0956638203216845e-06   -9.155746700722992e-06
-3.369436203321395e-06   1.0956638203216845e-06   -9.155746700722992e-06
-3.6385283813985344e-06   7.257641445668271e-07   -8.485319931808267e-06
-3.6385283813985344e-06   7.257641445668271e-07   -8.485319931808267e-06
-3.6385283813985344e-06   7.257641445668271e-07   -8.485319931808267e-06
-3.6385283813985344e-06   7.257641445668271e-07   -8.485319931808267e-06
-3.3694362033213885e-06   6.948355633504703e-07   -8.419697526879181e-06
-3.3694362033213885e-06   6.948355633504703e-07   -8.419697526879181e-06
-3.3694362033213885e-06   6.948355633504703e-07   -8.419697526879181e-06
-3.3694362033213885e-06   6.948355633504703e-07   -8.419697526879181e-06
-3.811065707627688e-06   1.0956638203217387e-06   -8.91524974654028e-06
-3.811065707627688e-06   1.0956638203217387e-06   -8.91524974654028e-06
-3.811065707627688e-06   1.0956638203217387e-06   -8.91524974654028e-06
-3.811065707627688e-06   1.0956638203217387e-06   -8.91524974654028e-06
-3.688197062323571e-06   1.0283559156452405e-06   -8.405827189415636e-06
-3.688197062323571e-06   1.0283559156452405e-06   -8.405827189415636e-06
-3.688197062323571e-06   1.0283559156452405e-06   -8.405827189415636e-06
-3.688197062323571e-06   1.0283559156452405e-06   -8.405827189415636e-06
-3.272282036648205e-06   1.3962578787527738e-06   -9.319760076739114e-06
-3.272282036648205e-06   1.3962578787527738e-06   -9.319760076739114e-06
-3.272282036648205e-06   1.3962578787527738e-06   -9.319760076739114e-06
-3.272282036648205e-06   1.3962578787527738e-06   -9.319760076739114e-06
-3.561233377883352e-06   9.632008681090222e-07   -8.578340301627477e-06
-3.561233377883352e-06   9.632008681090222e-07   -8.578340301627477e-06
-3.561233377883352e-06   9.632008681090222e-07   -8.578340301627477e-06
-3.561233377883352e-06   9.632008681090222e-07   -8.578340301627477e-06
-4.087838281387458e-06   1.2663316052849934e-07   -4.531045940023813e-06
-4.087838281387458e-06   1.2663316052849934e-07   -4.531045940023813e-06
-4.087838281387458e-06   1.2663316052849934e-07   -4.531045940023813e-06
-4.087838281387458e-06   1.2663316052849934e-07   -4.531045940023813e-06
-5.011442148460853e-06   9.012941650788893e-07   -5.605589115749237e-06
-5.011442148460853e-06   9.012941650788893e-07   -5.605589115749237e-06
-5.011442148460853e-06   9.012941650788893e-07   -5.605589115749237e-06
-5.011442148460853e-06   9.012941650788893e-07   -5.605589115749237e-06
-4.566750867051129e-06   3.775947934716098e-07   -3.7012766696007467e-06
-4.566750867051129e-06   3.775947934716098e-07   -3.7012766696007467e-06
-4.566750867051129e-06   3.775947934716098e-07   -3.7012766696007467e-06
-4.566750867051129e-06   3.775947934716098e-07   -3.7012766696007467e-06
-3.968517133100705e-06   1.1687101457720614e-06   -5.173002104231665e-06
-3.968517133100705e-06   1.1687101457720614e-06   -5.173002104231665e-06
-3.968517133100705e-06   1.1687101457720614e-06   -5.173002104231665e-06
-3.968517133100705e-06   1.1687101457720614e-06   -5.173002104231665e-06
-4.230305781719444e-06   6.741750565195602e-07   -4.439966636315692e-06
-4.230305781719444e-06   6.741750565195602e-07   -4.439966636315692e-06
-4.230305781719444e-06   6.741750565195602e-07   -4.439966636315692e-06
-4.230305781719444e-06   6.741750565195602e-07   -4.439966636315692e-06
-3.968517133100695e-06   3.775947934716088e-07   -4.175945880980996e-06
-3.968517133100695e-06   3.775947934716088e-07   -4.175945880980996e-06
-3.968517133100695e-06   3.775947934716088e-07   -4.175945880980996e-06
-3.968517133100695e-06   3.775947934716088e-07   -4.175945880980996e-06
-4.566750867051129e-06   1.1687101457721156e-06   -4.6983328928514425e-06
-4.566750867051129e-06   1.1687101457721156e-06   -4.6983328928514425e-06
-4.566750867051129e-06   1.1687101457721156e-06   -4.6983328928514425e-06
-4.566750867051129e-06   1.1687101457721156e-06   -4.6983328928514425e-06
-4.205058995325143e-06   5.179720135225227e-07   -3.622815990539271e-06
-4.205058995325143e-06   5.179720135225227e-07   -3.622815990539271e-06
-4.205058995325143e-06   5.179720135225227e-07   -3.622815990539271e-06
-4.205058995325143e-06   5.179720135225227e-07   -3.622815990539271e-06
-3.8110657076276807e-06   1.2910233290501158e-06   -4.743302259351549e-06
-3.8110657076276807e-06   1.2910233290501158e-06   -4.743302259351549e-06
-3.8110657076276807e-06   1.2910233290501158e-06   -4.743302259351549e-06
-3.8110657076276807e-06   1.2910233290501158e-06   -4.743302259351549e-06
-4.047521230829759e-06   7.996504416895537e-07   -4.0543859882650714e-06
-4.047521230829759e-06   7.996504416895537e-07   -4.0543859882650714e-06
-4.047521230829759e-06   7.996504416895537e-07   -4.0543859882650714e-06
-4.047521230829759e-06   7.996504416895537e-07   -4.0543859882650714e-06
-3.8110657076276743e-06   5.179720135224954e-07   -4.086646779855789e-06
-3.8110657076276743e-06   5.179720135224954e-07   -4.086646779855789e-06
-3.8110657076276743e-06   5.179720135224954e-07   -4.086646779855789e-06
-3.8110657076276743e-06   5.179720135224954e-07   -4.086646779855789e-06
-4.20505899532515e-06   1.2910233290501158e-06   -4.279471470034987e-06
-4.20505899532515e-06   1.2910233290501158e-06   -4.279471470034987e-06
-4.20505899532515e-06   1.2910233290501158e-06   -4.279471470034987e-06
-4.20505899532515e-06   1.2910233290501158e-06   -4.279471470034987e-06
-3.759166262709203e-06   7.63350441945461e-07   -3.7139456085342614e-06
-3.759166262709203e-06   7.63350441945461e-07   -3.7139456085342614e-06
-3.759166262709203e-06   7.63350441945461e-07   -3.7139456085342614e-06
-3.759166262709203e-06   7.63350441945461e-07   -3.7139456085342614e-06
-3.6881970623235656e-06   1.4766294594986684e-06   -4.260195019708827e-06
-3.6881970623235656e-06   1.4766294594986684e-06   -4.260195019708827e-06
-3.6881970623235656e-06   1.4766294594986684e-06   -4.260195019708827e-06
-3.6881970623235656e-06   1.4766294594986684e-06   -4.260195019708827e-06
-3.7661246169766427e-06   8.98491736636101e-07   -3.7834331282361858e-06
-3.7661246169766427e-06   8.98491736636101e-07   -3.7834331282361858e-06
-3.7661246169766427e-06   8.98491736636101e-07   -3.7834331282361858e-06
-3.7661246169766427e-06   8.98491736636101e-07   -3.7834331282361858e-06
2.4260204631570547e-06   -2.3811007760613857e-07   -2.2480328223118675e-06
2.4260204631570547e-06   -2.3811007760613857e-07   -2.2480328223118675e-06
2.4260204631570547e-06   -2.3811007760613857e-07   -2.2480328223118675e-06
2.4260204631570547e-06   -2.3811007760613857e-07   -2.2480328223118675e-06
2.6564143779344955e-07   -9.629642089872522e-07   -6.28357701007982e-06
2.6564143779344955e-07   -9.629642089872522e-07   -6.28357701007982e-06
2.6564143779344955e-07   -9.629642089872522e-07   -6.28357701007982e-06
2.6564143779344955e-07   -9.629642089872522e-07   -6.28357701007982e-06
4.368901337678291e-07   -1.671166635982971e-08   -2.503484597908838e-06
4.368901337678291e-07   -1.671166635982971e-08   -2.503484597908838e-06
4.368901337678291e-07   -1.671166635982971e-08   -2.503484597908838e-06
4.368901337678291e-07   -1.671166635982971e-08   -2.503484597908838e-06
2.921687105580087e-06   -7.93584658527989e-07   -6.178689088961694e-06
2.921687105580087e-06   -7.93584658527989e-07   -6.178689088961694e-06
2.921687105580087e-06   -7.93584658527989e-07   -6.178689088961694e-06
2.921687105580087e-06   -7.93584658527989e-07   -6.178689088961694e-06
1.4550171202958653e-06   -4.057368567399926e-07   -3.966947794560794e-06
1.4550171202958653e-06   -4.057368567399926e-07   -3.966947794560794e-06
1.4550171202958653e-06   -4.057368567399926e-07   -3.966947794560794e-06
1.4550171202958653e-06   -4.057368567399926e-07   -3.966947794560794e-06
2.921687105580096e-06   -1.671166635982462e-08   -2.0373608026079317e-06
2.921687105580096e-06   -1.671166635982462e-08   -2.0373608026079317e-06
2.921687105580096e-06   -1.671166635982462e-08   -2.0373608026079317e-06
2.921687105580096e-06   -1.671166635982462e-08   -2.0373608026079317e-06
4.368901337678291e-07   -7.93584658527989e-07   -6.644812884262655e-06
4.368901337678291e-07   -7.93584658527989e-07   -6.644812884262655e-06
4.368901337678291e-07   -7.93584658527989e-07   -6.644812884262655e-06
4.368901337678291e-07   -7.93584658527989e-07   -6.644812884262655e-06
6.397342401230321e-07   1.1040217577233712e-07   -2.52929431412475e-06
6.397342401230321e-07   1.1040217577233712e-07   -2.52929431412475e-06
6.397342401230321e-07   1.1040217577233712e-07   -2.52929431412475e-06
6.397342401230321e-07   1.1040217577233712e-07   -2.52929431412475e-06
3.3374187647522198e-06   -6.7849013490732e-07   -6.552099802098905e-06
3.3374187647522198e-06   -6.7849013490732e-07   -6.552099802098905e-06
3.3374187647522198e-06   -6.7849013490732e-07   -6.552099802098905e-06
3.3374187647522198e-06   -6.7849013490732e-07   -6.552099802098905e-06
1.7670821277055404e-06   -3.2524226837454557e-07   -4.146820793607639e-06
1.7670821277055404e-06   -3.2524226837454557e-07   -4.146820793607639e-06
1.7670821277055404e-06   -3.2524226837454557e-07   -4.146820793607639e-06
1.7670821277055404e-06   -3.2524226837454557e-07   -4.146820793607639e-06
3.33741876475223e-06   1.1040217577233048e-07   -2.0559589277169288e-06
3.33741876475223e-06   1.1040217577233048e-07   -2.0559589277169288e-06
3.33741876475223e-06   1.1040217577233048e-07   -2.0559589277169288e-06
3.33741876475223e-06   1.1040217577233048e-07   -2.0559589277169288e-06
6.397342401230253e-07   -6.7849013490732e-07   -7.025435188506699e-06
6.397342401230253e-07   -6.7849013490732e-07   -7.025435188506699e-06
6.397342401230253e-07   -6.7849013490732e-07   -7.025435188506699e-06
6.397342401230253e-07   -6.7849013490732e-07   -7.025435188506699e-06
8.04221408710113e-07   3.6327330501899346e-07   -2.7890242134099804e-06
8.04221408710113e-07   3.6327330501899346e-07   -2.7890242134099804e-06
8.04221408710113e-07   3.6327330501899346e-07   -2.7890242134099804e-06
8.04221408710113e-07   3.6327330501899346e-07   -2.7890242134099804e-06
3.837096695064991e-06   -3.906008733902842e-07   -7.3914918502891594e-06
3.837096695064991e-06   -3.906008733902842e-07   -7.3914918502891594e-06
3.837096695064991e-06   -3.906008733902842e-07   -7.3914918502891594e-06
3.837096695064991e-06   -3.906008733902842e-07   -7.3914918502891594e-06
2.010010648520312e-06   -2.051348915406209e-07   -4.457628028491193e-06
2.010010648520312e-06   -2.051348915406209e-07   -4.457628028491193e-06
2.010010648520312e-06   -2.051348915406209e-07   -4.457628028491193e-06
2.010010648520312e-06   -2.051348915406209e-07   -4.457628028491193e-06
2.6564143779344955e-07   -4.546817996233119e-08   -6.69976562457986e-06
2.6564143779344955e-07   -4.546817996233119e-08   -6.69976562457986e-06
2.6564143779344955e-07   -4.546817996233119e-08   -6.69976562457986e-06
2.6564143779344955e-07   -4.546817996233119e-08   -6.69976562457986e-06
-2.215283846652791e-06   -3.71967875994778e-07   -1.103054091627635e-05
-2.215283846652791e-06   -3.71967875994778e-07   -1.103054091627635e-05
-2.215283846652791e-06   -3.71967875994778e-07   -1.103054091627635e-05
-2.215283846652791e-06   -3.71967875994778e-07   -1.103054091627635e-05
-2.0669424839677314e-06   2.3509894021405417e-07   -6.736177560165435e-06
-2.0669424839677314e-06   2.3509894021405417e-07   -6.736177560165435e-06
-2.0669424839677314e-06   2.3509894021405417e-07   -6.736177560165435e-06
-2.0669424839677314e-06   2.3509894021405417e-07   -6.736177560165435e-06
4.36890133767826e-07   -1.3737421265748624e-07   -1.068574803133514e-05
4.36890133767826e-07   -1.3737421265748624e-07   -1.068574803133514e-05
4.36890133767826e-07   -1.3737421265748624e-07   -1.068574803133514e-05
4.36890133767826e-07   -1.3737421265748624e-07   -1.068574803133514e-05
-8.748053253820223e-07   -7.320115376374149e-09   -8.577621391120724e-06
-8.748053253820223e-07   -7.320115376374149e-09   -8.577621391120724e-06
-8.748053253820223e-07   -7.320115376374149e-09   -8.577621391120724e-06
-8.748053253820223e-07   -7.320115376374149e-09   -8.577621391120724e-06
4.368901337678291e-07   2.3509894021406317e-07   -6.512693668442532e-06
4.368901337678291e-07   2.3509894021406317e-07   -6.512693668442532e-06
4.368901337678291e-07   2.3509894021406317e-07   -6.512693668442532e-06
4.368901337678291e-07   2.3509894021406317e-07   -6.512693668442532e-06
-2.0669424839677382e-06   -1.3737421265754045e-07   -1.0909231923058124e-05
-2.0669424839677382e-06   -1.3737421265754045e-07   -1.0909231923058124e-05
-2.0669424839677382e-06   -1.3737421265754045e-07   -1.0909231923058124e-05
-2.0669424839677382e-06   -1.3737421265754045e-07   -1.0909231923058124e-05
-1.9176762877215996e-06   5.064568327764669e-07   -6.74744942037042e-06
-1.9176762877215996e-06   5.064568327764669e-07   -6.74744942037042e-06
-1.9176762877215996e-06   5.064568327764669e-07   -6.74744942037042e-06
-1.9176762877215996e-06   5.064568327764669e-07   -6.74744942037042e-06
6.397342401230307e-07   1.0596420425449749e-07   -1.0769504722998332e-05
6.397342401230307e-07   1.0596420425449749e-07   -1.0769504722998332e-05
6.397342401230307e-07   1.0596420425449749e-07   -1.0769504722998332e-05
6.397342401230307e-07   1.0596420425449749e-07   -1.0769504722998332e-05
-7.446167597025363e-07   1.8688054523752912e-07   -8.510802861212203e-06
-7.446167597025363e-07   1.8688054523752912e-07   -8.510802861212203e-06
-7.446167597025363e-07   1.8688054523752912e-07   -8.510802861212203e-06
-7.446167597025363e-07   1.8688054523752912e-07   -8.510802861212203e-06
6.397342401230321e-07   5.064568327764645e-07   -6.507153843257277e-06
6.397342401230321e-07   5.064568327764645e-07   -6.507153843257277e-06
6.397342401230321e-07   5.064568327764645e-07   -6.507153843257277e-06
6.397342401230321e-07   5.064568327764645e-07   -6.507153843257277e-06
-1.9176762877215996e-06   1.0596420425449749e-07   -1.1009800300111475e-05
-1.9176762877215996e-06   1.0596420425449749e-07   -1.1009800300111475e-05
-1.9176762877215996e-06   1.0596420425449749e-07   -1.1009800300111475e-05
-1.9176762877215996e-06   1.0596420425449749e-07   -1.1009800300111475e-05
-1.7757150066556444e-06   8.175869180400094e-07   -6.918667305088916e-06
-1.7757150066556444e-06   8.175869180400094e-07   -6.918667305088916e-06
-1.7757150066556444e-06   8.175869180400094e-07   -6.918667305088916e-06
-1.7757150066556444e-06   8.175869180400094e-07   -6.918667305088916e-06
8.042214087101093e-07   3.953123646244401e-07   -1.0965196598649308e-05
8.042214087101093e-07   3.953123646244401e-07   -1.0965196598649308e-05
8.042214087101093e-07   3.953123646244401e-07   -1.0965196598649308e-05
8.042214087101093e-07   3.953123646244401e-07   -1.0965196598649308e-05
-5.983254706263207e-07   4.033581221040772e-07   -8.632445920909608e-06
-5.983254706263207e-07   4.033581221040772e-07   -8.632445920909608e-06
-5.983254706263207e-07   4.033581221040772e-07   -8.632445920909608e-06
-5.983254706263207e-07   4.033581221040772e-07   -8.632445920909608e-06
-2.215283846652791e-06   2.4115942182642245e-07   -8.13748827284923e-06
-2.215283846652791e-06   2.4115942182642245e-07   -8.13748827284923e-06
-2.215283846652791e-06   2.4115942182642245e-07   -8.13748827284923e-06
-2.215283846652791e-06   2.4115942182642245e-07   -8.13748827284923e-06
-4.6712121955063255e-06   3.0345165640476793e-07   -1.2193326846858115e-05
-4.6712121955063255e-06   3.0345165640476793e-07   -1.2193326846858115e-05
-4.6712121955063255e-06   3.0345165640476793e-07   -1.2193326846858115e-05
-4.6712121955063255e-06   3.0345165640476793e-07   -1.2193326846858115e-05
-4.522237597147115e-06   5.327416799341851e-07   -7.987722105883216e-06
-4.522237597147115e-06   5.327416799341851e-07   -7.987722105883216e-06
-4.522237597147115e-06   5.327416799341851e-07   -7.987722105883216e-06
-4.522237597147115e-06   5.327416799341851e-07   -7.987722105883216e-06
-2.0669424839677416e-06   5.531832440558676e-07   -1.2092145566321887e-05
-2.0669424839677416e-06   5.531832440558676e-07   -1.2092145566321887e-05
-2.0669424839677416e-06   5.531832440558676e-07   -1.2092145566321887e-05
-2.0669424839677416e-06   5.531832440558676e-07   -1.2092145566321887e-05
-3.3495115202570962e-06   4.582856854551116e-07   -9.897591970679178e-06
-3.3495115202570962e-06   4.582856854551116e-07   -9.897591970679178e-06
-3.3495115202570962e-06   4.582856854551116e-07   -9.897591970679178e-06
-3.3495115202570962e-06   4.582856854551116e-07   -9.897591970679178e-06
-2.0669424839677382e-06   5.327416799341658e-07   -7.999987044356231e-06
-2.0669424839677382e-06   5.327416799341658e-07   -7.999987044356231e-06
-2.0669424839677382e-06   5.327416799341658e-07   -7.999987044356231e-06
-2.0669424839677382e-06   5.327416799341658e-07   -7.999987044356231e-06
-4.522237597147106e-06   5.531832440558676e-07   -1.2079880627848872e-05
-4.522237597147106e-06   5.531832440558676e-07   -1.2079880627848872e-05
-4.522237597147106e-06   5.531832440558676e-07   -1.2079880627848872e-05
-4.522237597147106e-06   5.531832440558676e-07   -1.2079880627848872e-05
-4.370271138579421e-06   8.304812696505464e-07   -8.0075928206439e-06
-4.370271138579421e-06   8.304812696505464e-07   -8.0075928206439e-06
-4.370271138579421e-06   8.304812696505464e-07   -8.0075928206439e-06
-4.370271138579421e-06   8.304812696505464e-07   -8.0075928206439e-06
-1.917676287721605e-06   8.168843522563017e-07   -1.2087092754970318e-05
-1.917676287721605e-06   8.168843522563017e-07   -1.2087092754970318e-05
-1.917676287721605e-06   8.168843522563017e-07   -1.2087092754970318e-05
-1.917676287721605e-06   8.168843522563017e-07   -1.2087092754970318e-05
-3.2192832236930666e-06   6.771522512733093e-07   -9.833908601094897e-06
-3.2192832236930666e-06   6.771522512733093e-07   -9.833908601094897e-06
-3.2192832236930666e-06   6.771522512733093e-07   -9.833908601094897e-06
-3.2192832236930666e-06   6.771522512733093e-07   -9.833908601094897e-06
-1.9176762877216064e-06   8.304812696505631e-07   -7.999434670207287e-06
-1.9176762877216064e-06   8.304812696505631e-07   -7.999434670207287e-06
-1.9176762877216064e-06   8.304812696505631e-07   -7.999434670207287e-06
-1.9176762877216064e-06   8.304812696505631e-07   -7.999434670207287e-06
-4.370271138579414e-06   8.168843522563017e-07   -1.2095250905406883e-05
-4.370271138579414e-06   8.168843522563017e-07   -1.2095250905406883e-05
-4.370271138579414e-06   8.168843522563017e-07   -1.2095250905406883e-05
-4.370271138579414e-06   8.168843522563017e-07   -1.2095250905406883e-05
-4.225476065890134e-06   1.1324639466988098e-06   -8.188573019402609e-06
-4.225476065890134e-06   1.1324639466988098e-06   -8.188573019402609e-06
-4.225476065890134e-06   1.1324639466988098e-06   -8.188573019402609e-06
-4.225476065890134e-06   1.1324639466988098e-06   -8.188573019402609e-06
-1.7757150066556507e-06   1.0852214271310327e-06   -1.2243162606386043e-05
-1.7757150066556507e-06   1.0852214271310327e-06   -1.2243162606386043e-05
-1.7757150066556507e-06   1.0852214271310327e-06   -1.2243162606386043e-05
-1.7757150066556507e-06   1.0852214271310327e-06   -1.2243162606386043e-05
-3.0987837499867037e-06   8.994339093475862e-07   -9.926575523497572e-06
-3.0987837499867037e-06   8.994339093475862e-07   -9.926575523497572e-06
-3.0987837499867037e-06   8.994339093475862e-07   -9.926575523497572e-06
-3.0987837499867037e-06   8.994339093475862e-07   -9.926575523497572e-06
-4.671212195506334e-06   5.326008584527016e-07   -6.832802399007147e-06
-4.671212195506334e-06   5.326008584527016e-07   -6.832802399007147e-06
-4.671212195506334e-06   5.326008584527016e-07   -6.832802399007147e-06
-4.671212195506334e-06   5.326008584527016e-07   -6.832802399007147e-06
-7.1112895113724325e-06   9.628829093648902e-07   -1.0641428694903288e-05
-7.1112895113724325e-06   9.628829093648902e-07   -1.0641428694903288e-05
-7.1112895113724325e-06   9.628829093648902e-07   -1.0641428694903288e-05
-7.1112895113724325e-06   9.628829093648902e-07   -1.0641428694903288e-05
-6.940019817213284e-06   8.260099649258523e-07   -6.426222121828549e-06
-6.940019817213284e-06   8.260099649258523e-07   -6.426222121828549e-06
-6.940019817213284e-06   8.260099649258523e-07   -6.426222121828549e-06
-6.940019817213284e-06   8.260099649258523e-07   -6.426222121828549e-06
-4.522237597147107e-06   1.2295690397447386e-06   -1.0697994600163516e-05
-4.522237597147107e-06   1.2295690397447386e-06   -1.0697994600163516e-05
-4.522237597147107e-06   1.2295690397447386e-06   -1.0697994600163516e-05
-4.522237597147107e-06   1.2295690397447386e-06   -1.0697994600163516e-05
-5.770750602896474e-06   9.212739663844367e-07   -8.432162546565046e-06
-5.770750602896474e-06   9.212739663844367e-07   -8.432162546565046e-06
-5.770750602896474e-06   9.212739663844367e-07   -8.432162546565046e-06
-5.770750602896474e-06   9.212739663844367e-07   -8.432162546565046e-06
-4.522237597147115e-06   8.260099649258088e-07   -6.668357566719897e-06
-4.522237597147115e-06   8.260099649258088e-07   -6.668357566719897e-06
-4.522237597147115e-06   8.260099649258088e-07   -6.668357566719897e-06
-4.522237597147115e-06   8.260099649258088e-07   -6.668357566719897e-06
-6.940019817213298e-06   1.2295690397446843e-06   -1.0455859155272243e-05
-6.940019817213298e-06   1.2295690397446843e-06   -1.0455859155272243e-05
-6.940019817213298e-06   1.2295690397446843e-06   -1.0455859155272243e-05
-6.940019817213298e-06   1.2295690397446843e-06   -1.0455859155272243e-05
-6.7320119667753076e-06   1.0956638203217387e-06   -6.360497544948235e-06
-6.7320119667753076e-06   1.0956638203217387e-06   -6.360497544948235e-06
-6.7320119667753076e-06   1.0956638203217387e-06   -6.360497544948235e-06
-6.7320119667753076e-06   1.0956638203217387e-06   -6.360497544948235e-06
-4.370271138579421e-06   1.4689667188088652e-06   -1.052071399770035e-05
-4.370271138579421e-06   1.4689667188088652e-06   -1.052071399770035e-05
-4.370271138579421e-06   1.4689667188088652e-06   -1.052071399770035e-05
-4.370271138579421e-06   1.4689667188088652e-06   -1.052071399770035e-05
-5.596676495148696e-06   1.1328083362873798e-06   -8.275010040572136e-06
-5.596676495148696e-06   1.1328083362873798e-06   -8.275010040572136e-06
-5.596676495148696e-06   1.1328083362873798e-06   -8.275010040572136e-06
-5.596676495148696e-06   1.1328083362873798e-06   -8.275010040572136e-06
-4.370271138579421e-06   1.095663820321735e-06   -6.584479284040532e-06
-4.370271138579421e-06   1.095663820321735e-06   -6.584479284040532e-06
-4.370271138579421e-06   1.095663820321735e-06   -6.584479284040532e-06
-4.370271138579421e-06   1.095663820321735e-06   -6.584479284040532e-06
-6.7320119667753076e-06   1.4689667188088652e-06   -1.0296732258607995e-05
-6.7320119667753076e-06   1.4689667188088652e-06   -1.0296732258607995e-05
-6.7320119667753076e-06   1.4689667188088652e-06   -1.0296732258607995e-05
-6.7320119667753076e-06   1.4689667188088652e-06   -1.0296732258607995e-05
-6.559473179584532e-06   1.3962578787527196e-06   -6.536704737483126e-06
-6.559473179584532e-06   1.3962578787527196e-06   -6.536704737483126e-06
-6.559473179584532e-06   1.3962578787527196e-06   -6.536704737483126e-06
-6.559473179584532e-06   1.3962578787527196e-06   -6.536704737483126e-06
-4.225476065890133e-06   1.7350265240828394e-06   -1.0629961114171874e-05
-4.225476065890133e-06   1.7350265240828394e-06   -1.0629961114171874e-05
-4.225476065890133e-06   1.7350265240828394e-06   -1.0629961114171874e-05
-4.225476065890133e-06   1.7350265240828394e-06   -1.0629961114171874e-05
-5.484431664827385e-06   1.3401049320723194e-06   -8.294748827403445e-06
-5.484431664827385e-06   1.3401049320723194e-06   -8.294748827403445e-06
-5.484431664827385e-06   1.3401049320723194e-06   -8.294748827403445e-06
-5.484431664827385e-06   1.3401049320723194e-06   -8.294748827403445e-06
-7.1112895113724325e-06   9.012941650788973e-07   -3.521843098921578e-06
-7.1112895113724325e-06   9.012941650788973e-07   -3.521843098921578e-06
-7.1112895113724325e-06   9.012941650788973e-07   -3.521843098921578e-06
-7.1112895113724325e-06   9.012941650788973e-07   -3.521843098921578e-06
-9.906826159892427e-06   1.6579820486961215e-06   -7.727058116284587e-06
-9.906826159892427e-06   1.6579820486961215e-06   -7.727058116284587e-06
-9.906826159892427e-06   1.6579820486961215e-06   -7.727058116284587e-06
-9.906826159892427e-06   1.6579820486961215e-06   -7.727058116284587e-06
-9.417757842434933e-06   1.1687101457721156e-06   -2.163505844740782e-06
-9.417757842434933e-06   1.1687101457721156e-06   -2.163505844740782e-06
-9.417757842434933e-06   1.1687101457721156e-06   -2.163505844740782e-06
-9.417757842434933e-06   1.1687101457721156e-06   -2.163505844740782e-06
-6.940019817213284e-06   1.936317960587997e-06   -6.753633908999702e-06
-6.940019817213284e-06   1.936317960587997e-06   -6.753633908999702e-06
-6.940019817213284e-06   1.936317960587997e-06   -6.753633908999702e-06
-6.940019817213284e-06   1.936317960587997e-06   -6.753633908999702e-06
-8.004849817842351e-06   1.4456335920724544e-06   -4.684506620175273e-06
-8.004849817842351e-06   1.4456335920724544e-06   -4.684506620175273e-06
-8.004849817842351e-06   1.4456335920724544e-06   -4.684506620175273e-06
-8.004849817842351e-06   1.4456335920724544e-06   -4.684506620175273e-06
-6.9400198172132895e-06   1.1687101457721205e-06   -2.6240705336302676e-06
-6.9400198172132895e-06   1.1687101457721205e-06   -2.6240705336302676e-06
-6.9400198172132895e-06   1.1687101457721205e-06   -2.6240705336302676e-06
-6.9400198172132895e-06   1.1687101457721205e-06   -2.6240705336302676e-06
-9.417757842434899e-06   1.936317960587997e-06   -6.29306922011021e-06
-9.417757842434899e-06   1.936317960587997e-06   -6.29306922011021e-06
-9.417757842434899e-06   1.936317960587997e-06   -6.29306922011021e-06
-9.417757842434899e-06   1.936317960587997e-06   -6.29306922011021e-06
-9.013660395065798e-06   1.2910233290501158e-06   -1.7412469461619876e-06
-9.013660395065798e-06   1.2910233290501158e-06   -1.7412469461619876e-06
-9.013660395065798e-06   1.2910233290501158e-06   -1.7412469461619876e-06
-9.013660395065798e-06   1.2910233290501158e-06   -1.7412469461619876e-06
-6.732011966775295e-06   2.036528515045983e-06   -5.991297438243666e-06
-6.732011966775295e-06   2.036528515045983e-06   -5.991297438243666e-06
-6.732011966775295e-06   2.036528515045983e-06   -5.991297438243666e-06
-6.732011966775295e-06   2.036528515045983e-06   -5.991297438243666e-06
-7.835453049629888e-06   1.5728112366632176e-06   -3.8739985997897e-06
-7.835453049629888e-06   1.5728112366632176e-06   -3.8739985997897e-06
-7.835453049629888e-06   1.5728112366632176e-06   -3.8739985997897e-06
-7.835453049629888e-06   1.5728112366632176e-06   -3.8739985997897e-06
-6.7320119667753076e-06   1.2910233290501137e-06   -2.1885500577594863e-06
-6.7320119667753076e-06   1.2910233290501137e-06   -2.1885500577594863e-06
-6.7320119667753076e-06   1.2910233290501137e-06   -2.1885500577594863e-06
-6.7320119667753076e-06   1.2910233290501137e-06   -2.1885500577594863e-06
-9.01366039506577e-06   2.0365285150459288e-06   -5.543994326646137e-06
-9.01366039506577e-06   2.0365285150459288e-06   -5.543994326646137e-06
-9.01366039506577e-06   2.0365285150459288e-06   -5.543994326646137e-06
-9.01366039506577e-06   2.0365285150459288e-06   -5.543994326646137e-06
-8.531951418782168e-06   1.4766294594986684e-06   -1.288235468628325e-06
-8.531951418782168e-06   1.4766294594986684e-06   -1.288235468628325e-06
-8.531951418782168e-06   1.4766294594986684e-06   -1.288235468628325e-06
-8.531951418782168e-06   1.4766294594986684e-06   -1.288235468628325e-06
-6.559473179584528e-06   2.15937177564711e-06   -4.985344590313448e-06
-6.559473179584528e-06   2.15937177564711e-06   -4.985344590313448e-06
-6.559473179584528e-06   2.15937177564711e-06   -4.985344590313448e-06
-6.559473179584528e-06   2.15937177564711e-06   -4.985344590313448e-06
-7.451478280931019e-06   1.63269018564014e-06   -3.182660467398516e-06
-7.451478280931019e-06   1.63269018564014e-06   -3.182660467398516e-06
-7.451478280931019e-06   1.63269018564014e-06   -3.182660467398516e-06
-7.451478280931019e-06   1.63269018564014e-06   -3.182660467398516e-06
7.386849578716338e-06   -9.629642089872712e-07   8.9236113214096e-08
7.386849578716338e-06   -9.629642089872712e-07   8.9236113214096e-08
7.386849578716338e-06   -9.629642089872712e-07   8.9236113214096e-08
7.386849578716338e-06   -9.629642089872712e-07   8.9236113214096e-08
3.1228571174218524e-06   -1.7178114611638177e-06   -7.4703263402492925e-06
3.1228571174218524e-06   -1.7178114611638177e-06   -7.4703263402492925e-06
3.1228571174218524e-06   -1.7178114611638177e-06   -7.4703263402492925e-06
3.1228571174218524e-06   -1.7178114611638177e-06   -7.4703263402492925e-06
3.3307996870418025e-06   -7.93584658527989e-07   -6.849015010275102e-07
3.3307996870418025e-06   -7.93584658527989e-07   -6.849015010275102e-07
3.3307996870418025e-06   -7.93584658527989e-07   -6.849015010275102e-07
3.3307996870418025e-06   -7.93584658527989e-07   -6.849015010275102e-07
7.922779604736436e-06   -1.599783272243963e-06   -7.854482195622362e-06
7.922779604736436e-06   -1.599783272243963e-06   -7.854482195622362e-06
7.922779604736436e-06   -1.599783272243963e-06   -7.854482195622362e-06
7.922779604736436e-06   -1.599783272243963e-06   -7.854482195622362e-06
5.220177481488159e-06   -1.1382581362064494e-06   -3.627060405164375e-06
5.220177481488159e-06   -1.1382581362064494e-06   -3.627060405164375e-06
5.220177481488159e-06   -1.1382581362064494e-06   -3.627060405164375e-06
5.220177481488159e-06   -1.1382581362064494e-06   -3.627060405164375e-06
7.922779604736436e-06   -7.935846585279762e-07   -2.0118233279802335e-07
7.922779604736436e-06   -7.935846585279762e-07   -2.0118233279802335e-07
7.922779604736436e-06   -7.935846585279762e-07   -2.0118233279802335e-07
7.922779604736436e-06   -7.935846585279762e-07   -2.0118233279802335e-07
3.3307996870417958e-06   -1.5997832722438547e-06   -8.338201363851876e-06
3.3307996870417958e-06   -1.5997832722438547e-06   -8.338201363851876e-06
3.3307996870417958e-06   -1.5997832722438547e-06   -8.338201363851876e-06
3.3307996870417958e-06   -1.5997832722438547e-06   -8.338201363851876e-06
3.5618754118187814e-06   -6.7849013490732e-07   -1.0282158183220124e-06
3.5618754118187814e-06   -6.7849013490732e-07   -1.0282158183220124e-06
3.5618754118187814e-06   -6.7849013490732e-07   -1.0282158183220124e-06
3.5618754118187814e-06   -6.7849013490732e-07   -1.0282158183220124e-06
8.370079822775032e-06   -1.4955880546676896e-06   -8.551631084726286e-06
8.370079822775032e-06   -1.4955880546676896e-06   -8.551631084726286e-06
8.370079822775032e-06   -1.4955880546676896e-06   -8.551631084726286e-06
8.370079822775032e-06   -1.4955880546676896e-06   -8.551631084726286e-06
5.622255186723125e-06   -1.091697741447458e-06   -4.2142575459051725e-06
5.622255186723125e-06   -1.091697741447458e-06   -4.2142575459051725e-06
5.622255186723125e-06   -1.091697741447458e-06   -4.2142575459051725e-06
5.622255186723125e-06   -1.091697741447458e-06   -4.2142575459051725e-06
8.370079822775034e-06   -6.784901349073262e-07   -5.379570664657907e-07
8.370079822775034e-06   -6.784901349073262e-07   -5.379570664657907e-07
8.370079822775034e-06   -6.784901349073262e-07   -5.379570664657907e-07
8.370079822775034e-06   -6.784901349073262e-07   -5.379570664657907e-07
3.5618754118187814e-06   -1.4955880546676896e-06   -9.041889836582426e-06
3.5618754118187814e-06   -1.4955880546676896e-06   -9.041889836582426e-06
3.5618754118187814e-06   -1.4955880546676896e-06   -9.041889836582426e-06
3.5618754118187814e-06   -1.4955880546676896e-06   -9.041889836582426e-06
3.7505953809100157e-06   -3.906008733902842e-07   -1.8115251214436703e-06
3.7505953809100157e-06   -3.906008733902842e-07   -1.8115251214436703e-06
3.7505953809100157e-06   -3.906008733902842e-07   -1.8115251214436703e-06
3.7505953809100157e-06   -3.906008733902842e-07   -1.8115251214436703e-06
8.889859236212822e-06   -1.1691823060506557e-06   -9.909816020685488e-06
8.889859236212822e-06   -1.1691823060506557e-06   -9.909816020685488e-06
8.889859236212822e-06   -1.1691823060506557e-06   -9.909816020685488e-06
8.889859236212822e-06   -1.1691823060506557e-06   -9.909816020685488e-06
5.831932782768824e-06   -9.61394385870268e-07   -4.937944683720556e-06
5.831932782768824e-06   -9.61394385870268e-07   -4.937944683720556e-06
5.831932782768824e-06   -9.61394385870268e-07   -4.937944683720556e-06
5.831932782768824e-06   -9.61394385870268e-07   -4.937944683720556e-06
3.1228571174218592e-06   -3.719678759947578e-07   -4.914736326668923e-06
3.1228571174218592e-06   -3.719678759947578e-07   -4.914736326668923e-06
3.1228571174218592e-06   -3.719678759947578e-07   -4.914736326668923e-06
3.1228571174218592e-06   -3.719678759947578e-07   -4.914736326668923e-06
-1.3637529216320782e-06   -7.90118242973651e-07   -1.2643309945279519e-05
-1.3637529216320782e-06   -7.90118242973651e-07   -1.2643309945279519e-05
-1.3637529216320782e-06   -7.90118242973651e-07   -1.2643309945279519e-05
-1.3637529216320782e-06   -7.90118242973651e-07   -1.2643309945279519e-05
-1.1719100452610112e-06   -1.3737421265748624e-07   -5.016460844992695e-06
-1.1719100452610112e-06   -1.3737421265748624e-07   -5.016460844992695e-06
-1.1719100452610112e-06   -1.3737421265748624e-07   -5.016460844992695e-06
-1.1719100452610112e-06   -1.3737421265748624e-07   -5.016460844992695e-06
3.3307996870418055e-06   -6.217478741452282e-07   -1.2230352868604762e-05
3.3307996870418055e-06   -6.217478741452282e-07   -1.2230352868604762e-05
3.3307996870418055e-06   -6.217478741452282e-07   -1.2230352868604762e-05
3.3307996870418055e-06   -6.217478741452282e-07   -1.2230352868604762e-05
9.89865067140885e-07   -3.7941795143041357e-07   -8.47419312239873e-06
9.89865067140885e-07   -3.7941795143041357e-07   -8.47419312239873e-06
9.89865067140885e-07   -3.7941795143041357e-07   -8.47419312239873e-06
9.89865067140885e-07   -3.7941795143041357e-07   -8.47419312239873e-06
3.3307996870418025e-06   -1.3737421265748807e-07   -4.725836648099995e-06
3.3307996870418025e-06   -1.3737421265748807e-07   -4.725836648099995e-06
3.3307996870418025e-06   -1.3737421265748807e-07   -4.725836648099995e-06
3.3307996870418025e-06   -1.3737421265748807e-07   -4.725836648099995e-06
-1.1719100452610044e-06   -6.217478741451198e-07   -1.2520977065497325e-05
-1.1719100452610044e-06   -6.217478741451198e-07   -1.2520977065497325e-05
-1.1719100452610044e-06   -6.217478741451198e-07   -1.2520977065497325e-05
-1.1719100452610044e-06   -6.217478741451198e-07   -1.2520977065497325e-05
-9.887988322434006e-07   1.0596420425449749e-07   -5.085674728804617e-06
-9.887988322434006e-07   1.0596420425449749e-07   -5.085674728804617e-06
-9.887988322434006e-07   1.0596420425449749e-07   -5.085674728804617e-06
-9.887988322434006e-07   1.0596420425449749e-07   -5.085674728804617e-06
3.5618754118187814e-06   -4.1635142239719505e-07   -1.2356742426250565e-05
3.5618754118187814e-06   -4.1635142239719505e-07   -1.2356742426250565e-05
3.5618754118187814e-06   -4.1635142239719505e-07   -1.2356742426250565e-05
3.5618754118187814e-06   -4.1635142239719505e-07   -1.2356742426250565e-05
1.1399877896190188e-06   -2.294238553991572e-07   -8.432419596116238e-06
1.1399877896190188e-06   -2.294238553991572e-07   -8.432419596116238e-06
1.1399877896190188e-06   -2.294238553991572e-07   -8.432419596116238e-06
1.1399877896190188e-06   -2.294238553991572e-07   -8.432419596116238e-06
3.5618754118187814e-06   1.0596420425452401e-07   -4.772285352813591e-06
3.5618754118187814e-06   1.0596420425452401e-07   -4.772285352813591e-06
3.5618754118187814e-06   1.0596420425452401e-07   -4.772285352813591e-06
3.5618754118187814e-06   1.0596420425452401e-07   -4.772285352813591e-06
-9.887988322434006e-07   -4.163514223970866e-07   -1.2670131802241592e-05
-9.887988322434006e-07   -4.163514223970866e-07   -1.2670131802241592e-05
-9.887988322434006e-07   -4.163514223970866e-07   -1.2670131802241592e-05
-9.887988322434006e-07   -4.163514223970866e-07   -1.2670131802241592e-05
-8.173935986017592e-07   3.9531236462454853e-07   -5.264270484874782e-06
-8.173935986017592e-07   3.9531236462454853e-07   -5.264270484874782e-06
-8.173935986017592e-07   3.9531236462454853e-07   -5.264270484874782e-06
-8.173935986017592e-07   3.9531236462454853e-07   -5.264270484874782e-06
3.7505953809100064e-06   -1.5696283890318744e-07   -1.2546220328611121e-05
3.7505953809100064e-06   -1.5696283890318744e-07   -1.2546220328611121e-05
3.7505953809100064e-06   -1.5696283890318744e-07   -1.2546220328611121e-05
3.7505953809100064e-06   -1.5696283890318744e-07   -1.2546220328611121e-05
1.3306428754879297e-06   -4.3799239165653175e-08   -8.580864312750374e-06
1.3306428754879297e-06   -4.3799239165653175e-08   -8.580864312750374e-06
1.3306428754879297e-06   -4.3799239165653175e-08   -8.580864312750374e-06
1.3306428754879297e-06   -4.3799239165653175e-08   -8.580864312750374e-06
-1.363752921632085e-06   3.0345165640476677e-07   -6.365787818185021e-06
-1.363752921632085e-06   3.0345165640476677e-07   -6.365787818185021e-06
-1.363752921632085e-06   3.0345165640476677e-07   -6.365787818185021e-06
-1.363752921632085e-06   3.0345165640476677e-07   -6.365787818185021e-06
-5.77122618749452e-06   1.7214804360894502e-07   -1.3790358762299885e-05
-5.77122618749452e-06   1.7214804360894502e-07   -1.3790358762299885e-05
-5.77122618749452e-06   1.7214804360894502e-07   -1.3790358762299885e-05
-5.77122618749452e-06   1.7214804360894502e-07   -1.3790358762299885e-05
-5.564948791244048e-06   5.531832440558676e-07   -6.313887053552064e-06
-5.564948791244048e-06   5.531832440558676e-07   -6.313887053552064e-06
-5.564948791244048e-06   5.531832440558676e-07   -6.313887053552064e-06
-5.564948791244048e-06   5.531832440558676e-07   -6.313887053552064e-06
-1.1719100452610025e-06   3.623289685631727e-07   -1.3521105731561535e-05
-1.1719100452610025e-06   3.623289685631727e-07   -1.3521105731561535e-05
-1.1719100452610025e-06   3.623289685631727e-07   -1.3521105731561535e-05
-1.1719100452610025e-06   3.623289685631727e-07   -1.3521105731561535e-05
-3.4447850369581234e-06   4.1721858886907114e-07   -9.765914517583181e-06
-3.4447850369581234e-06   4.1721858886907114e-07   -9.765914517583181e-06
-3.4447850369581234e-06   4.1721858886907114e-07   -9.765914517583181e-06
-3.4447850369581234e-06   4.1721858886907114e-07   -9.765914517583181e-06
-1.1719100452610112e-06   5.531832440558772e-07   -6.199374488256458e-06
-1.1719100452610112e-06   5.531832440558772e-07   -6.199374488256458e-06
-1.1719100452610112e-06   5.531832440558772e-07   -6.199374488256458e-06
-1.1719100452610112e-06   5.531832440558772e-07   -6.199374488256458e-06
-5.564948791244048e-06   3.623289685631727e-07   -1.3635618296857141e-05
-5.564948791244048e-06   3.623289685631727e-07   -1.3635618296857141e-05
-5.564948791244048e-06   3.623289685631727e-07   -1.3635618296857141e-05
-5.564948791244048e-06   3.623289685631727e-07   -1.3635618296857141e-05
-5.365614708511683e-06   8.168843522563017e-07   -6.30450347567093e-06
-5.365614708511683e-06   8.168843522563017e-07   -6.30450347567093e-06
-5.365614708511683e-06   8.168843522563017e-07   -6.30450347567093e-06
-5.365614708511683e-06   8.168843522563017e-07   -6.30450347567093e-06
-9.887988322434008e-07   5.809905322437092e-07   -1.3457660310777278e-05
-9.887988322434008e-07   5.809905322437092e-07   -1.3457660310777278e-05
-9.887988322434008e-07   5.809905322437092e-07   -1.3457660310777278e-05
-9.887988322434008e-07   5.809905322437092e-07   -1.3457660310777278e-05
-3.268088658145051e-06   5.955548676959965e-07   -9.667582535545837e-06
-3.268088658145051e-06   5.955548676959965e-07   -9.667582535545837e-06
-3.268088658145051e-06   5.955548676959965e-07   -9.667582535545837e-06
-3.268088658145051e-06   5.955548676959965e-07   -9.667582535545837e-06
-9.887988322434006e-07   8.168843522562787e-07   -6.16296718366344e-06
-9.887988322434006e-07   8.168843522562787e-07   -6.16296718366344e-06
-9.887988322434006e-07   8.168843522562787e-07   -6.16296718366344e-06
-9.887988322434006e-07   8.168843522562787e-07   -6.16296718366344e-06
-5.365614708511683e-06   5.809905322437092e-07   -1.3599196602784769e-05
-5.365614708511683e-06   5.809905322437092e-07   -1.3599196602784769e-05
-5.365614708511683e-06   5.809905322437092e-07   -1.3599196602784769e-05
-5.365614708511683e-06   5.809905322437092e-07   -1.3599196602784769e-05
-5.1814837326069916e-06   1.0852214271309785e-06   -6.456001181960732e-06
-5.1814837326069916e-06   1.0852214271309785e-06   -6.456001181960732e-06
-5.1814837326069916e-06   1.0852214271309785e-06   -6.456001181960732e-06
-5.1814837326069916e-06   1.0852214271309785e-06   -6.456001181960732e-06
-8.173935986017619e-07   8.066723914668377e-07   -1.3562355317237652e-05
-8.173935986017619e-07   8.066723914668377e-07   -1.3562355317237652e-05
-8.173935986017619e-07   8.066723914668377e-07   -1.3562355317237652e-05
-8.173935986017619e-07   8.066723914668377e-07   -1.3562355317237652e-05
-3.1109319597943654e-06   7.784986615821856e-07   -9.722887143986012e-06
-3.1109319597943654e-06   7.784986615821856e-07   -9.722887143986012e-06
-3.1109319597943654e-06   7.784986615821856e-07   -9.722887143986012e-06
-3.1109319597943654e-06   7.784986615821856e-07   -9.722887143986012e-06
-5.7712261874945285e-06   9.62882909364901e-07   -5.150841064454996e-06
-5.7712261874945285e-06   9.62882909364901e-07   -5.150841064454996e-06
-5.7712261874945285e-06   9.62882909364901e-07   -5.150841064454996e-06
-5.7712261874945285e-06   9.62882909364901e-07   -5.150841064454996e-06
-1.0113400211478596e-05   1.1694133835409145e-06   -1.2263879486589554e-05
-1.0113400211478596e-05   1.1694133835409145e-06   -1.2263879486589554e-05
-1.0113400211478596e-05   1.1694133835409145e-06   -1.2263879486589554e-05
-1.0113400211478596e-05   1.1694133835409145e-06   -1.2263879486589554e-05
-9.86373864291452e-06   1.2295690397447386e-06   -4.824370949768684e-06
-9.86373864291452e-06   1.2295690397447386e-06   -4.824370949768684e-06
-9.86373864291452e-06   1.2295690397447386e-06   -4.824370949768684e-06
-9.86373864291452e-06   1.2295690397447386e-06   -4.824370949768684e-06
-5.5649487912440585e-06   1.4089524999082084e-06   -1.2096650778650885e-05
-5.5649487912440585e-06   1.4089524999082084e-06   -1.2096650778650885e-05
-5.5649487912440585e-06   1.4089524999082084e-06   -1.2096650778650885e-05
-5.5649487912440585e-06   1.4089524999082084e-06   -1.2096650778650885e-05
-7.771469463841234e-06   1.2404706496732141e-06   -8.318027214181228e-06
-7.771469463841234e-06   1.2404706496732141e-06   -8.318027214181228e-06
-7.771469463841234e-06   1.2404706496732141e-06   -8.318027214181228e-06
-7.771469463841234e-06   1.2404706496732141e-06   -8.318027214181228e-06
-5.564948791244057e-06   1.2295690397447208e-06   -4.93200102586681e-06
-5.564948791244057e-06   1.2295690397447208e-06   -4.93200102586681e-06
-5.564948791244057e-06   1.2295690397447208e-06   -4.93200102586681e-06
-5.564948791244057e-06   1.2295690397447208e-06   -4.93200102586681e-06
-9.86373864291452e-06   1.4089524999082084e-06   -1.1989020702552746e-05
-9.86373864291452e-06   1.4089524999082084e-06   -1.1989020702552746e-05
-9.86373864291452e-06   1.4089524999082084e-06   -1.1989020702552746e-05
-9.86373864291452e-06   1.4089524999082084e-06   -1.1989020702552746e-05
-9.585198468976898e-06   1.4689667188088652e-06   -4.642379953281688e-06
-9.585198468976898e-06   1.4689667188088652e-06   -4.642379953281688e-06
-9.585198468976898e-06   1.4689667188088652e-06   -4.642379953281688e-06
-9.585198468976898e-06   1.4689667188088652e-06   -4.642379953281688e-06
-5.365614708511692e-06   1.6149444099466644e-06   -1.1762606168739749e-05
-5.365614708511692e-06   1.6149444099466644e-06   -1.1762606168739749e-05
-5.365614708511692e-06   1.6149444099466644e-06   -1.1762606168739749e-05
-5.365614708511692e-06   1.6149444099466644e-06   -1.1762606168739749e-05
-7.516604647362815e-06   1.4282049321318524e-06   -8.065579250632348e-06
-7.516604647362815e-06   1.4282049321318524e-06   -8.065579250632348e-06
-7.516604647362815e-06   1.4282049321318524e-06   -8.065579250632348e-06
-7.516604647362815e-06   1.4282049321318524e-06   -8.065579250632348e-06
-5.365614708511693e-06   1.4689667188088729e-06   -4.7299665679644215e-06
-5.365614708511693e-06   1.4689667188088729e-06   -4.7299665679644215e-06
-5.365614708511693e-06   1.4689667188088729e-06   -4.7299665679644215e-06
-5.365614708511693e-06   1.4689667188088729e-06   -4.7299665679644215e-06
-9.585198468976898e-06   1.6149444099466644e-06   -1.1675019554057103e-05
-9.585198468976898e-06   1.6149444099466644e-06   -1.1675019554057103e-05
-9.585198468976898e-06   1.6149444099466644e-06   -1.1675019554057103e-05
-9.585198468976898e-06   1.6149444099466644e-06   -1.1675019554057103e-05
-9.350431433407454e-06   1.7350265240828394e-06   -4.750706509034524e-06
-9.350431433407454e-06   1.7350265240828394e-06   -4.750706509034524e-06
-9.350431433407454e-06   1.7350265240828394e-06   -4.750706509034524e-06
-9.350431433407454e-06   1.7350265240828394e-06   -4.750706509034524e-06
-5.181483732607001e-06   1.8412726390349765e-06   -1.1762700346006584e-05
-5.181483732607001e-06   1.8412726390349765e-06   -1.1762700346006584e-05
-5.181483732607001e-06   1.8412726390349765e-06   -1.1762700346006584e-05
-5.181483732607001e-06   1.8412726390349765e-06   -1.1762700346006584e-05
-7.363710719454247e-06   1.6005123608167898e-06   -7.981199200997045e-06
-7.363710719454247e-06   1.6005123608167898e-06   -7.981199200997045e-06
-7.363710719454247e-06   1.6005123608167898e-06   -7.981199200997045e-06
-7.363710719454247e-06   1.6005123608167898e-06   -7.981199200997045e-06
-1.0113400211478596e-05   1.6579820486961272e-06   -2.5665649315010633e-06
-1.0113400211478596e-05   1.6579820486961272e-06   -2.5665649315010633e-06
-1.0113400211478596e-05   1.6579820486961272e-06   -2.5665649315010633e-06
-1.0113400211478596e-05   1.6579820486961272e-06   -2.5665649315010633e-06
-1.4709460291314884e-05   2.275457687257818e-06   -9.85617968142456e-06
-1.4709460291314884e-05   2.275457687257818e-06   -9.85617968142456e-06
-1.4709460291314884e-05   2.275457687257818e-06   -9.85617968142456e-06
-1.4709460291314884e-05   2.275457687257818e-06   -9.85617968142456e-06
-1.412010102793764e-05   1.936317960587997e-06   -7.275235495102315e-07
-1.412010102793764e-05   1.936317960587997e-06   -7.275235495102315e-07
-1.412010102793764e-05   1.936317960587997e-06   -7.275235495102315e-07
-1.412010102793764e-05   1.936317960587997e-06   -7.275235495102315e-07
-9.863738642914503e-06   2.594021550564687e-06   -8.21608301186803e-06
-9.863738642914503e-06   2.594021550564687e-06   -8.21608301186803e-06
-9.863738642914503e-06   2.594021550564687e-06   -8.21608301186803e-06
-9.863738642914503e-06   2.594021550564687e-06   -8.21608301186803e-06
-1.1698177448997582e-05   2.1669812376607376e-06   -4.902460813987258e-06
-1.1698177448997582e-05   2.1669812376607376e-06   -4.902460813987258e-06
-1.1698177448997582e-05   2.1669812376607376e-06   -4.902460813987258e-06
-1.1698177448997582e-05   2.1669812376607376e-06   -4.902460813987258e-06
-9.86373864291451e-06   1.9363179605880034e-06   -1.122145703496137e-06
-9.86373864291451e-06   1.9363179605880034e-06   -1.122145703496137e-06
-9.86373864291451e-06   1.9363179605880034e-06   -1.122145703496137e-06
-9.86373864291451e-06   1.9363179605880034e-06   -1.122145703496137e-06
-1.4120101027937616e-05   2.5940215505645785e-06   -7.821460857882054e-06
-1.4120101027937616e-05   2.5940215505645785e-06   -7.821460857882054e-06
-1.4120101027937616e-05   2.5940215505645785e-06   -7.821460857882054e-06
-1.4120101027937616e-05   2.5940215505645785e-06   -7.821460857882054e-06
-1.3635442003823144e-05   2.036528515045983e-06   4.836229241383938e-08
-1.3635442003823144e-05   2.036528515045983e-06   4.836229241383938e-08
-1.3635442003823144e-05   2.036528515045983e-06   4.836229241383938e-08
-1.3635442003823144e-05   2.036528515045983e-06   4.836229241383938e-08
-9.585198468976898e-06   2.6787075572646136e-06   -7.08735102432776e-06
-9.585198468976898e-06   2.6787075572646136e-06   -7.08735102432776e-06
-9.585198468976898e-06   2.6787075572646136e-06   -7.08735102432776e-06
-9.585198468976898e-06   2.6787075572646136e-06   -7.08735102432776e-06
-1.151015846839361e-05   2.296758081699675e-06   -3.649914673294169e-06
-1.151015846839361e-05   2.296758081699675e-06   -3.649914673294169e-06
-1.151015846839361e-05   2.296758081699675e-06   -3.649914673294169e-06
-1.151015846839361e-05   2.296758081699675e-06   -3.649914673294169e-06
-9.585198468976898e-06   2.0365285150459677e-06   -3.3694513291732814e-07
-9.585198468976898e-06   2.0365285150459677e-06   -3.3694513291732814e-07
-9.585198468976898e-06   2.0365285150459677e-06   -3.3694513291732814e-07
-9.585198468976898e-06   2.0365285150459677e-06   -3.3694513291732814e-07
-1.3635442003823097e-05   2.678707557264505e-06   -6.7020435989966235e-06
-1.3635442003823097e-05   2.678707557264505e-06   -6.7020435989966235e-06
-1.3635442003823097e-05   2.678707557264505e-06   -6.7020435989966235e-06
-1.3635442003823097e-05   2.678707557264505e-06   -6.7020435989966235e-06
-1.310855050588639e-05   2.15937177564711e-06   1.043145107927461e-06
-1.310855050588639e-05   2.15937177564711e-06   1.043145107927461e-06
-1.310855050588639e-05   2.15937177564711e-06   1.043145107927461e-06
-1.310855050588639e-05   2.15937177564711e-06   1.043145107927461e-06
-9.350431433407446e-06   2.746865576149903e-06   -5.5728829598390515e-06
-9.350431433407446e-06   2.746865576149903e-06   -5.5728829598390515e-06
-9.350431433407446e-06   2.746865576149903e-06   -5.5728829598390515e-06
-9.350431433407446e-06   2.746865576149903e-06   -5.5728829598390515e-06
-1.1011785981037504e-05   2.317223939399954e-06   -2.5461737317393073e-06
-1.1011785981037504e-05   2.317223939399954e-06   -2.5461737317393073e-06
-1.1011785981037504e-05   2.317223939399954e-06   -2.5461737317393073e-06
-1.1011785981037504e-05   2.317223939399954e-06   -2.5461737317393073e-06
1.237913897139865e-05   -1.7178114611638124e-06   2.5976144672078716e-06
1.237913897139865e-05   -1.7178114611638124e-06   2.5976144672078716e-06
1.237913897139865e-05   -1.7178114611638124e-06   2.5976144672078716e-06
1.237913897139865e-05   -1.7178114611638124e-06   2.5976144672078716e-06
5.933596811394086e-06   -2.5218861327639666e-06   -8.627400602426486e-06
5.933596811394086e-06   -2.5218861327639666e-06   -8.627400602426486e-06
5.933596811394086e-06   -2.5218861327639666e-06   -8.627400602426486e-06
5.933596811394086e-06   -2.5218861327639666e-06   -8.627400602426486e-06
6.163162214080576e-06   -1.5997832722438547e-06   1.328142523960988e-06
6.163162214080576e-06   -1.5997832722438547e-06   1.328142523960988e-06
6.163162214080576e-06   -1.5997832722438547e-06   1.328142523960988e-06
6.163162214080576e-06   -1.5997832722438547e-06   1.328142523960988e-06
1.292479924096778e-05   -2.4655468636394394e-06   -9.42179436601374e-06
1.292479924096778e-05   -2.4655468636394394e-06   -9.42179436601374e-06
1.292479924096778e-05   -2.4655468636394394e-06   -9.42179436601374e-06
1.292479924096778e-05   -2.4655468636394394e-06   -9.42179436601374e-06
8.968509713148606e-06   -1.8760215427679429e-06   -3.181693678837999e-06
8.968509713148606e-06   -1.8760215427679429e-06   -3.181693678837999e-06
8.968509713148606e-06   -1.8760215427679429e-06   -3.181693678837999e-06
8.968509713148606e-06   -1.8760215427679429e-06   -3.181693678837999e-06
1.2924799240967801e-05   -1.599783272243835e-06   1.8476006787983387e-06
1.2924799240967801e-05   -1.599783272243835e-06   1.8476006787983387e-06
1.2924799240967801e-05   -1.599783272243835e-06   1.8476006787983387e-06
1.2924799240967801e-05   -1.599783272243835e-06   1.8476006787983387e-06
6.163162214080562e-06   -2.4655468636394394e-06   -9.941252520851037e-06
6.163162214080562e-06   -2.4655468636394394e-06   -9.941252520851037e-06
6.163162214080562e-06   -2.4655468636394394e-06   -9.941252520851037e-06
6.163162214080562e-06   -2.4655468636394394e-06   -9.941252520851037e-06
6.3918755388694934e-06   -1.4955880546676896e-06   7.010835403443798e-07
6.3918755388694934e-06   -1.4955880546676896e-06   7.010835403443798e-07
6.3918755388694934e-06   -1.4955880546676896e-06   7.010835403443798e-07
6.3918755388694934e-06   -1.4955880546676896e-06   7.010835403443798e-07
1.3341687983111701e-05   -2.379089602663341e-06   -1.0351836271261966e-05
1.3341687983111701e-05   -2.379089602663341e-06   -1.0351836271261966e-05
1.3341687983111701e-05   -2.379089602663341e-06   -1.0351836271261966e-05
1.3341687983111701e-05   -2.379089602663341e-06   -1.0351836271261966e-05
9.430152821733344e-06   -1.8692705894304655e-06   -4.138502410237755e-06
9.430152821733344e-06   -1.8692705894304655e-06   -4.138502410237755e-06
9.430152821733344e-06   -1.8692705894304655e-06   -4.138502410237755e-06
9.430152821733344e-06   -1.8692705894304655e-06   -4.138502410237755e-06
1.3341687983111703e-05   -1.4955880546677135e-06   1.2311844691417057e-06
1.3341687983111703e-05   -1.4955880546677135e-06   1.2311844691417057e-06
1.3341687983111703e-05   -1.4955880546677135e-06   1.2311844691417057e-06
1.3341687983111703e-05   -1.4955880546677135e-06   1.2311844691417057e-06
6.3918755388694934e-06   -2.379089602663341e-06   -1.0881937200059387e-05
6.3918755388694934e-06   -2.379089602663341e-06   -1.0881937200059387e-05
6.3918755388694934e-06   -2.379089602663341e-06   -1.0881937200059387e-05
6.3918755388694934e-06   -2.379089602663341e-06   -1.0881937200059387e-05
6.545032387645984e-06   -1.1691823060506557e-06   -5.518222280598371e-07
6.545032387645984e-06   -1.1691823060506557e-06   -5.518222280598371e-07
6.545032387645984e-06   -1.1691823060506557e-06   -5.518222280598371e-07
6.545032387645984e-06   -1.1691823060506557e-06   -5.518222280598371e-07
1.378324038133562e-05   -2.0449874383055835e-06   -1.2090019138189705e-05
1.378324038133562e-05   -2.0449874383055835e-06   -1.2090019138189705e-05
1.378324038133562e-05   -2.0449874383055835e-06   -1.2090019138189705e-05
1.378324038133562e-05   -2.0449874383055835e-06   -1.2090019138189705e-05
9.549425644131885e-06   -1.7239614801191783e-06   -5.226276817762106e-06
9.549425644131885e-06   -1.7239614801191783e-06   -5.226276817762106e-06
9.549425644131885e-06   -1.7239614801191783e-06   -5.226276817762106e-06
9.549425644131885e-06   -1.7239614801191783e-06   -5.226276817762106e-06
5.933596811394093e-06   -7.901182429736748e-07   -2.806923720595077e-06
5.933596811394093e-06   -7.901182429736748e-07   -2.806923720595077e-06
5.933596811394093e-06   -7.901182429736748e-07   -2.806923720595077e-06
5.933596811394093e-06   -7.901182429736748e-07   -2.806923720595077e-06
-4.1673410840456265e-07   -1.5996361053863782e-06   -1.3876519304373877e-05
-4.1673410840456265e-07   -1.5996361053863782e-06   -1.3876519304373877e-05
-4.1673410840456265e-07   -1.5996361053863782e-06   -1.3876519304373877e-05
-4.1673410840456265e-07   -1.5996361053863782e-06   -1.3876519304373877e-05
-1.8234367447645663e-07   -6.217478741452282e-07   -3.101897748211853e-06
-1.8234367447645663e-07   -6.217478741452282e-07   -3.101897748211853e-06
-1.8234367447645663e-07   -6.217478741452282e-07   -3.101897748211853e-06
-1.8234367447645663e-07   -6.217478741452282e-07   -3.101897748211853e-06
6.163162214080573e-06   -1.5182291531786862e-06   -1.3139852128386933e-05
6.163162214080573e-06   -1.5182291531786862e-06   -1.3139852128386933e-05
6.163162214080573e-06   -1.5182291531786862e-06   -1.3139852128386933e-05
6.163162214080573e-06   -1.5182291531786862e-06   -1.3139852128386933e-05
2.8819682528948447e-06   -9.693605383401466e-07   -8.000516695313764e-06
2.8819682528948447e-06   -9.693605383401466e-07   -8.000516695313764e-06
2.8819682528948447e-06   -9.693605383401466e-07   -8.000516695313764e-06
2.8819682528948447e-06   -9.693605383401466e-07   -8.000516695313764e-06
6.163162214080569e-06   -6.21747874145187e-07   -2.564008980791789e-06
6.163162214080569e-06   -6.21747874145187e-07   -2.564008980791789e-06
6.163162214080569e-06   -6.21747874145187e-07   -2.564008980791789e-06
6.163162214080569e-06   -6.21747874145187e-07   -2.564008980791789e-06
-1.8234367447645663e-07   -1.5182291531786862e-06   -1.367774089580697e-05
-1.8234367447645663e-07   -1.5182291531786862e-06   -1.367774089580697e-05
-1.8234367447645663e-07   -1.5182291531786862e-06   -1.367774089580697e-05
-1.8234367447645663e-07   -1.5182291531786862e-06   -1.367774089580697e-05
2.3851721038880918e-08   -4.163514223970866e-07   -3.1860835506481366e-06
2.3851721038880918e-08   -4.163514223970866e-07   -3.1860835506481366e-06
2.3851721038880918e-08   -4.163514223970866e-07   -3.1860835506481366e-06
2.3851721038880918e-08   -4.163514223970866e-07   -3.1860835506481366e-06
6.391875538869494e-06   -1.3702089246043917e-06   -1.3227142079041485e-05
6.391875538869494e-06   -1.3702089246043917e-06   -1.3227142079041485e-05
6.391875538869494e-06   -1.3702089246043917e-06   -1.3227142079041485e-05
6.391875538869494e-06   -1.3702089246043917e-06   -1.3227142079041485e-05
3.0385120738998504e-06   -8.846815296517652e-07   -7.929519407730176e-06
3.0385120738998504e-06   -8.846815296517652e-07   -7.929519407730176e-06
3.0385120738998504e-06   -8.846815296517652e-07   -7.929519407730176e-06
3.0385120738998504e-06   -8.846815296517652e-07   -7.929519407730176e-06
6.3918755388694934e-06   -4.16351422397183e-07   -2.613769049323786e-06
6.3918755388694934e-06   -4.16351422397183e-07   -2.613769049323786e-06
6.3918755388694934e-06   -4.16351422397183e-07   -2.613769049323786e-06
6.3918755388694934e-06   -4.16351422397183e-07   -2.613769049323786e-06
2.3851721038880918e-08   -1.3702089246043917e-06   -1.3799456580365849e-05
2.3851721038880918e-08   -1.3702089246043917e-06   -1.3799456580365849e-05
2.3851721038880918e-08   -1.3702089246043917e-06   -1.3799456580365849e-05
2.3851721038880918e-08   -1.3702089246043917e-06   -1.3799456580365849e-05
1.6956278148958718e-07   -1.5696283890318744e-07   -3.322500624990891e-06
1.6956278148958718e-07   -1.5696283890318744e-07   -3.322500624990891e-06
1.6956278148958718e-07   -1.5696283890318744e-07   -3.322500624990891e-06
1.6956278148958718e-07   -1.5696283890318744e-07   -3.322500624990891e-06
6.545032387645995e-06   -1.1593344199058641e-06   -1.3346860353316751e-05
6.545032387645995e-06   -1.1593344199058641e-06   -1.3346860353316751e-05
6.545032387645995e-06   -1.1593344199058641e-06   -1.3346860353316751e-05
6.545032387645995e-06   -1.1593344199058641e-06   -1.3346860353316751e-05
3.2304637613341604e-06   -7.376684469137095e-07   -8.075578893259114e-06
3.2304637613341604e-06   -7.376684469137095e-07   -8.075578893259114e-06
3.2304637613341604e-06   -7.376684469137095e-07   -8.075578893259114e-06
3.2304637613341604e-06   -7.376684469137095e-07   -8.075578893259114e-06
-4.1673410840456265e-07   1.721480436089646e-07   -4.360901087385662e-06
-4.1673410840456265e-07   1.721480436089646e-07   -4.360901087385662e-06
-4.1673410840456265e-07   1.721480436089646e-07   -4.360901087385662e-06
-4.1673410840456265e-07   1.721480436089646e-07   -4.360901087385662e-06
-6.673423855666462e-06   -7.861951115942147e-07   -1.5363723225944093e-05
-6.673423855666462e-06   -7.861951115942147e-07   -1.5363723225944093e-05
-6.673423855666462e-06   -7.861951115942147e-07   -1.5363723225944093e-05
-6.673423855666462e-06   -7.861951115942147e-07   -1.5363723225944093e-05
-6.391731924400442e-06   3.623289685632811e-07   -4.732683162716686e-06
-6.391731924400442e-06   3.623289685632811e-07   -4.732683162716686e-06
-6.391731924400442e-06   3.623289685632811e-07   -4.732683162716686e-06
-6.391731924400442e-06   3.623289685632811e-07   -4.732683162716686e-06
-1.8234367447645682e-07   -6.887656121710908e-07   -1.4451006830816045e-05
-1.8234367447645682e-07   -6.887656121710908e-07   -1.4451006830816045e-05
-1.8234367447645682e-07   -6.887656121710908e-07   -1.4451006830816045e-05
-1.8234367447645682e-07   -6.887656121710908e-07   -1.4451006830816045e-05
-3.3774499369828635e-06   -1.1697733285536208e-07   -9.468902694228114e-06
-3.3774499369828635e-06   -1.1697733285536208e-07   -9.468902694228114e-06
-3.3774499369828635e-06   -1.1697733285536208e-07   -9.468902694228114e-06
-3.3774499369828635e-06   -1.1697733285536208e-07   -9.468902694228114e-06
-1.8234367447645663e-07   3.623289685632429e-07   -4.102026414276063e-06
-1.8234367447645663e-07   3.623289685632429e-07   -4.102026414276063e-06
-1.8234367447645663e-07   3.623289685632429e-07   -4.102026414276063e-06
-1.8234367447645663e-07   3.623289685632429e-07   -4.102026414276063e-06
-6.391731924400442e-06   -6.887656121710908e-07   -1.5081663579256607e-05
-6.391731924400442e-06   -6.887656121710908e-07   -1.5081663579256607e-05
-6.391731924400442e-06   -6.887656121710908e-07   -1.5081663579256607e-05
-6.391731924400442e-06   -6.887656121710908e-07   -1.5081663579256607e-05
-6.133350609667815e-06   5.809905322438176e-07   -4.64752065310281e-06
-6.133350609667815e-06   5.809905322438176e-07   -4.64752065310281e-06
-6.133350609667815e-06   5.809905322438176e-07   -4.64752065310281e-06
-6.133350609667815e-06   5.809905322438176e-07   -4.64752065310281e-06
2.3851721038879935e-08   -5.42190457621214e-07   -1.4235615943695023e-05
2.3851721038879935e-08   -5.42190457621214e-07   -1.4235615943695023e-05
2.3851721038879935e-08   -5.42190457621214e-07   -1.4235615943695023e-05
2.3851721038879935e-08   -5.42190457621214e-07   -1.4235615943695023e-05
-3.149061988473463e-06   -7.321986392953665e-09   -9.268347510578094e-06
-3.149061988473463e-06   -7.321986392953665e-09   -9.268347510578094e-06
-3.149061988473463e-06   -7.321986392953665e-09   -9.268347510578094e-06
-3.149061988473463e-06   -7.321986392953665e-09   -9.268347510578094e-06
2.3851721038880918e-08   5.809905322437648e-07   -3.973612059183823e-06
2.3851721038880918e-08   5.809905322437648e-07   -3.973612059183823e-06
2.3851721038880918e-08   5.809905322437648e-07   -3.973612059183823e-06
2.3851721038880918e-08   5.809905322437648e-07   -3.973612059183823e-06
-6.133350609667815e-06   -5.42190457621214e-07   -1.490952453761399e-05
-6.133350609667815e-06   -5.42190457621214e-07   -1.490952453761399e-05
-6.133350609667815e-06   -5.42190457621214e-07   -1.490952453761399e-05
-6.133350609667815e-06   -5.42190457621214e-07   -1.490952453761399e-05
-5.959567426005007e-06   8.066723914669461e-07   -4.7327586575170925e-06
-5.959567426005007e-06   8.066723914669461e-07   -4.7327586575170925e-06
-5.959567426005007e-06   8.066723914669461e-07   -4.7327586575170925e-06
-5.959567426005007e-06   8.066723914669461e-07   -4.7327586575170925e-06
1.6956278148958964e-07   -4.024745518934822e-07   -1.4222487503991826e-05
1.6956278148958964e-07   -4.024745518934822e-07   -1.4222487503991826e-05
1.6956278148958964e-07   -4.024745518934822e-07   -1.4222487503991826e-05
1.6956278148958964e-07   -4.024745518934822e-07   -1.4222487503991826e-05
-2.987285658720707e-06   1.1517542501530195e-07   -9.271663423120103e-06
-2.987285658720707e-06   1.1517542501530195e-07   -9.271663423120103e-06
-2.987285658720707e-06   1.1517542501530195e-07   -9.271663423120103e-06
-2.987285658720707e-06   1.1517542501530195e-07   -9.271663423120103e-06
-6.673423855666462e-06   1.1694133835408984e-06   -3.5333459893028087e-06
-6.673423855666462e-06   1.1694133835408984e-06   -3.5333459893028087e-06
-6.673423855666462e-06   1.1694133835408984e-06   -3.5333459893028087e-06
-6.673423855666462e-06   1.1694133835408984e-06   -3.5333459893028087e-06
-1.3024465369153363e-05   3.1488383408280907e-07   -1.4631132908122472e-05
-1.3024465369153363e-05   3.1488383408280907e-07   -1.4631132908122472e-05
-1.3024465369153363e-05   3.1488383408280907e-07   -1.4631132908122472e-05
-1.3024465369153363e-05   3.1488383408280907e-07   -1.4631132908122472e-05
-1.2622874137706554e-05   1.4089524999082084e-06   -3.7463557345702742e-06
-1.2622874137706554e-05   1.4089524999082084e-06   -3.7463557345702742e-06
-1.2622874137706554e-05   1.4089524999082084e-06   -3.7463557345702742e-06
-1.2622874137706554e-05   1.4089524999082084e-06   -3.7463557345702742e-06
-6.391731924400443e-06   4.878856831415975e-07   -1.3578952666687214e-05
-6.391731924400443e-06   4.878856831415975e-07   -1.3578952666687214e-05
-6.391731924400443e-06   4.878856831415975e-07   -1.3578952666687214e-05
-6.391731924400443e-06   4.878856831415975e-07   -1.3578952666687214e-05
-9.580443959166416e-06   9.236052720012523e-07   -8.52586436205977e-06
-9.580443959166416e-06   9.236052720012523e-07   -8.52586436205977e-06
-9.580443959166416e-06   9.236052720012523e-07   -8.52586436205977e-06
-9.580443959166416e-06   9.236052720012523e-07   -8.52586436205977e-06
-6.391731924400442e-06   1.4089524999081563e-06   -3.193715644510362e-06
-6.391731924400442e-06   1.4089524999081563e-06   -3.193715644510362e-06
-6.391731924400442e-06   1.4089524999081563e-06   -3.193715644510362e-06
-6.391731924400442e-06   1.4089524999081563e-06   -3.193715644510362e-06
-1.2622874137706576e-05   4.878856831415975e-07   -1.4131592756747187e-05
-1.2622874137706576e-05   4.878856831415975e-07   -1.4131592756747187e-05
-1.2622874137706576e-05   4.878856831415975e-07   -1.4131592756747187e-05
-1.2622874137706576e-05   4.878856831415975e-07   -1.4131592756747187e-05
-1.2232252040077943e-05   1.6149444099466644e-06   -3.3920581456317123e-06
-1.2232252040077943e-05   1.6149444099466644e-06   -3.3920581456317123e-06
-1.2232252040077943e-05   1.6149444099466644e-06   -3.3920581456317123e-06
-1.2232252040077943e-05   1.6149444099466644e-06   -3.3920581456317123e-06
-6.133350609667823e-06   6.463978656567415e-07   -1.2975765936407984e-05
-6.133350609667823e-06   6.463978656567415e-07   -1.2975765936407984e-05
-6.133350609667823e-06   6.463978656567415e-07   -1.2975765936407984e-05
-6.133350609667823e-06   6.463978656567415e-07   -1.2975765936407984e-05
-9.213919953888902e-06   1.0742407363532663e-06   -8.098189418457422e-06
-9.213919953888902e-06   1.0742407363532663e-06   -8.098189418457422e-06
-9.213919953888902e-06   1.0742407363532663e-06   -8.098189418457422e-06
-9.213919953888902e-06   1.0742407363532663e-06   -8.098189418457422e-06
-6.133350609667815e-06   1.6149444099466195e-06   -2.8109302190577694e-06
-6.133350609667815e-06   1.6149444099466195e-06   -2.8109302190577694e-06
-6.133350609667815e-06   1.6149444099466195e-06   -2.8109302190577694e-06
-6.133350609667815e-06   1.6149444099466195e-06   -2.8109302190577694e-06
-1.2232252040077964e-05   6.463978656567415e-07   -1.3556893862982022e-05
-1.2232252040077964e-05   6.463978656567415e-07   -1.3556893862982022e-05
-1.2232252040077964e-05   6.463978656567415e-07   -1.3556893862982022e-05
-1.2232252040077964e-05   6.463978656567415e-07   -1.3556893862982022e-05
-1.193943579442105e-05   1.841272639035085e-06   -3.403408610642847e-06
-1.193943579442105e-05   1.841272639035085e-06   -3.403408610642847e-06
-1.193943579442105e-05   1.841272639035085e-06   -3.403408610642847e-06
-1.193943579442105e-05   1.841272639035085e-06   -3.403408610642847e-06
-5.959567426005015e-06   7.788820627763334e-07   -1.2732421545581007e-05
-5.959567426005015e-06   7.788820627763334e-07   -1.2732421545581007e-05
-5.959567426005015e-06   7.788820627763334e-07   -1.2732421545581007e-05
-5.959567426005015e-06   7.788820627763334e-07   -1.2732421545581007e-05
-9.01676282070673e-06   1.1798476944539348e-06   -7.877675266751486e-06
-9.01676282070673e-06   1.1798476944539348e-06   -7.877675266751486e-06
-9.01676282070673e-06   1.1798476944539348e-06   -7.877675266751486e-06
-9.01676282070673e-06   1.1798476944539348e-06   -7.877675266751486e-06
-1.3024465369153363e-05   2.2754576872578775e-06   -2.0088492969497825e-06
-1.3024465369153363e-05   2.2754576872578775e-06   -2.0088492969497825e-06
-1.3024465369153363e-05   2.2754576872578775e-06   -2.0088492969497825e-06
-1.3024465369153363e-05   2.2754576872578775e-06   -2.0088492969497825e-06
-1.968069079528729e-05   2.1705905324904354e-06   -1.3165478633366814e-05
-1.968069079528729e-05   2.1705905324904354e-06   -1.3165478633366814e-05
-1.968069079528729e-05   2.1705905324904354e-06   -1.3165478633366814e-05
-1.968069079528729e-05   2.1705905324904354e-06   -1.3165478633366814e-05
-1.8869229462067228e-05   2.5940215505645785e-06   1.0049175052111083e-07
-1.8869229462067228e-05   2.5940215505645785e-06   1.0049175052111083e-07
-1.8869229462067228e-05   2.5940215505645785e-06   1.0049175052111083e-07
-1.8869229462067228e-05   2.5940215505645785e-06   1.0049175052111083e-07
-1.2622874137706533e-05   2.717204541242621e-06   -1.0384010251153387e-05
-1.2622874137706533e-05   2.717204541242621e-06   -1.0384010251153387e-05
-1.2622874137706533e-05   2.717204541242621e-06   -1.0384010251153387e-05
-1.2622874137706533e-05   2.717204541242621e-06   -1.0384010251153387e-05
-1.5358425397493162e-05   2.558018219256126e-06   -5.729246358317194e-06
-1.5358425397493162e-05   2.558018219256126e-06   -5.729246358317194e-06
-1.5358425397493162e-05   2.558018219256126e-06   -5.729246358317194e-06
-1.5358425397493162e-05   2.558018219256126e-06   -5.729246358317194e-06
-1.2622874137706567e-05   2.594021550564661e-06   2.6581956114458787e-08
-1.2622874137706567e-05   2.594021550564661e-06   2.6581956114458787e-08
-1.2622874137706567e-05   2.594021550564661e-06   2.6581956114458787e-08
-1.2622874137706567e-05   2.594021550564661e-06   2.6581956114458787e-08
-1.8869229462067198e-05   2.717204541242621e-06   -1.0310100456746682e-05
-1.8869229462067198e-05   2.717204541242621e-06   -1.0310100456746682e-05
-1.8869229462067198e-05   2.717204541242621e-06   -1.0310100456746682e-05
-1.8869229462067198e-05   2.717204541242621e-06   -1.0310100456746682e-05
-1.8199113625245368e-05   2.678707557264505e-06   1.2932484877624059e-06
-1.8199113625245368e-05   2.678707557264505e-06   1.2932484877624059e-06
-1.8199113625245368e-05   2.678707557264505e-06   1.2932484877624059e-06
-1.8199113625245368e-05   2.678707557264505e-06   1.2932484877624059e-06
-1.2232252040077943e-05   2.8414377300393446e-06   -8.749158924514787e-06
-1.2232252040077943e-05   2.8414377300393446e-06   -8.749158924514787e-06
-1.2232252040077943e-05   2.8414377300393446e-06   -8.749158924514787e-06
-1.2232252040077943e-05   2.8414377300393446e-06   -8.749158924514787e-06
-1.5068502601412283e-05   2.740555330111097e-06   -3.961545215667149e-06
-1.5068502601412283e-05   2.740555330111097e-06   -3.961545215667149e-06
-1.5068502601412283e-05   2.740555330111097e-06   -3.961545215667149e-06
-1.5068502601412283e-05   2.740555330111097e-06   -3.961545215667149e-06
-1.2232252040077964e-05   2.6787075572645733e-06   1.1956103840975456e-06
-1.2232252040077964e-05   2.6787075572645733e-06   1.1956103840975456e-06
-1.2232252040077964e-05   2.6787075572645733e-06   1.1956103840975456e-06
-1.2232252040077964e-05   2.6787075572645733e-06   1.1956103840975456e-06
-1.81991136252454e-05   2.8414377300393446e-06   -8.651520820849971e-06
-1.81991136252454e-05   2.8414377300393446e-06   -8.651520820849971e-06
-1.81991136252454e-05   2.8414377300393446e-06   -8.651520820849971e-06
-1.81991136252454e-05   2.8414377300393446e-06   -8.651520820849971e-06
-1.7495185371854376e-05   2.7468655761497948e-06   2.9019202244497328e-06
-1.7495185371854376e-05   2.7468655761497948e-06   2.9019202244497328e-06
-1.7495185371854376e-05   2.7468655761497948e-06   2.9019202244497328e-06
-1.7495185371854376e-05   2.7468655761497948e-06   2.9019202244497328e-06
-1.1939435794421061e-05   3.045630772643775e-06   -6.536921522502234e-06
-1.1939435794421061e-05   3.045630772643775e-06   -6.536921522502234e-06
-1.1939435794421061e-05   3.045630772643775e-06   -6.536921522502234e-06
-1.1939435794421061e-05   3.045630772643775e-06   -6.536921522502234e-06
-1.4382567968388387e-05   2.7981816070623243e-06   -2.3165650665412465e-06
-1.4382567968388387e-05   2.7981816070623243e-06   -2.3165650665412465e-06
-1.4382567968388387e-05   2.7981816070623243e-06   -2.3165650665412465e-06
-1.4382567968388387e-05   2.7981816070623243e-06   -2.3165650665412465e-06
1.689622398568064e-05   -2.521886132763938e-06   5.877386005916031e-06
1.689622398568064e-05   -2.521886132763938e-06   5.877386005916031e-06
1.689622398568064e-05   -2.521886132763938e-06   5.877386005916031e-06
1.689622398568064e-05   -2.521886132763938e-06   5.877386005916031e-06
8.458651386274583e-06   -3.1723867426011222e-06   -8.57553535899637e-06
8.458651386274583e-06   -3.1723867426011222e-06   -8.57553535899637e-06
8.458651386274583e-06   -3.1723867426011222e-06   -8.57553535899637e-06
8.458651386274583e-06   -3.1723867426011222e-06   -8.57553535899637e-06
8.653882224418892e-06   -2.4655468636394394e-06   4.24366814532007e-06
8.653882224418892e-06   -2.4655468636394394e-06   4.24366814532007e-06
8.653882224418892e-06   -2.4655468636394394e-06   4.24366814532007e-06
8.653882224418892e-06   -2.4655468636394394e-06   4.24366814532007e-06
1.7302425613387834e-05   -3.2518643016612872e-06   -9.698780373481737e-06
1.7302425613387834e-05   -3.2518643016612872e-06   -9.698780373481737e-06
1.7302425613387834e-05   -3.2518643016612872e-06   -9.698780373481737e-06
1.7302425613387834e-05   -3.2518643016612872e-06   -9.698780373481737e-06
1.2314364792017444e-05   -2.5754582902751903e-06   -1.7911892780294176e-06
1.2314364792017444e-05   -2.5754582902751903e-06   -1.7911892780294176e-06
1.2314364792017444e-05   -2.5754582902751903e-06   -1.7911892780294176e-06
1.2314364792017444e-05   -2.5754582902751903e-06   -1.7911892780294176e-06
1.7302425613387834e-05   -2.4655468636394038e-06   4.715458608133157e-06
1.7302425613387834e-05   -2.4655468636394038e-06   4.715458608133157e-06
1.7302425613387834e-05   -2.4655468636394038e-06   4.715458608133157e-06
1.7302425613387834e-05   -2.4655468636394038e-06   4.715458608133157e-06
8.653882224418892e-06   -3.2518643016612872e-06   -1.0170570836294838e-05
8.653882224418892e-06   -3.2518643016612872e-06   -1.0170570836294838e-05
8.653882224418892e-06   -3.2518643016612872e-06   -1.0170570836294838e-05
8.653882224418892e-06   -3.2518643016612872e-06   -1.0170570836294838e-05
8.818631866588318e-06   -2.379089602663341e-06   3.3631245699454384e-06
8.818631866588318e-06   -2.379089602663341e-06   3.3631245699454384e-06
8.818631866588318e-06   -2.379089602663341e-06   3.3631245699454384e-06
8.818631866588318e-06   -2.379089602663341e-06   3.3631245699454384e-06
1.7554410196988503e-05   -3.2201721474735354e-06   -1.0691856453835433e-05
1.7554410196988503e-05   -3.2201721474735354e-06   -1.0691856453835433e-05
1.7554410196988503e-05   -3.2201721474735354e-06   -1.0691856453835433e-05
1.7554410196988503e-05   -3.2201721474735354e-06   -1.0691856453835433e-05
1.2738256463125294e-05   -2.65406249591127e-06   -3.0045993550007974e-06
1.2738256463125294e-05   -2.65406249591127e-06   -3.0045993550007974e-06
1.2738256463125294e-05   -2.65406249591127e-06   -3.0045993550007974e-06
1.2738256463125294e-05   -2.65406249591127e-06   -3.0045993550007974e-06
1.75544101969885e-05   -2.3790896026633344e-06   3.867774096831566e-06
1.75544101969885e-05   -2.3790896026633344e-06   3.867774096831566e-06
1.75544101969885e-05   -2.3790896026633344e-06   3.867774096831566e-06
1.75544101969885e-05   -2.3790896026633344e-06   3.867774096831566e-06
8.818631866588318e-06   -3.2201721474735354e-06   -1.119650598072156e-05
8.818631866588318e-06   -3.2201721474735354e-06   -1.119650598072156e-05
8.818631866588318e-06   -3.2201721474735354e-06   -1.119650598072156e-05
8.818631866588318e-06   -3.2201721474735354e-06   -1.119650598072156e-05
8.98907589966604e-06   -2.0449874383055835e-06   1.6676470011069426e-06
8.98907589966604e-06   -2.0449874383055835e-06   1.6676470011069426e-06
8.98907589966604e-06   -2.0449874383055835e-06   1.6676470011069426e-06
8.98907589966604e-06   -2.0449874383055835e-06   1.6676470011069426e-06
1.7802665423630873e-05   -3.034544109980445e-06   -1.2427934869162831e-05
1.7802665423630873e-05   -3.034544109980445e-06   -1.2427934869162831e-05
1.7802665423630873e-05   -3.034544109980445e-06   -1.2427934869162831e-05
1.7802665423630873e-05   -3.034544109980445e-06   -1.2427934869162831e-05
1.2733610732356584e-05   -2.550665778114098e-06   -4.269837382825484e-06
1.2733610732356584e-05   -2.550665778114098e-06   -4.269837382825484e-06
1.2733610732356584e-05   -2.550665778114098e-06   -4.269837382825484e-06
1.2733610732356584e-05   -2.550665778114098e-06   -4.269837382825484e-06
8.458651386274583e-06   -1.599636105386436e-06   7.236776555140053e-07
8.458651386274583e-06   -1.599636105386436e-06   7.236776555140053e-07
8.458651386274583e-06   -1.599636105386436e-06   7.236776555140053e-07
8.458651386274583e-06   -1.599636105386436e-06   7.236776555140053e-07
9.114906961040824e-07   -3.0995029014796883e-06   -1.2754843572426071e-05
9.114906961040824e-07   -3.0995029014796883e-06   -1.2754843572426071e-05
9.114906961040824e-07   -3.0995029014796883e-06   -1.2754843572426071e-05
9.114906961040824e-07   -3.0995029014796883e-06   -1.2754843572426071e-05
1.137939268816336e-06   -1.5182291531785777e-06   1.0851141870910509e-07
1.137939268816336e-06   -1.5182291531785777e-06   1.0851141870910509e-07
1.137939268816336e-06   -1.5182291531785777e-06   1.0851141870910509e-07
1.137939268816336e-06   -1.5182291531785777e-06   1.0851141870910509e-07
8.653882224418909e-06   -3.079157684970457e-06   -1.1481503054886681e-05
8.653882224418909e-06   -3.079157684970457e-06   -1.1481503054886681e-05
8.653882224418909e-06   -3.079157684970457e-06   -1.1481503054886681e-05
8.653882224418909e-06   -3.079157684970457e-06   -1.1481503054886681e-05
4.8070495276022934e-06   -2.095888382333327e-06   -5.66007680844125e-06
4.8070495276022934e-06   -2.095888382333327e-06   -5.66007680844125e-06
4.8070495276022934e-06   -2.095888382333327e-06   -5.66007680844125e-06
4.8070495276022934e-06   -2.095888382333327e-06   -5.66007680844125e-06
8.653882224418885e-06   -1.5182291531785777e-06   1.0450685377842543e-06
8.653882224418885e-06   -1.5182291531785777e-06   1.0450685377842543e-06
8.653882224418885e-06   -1.5182291531785777e-06   1.0450685377842543e-06
8.653882224418885e-06   -1.5182291531785777e-06   1.0450685377842543e-06
1.137939268816336e-06   -3.079157684970457e-06   -1.2418060173961776e-05
1.137939268816336e-06   -3.079157684970457e-06   -1.2418060173961776e-05
1.137939268816336e-06   -3.079157684970457e-06   -1.2418060173961776e-05
1.137939268816336e-06   -3.079157684970457e-06   -1.2418060173961776e-05
1.3422090909570881e-06   -1.3702089246045e-06   2.094256911606366e-08
1.3422090909570881e-06   -1.3702089246045e-06   2.094256911606366e-08
1.3422090909570881e-06   -1.3702089246045e-06   2.094256911606366e-08
1.3422090909570881e-06   -1.3702089246045e-06   2.094256911606366e-08
8.818631866588314e-06   -3.0318374610163517e-06   -1.14427849350888e-05
8.818631866588314e-06   -3.0318374610163517e-06   -1.14427849350888e-05
8.818631866588314e-06   -3.0318374610163517e-06   -1.14427849350888e-05
8.818631866588314e-06   -3.0318374610163517e-06   -1.14427849350888e-05
4.931791799391335e-06   -2.113618850846529e-06   -5.515649322528936e-06
4.931791799391335e-06   -2.113618850846529e-06   -5.515649322528936e-06
4.931791799391335e-06   -2.113618850846529e-06   -5.515649322528936e-06
4.931791799391335e-06   -2.113618850846529e-06   -5.515649322528936e-06
8.818631866588318e-06   -1.3702089246044205e-06   1.0179196909632722e-06
8.818631866588318e-06   -1.3702089246044205e-06   1.0179196909632722e-06
8.818631866588318e-06   -1.3702089246044205e-06   1.0179196909632722e-06
8.818631866588318e-06   -1.3702089246044205e-06   1.0179196909632722e-06
1.3422090909570814e-06   -3.0318374610163517e-06   -1.2439762056935995e-05
1.3422090909570814e-06   -3.0318374610163517e-06   -1.2439762056935995e-05
1.3422090909570814e-06   -3.0318374610163517e-06   -1.2439762056935995e-05
1.3422090909570814e-06   -3.0318374610163517e-06   -1.2439762056935995e-05
1.6479992655630426e-06   -1.1593344199057557e-06   -1.3281891001403704e-07
1.6479992655630426e-06   -1.1593344199057557e-06   -1.3281891001403704e-07
1.6479992655630426e-06   -1.1593344199057557e-06   -1.3281891001403704e-07
1.6479992655630426e-06   -1.1593344199057557e-06   -1.3281891001403704e-07
8.989075899666045e-06   -2.94118071215055e-06   -1.129883885817216e-05
8.989075899666045e-06   -2.94118071215055e-06   -1.129883885817216e-05
8.989075899666045e-06   -2.94118071215055e-06   -1.129883885817216e-05
8.989075899666045e-06   -2.94118071215055e-06   -1.129883885817216e-05
5.1793372730674015e-06   -2.0737808036020095e-06   -5.469714425636825e-06
5.1793372730674015e-06   -2.0737808036020095e-06   -5.469714425636825e-06
5.1793372730674015e-06   -2.0737808036020095e-06   -5.469714425636825e-06
5.1793372730674015e-06   -2.0737808036020095e-06   -5.469714425636825e-06
9.114906961040824e-07   -7.861951115941493e-07   -1.0884404505901715e-06
9.114906961040824e-07   -7.861951115941493e-07   -1.0884404505901715e-06
9.114906961040824e-07   -7.861951115941493e-07   -1.0884404505901715e-06
9.114906961040824e-07   -7.861951115941493e-07   -1.0884404505901715e-06
-6.5537916563468575e-06   -3.651028313247603e-06   -1.5249477625667155e-05
-6.5537916563468575e-06   -3.651028313247603e-06   -1.5249477625667155e-05
-6.5537916563468575e-06   -3.651028313247603e-06   -1.5249477625667155e-05
-6.5537916563468575e-06   -3.651028313247603e-06   -1.5249477625667155e-05
-6.200052147324854e-06   -6.887656121710908e-07   -2.486477050945787e-06
-6.200052147324854e-06   -6.887656121710908e-07   -2.486477050945787e-06
-6.200052147324854e-06   -6.887656121710908e-07   -2.486477050945787e-06
-6.200052147324854e-06   -6.887656121710908e-07   -2.486477050945787e-06
1.137939268816335e-06   -3.7249698365807073e-06   -1.2894740209868628e-05
1.137939268816335e-06   -3.7249698365807073e-06   -1.2894740209868628e-05
1.137939268816335e-06   -3.7249698365807073e-06   -1.2894740209868628e-05
1.137939268816335e-06   -3.7249698365807073e-06   -1.2894740209868628e-05
-2.59384689752179e-06   -2.0426048290917093e-06   -7.684515603798504e-06
-2.59384689752179e-06   -2.0426048290917093e-06   -7.684515603798504e-06
-2.59384689752179e-06   -2.0426048290917093e-06   -7.684515603798504e-06
-2.59384689752179e-06   -2.0426048290917093e-06   -7.684515603798504e-06
1.137939268816336e-06   -6.88765612171076e-07   -6.647545163000171e-07
1.137939268816336e-06   -6.88765612171076e-07   -6.647545163000171e-07
1.137939268816336e-06   -6.88765612171076e-07   -6.647545163000171e-07
1.137939268816336e-06   -6.88765612171076e-07   -6.647545163000171e-07
-6.2000521473248646e-06   -3.7249698365807073e-06   -1.4716462744514432e-05
-6.2000521473248646e-06   -3.7249698365807073e-06   -1.4716462744514432e-05
-6.2000521473248646e-06   -3.7249698365807073e-06   -1.4716462744514432e-05
-6.2000521473248646e-06   -3.7249698365807073e-06   -1.4716462744514432e-05
-5.894076962642166e-06   -5.42190457621214e-07   -2.309505087414365e-06
-5.894076962642166e-06   -5.42190457621214e-07   -2.309505087414365e-06
-5.894076962642166e-06   -5.42190457621214e-07   -2.309505087414365e-06
-5.894076962642166e-06   -5.42190457621214e-07   -2.309505087414365e-06
1.3422090909570828e-06   -3.699337612956817e-06   -1.2475693550211848e-05
1.3422090909570828e-06   -3.699337612956817e-06   -1.2475693550211848e-05
1.3422090909570828e-06   -3.699337612956817e-06   -1.2475693550211848e-05
1.3422090909570828e-06   -3.699337612956817e-06   -1.2475693550211848e-05
-2.343190733705603e-06   -2.0829871586228958e-06   -7.303170781707665e-06
-2.343190733705603e-06   -2.0829871586228958e-06   -7.303170781707665e-06
-2.343190733705603e-06   -2.0829871586228958e-06   -7.303170781707665e-06
-2.343190733705603e-06   -2.0829871586228958e-06   -7.303170781707665e-06
1.3422090909570814e-06   -5.421904576212498e-07   -4.152167942130902e-07
1.3422090909570814e-06   -5.421904576212498e-07   -4.152167942130902e-07
1.3422090909570814e-06   -5.421904576212498e-07   -4.152167942130902e-07
1.3422090909570814e-06   -5.421904576212498e-07   -4.152167942130902e-07
-5.894076962642187e-06   -3.6993376129567084e-06   -1.436998184341313e-05
-5.894076962642187e-06   -3.6993376129567084e-06   -1.436998184341313e-05
-5.894076962642187e-06   -3.6993376129567084e-06   -1.436998184341313e-05
-5.894076962642187e-06   -3.6993376129567084e-06   -1.436998184341313e-05
-5.36543744627533e-06   -4.024745518935906e-07   -2.3015427955961937e-06
-5.36543744627533e-06   -4.024745518935906e-07   -2.3015427955961937e-06
-5.36543744627533e-06   -4.024745518935906e-07   -2.3015427955961937e-06
-5.36543744627533e-06   -4.024745518935906e-07   -2.3015427955961937e-06
1.6479992655630458e-06   -3.5600073577412607e-06   -1.2096084298484853e-05
1.6479992655630458e-06   -3.5600073577412607e-06   -1.2096084298484853e-05
1.6479992655630458e-06   -3.5600073577412607e-06   -1.2096084298484853e-05
1.6479992655630458e-06   -3.5600073577412607e-06   -1.2096084298484853e-05
-2.0170059222907216e-06   -2.0292937708223015e-06   -6.906170470880025e-06
-2.0170059222907216e-06   -2.0292937708223015e-06   -6.906170470880025e-06
-2.0170059222907216e-06   -2.0292937708223015e-06   -6.906170470880025e-06
-2.0170059222907216e-06   -2.0292937708223015e-06   -6.906170470880025e-06
-6.553791656346847e-06   3.1488383408271537e-07   -1.5620323240857193e-06
-6.553791656346847e-06   3.1488383408271537e-07   -1.5620323240857193e-06
-6.553791656346847e-06   3.1488383408271537e-07   -1.5620323240857193e-06
-6.553791656346847e-06   3.1488383408271537e-07   -1.5620323240857193e-06
-1.4847178688183928e-05   -4.46629410781271e-06   -1.8253050808951477e-05
-1.4847178688183928e-05   -4.46629410781271e-06   -1.8253050808951477e-05
-1.4847178688183928e-05   -4.46629410781271e-06   -1.8253050808951477e-05
-1.4847178688183928e-05   -4.46629410781271e-06   -1.8253050808951477e-05
-1.441793770386828e-05   4.878856831415975e-07   -4.289798271599145e-06
-1.441793770386828e-05   4.878856831415975e-07   -4.289798271599145e-06
-1.441793770386828e-05   4.878856831415975e-07   -4.289798271599145e-06
-1.441793770386828e-05   4.878856831415975e-07   -4.289798271599145e-06
-6.200052147324854e-06   -5.022167872229823e-06   -1.4680242065948681e-05
-6.200052147324854e-06   -5.022167872229823e-06   -1.4680242065948681e-05
-6.200052147324854e-06   -5.022167872229823e-06   -1.4680242065948681e-05
-6.200052147324854e-06   -5.022167872229823e-06   -1.4680242065948681e-05
-1.035820999249709e-05   -2.2263498854559237e-06   -9.427469782725982e-06
-1.035820999249709e-05   -2.2263498854559237e-06   -9.427469782725982e-06
-1.035820999249709e-05   -2.2263498854559237e-06   -9.427469782725982e-06
-1.035820999249709e-05   -2.2263498854559237e-06   -9.427469782725982e-06
-6.200052147324854e-06   4.878856831415976e-07   -9.837661383763465e-07
-6.200052147324854e-06   4.878856831415976e-07   -9.837661383763465e-07
-6.200052147324854e-06   4.878856831415976e-07   -9.837661383763465e-07
-6.200052147324854e-06   4.878856831415976e-07   -9.837661383763465e-07
-1.4417937703868305e-05   -5.022167872229823e-06   -1.7986274199171507e-05
-1.4417937703868305e-05   -5.022167872229823e-06   -1.7986274199171507e-05
-1.4417937703868305e-05   -5.022167872229823e-06   -1.7986274199171507e-05
-1.4417937703868305e-05   -5.022167872229823e-06   -1.7986274199171507e-05
-1.4007227457846915e-05   6.463978656566331e-07   -3.7887152741761633e-06
-1.4007227457846915e-05   6.463978656566331e-07   -3.7887152741761633e-06
-1.4007227457846915e-05   6.463978656566331e-07   -3.7887152741761633e-06
-1.4007227457846915e-05   6.463978656566331e-07   -3.7887152741761633e-06
-5.894076962642175e-06   -5.041883447622899e-06   -1.3897663978216307e-05
-5.894076962642175e-06   -5.041883447622899e-06   -1.3897663978216307e-05
-5.894076962642175e-06   -5.041883447622899e-06   -1.3897663978216307e-05
-5.894076962642175e-06   -5.041883447622899e-06   -1.3897663978216307e-05
-9.939447382787601e-06   -2.22640589376264e-06   -8.844666476956755e-06
-9.939447382787601e-06   -2.22640589376264e-06   -8.844666476956755e-06
-9.939447382787601e-06   -2.22640589376264e-06   -8.844666476956755e-06
-9.939447382787601e-06   -2.22640589376264e-06   -8.844666476956755e-06
-5.8940769626421764e-06   6.463978656566837e-07   -3.757464862084005e-07
-5.8940769626421764e-06   6.463978656566837e-07   -3.757464862084005e-07
-5.8940769626421764e-06   6.463978656566837e-07   -3.757464862084005e-07
-5.8940769626421764e-06   6.463978656566837e-07   -3.757464862084005e-07
-1.4007227457846938e-05   -5.041883447622899e-06   -1.7310632766184104e-05
-1.4007227457846938e-05   -5.041883447622899e-06   -1.7310632766184104e-05
-1.4007227457846938e-05   -5.041883447622899e-06   -1.7310632766184104e-05
-1.4007227457846938e-05   -5.041883447622899e-06   -1.7310632766184104e-05
-1.3328790562956861e-05   7.788820627763334e-07   -3.284378261966391e-06
-1.3328790562956861e-05   7.788820627763334e-07   -3.284378261966391e-06
-1.3328790562956861e-05   7.788820627763334e-07   -3.284378261966391e-06
-1.3328790562956861e-05   7.788820627763334e-07   -3.284378261966391e-06
-5.3654374462753475e-06   -4.551767255219202e-06   -1.3358243865638305e-05
-5.3654374462753475e-06   -4.551767255219202e-06   -1.3358243865638305e-05
-5.3654374462753475e-06   -4.551767255219202e-06   -1.3358243865638305e-05
-5.3654374462753475e-06   -4.551767255219202e-06   -1.3358243865638305e-05
-9.532286850464774e-06   -1.9310723831782737e-06   -7.98591178188042e-06
-9.532286850464774e-06   -1.9310723831782737e-06   -7.98591178188042e-06
-9.532286850464774e-06   -1.9310723831782737e-06   -7.98591178188042e-06
-9.532286850464774e-06   -1.9310723831782737e-06   -7.98591178188042e-06
-1.4847178688183928e-05   2.1705905324904066e-06   -2.9021645216069977e-06
-1.4847178688183928e-05   2.1705905324904066e-06   -2.9021645216069977e-06
-1.4847178688183928e-05   2.1705905324904066e-06   -2.9021645216069977e-06
-1.4847178688183928e-05   2.1705905324904066e-06   -2.9021645216069977e-06
-2.5371505157210016e-05   0.0   -2.174506295614479e-05
-2.5371505157210016e-05   0.0   -2.174506295614479e-05
-2.5371505157210016e-05   0.0   -2.174506295614479e-05
-2.5371505157210016e-05   0.0   -2.174506295614479e-05
-2.4749669032196644e-05   2.717204541242621e-06   -2.172538490750951e-06
-2.4749669032196644e-05   2.717204541242621e-06   -2.172538490750951e-06
-2.4749669032196644e-05   2.717204541242621e-06   -2.172538490750951e-06
-2.4749669032196644e-05   2.717204541242621e-06   -2.172538490750951e-06
-1.441793770386828e-05   0.0   -1.7761767979886046e-05
-1.441793770386828e-05   0.0   -1.7761767979886046e-05
-1.441793770386828e-05   0.0   -1.7761767979886046e-05
-1.441793770386828e-05   0.0   -1.7761767979886046e-05
-1.9005066791186492e-05   8.481495931249045e-07   -1.0625442590230621e-05
-1.9005066791186492e-05   8.481495931249045e-07   -1.0625442590230621e-05
-1.9005066791186492e-05   8.481495931249045e-07   -1.0625442590230621e-05
-1.9005066791186492e-05   8.481495931249045e-07   -1.0625442590230621e-05
-1.4417937703868291e-05   2.717204541242673e-06   -5.422157660054544e-07
-1.4417937703868291e-05   2.717204541242673e-06   -5.422157660054544e-07
-1.4417937703868291e-05   2.717204541242673e-06   -5.422157660054544e-07
-1.4417937703868291e-05   2.717204541242673e-06   -5.422157660054544e-07
-2.47496690321966e-05   0.0   -1.9392090704631543e-05
-2.47496690321966e-05   0.0   -1.9392090704631543e-05
-2.47496690321966e-05   0.0   -1.9392090704631543e-05
-2.47496690321966e-05   0.0   -1.9392090704631543e-05
-2.4219632614588447e-05   2.8414377300393446e-06   -6.858429737326447e-07
-2.4219632614588447e-05   2.8414377300393446e-06   -6.858429737326447e-07
-2.4219632614588447e-05   2.8414377300393446e-06   -6.858429737326447e-07
-2.4219632614588447e-05   2.8414377300393446e-06   -6.858429737326447e-07
-1.4007227457846938e-05   0.0   -1.600165559694494e-05
-1.4007227457846938e-05   0.0   -1.600165559694494e-05
-1.4007227457846938e-05   0.0   -1.600165559694494e-05
-1.4007227457846938e-05   0.0   -1.600165559694494e-05
-1.8836547009568047e-05   1.3200813801452112e-06   -8.744838505496639e-06
-1.8836547009568047e-05   1.3200813801452112e-06   -8.744838505496639e-06
-1.8836547009568047e-05   1.3200813801452112e-06   -8.744838505496639e-06
-1.8836547009568047e-05   1.3200813801452112e-06   -8.744838505496639e-06
-1.4007227457846938e-05   2.8414377300393175e-06   1.0190196642909728e-06
-1.4007227457846938e-05   2.8414377300393175e-06   1.0190196642909728e-06
-1.4007227457846938e-05   2.8414377300393175e-06   1.0190196642909728e-06
-1.4007227457846938e-05   2.8414377300393175e-06   1.0190196642909728e-06
-2.4219632614588406e-05   0.0   -1.7706518234968484e-05
-2.4219632614588406e-05   0.0   -1.7706518234968484e-05
-2.4219632614588406e-05   0.0   -1.7706518234968484e-05
-2.4219632614588406e-05   0.0   -1.7706518234968484e-05
-2.3158024852256613e-05   3.0456307726438835e-06   1.7211776432813166e-06
-2.3158024852256613e-05   3.0456307726438835e-06   1.7211776432813166e-06
-2.3158024852256613e-05   3.0456307726438835e-06   1.7211776432813166e-06
-2.3158024852256613e-05   3.0456307726438835e-06   1.7211776432813166e-06
-1.3328790562956873e-05   0.0   -1.2833501041965252e-05
-1.3328790562956873e-05   0.0   -1.2833501041965252e-05
-1.3328790562956873e-05   0.0   -1.2833501041965252e-05
-1.3328790562956873e-05   0.0   -1.2833501041965252e-05
-1.789591941360695e-05   1.6211471742645731e-06   -6.194307928774056e-06
-1.789591941360695e-05   1.6211471742645731e-06   -6.194307928774056e-06
-1.789591941360695e-05   1.6211471742645731e-06   -6.194307928774056e-06
-1.789591941360695e-05   1.6211471742645731e-06   -6.194307928774056e-06
1.8690063065903014e-05   -3.172386742601151e-06   1.1088654145128554e-05
1.8690063065903014e-05   -3.172386742601151e-06   1.1088654145128554e-05
1.8690063065903014e-05   -3.172386742601151e-06   1.1088654145128554e-05
1.8690063065903014e-05   -3.172386742601151e-06   1.1088654145128554e-05
9.653156517352976e-06   -2.47846829217694e-06   -3.5565056988669415e-06
9.653156517352976e-06   -2.47846829217694e-06   -3.5565056988669415e-06
9.653156517352976e-06   -2.47846829217694e-06   -3.5565056988669415e-06
9.653156517352976e-06   -2.47846829217694e-06   -3.5565056988669415e-06
9.419259596541213e-06   -3.2518643016612872e-06   9.753799061026805e-06
9.419259596541213e-06   -3.2518643016612872e-06   9.753799061026805e-06
9.419259596541213e-06   -3.2518643016612872e-06   9.753799061026805e-06
9.419259596541213e-06   -3.2518643016612872e-06   9.753799061026805e-06
1.850257117369696e-05   -2.7186476607567005e-06   -5.704983552108923e-06
1.850257117369696e-05   -2.7186476607567005e-06   -5.704983552108923e-06
1.850257117369696e-05   -2.7186476607567005e-06   -5.704983552108923e-06
1.850257117369696e-05   -2.7186476607567005e-06   -5.704983552108923e-06
1.3488487623408352e-05   -2.7518000149555962e-06   2.6717137775581114e-06
1.3488487623408352e-05   -2.7518000149555962e-06   2.6717137775581114e-06
1.3488487623408352e-05   -2.7518000149555962e-06   2.6717137775581114e-06
1.3488487623408352e-05   -2.7518000149555962e-06   2.6717137775581114e-06
1.850257117369696e-05   -3.2518643016613165e-06   9.433869076483998e-06
1.850257117369696e-05   -3.2518643016613165e-06   9.433869076483998e-06
1.850257117369696e-05   -3.2518643016613165e-06   9.433869076483998e-06
1.850257117369696e-05   -3.2518643016613165e-06   9.433869076483998e-06
9.419259596541213e-06   -2.7186476607567005e-06   -5.3850535675660765e-06
9.419259596541213e-06   -2.7186476607567005e-06   -5.3850535675660765e-06
9.419259596541213e-06   -2.7186476607567005e-06   -5.3850535675660765e-06
9.419259596541213e-06   -2.7186476607567005e-06   -5.3850535675660765e-06
9.206831472283955e-06   -3.2201721474735354e-06   8.737277703151254e-06
9.206831472283955e-06   -3.2201721474735354e-06   8.737277703151254e-06
9.206831472283955e-06   -3.2201721474735354e-06   8.737277703151254e-06
9.206831472283955e-06   -3.2201721474735354e-06   8.737277703151254e-06
1.8282505412448244e-05   -2.738178798077106e-06   -6.678041540093752e-06
1.8282505412448244e-05   -2.738178798077106e-06   -6.678041540093752e-06
1.8282505412448244e-05   -2.738178798077106e-06   -6.678041540093752e-06
1.8282505412448244e-05   -2.738178798077106e-06   -6.678041540093752e-06
1.3488811575412055e-05   -2.800150625738079e-06   1.3486312848964832e-06
1.3488811575412055e-05   -2.800150625738079e-06   1.3486312848964832e-06
1.3488811575412055e-05   -2.800150625738079e-06   1.3486312848964832e-06
1.3488811575412055e-05   -2.800150625738079e-06   1.3486312848964832e-06
1.8282505412448274e-05   -3.220172147473571e-06   8.448081693513375e-06
1.8282505412448274e-05   -3.220172147473571e-06   8.448081693513375e-06
1.8282505412448274e-05   -3.220172147473571e-06   8.448081693513375e-06
1.8282505412448274e-05   -3.220172147473571e-06   8.448081693513375e-06
9.206831472283955e-06   -2.738178798077106e-06   -6.388845530455893e-06
9.206831472283955e-06   -2.738178798077106e-06   -6.388845530455893e-06
9.206831472283955e-06   -2.738178798077106e-06   -6.388845530455893e-06
9.206831472283955e-06   -2.738178798077106e-06   -6.388845530455893e-06
8.947210081792248e-06   -3.034544109980445e-06   7.083384165566613e-06
8.947210081792248e-06   -3.034544109980445e-06   7.083384165566613e-06
8.947210081792248e-06   -3.034544109980445e-06   7.083384165566613e-06
8.947210081792248e-06   -3.034544109980445e-06   7.083384165566613e-06
1.7937404859685224e-05   -2.672306172570591e-06   -8.117616560034206e-06
1.7937404859685224e-05   -2.672306172570591e-06   -8.117616560034206e-06
1.7937404859685224e-05   -2.672306172570591e-06   -8.117616560034206e-06
1.7937404859685224e-05   -2.672306172570591e-06   -8.117616560034206e-06
1.3037819834367248e-05   -2.661722977702059e-06   4.2008565241280114e-08
1.3037819834367248e-05   -2.661722977702059e-06   4.2008565241280114e-08
1.3037819834367248e-05   -2.661722977702059e-06   4.2008565241280114e-08
1.3037819834367248e-05   -2.661722977702059e-06   4.2008565241280114e-08
9.653156517352976e-06   -3.0995029014796726e-06   8.225617079609358e-06
9.653156517352976e-06   -3.0995029014796726e-06   8.225617079609358e-06
9.653156517352976e-06   -3.0995029014796726e-06   8.225617079609358e-06
9.653156517352976e-06   -3.0995029014796726e-06   8.225617079609358e-06
1.932048820584417e-06   -1.4936264719077504e-06   -3.679369890595126e-06
1.932048820584417e-06   -1.4936264719077504e-06   -3.679369890595126e-06
1.932048820584417e-06   -1.4936264719077504e-06   -3.679369890595126e-06
1.932048820584417e-06   -1.4936264719077504e-06   -3.679369890595126e-06
1.5620744913862815e-06   -3.079157684970457e-06   9.341467257295035e-06
1.5620744913862815e-06   -3.079157684970457e-06   9.341467257295035e-06
1.5620744913862815e-06   -3.079157684970457e-06   9.341467257295035e-06
1.5620744913862815e-06   -3.079157684970457e-06   9.341467257295035e-06
9.419259596541214e-06   -1.581490326870317e-06   -4.652441666156632e-06
9.419259596541214e-06   -1.581490326870317e-06   -4.652441666156632e-06
9.419259596541214e-06   -1.581490326870317e-06   -4.652441666156632e-06
9.419259596541214e-06   -1.581490326870317e-06   -4.652441666156632e-06
5.6319785717104395e-06   -2.227130332211431e-06   2.0470773784326705e-06
5.6319785717104395e-06   -2.227130332211431e-06   2.0470773784326705e-06
5.6319785717104395e-06   -2.227130332211431e-06   2.0470773784326705e-06
5.6319785717104395e-06   -2.227130332211431e-06   2.0470773784326705e-06
9.419259596541206e-06   -3.0791576849704773e-06   8.442866842434961e-06
9.419259596541206e-06   -3.0791576849704773e-06   8.442866842434961e-06
9.419259596541206e-06   -3.0791576849704773e-06   8.442866842434961e-06
9.419259596541206e-06   -3.0791576849704773e-06   8.442866842434961e-06
1.5620744913862883e-06   -1.581490326870317e-06   -3.7538412512965456e-06
1.5620744913862883e-06   -1.581490326870317e-06   -3.7538412512965456e-06
1.5620744913862883e-06   -1.581490326870317e-06   -3.7538412512965456e-06
1.5620744913862883e-06   -1.581490326870317e-06   -3.7538412512965456e-06
1.2968740761109992e-06   -3.0318374610163517e-06   9.339822274300217e-06
1.2968740761109992e-06   -3.0318374610163517e-06   9.339822274300217e-06
1.2968740761109992e-06   -3.0318374610163517e-06   9.339822274300217e-06
1.2968740761109992e-06   -3.0318374610163517e-06   9.339822274300217e-06
9.206831472283955e-06   -1.617131585155947e-06   -4.692263578170942e-06
9.206831472283955e-06   -1.617131585155947e-06   -4.692263578170942e-06
9.206831472283955e-06   -1.617131585155947e-06   -4.692263578170942e-06
9.206831472283955e-06   -1.617131585155947e-06   -4.692263578170942e-06
5.311573068015107e-06   -2.1788853566862172e-06   2.1368860251954675e-06
5.311573068015107e-06   -2.1788853566862172e-06   2.1368860251954675e-06
5.311573068015107e-06   -2.1788853566862172e-06   2.1368860251954675e-06
5.311573068015107e-06   -2.1788853566862172e-06   2.1368860251954675e-06
9.206831472283972e-06   -3.0318374610164127e-06   8.490998748784029e-06
9.206831472283972e-06   -3.0318374610164127e-06   8.490998748784029e-06
9.206831472283972e-06   -3.0318374610164127e-06   8.490998748784029e-06
9.206831472283972e-06   -3.0318374610164127e-06   8.490998748784029e-06
1.2968740761109992e-06   -1.617131585155947e-06   -3.843440052654699e-06
1.2968740761109992e-06   -1.617131585155947e-06   -3.843440052654699e-06
1.2968740761109992e-06   -1.617131585155947e-06   -3.843440052654699e-06
1.2968740761109992e-06   -1.617131585155947e-06   -3.843440052654699e-06
1.0024276930100377e-06   -2.94118071215055e-06   9.62618471954808e-06
1.0024276930100377e-06   -2.94118071215055e-06   9.62618471954808e-06
1.0024276930100377e-06   -2.94118071215055e-06   9.62618471954808e-06
1.0024276930100377e-06   -2.94118071215055e-06   9.62618471954808e-06
8.947210081792256e-06   -1.574563145507503e-06   -4.43508980174149e-06
8.947210081792256e-06   -1.574563145507503e-06   -4.43508980174149e-06
8.947210081792256e-06   -1.574563145507503e-06   -4.43508980174149e-06
8.947210081792256e-06   -1.574563145507503e-06   -4.43508980174149e-06
5.118324360402847e-06   -2.078561826935211e-06   2.248785609430878e-06
5.118324360402847e-06   -2.078561826935211e-06   2.248785609430878e-06
5.118324360402847e-06   -2.078561826935211e-06   2.248785609430878e-06
5.118324360402847e-06   -2.078561826935211e-06   2.248785609430878e-06
1.932048820584417e-06   -3.651028313247582e-06   8.41340880510346e-06
1.932048820584417e-06   -3.651028313247582e-06   8.41340880510346e-06
1.932048820584417e-06   -3.651028313247582e-06   8.41340880510346e-06
1.932048820584417e-06   -3.651028313247582e-06   8.41340880510346e-06
-5.493937786469742e-06   -5.680782865322576e-07   -2.113465523957583e-06
-5.493937786469742e-06   -5.680782865322576e-07   -2.113465523957583e-06
-5.493937786469742e-06   -5.680782865322576e-07   -2.113465523957583e-06
-5.493937786469742e-06   -5.680782865322576e-07   -2.113465523957583e-06
-6.068448794458265e-06   -3.7249698365807073e-06   1.0740996978560765e-05
-6.068448794458265e-06   -3.7249698365807073e-06   1.0740996978560765e-05
-6.068448794458265e-06   -3.7249698365807073e-06   1.0740996978560765e-05
-6.068448794458265e-06   -3.7249698365807073e-06   1.0740996978560765e-05
1.5620744913862874e-06   -5.97953574626455e-07   -3.852751588352735e-06
1.5620744913862874e-06   -5.97953574626455e-07   -3.852751588352735e-06
1.5620744913862874e-06   -5.97953574626455e-07   -3.852751588352735e-06
1.5620744913862874e-06   -5.97953574626455e-07   -3.852751588352735e-06
-1.9541206906934535e-06   -2.065229197709302e-06   2.8879390889632775e-06
-1.9541206906934535e-06   -2.065229197709302e-06   2.8879390889632775e-06
-1.9541206906934535e-06   -2.065229197709302e-06   2.8879390889632775e-06
-1.9541206906934535e-06   -2.065229197709302e-06   2.8879390889632775e-06
1.5620744913862815e-06   -3.724969836580712e-06   8.864787221388203e-06
1.5620744913862815e-06   -3.724969836580712e-06   8.864787221388203e-06
1.5620744913862815e-06   -3.724969836580712e-06   8.864787221388203e-06
1.5620744913862815e-06   -3.724969836580712e-06   8.864787221388203e-06
-6.068448794458255e-06   -5.97953574626455e-07   -1.9765418311801794e-06
-6.068448794458255e-06   -5.97953574626455e-07   -1.9765418311801794e-06
-6.068448794458255e-06   -5.97953574626455e-07   -1.9765418311801794e-06
-6.068448794458255e-06   -5.97953574626455e-07   -1.9765418311801794e-06
-6.421863209807644e-06   -3.6993376129567084e-06   1.1142210855027187e-05
-6.421863209807644e-06   -3.6993376129567084e-06   1.1142210855027187e-05
-6.421863209807644e-06   -3.6993376129567084e-06   1.1142210855027187e-05
-6.421863209807644e-06   -3.6993376129567084e-06   1.1142210855027187e-05
1.296874076110998e-06   -6.354708229521552e-07   -3.560671362173313e-06
1.296874076110998e-06   -6.354708229521552e-07   -3.560671362173313e-06
1.296874076110998e-06   -6.354708229521552e-07   -3.560671362173313e-06
1.296874076110998e-06   -6.354708229521552e-07   -3.560671362173313e-06
-2.3441635647323937e-06   -2.05244179250926e-06   3.3579072876332625e-06
-2.3441635647323937e-06   -2.05244179250926e-06   3.3579072876332625e-06
-2.3441635647323937e-06   -2.05244179250926e-06   3.3579072876332625e-06
-2.3441635647323937e-06   -2.05244179250926e-06   3.3579072876332625e-06
1.2968740761109925e-06   -3.699337612956753e-06   9.303890781024358e-06
1.2968740761109925e-06   -3.699337612956753e-06   9.303890781024358e-06
1.2968740761109925e-06   -3.699337612956753e-06   9.303890781024358e-06
1.2968740761109925e-06   -3.699337612956753e-06   9.303890781024358e-06
-6.421863209807638e-06   -6.354708229521552e-07   -1.7223512881705985e-06
-6.421863209807638e-06   -6.354708229521552e-07   -1.7223512881705985e-06
-6.421863209807638e-06   -6.354708229521552e-07   -1.7223512881705985e-06
-6.421863209807638e-06   -6.354708229521552e-07   -1.7223512881705985e-06
-6.8348302813154065e-06   -3.5600073577412607e-06   1.165796789589314e-05
-6.8348302813154065e-06   -3.5600073577412607e-06   1.165796789589314e-05
-6.8348302813154065e-06   -3.5600073577412607e-06   1.165796789589314e-05
-6.8348302813154065e-06   -3.5600073577412607e-06   1.165796789589314e-05
1.0024276930100483e-06   -6.268059555564068e-07   -3.1640495692935404e-06
1.0024276930100483e-06   -6.268059555564068e-07   -3.1640495692935404e-06
1.0024276930100483e-06   -6.268059555564068e-07   -3.1640495692935404e-06
1.0024276930100483e-06   -6.268059555564068e-07   -3.1640495692935404e-06
-2.6629451763533516e-06   -1.9624774625384657e-06   3.7463081171680858e-06
-2.6629451763533516e-06   -1.9624774625384657e-06   3.7463081171680858e-06
-2.6629451763533516e-06   -1.9624774625384657e-06   3.7463081171680858e-06
-2.6629451763533516e-06   -1.9624774625384657e-06   3.7463081171680858e-06
-5.493937786469752e-06   -4.4662941078127025e-06   1.0128312402985624e-05
-5.493937786469752e-06   -4.4662941078127025e-06   1.0128312402985624e-05
-5.493937786469752e-06   -4.4662941078127025e-06   1.0128312402985624e-05
-5.493937786469752e-06   -4.4662941078127025e-06   1.0128312402985624e-05
-1.3882798435084731e-05   7.823318171031523e-07   -7.039464564231185e-07
-1.3882798435084731e-05   7.823318171031523e-07   -7.039464564231185e-07
-1.3882798435084731e-05   7.823318171031523e-07   -7.039464564231185e-07
-1.3882798435084731e-05   7.823318171031523e-07   -7.039464564231185e-07
-1.4581632412425242e-05   -5.022167872229823e-06   1.4241237147355587e-05
-1.4581632412425242e-05   -5.022167872229823e-06   1.4241237147355587e-05
-1.4581632412425242e-05   -5.022167872229823e-06   1.4241237147355587e-05
-1.4581632412425242e-05   -5.022167872229823e-06   1.4241237147355587e-05
-6.068448794458255e-06   7.511979448187461e-07   -3.4114217061518017e-06
-6.068448794458255e-06   7.511979448187461e-07   -3.4114217061518017e-06
-6.068448794458255e-06   7.511979448187461e-07   -3.4114217061518017e-06
-6.068448794458255e-06   7.511979448187461e-07   -3.4114217061518017e-06
-9.872379674190207e-06   -1.7762532176499642e-06   4.44493379088261e-06
-9.872379674190207e-06   -1.7762532176499642e-06   4.44493379088261e-06
-9.872379674190207e-06   -1.7762532176499642e-06   4.44493379088261e-06
-9.872379674190207e-06   -1.7762532176499642e-06   4.44493379088261e-06
-6.068448794458255e-06   -5.022167872229789e-06   1.0777217657126489e-05
-6.068448794458255e-06   -5.022167872229789e-06   1.0777217657126489e-05
-6.068448794458255e-06   -5.022167872229789e-06   1.0777217657126489e-05
-6.068448794458255e-06   -5.022167872229789e-06   1.0777217657126489e-05
-1.4581632412425214e-05   7.511979448187461e-07   5.259778407728979e-08
-1.4581632412425214e-05   7.511979448187461e-07   5.259778407728979e-08
-1.4581632412425214e-05   7.511979448187461e-07   5.259778407728979e-08
-1.4581632412425214e-05   7.511979448187461e-07   5.259778407728979e-08
-1.5005897050828407e-05   -5.041883447622899e-06   1.5049458690070733e-05
-1.5005897050828407e-05   -5.041883447622899e-06   1.5049458690070733e-05
-1.5005897050828407e-05   -5.041883447622899e-06   1.5049458690070733e-05
-1.5005897050828407e-05   -5.041883447622899e-06   1.5049458690070733e-05
-6.421863209807636e-06   6.829998354548851e-07   -2.6921943481439495e-06
-6.421863209807636e-06   6.829998354548851e-07   -2.6921943481439495e-06
-6.421863209807636e-06   6.829998354548851e-07   -2.6921943481439495e-06
-6.421863209807636e-06   6.829998354548851e-07   -2.6921943481439495e-06
-1.0320612972175689e-05   -2.073380217105093e-06   5.459549954005529e-06
-1.0320612972175689e-05   -2.073380217105093e-06   5.459549954005529e-06
-1.0320612972175689e-05   -2.073380217105093e-06   5.459549954005529e-06
-1.0320612972175689e-05   -2.073380217105093e-06   5.459549954005529e-06
-6.421863209807638e-06   -5.041883447622865e-06   1.1614528720223975e-05
-6.421863209807638e-06   -5.041883447622865e-06   1.1614528720223975e-05
-6.421863209807638e-06   -5.041883447622865e-06   1.1614528720223975e-05
-6.421863209807638e-06   -5.041883447622865e-06   1.1614528720223975e-05
-1.5005897050828377e-05   6.829998354548851e-07   7.427356217027943e-07
-1.5005897050828377e-05   6.829998354548851e-07   7.427356217027943e-07
-1.5005897050828377e-05   6.829998354548851e-07   7.427356217027943e-07
-1.5005897050828377e-05   6.829998354548851e-07   7.427356217027943e-07
-1.5464964596243893e-05   -4.551767255219202e-06   1.538401685021411e-05
-1.5464964596243893e-05   -4.551767255219202e-06   1.538401685021411e-05
-1.5464964596243893e-05   -4.551767255219202e-06   1.538401685021411e-05
-1.5464964596243893e-05   -4.551767255219202e-06   1.538401685021411e-05
-6.834830281315406e-06   6.043808080570404e-07   -2.0932291792991295e-06
-6.834830281315406e-06   6.043808080570404e-07   -2.0932291792991295e-06
-6.834830281315406e-06   6.043808080570404e-07   -2.0932291792991295e-06
-6.834830281315406e-06   6.043808080570404e-07   -2.0932291792991295e-06
-1.0789368301429401e-05   -2.083489691974633e-06   6.110389820909975e-06
-1.0789368301429401e-05   -2.083489691974633e-06   6.110389820909975e-06
-1.0789368301429401e-05   -2.083489691974633e-06   6.110389820909975e-06
-1.0789368301429401e-05   -2.083489691974633e-06   6.110389820909975e-06
-1.3882798435084684e-05   -1.8214596497756443e-20   1.1087830130236047e-05
-1.3882798435084684e-05   -1.8214596497756443e-20   1.1087830130236047e-05
-1.3882798435084684e-05   -1.8214596497756443e-20   1.1087830130236047e-05
-1.3882798435084684e-05   -1.8214596497756443e-20   1.1087830130236047e-05
-2.4250341158399887e-05   3.2027281334604278e-06   -4.26977086187975e-06
-2.4250341158399887e-05   3.2027281334604278e-06   -4.26977086187975e-06
-2.4250341158399887e-05   3.2027281334604278e-06   -4.26977086187975e-06
-2.4250341158399887e-05   3.2027281334604278e-06   -4.26977086187975e-06
-2.519815556975745e-05   0.0   1.633186709682654e-05
-2.519815556975745e-05   0.0   1.633186709682654e-05
-2.519815556975745e-05   0.0   1.633186709682654e-05
-2.519815556975745e-05   0.0   1.633186709682654e-05
-1.4581632412425216e-05   3.1102062169758573e-06   -3.2284618955794595e-06
-1.4581632412425216e-05   3.1102062169758573e-06   -3.2284618955794595e-06
-1.4581632412425216e-05   3.1102062169758573e-06   -3.2284618955794595e-06
-1.4581632412425216e-05   3.1102062169758573e-06   -3.2284618955794595e-06
-1.8650822363068423e-05   1.898767918401354e-06   4.28038433463729e-06
-1.8650822363068423e-05   1.898767918401354e-06   4.28038433463729e-06
-1.8650822363068423e-05   1.898767918401354e-06   4.28038433463729e-06
-1.8650822363068423e-05   1.898767918401354e-06   4.28038433463729e-06
-1.4581632412425201e-05   3.3827107781547744e-20   1.4465743366641047e-05
-1.4581632412425201e-05   3.3827107781547744e-20   1.4465743366641047e-05
-1.4581632412425201e-05   3.3827107781547744e-20   1.4465743366641047e-05
-1.4581632412425201e-05   3.3827107781547744e-20   1.4465743366641047e-05
-2.5198155569757494e-05   3.1102062169758573e-06   -1.3623381653939397e-06
-2.5198155569757494e-05   3.1102062169758573e-06   -1.3623381653939397e-06
-2.5198155569757494e-05   3.1102062169758573e-06   -1.3623381653939397e-06
-2.5198155569757494e-05   3.1102062169758573e-06   -1.3623381653939397e-06
-2.567354456892703e-05   0.0   1.8180949830259006e-05
-2.567354456892703e-05   0.0   1.8180949830259006e-05
-2.567354456892703e-05   0.0   1.8180949830259006e-05
-2.567354456892703e-05   0.0   1.8180949830259006e-05
-1.500589705082838e-05   3.037523284915404e-06   -1.4209766708546748e-06
-1.500589705082838e-05   3.037523284915404e-06   -1.4209766708546748e-06
-1.500589705082838e-05   3.037523284915404e-06   -1.4209766708546748e-06
-1.500589705082838e-05   3.037523284915404e-06   -1.4209766708546748e-06
-1.9585687255222407e-05   1.5907241767546855e-06   7.080086468031994e-06
-1.9585687255222407e-05   1.5907241767546855e-06   7.080086468031994e-06
-1.9585687255222407e-05   1.5907241767546855e-06   7.080086468031994e-06
-1.9585687255222407e-05   1.5907241767546855e-06   7.080086468031994e-06
-1.5005897050828377e-05   3.3827107781547744e-20   1.6358435859309807e-05
-1.5005897050828377e-05   3.3827107781547744e-20   1.6358435859309807e-05
-1.5005897050828377e-05   3.3827107781547744e-20   1.6358435859309807e-05
-1.5005897050828377e-05   3.3827107781547744e-20   1.6358435859309807e-05
-2.5673544568927078e-05   3.037523284915404e-06   4.015373000945243e-07
-2.5673544568927078e-05   3.037523284915404e-06   4.015373000945243e-07
-2.5673544568927078e-05   3.037523284915404e-06   4.015373000945243e-07
-2.5673544568927078e-05   3.037523284915404e-06   4.015373000945243e-07
-2.6195411291030333e-05   0.0   2.064273966244243e-05
-2.6195411291030333e-05   0.0   2.064273966244243e-05
-2.6195411291030333e-05   0.0   2.064273966244243e-05
-2.6195411291030333e-05   0.0   2.064273966244243e-05
-1.5464964596243883e-05   2.559317329596804e-06   1.2230714400402154e-06
-1.5464964596243883e-05   2.559317329596804e-06   1.2230714400402154e-06
-1.5464964596243883e-05   2.559317329596804e-06   1.2230714400402154e-06
-1.5464964596243883e-05   2.559317329596804e-06   1.2230714400402154e-06
-1.9722361995763685e-05   1.130552682705819e-06   9.175992560707649e-06
-1.9722361995763685e-05   1.130552682705819e-06   9.175992560707649e-06
-1.9722361995763685e-05   1.130552682705819e-06   9.175992560707649e-06
-1.9722361995763685e-05   1.130552682705819e-06   9.175992560707649e-06
1.6586702725987698e-05   -2.4784682921769298e-06   1.1646273305404976e-05
1.6586702725987698e-05   -2.4784682921769298e-06   1.1646273305404976e-05
1.6586702725987698e-05   -2.4784682921769298e-06   1.1646273305404976e-05
1.6586702725987698e-05   -2.4784682921769298e-06   1.1646273305404976e-05
8.358052220055202e-06   -1.8970961740993365e-06   -1.7193209336360186e-06
8.358052220055202e-06   -1.8970961740993365e-06   -1.7193209336360186e-06
8.358052220055202e-06   -1.8970961740993365e-06   -1.7193209336360186e-06
8.358052220055202e-06   -1.8970961740993365e-06   -1.7193209336360186e-06
8.1461111950957e-06   -2.718647660756592e-06   1.013699587006561e-05
8.1461111950957e-06   -2.718647660756592e-06   1.013699587006561e-05
8.1461111950957e-06   -2.718647660756592e-06   1.013699587006561e-05
8.1461111950957e-06   -2.718647660756592e-06   1.013699587006561e-05
1.621208772984619e-05   -2.1426906415105687e-06   -3.651872566066235e-06
1.621208772984619e-05   -2.1426906415105687e-06   -3.651872566066235e-06
1.621208772984619e-05   -2.1426906415105687e-06   -3.651872566066235e-06
1.621208772984619e-05   -2.1426906415105687e-06   -3.651872566066235e-06
1.1777030738425086e-05   -2.2191330000367925e-06   3.785754501418034e-06
1.1777030738425086e-05   -2.2191330000367925e-06   3.785754501418034e-06
1.1777030738425086e-05   -2.2191330000367925e-06   3.785754501418034e-06
1.1777030738425086e-05   -2.2191330000367925e-06   3.785754501418034e-06
1.621208772984616e-05   -2.7186476607566454e-06   9.791421658517931e-06
1.621208772984616e-05   -2.7186476607566454e-06   9.791421658517931e-06
1.621208772984616e-05   -2.7186476607566454e-06   9.791421658517931e-06
1.621208772984616e-05   -2.7186476607566454e-06   9.791421658517931e-06
8.146111195095716e-06   -2.1426906415105687e-06   -3.306298354518512e-06
8.146111195095716e-06   -2.1426906415105687e-06   -3.306298354518512e-06
8.146111195095716e-06   -2.1426906415105687e-06   -3.306298354518512e-06
8.146111195095716e-06   -2.1426906415105687e-06   -3.306298354518512e-06
7.87318068929338e-06   -2.738178798077106e-06   9.081470596110667e-06
7.87318068929338e-06   -2.738178798077106e-06   9.081470596110667e-06
7.87318068929338e-06   -2.738178798077106e-06   9.081470596110667e-06
7.87318068929338e-06   -2.738178798077106e-06   9.081470596110667e-06
1.583144877768052e-05   -2.1774034472488244e-06   -4.518774761698156e-06
1.583144877768052e-05   -2.1774034472488244e-06   -4.518774761698156e-06
1.583144877768052e-05   -2.1774034472488244e-06   -4.518774761698156e-06
1.583144877768052e-05   -2.1774034472488244e-06   -4.518774761698156e-06
1.168056328048709e-05   -2.3142865339710345e-06   2.481497585657504e-06
1.168056328048709e-05   -2.3142865339710345e-06   2.481497585657504e-06
1.168056328048709e-05   -2.3142865339710345e-06   2.481497585657504e-06
1.168056328048709e-05   -2.3142865339710345e-06   2.481497585657504e-06
1.5831448777680522e-05   -2.7381787980770697e-06   8.745005385613774e-06
1.5831448777680522e-05   -2.7381787980770697e-06   8.745005385613774e-06
1.5831448777680522e-05   -2.7381787980770697e-06   8.745005385613774e-06
1.5831448777680522e-05   -2.7381787980770697e-06   8.745005385613774e-06
7.87318068929338e-06   -2.1774034472488244e-06   -4.182309551201222e-06
7.87318068929338e-06   -2.1774034472488244e-06   -4.182309551201222e-06
7.87318068929338e-06   -2.1774034472488244e-06   -4.182309551201222e-06
7.87318068929338e-06   -2.1774034472488244e-06   -4.182309551201222e-06
7.586174525532648e-06   -2.672306172570591e-06   7.509051112445221e-06
7.586174525532648e-06   -2.672306172570591e-06   7.509051112445221e-06
7.586174525532648e-06   -2.672306172570591e-06   7.509051112445221e-06
7.586174525532648e-06   -2.672306172570591e-06   7.509051112445221e-06
1.5354427257640277e-05   -2.1556668137696694e-06   -5.748020389681429e-06
1.5354427257640277e-05   -2.1556668137696694e-06   -5.748020389681429e-06
1.5354427257640277e-05   -2.1556668137696694e-06   -5.748020389681429e-06
1.5354427257640277e-05   -2.1556668137696694e-06   -5.748020389681429e-06
1.1174513319989246e-05   -2.251042347360308e-06   1.275728159891545e-06
1.1174513319989246e-05   -2.251042347360308e-06   1.275728159891545e-06
1.1174513319989246e-05   -2.251042347360308e-06   1.275728159891545e-06
1.1174513319989246e-05   -2.251042347360308e-06   1.275728159891545e-06
8.358052220055202e-06   -1.4936264719077696e-06   1.0908706526780235e-05
8.358052220055202e-06   -1.4936264719077696e-06   1.0908706526780235e-05
8.358052220055202e-06   -1.4936264719077696e-06   1.0908706526780235e-05
8.358052220055202e-06   -1.4936264719077696e-06   1.0908706526780235e-05
8.417368618992641e-07   -6.596691154027012e-07   -1.1181113229100223e-06
8.417368618992641e-07   -6.596691154027012e-07   -1.1181113229100223e-06
8.417368618992641e-07   -6.596691154027012e-07   -1.1181113229100223e-06
8.417368618992641e-07   -6.596691154027012e-07   -1.1181113229100223e-06
6.303220278447173e-07   -1.581490326870317e-06   1.1344563904764076e-05
6.303220278447173e-07   -1.581490326870317e-06   1.1344563904764076e-05
6.303220278447173e-07   -1.581490326870317e-06   1.1344563904764076e-05
6.303220278447173e-07   -1.581490326870317e-06   1.1344563904764076e-05
8.146111195095716e-06   -7.898967713887645e-07   -1.6567075072765664e-06
8.146111195095716e-06   -7.898967713887645e-07   -1.6567075072765664e-06
8.146111195095716e-06   -7.898967713887645e-07   -1.6567075072765664e-06
8.146111195095716e-06   -7.898967713887645e-07   -1.6567075072765664e-06
4.450511487097574e-06   -1.0530227042569772e-06   4.66050089910793e-06
4.450511487097574e-06   -1.0530227042569772e-06   4.66050089910793e-06
4.450511487097574e-06   -1.0530227042569772e-06   4.66050089910793e-06
4.450511487097574e-06   -1.0530227042569772e-06   4.66050089910793e-06
8.14611119509571e-06   -1.5814903268703288e-06   1.0869607771475122e-05
8.14611119509571e-06   -1.5814903268703288e-06   1.0869607771475122e-05
8.14611119509571e-06   -1.5814903268703288e-06   1.0869607771475122e-05
8.14611119509571e-06   -1.5814903268703288e-06   1.0869607771475122e-05
6.303220278447173e-07   -7.898967713887645e-07   -1.1817513739876065e-06
6.303220278447173e-07   -7.898967713887645e-07   -1.1817513739876065e-06
6.303220278447173e-07   -7.898967713887645e-07   -1.1817513739876065e-06
6.303220278447173e-07   -7.898967713887645e-07   -1.1817513739876065e-06
3.613865386906348e-07   -1.617131585155947e-06   1.1224599625290284e-05
3.613865386906348e-07   -1.617131585155947e-06   1.1224599625290284e-05
3.613865386906348e-07   -1.617131585155947e-06   1.1224599625290284e-05
3.613865386906348e-07   -1.617131585155947e-06   1.1224599625290284e-05
7.87318068929338e-06   -8.728864569982611e-07   -1.7416043692756157e-06
7.87318068929338e-06   -8.728864569982611e-07   -1.7416043692756157e-06
7.87318068929338e-06   -8.728864569982611e-07   -1.7416043692756157e-06
7.87318068929338e-06   -8.728864569982611e-07   -1.7416043692756157e-06
4.180868953073162e-06   -1.1010402061115403e-06   4.549140773892916e-06
4.180868953073162e-06   -1.1010402061115403e-06   4.549140773892916e-06
4.180868953073162e-06   -1.1010402061115403e-06   4.549140773892916e-06
4.180868953073162e-06   -1.1010402061115403e-06   4.549140773892916e-06
7.873180689293366e-06   -1.6171315851560508e-06   1.0778052548395672e-05
7.873180689293366e-06   -1.6171315851560508e-06   1.0778052548395672e-05
7.873180689293366e-06   -1.6171315851560508e-06   1.0778052548395672e-05
7.873180689293366e-06   -1.6171315851560508e-06   1.0778052548395672e-05
3.613865386906348e-07   -8.728864569982611e-07   -1.2950572923809702e-06
3.613865386906348e-07   -8.728864569982611e-07   -1.2950572923809702e-06
3.613865386906348e-07   -8.728864569982611e-07   -1.2950572923809702e-06
3.613865386906348e-07   -8.728864569982611e-07   -1.2950572923809702e-06
6.440403570662294e-08   -1.5745631455073945e-06   1.1376011687630851e-05
6.440403570662294e-08   -1.5745631455073945e-06   1.1376011687630851e-05
6.440403570662294e-08   -1.5745631455073945e-06   1.1376011687630851e-05
6.440403570662294e-08   -1.5745631455073945e-06   1.1376011687630851e-05
7.586174525532639e-06   -9.049355132760345e-07   -1.5620490414179836e-06
7.586174525532639e-06   -9.049355132760345e-07   -1.5620490414179836e-06
7.586174525532639e-06   -9.049355132760345e-07   -1.5620490414179836e-06
7.586174525532639e-06   -9.049355132760345e-07   -1.5620490414179836e-06
3.96507464395121e-06   -1.0872210866666454e-06   4.5824887719189255e-06
3.96507464395121e-06   -1.0872210866666454e-06   4.5824887719189255e-06
3.96507464395121e-06   -1.0872210866666454e-06   4.5824887719189255e-06
3.96507464395121e-06   -1.0872210866666454e-06   4.5824887719189255e-06
8.417368618992709e-07   -5.680782865322477e-07   1.1125215291291535e-05
8.417368618992709e-07   -5.680782865322477e-07   1.1125215291291535e-05
8.417368618992709e-07   -5.680782865322477e-07   1.1125215291291535e-05
8.417368618992709e-07   -5.680782865322477e-07   1.1125215291291535e-05
-6.447128657074755e-06   6.073551117753966e-07   -3.1763386801396225e-07
-6.447128657074755e-06   6.073551117753966e-07   -3.1763386801396225e-07
-6.447128657074755e-06   6.073551117753966e-07   -3.1763386801396225e-07
-6.447128657074755e-06   6.073551117753966e-07   -3.1763386801396225e-07
-6.685690576655452e-06   -5.97953574626455e-07   1.1910942412931506e-05
-6.685690576655452e-06   -5.97953574626455e-07   1.1910942412931506e-05
-6.685690576655452e-06   -5.97953574626455e-07   1.1910942412931506e-05
-6.685690576655452e-06   -5.97953574626455e-07   1.1910942412931506e-05
6.303220278447181e-07   5.108611674129945e-07   -9.477007731257086e-07
6.303220278447181e-07   5.108611674129945e-07   -9.477007731257086e-07
6.303220278447181e-07   5.108611674129945e-07   -9.477007731257086e-07
6.303220278447181e-07   5.108611674129945e-07   -9.477007731257086e-07
-2.910165900529814e-06   3.8948457320008706e-08   5.236260066887651e-06
-2.910165900529814e-06   3.8948457320008706e-08   5.236260066887651e-06
-2.910165900529814e-06   3.8948457320008706e-08   5.236260066887651e-06
-2.910165900529814e-06   3.8948457320008706e-08   5.236260066887651e-06
6.303220278447173e-07   -5.979535746264309e-07   1.124565356770788e-05
6.303220278447173e-07   -5.979535746264309e-07   1.124565356770788e-05
6.303220278447173e-07   -5.979535746264309e-07   1.124565356770788e-05
6.303220278447173e-07   -5.979535746264309e-07   1.124565356770788e-05
-6.685690576655452e-06   5.108611674129945e-07   -2.824119279021026e-07
-6.685690576655452e-06   5.108611674129945e-07   -2.824119279021026e-07
-6.685690576655452e-06   5.108611674129945e-07   -2.824119279021026e-07
-6.685690576655452e-06   5.108611674129945e-07   -2.824119279021026e-07
-7.00338796117582e-06   -6.354708229521552e-07   1.2141288167838351e-05
-7.00338796117582e-06   -6.354708229521552e-07   1.2141288167838351e-05
-7.00338796117582e-06   -6.354708229521552e-07   1.2141288167838351e-05
-7.00338796117582e-06   -6.354708229521552e-07   1.2141288167838351e-05
3.6138653869063146e-07   4.210622638256209e-07   -7.67255850672423e-07
3.6138653869063146e-07   4.210622638256209e-07   -7.67255850672423e-07
3.6138653869063146e-07   4.210622638256209e-07   -7.67255850672423e-07
3.6138653869063146e-07   4.210622638256209e-07   -7.67255850672423e-07
-3.1449091722243176e-06   1.4028316760398424e-08   5.320790702424973e-06
-3.1449091722243176e-06   1.4028316760398424e-08   5.320790702424973e-06
-3.1449091722243176e-06   1.4028316760398424e-08   5.320790702424973e-06
-3.1449091722243176e-06   1.4028316760398424e-08   5.320790702424973e-06
3.613865386906348e-07   -6.354708229521755e-07   1.1507368315771664e-05
3.613865386906348e-07   -6.354708229521755e-07   1.1507368315771664e-05
3.613865386906348e-07   -6.354708229521755e-07   1.1507368315771664e-05
3.613865386906348e-07   -6.354708229521755e-07   1.1507368315771664e-05
-7.00338796117582e-06   4.210622638256209e-07   -1.333359986057628e-07
-7.00338796117582e-06   4.210622638256209e-07   -1.333359986057628e-07
-7.00338796117582e-06   4.210622638256209e-07   -1.333359986057628e-07
-7.00338796117582e-06   4.210622638256209e-07   -1.333359986057628e-07
-7.341817573063703e-06   -6.268059555564068e-07   1.2417467180332153e-05
-7.341817573063703e-06   -6.268059555564068e-07   1.2417467180332153e-05
-7.341817573063703e-06   -6.268059555564068e-07   1.2417467180332153e-05
-7.341817573063703e-06   -6.268059555564068e-07   1.2417467180332153e-05
6.440403570662327e-08   3.5717037817541847e-07   -5.166213011908538e-07
6.440403570662327e-08   3.5717037817541847e-07   -5.166213011908538e-07
6.440403570662327e-08   3.5717037817541847e-07   -5.166213011908538e-07
6.440403570662327e-08   3.5717037817541847e-07   -5.166213011908538e-07
-3.443442935141083e-06   -2.6465078020775426e-09   5.545680448475365e-06
-3.443442935141083e-06   -2.6465078020775426e-09   5.545680448475365e-06
-3.443442935141083e-06   -2.6465078020775426e-09   5.545680448475365e-06
-3.443442935141083e-06   -2.6465078020775426e-09   5.545680448475365e-06
-6.447128657074734e-06   7.823318171031308e-07   1.009081884286101e-05
-6.447128657074734e-06   7.823318171031308e-07   1.009081884286101e-05
-6.447128657074734e-06   7.823318171031308e-07   1.009081884286101e-05
-6.447128657074734e-06   7.823318171031308e-07   1.009081884286101e-05
-1.3612413676065263e-05   1.9510698633845363e-06   -1.1500800276876568e-06
-1.3612413676065263e-05   1.9510698633845363e-06   -1.1500800276876568e-06
-1.3612413676065263e-05   1.9510698633845363e-06   -1.1500800276876568e-06
-1.3612413676065263e-05   1.9510698633845363e-06   -1.1500800276876568e-06
-1.395533266057557e-05   7.511979448187461e-07   1.1139004836964613e-05
-1.395533266057557e-05   7.511979448187461e-07   1.1139004836964613e-05
-1.395533266057557e-05   7.511979448187461e-07   1.1139004836964613e-05
-1.395533266057557e-05   7.511979448187461e-07   1.1139004836964613e-05
-6.685690576655442e-06   1.8561017764933243e-06   -1.6400076019069693e-06
-6.685690576655442e-06   1.8561017764933243e-06   -1.6400076019069693e-06
-6.685690576655442e-06   1.8561017764933243e-06   -1.6400076019069693e-06
-6.685690576655442e-06   1.8561017764933243e-06   -1.6400076019069693e-06
-1.0097986718243857e-05   1.353464485543722e-06   4.348735008643501e-06
-1.0097986718243857e-05   1.353464485543722e-06   4.348735008643501e-06
-1.0097986718243857e-05   1.353464485543722e-06   4.348735008643501e-06
-1.0097986718243857e-05   1.353464485543722e-06   4.348735008643501e-06
-6.685690576655452e-06   7.511979448187705e-07   1.0476062537959877e-05
-6.685690576655452e-06   7.511979448187705e-07   1.0476062537959877e-05
-6.685690576655452e-06   7.511979448187705e-07   1.0476062537959877e-05
-6.685690576655452e-06   7.511979448187705e-07   1.0476062537959877e-05
-1.395533266057555e-05   1.8561017764933243e-06   -9.770653029022875e-07
-1.395533266057555e-05   1.8561017764933243e-06   -9.770653029022875e-07
-1.395533266057555e-05   1.8561017764933243e-06   -9.770653029022875e-07
-1.395533266057555e-05   1.8561017764933243e-06   -9.770653029022875e-07
-1.4377136914402418e-05   6.829998354548851e-07   1.1821632580193489e-05
-1.4377136914402418e-05   6.829998354548851e-07   1.1821632580193489e-05
-1.4377136914402418e-05   6.829998354548851e-07   1.1821632580193489e-05
-1.4377136914402418e-05   6.829998354548851e-07   1.1821632580193489e-05
-7.003387961175821e-06   1.766645622668984e-06   -1.118136480845951e-06
-7.003387961175821e-06   1.766645622668984e-06   -1.118136480845951e-06
-7.003387961175821e-06   1.766645622668984e-06   -1.118136480845951e-06
-7.003387961175821e-06   1.766645622668984e-06   -1.118136480845951e-06
-1.0350278906588206e-05   1.335254928273898e-06   4.7188495114783925e-06
-1.0350278906588206e-05   1.335254928273898e-06   4.7188495114783925e-06
-1.0350278906588206e-05   1.335254928273898e-06   4.7188495114783925e-06
-1.0350278906588206e-05   1.335254928273898e-06   4.7188495114783925e-06
-7.00338796117582e-06   6.82999835454915e-07   1.1171445107864986e-05
-7.00338796117582e-06   6.82999835454915e-07   1.1171445107864986e-05
-7.00338796117582e-06   6.82999835454915e-07   1.1171445107864986e-05
-7.00338796117582e-06   6.82999835454915e-07   1.1171445107864986e-05
-1.4377136914402397e-05   1.766645622668984e-06   -4.679490085175296e-07
-1.4377136914402397e-05   1.766645622668984e-06   -4.679490085175296e-07
-1.4377136914402397e-05   1.766645622668984e-06   -4.679490085175296e-07
-1.4377136914402397e-05   1.766645622668984e-06   -4.679490085175296e-07
-1.4821691929456093e-05   6.043808080570404e-07   1.2352459098221712e-05
-1.4821691929456093e-05   6.043808080570404e-07   1.2352459098221712e-05
-1.4821691929456093e-05   6.043808080570404e-07   1.2352459098221712e-05
-1.4821691929456093e-05   6.043808080570404e-07   1.2352459098221712e-05
-7.34181757306368e-06   1.6445347567338757e-06   -7.380905316383438e-07
-7.34181757306368e-06   1.6445347567338757e-06   -7.380905316383438e-07
-7.34181757306368e-06   1.6445347567338757e-06   -7.380905316383438e-07
-7.34181757306368e-06   1.6445347567338757e-06   -7.380905316383438e-07
-1.0781544580673461e-05   1.26399263415775e-06   5.223113087923805e-06
-1.0781544580673461e-05   1.26399263415775e-06   5.223113087923805e-06
-1.0781544580673461e-05   1.26399263415775e-06   5.223113087923805e-06
-1.0781544580673461e-05   1.26399263415775e-06   5.223113087923805e-06
-1.3612413676065263e-05   3.2027281334603943e-06   5.304600385097028e-06
-1.3612413676065263e-05   3.2027281334603943e-06   5.304600385097028e-06
-1.3612413676065263e-05   3.2027281334603943e-06   5.304600385097028e-06
-1.3612413676065263e-05   3.2027281334603943e-06   5.304600385097028e-06
-2.0505067596934426e-05   3.1731480690483198e-06   -6.200904188332268e-06
-2.0505067596934426e-05   3.1731480690483198e-06   -6.200904188332268e-06
-2.0505067596934426e-05   3.1731480690483198e-06   -6.200904188332268e-06
-2.0505067596934426e-05   3.1731480690483198e-06   -6.200904188332268e-06
-2.112325061579623e-05   3.110206216975749e-06   7.937159860435885e-06
-2.112325061579623e-05   3.110206216975749e-06   7.937159860435885e-06
-2.112325061579623e-05   3.110206216975749e-06   7.937159860435885e-06
-2.112325061579623e-05   3.110206216975749e-06   7.937159860435885e-06
-1.3955332660575547e-05   3.2422307221890555e-06   -4.088584768059949e-06
-1.3955332660575547e-05   3.2422307221890555e-06   -4.088584768059949e-06
-1.3955332660575547e-05   3.2422307221890555e-06   -4.088584768059949e-06
-1.3955332660575547e-05   3.2422307221890555e-06   -4.088584768059949e-06
-1.6602667723586626e-05   3.224810009266714e-06   3.3409276471190103e-07
-1.6602667723586626e-05   3.224810009266714e-06   3.3409276471190103e-07
-1.6602667723586626e-05   3.224810009266714e-06   3.3409276471190103e-07
-1.6602667723586626e-05   3.224810009266714e-06   3.3409276471190103e-07
-1.3955332660575536e-05   3.1102062169758467e-06   7.85794515730789e-06
-1.3955332660575536e-05   3.1102062169758467e-06   7.85794515730789e-06
-1.3955332660575536e-05   3.1102062169758467e-06   7.85794515730789e-06
-1.3955332660575536e-05   3.1102062169758467e-06   7.85794515730789e-06
-2.112325061579623e-05   3.2422307221890555e-06   -4.009370064932008e-06
-2.112325061579623e-05   3.2422307221890555e-06   -4.009370064932008e-06
-2.112325061579623e-05   3.2422307221890555e-06   -4.009370064932008e-06
-2.112325061579623e-05   3.2422307221890555e-06   -4.009370064932008e-06
-2.172928730906024e-05   3.0375232849152957e-06   9.7683470507698e-06
-2.172928730906024e-05   3.0375232849152957e-06   9.7683470507698e-06
-2.172928730906024e-05   3.0375232849152957e-06   9.7683470507698e-06
-2.172928730906024e-05   3.0375232849152957e-06   9.7683470507698e-06
-1.4377136914402397e-05   3.2215678901384263e-06   -2.5956637034604748e-06
-1.4377136914402397e-05   3.2215678901384263e-06   -2.5956637034604748e-06
-1.4377136914402397e-05   3.2215678901384263e-06   -2.5956637034604748e-06
-1.4377136914402397e-05   3.2215678901384263e-06   -2.5956637034604748e-06
-1.732597092974737e-05   3.231591175856881e-06   2.3130456840169566e-06
-1.732597092974737e-05   3.231591175856881e-06   2.3130456840169566e-06
-1.732597092974737e-05   3.231591175856881e-06   2.3130456840169566e-06
-1.732597092974737e-05   3.231591175856881e-06   2.3130456840169566e-06
-1.4377136914402397e-05   3.037523284915375e-06   9.657920287635966e-06
-1.4377136914402397e-05   3.037523284915375e-06   9.657920287635966e-06
-1.4377136914402397e-05   3.037523284915375e-06   9.657920287635966e-06
-1.4377136914402397e-05   3.037523284915375e-06   9.657920287635966e-06
-2.1729287309060272e-05   3.2215678901384263e-06   -2.4852369403266126e-06
-2.1729287309060272e-05   3.2215678901384263e-06   -2.4852369403266126e-06
-2.1729287309060272e-05   3.2215678901384263e-06   -2.4852369403266126e-06
-2.1729287309060272e-05   3.2215678901384263e-06   -2.4852369403266126e-06
-2.2445398815057672e-05   2.5593173295966956e-06   1.2823806577397451e-05
-2.2445398815057672e-05   2.5593173295966956e-06   1.2823806577397451e-05
-2.2445398815057672e-05   2.5593173295966956e-06   1.2823806577397451e-05
-2.2445398815057672e-05   2.5593173295966956e-06   1.2823806577397451e-05
-1.4821691929456083e-05   2.9738768259336646e-06   -1.3110726307417138e-07
-1.4821691929456083e-05   2.9738768259336646e-06   -1.3110726307417138e-07
-1.4821691929456083e-05   2.9738768259336646e-06   -1.3110726307417138e-07
-1.4821691929456083e-05   2.9738768259336646e-06   -1.3110726307417138e-07
-1.7564375277908273e-05   3.084179474219218e-06   4.373850062041611e-06
-1.7564375277908273e-05   3.084179474219218e-06   4.373850062041611e-06
-1.7564375277908273e-05   3.084179474219218e-06   4.373850062041611e-06
-1.7564375277908273e-05   3.084179474219218e-06   4.373850062041611e-06
1.3614741663148929e-05   -1.8970961740993306e-06   1.0372345315618034e-05
1.3614741663148929e-05   -1.8970961740993306e-06   1.0372345315618034e-05
1.3614741663148929e-05   -1.8970961740993306e-06   1.0372345315618034e-05
1.3614741663148929e-05   -1.8970961740993306e-06   1.0372345315618034e-05
6.7154616388731e-06   -1.412456664126767e-06   -8.356710188581824e-07
6.7154616388731e-06   -1.412456664126767e-06   -8.356710188581824e-07
6.7154616388731e-06   -1.412456664126767e-06   -8.356710188581824e-07
6.7154616388731e-06   -1.412456664126767e-06   -8.356710188581824e-07
6.470855197067436e-06   -2.1426906415104603e-06   8.999766298678578e-06
6.470855197067436e-06   -2.1426906415104603e-06   8.999766298678578e-06
6.470855197067436e-06   -2.1426906415104603e-06   8.999766298678578e-06
6.470855197067436e-06   -2.1426906415104603e-06   8.999766298678578e-06
1.3166082806649459e-05   -1.632151402593371e-06   -2.465269927308335e-06
1.3166082806649459e-05   -1.632151402593371e-06   -2.465269927308335e-06
1.3166082806649459e-05   -1.632151402593371e-06   -2.465269927308335e-06
1.3166082806649459e-05   -1.632151402593371e-06   -2.465269927308335e-06
9.53475919358257e-06   -1.752489153794448e-06   3.6591387451903652e-06
9.53475919358257e-06   -1.752489153794448e-06   3.6591387451903652e-06
9.53475919358257e-06   -1.752489153794448e-06   3.6591387451903652e-06
9.53475919358257e-06   -1.752489153794448e-06   3.6591387451903652e-06
1.3166082806649437e-05   -2.142690641510485e-06   8.69344275532827e-06
1.3166082806649437e-05   -2.142690641510485e-06   8.69344275532827e-06
1.3166082806649437e-05   -2.142690641510485e-06   8.69344275532827e-06
1.3166082806649437e-05   -2.142690641510485e-06   8.69344275532827e-06
6.470855197067456e-06   -1.632151402593371e-06   -2.1589463839580595e-06
6.470855197067456e-06   -1.632151402593371e-06   -2.1589463839580595e-06
6.470855197067456e-06   -1.632151402593371e-06   -2.1589463839580595e-06
6.470855197067456e-06   -1.632151402593371e-06   -2.1589463839580595e-06
6.198322061943416e-06   -2.1774034472488244e-06   8.052283702884844e-06
6.198322061943416e-06   -2.1774034472488244e-06   8.052283702884844e-06
6.198322061943416e-06   -2.1774034472488244e-06   8.052283702884844e-06
6.198322061943416e-06   -2.1774034472488244e-06   8.052283702884844e-06
1.275828706738101e-05   -1.6750691386854723e-06   -3.1823918913157884e-06
1.275828706738101e-05   -1.6750691386854723e-06   -3.1823918913157884e-06
1.275828706738101e-05   -1.6750691386854723e-06   -3.1823918913157884e-06
1.275828706738101e-05   -1.6750691386854723e-06   -3.1823918913157884e-06
9.373985728395416e-06   -1.8381887383576165e-06   2.55598210013008e-06
9.373985728395416e-06   -1.8381887383576165e-06   2.55598210013008e-06
9.373985728395416e-06   -1.8381887383576165e-06   2.55598210013008e-06
9.373985728395416e-06   -1.8381887383576165e-06   2.55598210013008e-06
1.2758287067380967e-05   -2.1774034472488384e-06   7.750883117746844e-06
1.2758287067380967e-05   -2.1774034472488384e-06   7.750883117746844e-06
1.2758287067380967e-05   -2.1774034472488384e-06   7.750883117746844e-06
1.2758287067380967e-05   -2.1774034472488384e-06   7.750883117746844e-06
6.198322061943426e-06   -1.6750691386854723e-06   -2.880991306177796e-06
6.198322061943426e-06   -1.6750691386854723e-06   -2.880991306177796e-06
6.198322061943426e-06   -1.6750691386854723e-06   -2.880991306177796e-06
6.198322061943426e-06   -1.6750691386854723e-06   -2.880991306177796e-06
5.935519179963418e-06   -2.1556668137696694e-06   6.720912173308882e-06
5.935519179963418e-06   -2.1556668137696694e-06   6.720912173308882e-06
5.935519179963418e-06   -2.1556668137696694e-06   6.720912173308882e-06
5.935519179963418e-06   -2.1556668137696694e-06   6.720912173308882e-06
1.2294990409452114e-05   -1.686210547907109e-06   -4.159880302023155e-06
1.2294990409452114e-05   -1.686210547907109e-06   -4.159880302023155e-06
1.2294990409452114e-05   -1.686210547907109e-06   -4.159880302023155e-06
1.2294990409452114e-05   -1.686210547907109e-06   -4.159880302023155e-06
8.907612470194615e-06   -1.8045924356583634e-06   1.5567787293903012e-06
8.907612470194615e-06   -1.8045924356583634e-06   1.5567787293903012e-06
8.907612470194615e-06   -1.8045924356583634e-06   1.5567787293903012e-06
8.907612470194615e-06   -1.8045924356583634e-06   1.5567787293903012e-06
6.7154616388731e-06   -6.596691154027395e-07   1.076396421842451e-05
6.7154616388731e-06   -6.596691154027395e-07   1.076396421842451e-05
6.7154616388731e-06   -6.596691154027395e-07   1.076396421842451e-05
6.7154616388731e-06   -6.596691154027395e-07   1.076396421842451e-05
2.3819642648288761e-07   -2.7260950785656674e-07   2.007579623018686e-07
2.3819642648288761e-07   -2.7260950785656674e-07   2.007579623018686e-07
2.3819642648288761e-07   -2.7260950785656674e-07   2.007579623018686e-07
2.3819642648288761e-07   -2.7260950785656674e-07   2.007579623018686e-07
2.61153072194639e-09   -7.898967713887645e-07   1.0867194310731204e-05
2.61153072194639e-09   -7.898967713887645e-07   1.0867194310731204e-05
2.61153072194639e-09   -7.898967713887645e-07   1.0867194310731204e-05
2.61153072194639e-09   -7.898967713887645e-07   1.0867194310731204e-05
6.470855197067455e-06   -4.2683483003765847e-07   -1.310489646553107e-07
6.470855197067455e-06   -4.2683483003765847e-07   -1.310489646553107e-07
6.470855197067455e-06   -4.2683483003765847e-07   -1.310489646553107e-07
6.470855197067455e-06   -4.2683483003765847e-07   -1.310489646553107e-07
3.3156240433976076e-06   -5.1816747369596e-07   5.182469210989431e-06
3.3156240433976076e-06   -5.1816747369596e-07   5.182469210989431e-06
3.3156240433976076e-06   -5.1816747369596e-07   5.182469210989431e-06
3.3156240433976076e-06   -5.1816747369596e-07   5.182469210989431e-06
6.470855197067453e-06   -7.898967713887368e-07   1.064935714592053e-05
6.470855197067453e-06   -7.898967713887368e-07   1.064935714592053e-05
6.470855197067453e-06   -7.898967713887368e-07   1.064935714592053e-05
6.470855197067453e-06   -7.898967713887368e-07   1.064935714592053e-05
2.61153072194639e-09   -4.2683483003765847e-07   8.678820015537055e-08
2.61153072194639e-09   -4.2683483003765847e-07   8.678820015537055e-08
2.61153072194639e-09   -4.2683483003765847e-07   8.678820015537055e-08
2.61153072194639e-09   -4.2683483003765847e-07   8.678820015537055e-08
-2.4232102651408974e-07   -8.728864569983695e-07   1.069306074793564e-05
-2.4232102651408974e-07   -8.728864569983695e-07   1.069306074793564e-05
-2.4232102651408974e-07   -8.728864569983695e-07   1.069306074793564e-05
-2.4232102651408974e-07   -8.728864569983695e-07   1.069306074793564e-05
6.198322061943426e-06   -5.394333517897039e-07   -2.414162626186634e-07
6.198322061943426e-06   -5.394333517897039e-07   -2.414162626186634e-07
6.198322061943426e-06   -5.394333517897039e-07   -2.414162626186634e-07
6.198322061943426e-06   -5.394333517897039e-07   -2.414162626186634e-07
3.043384679780792e-06   -5.980763750256446e-07   5.051998521594066e-06
3.043384679780792e-06   -5.980763750256446e-07   5.051998521594066e-06
3.043384679780792e-06   -5.980763750256446e-07   5.051998521594066e-06
3.043384679780792e-06   -5.980763750256446e-07   5.051998521594066e-06
6.198322061943426e-06   -8.7288645699829e-07   1.0492988884810484e-05
6.198322061943426e-06   -8.7288645699829e-07   1.0492988884810484e-05
6.198322061943426e-06   -8.7288645699829e-07   1.0492988884810484e-05
6.198322061943426e-06   -8.7288645699829e-07   1.0492988884810484e-05
-2.4232102651408974e-07   -5.394333517897039e-07   -4.134439949351077e-08
-2.4232102651408974e-07   -5.394333517897039e-07   -4.134439949351077e-08
-2.4232102651408974e-07   -5.394333517897039e-07   -4.134439949351077e-08
-2.4232102651408974e-07   -5.394333517897039e-07   -4.134439949351077e-08
-4.973346635006866e-07   -9.049355132760345e-07   1.0764326698449564e-05
-4.973346635006866e-07   -9.049355132760345e-07   1.0764326698449564e-05
-4.973346635006866e-07   -9.049355132760345e-07   1.0764326698449564e-05
-4.973346635006866e-07   -9.049355132760345e-07   1.0764326698449564e-05
5.9355191799634335e-06   -6.258908596795112e-07   -1.2452316614847196e-07
5.9355191799634335e-06   -6.258908596795112e-07   -1.2452316614847196e-07
5.9355191799634335e-06   -6.258908596795112e-07   -1.2452316614847196e-07
5.9355191799634335e-06   -6.258908596795112e-07   -1.2452316614847196e-07
2.8417878110609262e-06   -6.386131177698413e-07   5.039329136876645e-06
2.8417878110609262e-06   -6.386131177698413e-07   5.039329136876645e-06
2.8417878110609262e-06   -6.386131177698413e-07   5.039329136876645e-06
2.8417878110609262e-06   -6.386131177698413e-07   5.039329136876645e-06
2.3819642648288761e-07   6.073551117754748e-07   1.1091417398863648e-05
2.3819642648288761e-07   6.073551117754748e-07   1.1091417398863648e-05
2.3819642648288761e-07   6.073551117754748e-07   1.1091417398863648e-05
2.3819642648288761e-07   6.073551117754748e-07   1.1091417398863648e-05
-6.055217962100858e-06   8.657424815071164e-07   7.574258397297366e-07
-6.055217962100858e-06   8.657424815071164e-07   7.574258397297366e-07
-6.055217962100858e-06   8.657424815071164e-07   7.574258397297366e-07
-6.055217962100858e-06   8.657424815071164e-07   7.574258397297366e-07
-6.30181910606863e-06   5.108611674128861e-07   1.123853516929983e-05
-6.30181910606863e-06   5.108611674128861e-07   1.123853516929983e-05
-6.30181910606863e-06   5.108611674128861e-07   1.123853516929983e-05
-6.30181910606863e-06   5.108611674128861e-07   1.123853516929983e-05
2.611530721947622e-09   7.396782635910515e-07   5.938605169421461e-07
2.611530721947622e-09   7.396782635910515e-07   5.938605169421461e-07
2.611530721947622e-09   7.396782635910515e-07   5.938605169421461e-07
2.611530721947622e-09   7.396782635910515e-07   5.938605169421461e-07
-3.033573925707673e-06   6.866023536098755e-07   5.686015156980095e-06
-3.033573925707673e-06   6.866023536098755e-07   5.686015156980095e-06
-3.033573925707673e-06   6.866023536098755e-07   5.686015156980095e-06
-3.033573925707673e-06   6.866023536098755e-07   5.686015156980095e-06
2.61153072194639e-09   5.108611674129341e-07   1.1101244911593028e-05
2.61153072194639e-09   5.108611674129341e-07   1.1101244911593028e-05
2.61153072194639e-09   5.108611674129341e-07   1.1101244911593028e-05
2.61153072194639e-09   5.108611674129341e-07   1.1101244911593028e-05
-6.30181910606863e-06   7.396782635910515e-07   7.311507746489139e-07
-6.30181910606863e-06   7.396782635910515e-07   7.311507746489139e-07
-6.30181910606863e-06   7.396782635910515e-07   7.311507746489139e-07
-6.30181910606863e-06   7.396782635910515e-07   7.311507746489139e-07
-6.561621490652365e-06   4.210622638257293e-07   1.1338648458204944e-05
-6.561621490652365e-06   4.210622638257293e-07   1.1338648458204944e-05
-6.561621490652365e-06   4.210622638257293e-07   1.1338648458204944e-05
-6.561621490652365e-06   4.210622638257293e-07   1.1338648458204944e-05
-2.4232102651408254e-07   6.173727114269995e-07   6.886947494136496e-07
-2.4232102651408254e-07   6.173727114269995e-07   6.886947494136496e-07
-2.4232102651408254e-07   6.173727114269995e-07   6.886947494136496e-07
-2.4232102651408254e-07   6.173727114269995e-07   6.886947494136496e-07
-3.2622621332071176e-06   6.15901207912258e-07   5.722812829344221e-06
-3.2622621332071176e-06   6.15901207912258e-07   5.722812829344221e-06
-3.2622621332071176e-06   6.15901207912258e-07   5.722812829344221e-06
-3.2622621332071176e-06   6.15901207912258e-07   5.722812829344221e-06
-2.4232102651408974e-07   4.2106226382572667e-07   1.122086218964416e-05
-2.4232102651408974e-07   4.2106226382572667e-07   1.122086218964416e-05
-2.4232102651408974e-07   4.2106226382572667e-07   1.122086218964416e-05
-2.4232102651408974e-07   4.2106226382572667e-07   1.122086218964416e-05
-6.561621490652365e-06   6.173727114269995e-07   8.064810179744808e-07
-6.561621490652365e-06   6.173727114269995e-07   8.064810179744808e-07
-6.561621490652365e-06   6.173727114269995e-07   8.064810179744808e-07
-6.561621490652365e-06   6.173727114269995e-07   8.064810179744808e-07
-6.829372486594986e-06   3.5717037817541847e-07   1.1498864965582155e-05
-6.829372486594986e-06   3.5717037817541847e-07   1.1498864965582155e-05
-6.829372486594986e-06   3.5717037817541847e-07   1.1498864965582155e-05
-6.829372486594986e-06   3.5717037817541847e-07   1.1498864965582155e-05
-4.973346635006888e-07   5.086488885823817e-07   8.545814875141072e-07
-4.973346635006888e-07   5.086488885823817e-07   8.545814875141072e-07
-4.973346635006888e-07   5.086488885823817e-07   8.545814875141072e-07
-4.973346635006888e-07   5.086488885823817e-07   8.545814875141072e-07
-3.509797728961024e-06   5.484268909673002e-07   5.8514864618506825e-06
-3.509797728961024e-06   5.484268909673002e-07   5.8514864618506825e-06
-3.509797728961024e-06   5.484268909673002e-07   5.8514864618506825e-06
-3.509797728961024e-06   5.484268909673002e-07   5.8514864618506825e-06
-6.055217962100878e-06   1.9510698633845664e-06   9.7127608332601e-06
-6.055217962100878e-06   1.9510698633845664e-06   9.7127608332601e-06
-6.055217962100878e-06   1.9510698633845664e-06   9.7127608332601e-06
-6.055217962100878e-06   1.9510698633845664e-06   9.7127608332601e-06
-1.2173603786350961e-05   1.9763069280922044e-06   -4.6940663499885115e-07
-1.2173603786350961e-05   1.9763069280922044e-06   -4.6940663499885115e-07
-1.2173603786350961e-05   1.9763069280922044e-06   -4.6940663499885115e-07
-1.2173603786350961e-05   1.9763069280922044e-06   -4.6940663499885115e-07
-1.2459594941318267e-05   1.8561017764933243e-06   9.882046225406218e-06
-1.2459594941318267e-05   1.8561017764933243e-06   9.882046225406218e-06
-1.2459594941318267e-05   1.8561017764933243e-06   9.882046225406218e-06
-1.2459594941318267e-05   1.8561017764933243e-06   9.882046225406218e-06
-6.301819106068636e-06   1.8579463266785515e-06   -3.8202023012100185e-07
-6.301819106068636e-06   1.8579463266785515e-06   -3.8202023012100185e-07
-6.301819106068636e-06   1.8579463266785515e-06   -3.8202023012100185e-07
-6.301819106068636e-06   1.8579463266785515e-06   -3.8202023012100185e-07
-9.206341043593044e-06   1.9028086241815265e-06   4.4319322872513034e-06
-9.206341043593044e-06   1.9028086241815265e-06   4.4319322872513034e-06
-9.206341043593044e-06   1.9028086241815265e-06   4.4319322872513034e-06
-9.206341043593044e-06   1.9028086241815265e-06   4.4319322872513034e-06
-6.301819106068637e-06   1.8561017764933044e-06   9.880939495295017e-06
-6.301819106068637e-06   1.8561017764933044e-06   9.880939495295017e-06
-6.301819106068637e-06   1.8561017764933044e-06   9.880939495295017e-06
-6.301819106068637e-06   1.8561017764933044e-06   9.880939495295017e-06
-1.2459594941318247e-05   1.8579463266785515e-06   -3.80913500009814e-07
-1.2459594941318247e-05   1.8579463266785515e-06   -3.80913500009814e-07
-1.2459594941318247e-05   1.8579463266785515e-06   -3.80913500009814e-07
-1.2459594941318247e-05   1.8579463266785515e-06   -3.80913500009814e-07
-1.2775442437151991e-05   1.7666456226690923e-06   1.034211610498884e-05
-1.2775442437151991e-05   1.7666456226690923e-06   1.034211610498884e-05
-1.2775442437151991e-05   1.7666456226690923e-06   1.034211610498884e-05
-1.2775442437151991e-05   1.7666456226690923e-06   1.034211610498884e-05
-6.561621490652374e-06   1.7470925043758722e-06   -2.5202682012328117e-09
-6.561621490652374e-06   1.7470925043758722e-06   -2.5202682012328117e-09
-6.561621490652374e-06   1.7470925043758722e-06   -2.5202682012328117e-09
-6.561621490652374e-06   1.7470925043758722e-06   -2.5202682012328117e-09
-9.409549367322816e-06   1.8371280846385743e-06   4.6900048447585165e-06
-9.409549367322816e-06   1.8371280846385743e-06   4.6900048447585165e-06
-9.409549367322816e-06   1.8371280846385743e-06   4.6900048447585165e-06
-9.409549367322816e-06   1.8371280846385743e-06   4.6900048447585165e-06
-6.561621490652372e-06   1.7666456226690494e-06   1.0353847975964783e-05
-6.561621490652372e-06   1.7666456226690494e-06   1.0353847975964783e-05
-6.561621490652372e-06   1.7666456226690494e-06   1.0353847975964783e-05
-6.561621490652372e-06   1.7666456226690494e-06   1.0353847975964783e-05
-1.2775442437151991e-05   1.7470925043758722e-06   -1.425213917710796e-08
-1.2775442437151991e-05   1.7470925043758722e-06   -1.425213917710796e-08
-1.2775442437151991e-05   1.7470925043758722e-06   -1.425213917710796e-08
-1.2775442437151991e-05   1.7470925043758722e-06   -1.425213917710796e-08
-1.3075789055150577e-05   1.6445347567338757e-06   1.0666370945282516e-05
-1.3075789055150577e-05   1.6445347567338757e-06   1.0666370945282516e-05
-1.3075789055150577e-05   1.6445347567338757e-06   1.0666370945282516e-05
-1.3075789055150577e-05   1.6445347567338757e-06   1.0666370945282516e-05
-6.829372486595001e-06   1.6101364407122235e-06   2.7631565396951066e-07
-6.829372486595001e-06   1.6101364407122235e-06   2.7631565396951066e-07
-6.829372486595001e-06   1.6101364407122235e-06   2.7631565396951066e-07
-6.829372486595001e-06   1.6101364407122235e-06   2.7631565396951066e-07
-9.740772609841894e-06   1.7495463778565866e-06   5.045003230427959e-06
-9.740772609841894e-06   1.7495463778565866e-06   5.045003230427959e-06
-9.740772609841894e-06   1.7495463778565866e-06   5.045003230427959e-06
-9.740772609841894e-06   1.7495463778565866e-06   5.045003230427959e-06
-1.2173603786350948e-05   3.1731480690482863e-06   4.694826950087366e-06
-1.2173603786350948e-05   3.1731480690482863e-06   4.694826950087366e-06
-1.2173603786350948e-05   3.1731480690482863e-06   4.694826950087366e-06
-1.2173603786350948e-05   3.1731480690482863e-06   4.694826950087366e-06
-1.802830394178164e-05   2.8652131526430043e-06   -5.2477675921403205e-06
-1.802830394178164e-05   2.8652131526430043e-06   -5.2477675921403205e-06
-1.802830394178164e-05   2.8652131526430043e-06   -5.2477675921403205e-06
-1.802830394178164e-05   2.8652131526430043e-06   -5.2477675921403205e-06
-1.847915923748268e-05   3.242230722189164e-06   6.566375116504866e-06
-1.847915923748268e-05   3.242230722189164e-06   6.566375116504866e-06
-1.847915923748268e-05   3.242230722189164e-06   6.566375116504866e-06
-1.847915923748268e-05   3.242230722189164e-06   6.566375116504866e-06
-1.245959494131827e-05   2.9019779826164717e-06   -3.2620804000256775e-06
-1.245959494131827e-05   2.9019779826164717e-06   -3.2620804000256775e-06
-1.245959494131827e-05   2.9019779826164717e-06   -3.2620804000256775e-06
-1.245959494131827e-05   2.9019779826164717e-06   -3.2620804000256775e-06
-1.4698849106748455e-05   3.0241672977210496e-06   3.9669628662853426e-07
-1.4698849106748455e-05   3.0241672977210496e-06   3.9669628662853426e-07
-1.4698849106748455e-05   3.0241672977210496e-06   3.9669628662853426e-07
-1.4698849106748455e-05   3.0241672977210496e-06   3.9669628662853426e-07
-1.245959494131824e-05   3.2422307221890437e-06   6.77052676024834e-06
-1.245959494131824e-05   3.2422307221890437e-06   6.77052676024834e-06
-1.245959494131824e-05   3.2422307221890437e-06   6.77052676024834e-06
-1.245959494131824e-05   3.2422307221890437e-06   6.77052676024834e-06
-1.847915923748272e-05   2.9019779826164717e-06   -3.4662320437692468e-06
-1.847915923748272e-05   2.9019779826164717e-06   -3.4662320437692468e-06
-1.847915923748272e-05   2.9019779826164717e-06   -3.4662320437692468e-06
-1.847915923748272e-05   2.9019779826164717e-06   -3.4662320437692468e-06
-1.8917727621575563e-05   3.2215678901384263e-06   8.004555882893468e-06
-1.8917727621575563e-05   3.2215678901384263e-06   8.004555882893468e-06
-1.8917727621575563e-05   3.2215678901384263e-06   8.004555882893468e-06
-1.8917727621575563e-05   3.2215678901384263e-06   8.004555882893468e-06
-1.2775442437151986e-05   2.8718253448843352e-06   -2.0227405639934722e-06
-1.2775442437151986e-05   2.8718253448843352e-06   -2.0227405639934722e-06
-1.2775442437151986e-05   2.8718253448843352e-06   -2.0227405639934722e-06
-1.2775442437151986e-05   2.8718253448843352e-06   -2.0227405639934722e-06
-1.5264438446094923e-05   3.0818601435013936e-06   1.999565238408114e-06
-1.5264438446094923e-05   3.0818601435013936e-06   1.999565238408114e-06
-1.5264438446094923e-05   3.0818601435013936e-06   1.999565238408114e-06
-1.5264438446094923e-05   3.0818601435013936e-06   1.999565238408114e-06
-1.2775442437151991e-05   3.221567890138355e-06   8.214401410045922e-06
-1.2775442437151991e-05   3.221567890138355e-06   8.214401410045922e-06
-1.2775442437151991e-05   3.221567890138355e-06   8.214401410045922e-06
-1.2775442437151991e-05   3.221567890138355e-06   8.214401410045922e-06
-1.8917727621575617e-05   2.8718253448843352e-06   -2.2325860911459e-06
-1.8917727621575617e-05   2.8718253448843352e-06   -2.2325860911459e-06
-1.8917727621575617e-05   2.8718253448843352e-06   -2.2325860911459e-06
-1.8917727621575617e-05   2.8718253448843352e-06   -2.2325860911459e-06
-1.942824347474231e-05   2.973876825933773e-06   1.0457891469033262e-05
-1.942824347474231e-05   2.973876825933773e-06   1.0457891469033262e-05
-1.942824347474231e-05   2.973876825933773e-06   1.0457891469033262e-05
-1.942824347474231e-05   2.973876825933773e-06   1.0457891469033262e-05
-1.3075789055150565e-05   2.654926199921492e-06   6.183781198761758e-08
-1.3075789055150565e-05   2.654926199921492e-06   6.183781198761758e-08
-1.3075789055150565e-05   2.654926199921492e-06   6.183781198761758e-08
-1.3075789055150565e-05   2.654926199921492e-06   6.183781198761758e-08
-1.5390728614597245e-05   2.9919797923316175e-06   3.7178382556194637e-06
-1.5390728614597245e-05   2.9919797923316175e-06   3.7178382556194637e-06
-1.5390728614597245e-05   2.9919797923316175e-06   3.7178382556194637e-06
-1.5390728614597245e-05   2.9919797923316175e-06   3.7178382556194637e-06
1.048961197006399e-05   -1.4124566641267853e-06   8.770806900872683e-06
1.048961197006399e-05   -1.4124566641267853e-06   8.770806900872683e-06
1.048961197006399e-05   -1.4124566641267853e-06   8.770806900872683e-06
1.048961197006399e-05   -1.4124566641267853e-06   8.770806900872683e-06
4.924448684919924e-06   -9.524632317113721e-07   -2.284691815848173e-07
4.924448684919924e-06   -9.524632317113721e-07   -2.284691815848173e-07
4.924448684919924e-06   -9.524632317113721e-07   -2.284691815848173e-07
4.924448684919924e-06   -9.524632317113721e-07   -2.284691815848173e-07
4.704678695079447e-06   -1.632151402593371e-06   7.69019757884985e-06
4.704678695079447e-06   -1.632151402593371e-06   7.69019757884985e-06
4.704678695079447e-06   -1.632151402593371e-06   7.69019757884985e-06
4.704678695079447e-06   -1.632151402593371e-06   7.69019757884985e-06
1.0063336117139568e-05   -1.1490870743697265e-06   -1.5307367215178473e-06
1.0063336117139568e-05   -1.1490870743697265e-06   -1.5307367215178473e-06
1.0063336117139568e-05   -1.1490870743697265e-06   -1.5307367215178473e-06
1.0063336117139568e-05   -1.1490870743697265e-06   -1.5307367215178473e-06
7.191132303393029e-06   -1.2949978317716281e-06   3.343816089167506e-06
7.191132303393029e-06   -1.2949978317716281e-06   3.343816089167506e-06
7.191132303393029e-06   -1.2949978317716281e-06   3.343816089167506e-06
7.191132303393029e-06   -1.2949978317716281e-06   3.343816089167506e-06
1.0063336117139552e-05   -1.6321514025933888e-06   7.400358981915663e-06
1.0063336117139552e-05   -1.6321514025933888e-06   7.400358981915663e-06
1.0063336117139552e-05   -1.6321514025933888e-06   7.400358981915663e-06
1.0063336117139552e-05   -1.6321514025933888e-06   7.400358981915663e-06
4.704678695079454e-06   -1.1490870743697265e-06   -1.240898124583664e-06
4.704678695079454e-06   -1.1490870743697265e-06   -1.240898124583664e-06
4.704678695079454e-06   -1.1490870743697265e-06   -1.240898124583664e-06
4.704678695079454e-06   -1.1490870743697265e-06   -1.240898124583664e-06
4.46107076975865e-06   -1.6750691386854723e-06   6.932318706378204e-06
4.46107076975865e-06   -1.6750691386854723e-06   6.932318706378204e-06
4.46107076975865e-06   -1.6750691386854723e-06   6.932318706378204e-06
4.46107076975865e-06   -1.6750691386854723e-06   6.932318706378204e-06
9.68843592995928e-06   -1.2005800654641156e-06   -2.0646500045556013e-06
9.68843592995928e-06   -1.2005800654641156e-06   -2.0646500045556013e-06
9.68843592995928e-06   -1.2005800654641156e-06   -2.0646500045556013e-06
9.68843592995928e-06   -1.2005800654641156e-06   -2.0646500045556013e-06
7.0216180396203014e-06   -1.3753510451736898e-06   2.4849090671685838e-06
7.0216180396203014e-06   -1.3753510451736898e-06   2.4849090671685838e-06
7.0216180396203014e-06   -1.3753510451736898e-06   2.4849090671685838e-06
7.0216180396203014e-06   -1.3753510451736898e-06   2.4849090671685838e-06
9.688435929959263e-06   -1.6750691386854512e-06   6.6476252624454225e-06
9.688435929959263e-06   -1.6750691386854512e-06   6.6476252624454225e-06
9.688435929959263e-06   -1.6750691386854512e-06   6.6476252624454225e-06
9.688435929959263e-06   -1.6750691386854512e-06   6.6476252624454225e-06
4.461070769758658e-06   -1.2005800654641156e-06   -1.779956560622796e-06
4.461070769758658e-06   -1.2005800654641156e-06   -1.779956560622796e-06
4.461070769758658e-06   -1.2005800654641156e-06   -1.779956560622796e-06
4.461070769758658e-06   -1.2005800654641156e-06   -1.779956560622796e-06
4.235547719972854e-06   -1.686210547907109e-06   5.8961993344552725e-06
4.235547719972854e-06   -1.686210547907109e-06   5.8961993344552725e-06
4.235547719972854e-06   -1.686210547907109e-06   5.8961993344552725e-06
4.235547719972854e-06   -1.686210547907109e-06   5.8961993344552725e-06
9.26764081925599e-06   -1.24390230927824e-06   -2.756007440860606e-06
9.26764081925599e-06   -1.24390230927824e-06   -2.756007440860606e-06
9.26764081925599e-06   -1.24390230927824e-06   -2.756007440860606e-06
9.26764081925599e-06   -1.24390230927824e-06   -2.756007440860606e-06
6.622948059462919e-06   -1.3650398791127324e-06   1.7244963673618396e-06
6.622948059462919e-06   -1.3650398791127324e-06   1.7244963673618396e-06
6.622948059462919e-06   -1.3650398791127324e-06   1.7244963673618396e-06
6.622948059462919e-06   -1.3650398791127324e-06   1.7244963673618396e-06
4.924448684919909e-06   -2.7260950785656944e-07   9.850996176954182e-06
4.924448684919909e-06   -2.7260950785656944e-07   9.850996176954182e-06
4.924448684919909e-06   -2.7260950785656944e-07   9.850996176954182e-06
4.924448684919909e-06   -2.7260950785656944e-07   9.850996176954182e-06
-3.3524693900076477e-07   -1.4878553274621717e-08   1.239475376502261e-06
-3.3524693900076477e-07   -1.4878553274621717e-08   1.239475376502261e-06
-3.3524693900076477e-07   -1.4878553274621717e-08   1.239475376502261e-06
-3.3524693900076477e-07   -1.4878553274621717e-08   1.239475376502261e-06
-5.424403889667107e-07   -4.2683483003765847e-07   9.863740222602055e-06
-5.424403889667107e-07   -4.2683483003765847e-07   9.863740222602055e-06
-5.424403889667107e-07   -4.2683483003765847e-07   9.863740222602055e-06
-5.424403889667107e-07   -4.2683483003765847e-07   9.863740222602055e-06
4.704678695079455e-06   -1.8409278928859223e-07   9.728965247423296e-07
4.704678695079455e-06   -1.8409278928859223e-07   9.728965247423296e-07
4.704678695079455e-06   -1.8409278928859223e-07   9.728965247423296e-07
4.704678695079455e-06   -1.8409278928859223e-07   9.728965247423296e-07
2.1521023795990433e-06   -2.3104166319183606e-07   5.2553597082182995e-06
2.1521023795990433e-06   -2.3104166319183606e-07   5.2553597082182995e-06
2.1521023795990433e-06   -2.3104166319183606e-07   5.2553597082182995e-06
2.1521023795990433e-06   -2.3104166319183606e-07   5.2553597082182995e-06
4.704678695079433e-06   -4.268348300376509e-07   9.718094998152605e-06
4.704678695079433e-06   -4.268348300376509e-07   9.718094998152605e-06
4.704678695079433e-06   -4.268348300376509e-07   9.718094998152605e-06
4.704678695079433e-06   -4.268348300376509e-07   9.718094998152605e-06
-5.424403889667107e-07   -1.8409278928859223e-07   1.11854174919177e-06
-5.424403889667107e-07   -1.8409278928859223e-07   1.11854174919177e-06
-5.424403889667107e-07   -1.8409278928859223e-07   1.11854174919177e-06
-5.424403889667107e-07   -1.8409278928859223e-07   1.11854174919177e-06
-7.542788701606808e-07   -5.394333517897039e-07   9.706107703240916e-06
-7.542788701606808e-07   -5.394333517897039e-07   9.706107703240916e-06
-7.542788701606808e-07   -5.394333517897039e-07   9.706107703240916e-06
-7.542788701606808e-07   -5.394333517897039e-07   9.706107703240916e-06
4.4610707697586574e-06   -3.157434296171017e-07   8.79644350071776e-07
4.4610707697586574e-06   -3.157434296171017e-07   8.79644350071776e-07
4.4610707697586574e-06   -3.157434296171017e-07   8.79644350071776e-07
4.4610707697586574e-06   -3.157434296171017e-07   8.79644350071776e-07
1.9181177959074948e-06   -3.345620684733078e-07   5.129190489804531e-06
1.9181177959074948e-06   -3.345620684733078e-07   5.129190489804531e-06
1.9181177959074948e-06   -3.345620684733078e-07   5.129190489804531e-06
1.9181177959074948e-06   -3.345620684733078e-07   5.129190489804531e-06
4.46107076975865e-06   -5.394333517897115e-07   9.571893749937333e-06
4.46107076975865e-06   -5.394333517897115e-07   9.571893749937333e-06
4.46107076975865e-06   -5.394333517897115e-07   9.571893749937333e-06
4.46107076975865e-06   -5.394333517897115e-07   9.571893749937333e-06
-7.542788701606808e-07   -3.157434296169933e-07   1.0138583033753794e-06
-7.542788701606808e-07   -3.157434296169933e-07   1.0138583033753794e-06
-7.542788701606808e-07   -3.157434296169933e-07   1.0138583033753794e-06
-7.542788701606808e-07   -3.157434296169933e-07   1.0138583033753794e-06
-9.6741157339933e-07   -6.258908596795112e-07   9.764101988981113e-06
-9.6741157339933e-07   -6.258908596795112e-07   9.764101988981113e-06
-9.6741157339933e-07   -6.258908596795112e-07   9.764101988981113e-06
-9.6741157339933e-07   -6.258908596795112e-07   9.764101988981113e-06
4.2355477199728575e-06   -4.355253960649976e-07   9.78283888525321e-07
4.2355477199728575e-06   -4.355253960649976e-07   9.78283888525321e-07
4.2355477199728575e-06   -4.355253960649976e-07   9.78283888525321e-07
4.2355477199728575e-06   -4.355253960649976e-07   9.78283888525321e-07
1.7420183325159085e-06   -4.0912394635441666e-07   5.1183253311273e-06
1.7420183325159085e-06   -4.0912394635441666e-07   5.1183253311273e-06
1.7420183325159085e-06   -4.0912394635441666e-07   5.1183253311273e-06
1.7420183325159085e-06   -4.0912394635441666e-07   5.1183253311273e-06
-3.3524693900077154e-07   8.657424815070481e-07   1.040727020529237e-05
-3.3524693900077154e-07   8.657424815070481e-07   1.040727020529237e-05
-3.3524693900077154e-07   8.657424815070481e-07   1.040727020529237e-05
-3.3524693900077154e-07   8.657424815070481e-07   1.040727020529237e-05
-5.484357616599294e-06   8.949909594735319e-07   1.842968162741438e-06
-5.484357616599294e-06   8.949909594735319e-07   1.842968162741438e-06
-5.484357616599294e-06   8.949909594735319e-07   1.842968162741438e-06
-5.484357616599294e-06   8.949909594735319e-07   1.842968162741438e-06
-5.693249984147235e-06   7.396782635910515e-07   1.0375952477773215e-05
-5.693249984147235e-06   7.396782635910515e-07   1.0375952477773215e-05
-5.693249984147235e-06   7.396782635910515e-07   1.0375952477773215e-05
-5.693249984147235e-06   7.396782635910515e-07   1.0375952477773215e-05
-5.424403889667116e-07   7.482448275649735e-07   1.786129880754595e-06
-5.424403889667116e-07   7.482448275649735e-07   1.786129880754595e-06
-5.424403889667116e-07   7.482448275649735e-07   1.786129880754595e-06
-5.424403889667116e-07   7.482448275649735e-07   1.786129880754595e-06
-3.0215191715922132e-06   7.968086830002948e-07   5.888789538535891e-06
-3.0215191715922132e-06   7.968086830002948e-07   5.888789538535891e-06
-3.0215191715922132e-06   7.968086830002948e-07   5.888789538535891e-06
-3.0215191715922132e-06   7.968086830002948e-07   5.888789538535891e-06
-5.424403889667107e-07   7.396782635909591e-07   1.0370812539388797e-05
-5.424403889667107e-07   7.396782635909591e-07   1.0370812539388797e-05
-5.424403889667107e-07   7.396782635909591e-07   1.0370812539388797e-05
-5.424403889667107e-07   7.396782635909591e-07   1.0370812539388797e-05
-5.693249984147235e-06   7.482448275649735e-07   1.791269819138993e-06
-5.693249984147235e-06   7.482448275649735e-07   1.791269819138993e-06
-5.693249984147235e-06   7.482448275649735e-07   1.791269819138993e-06
-5.693249984147235e-06   7.482448275649735e-07   1.791269819138993e-06
-5.907041442160416e-06   6.173727114269995e-07   1.0428074220140385e-05
-5.907041442160416e-06   6.173727114269995e-07   1.0428074220140385e-05
-5.907041442160416e-06   6.173727114269995e-07   1.0428074220140385e-05
-5.907041442160416e-06   6.173727114269995e-07   1.0428074220140385e-05
-7.54278870160686e-07   6.039183247474704e-07   1.8482092321485408e-06
-7.54278870160686e-07   6.039183247474704e-07   1.8482092321485408e-06
-7.54278870160686e-07   6.039183247474704e-07   1.8482092321485408e-06
-7.54278870160686e-07   6.039183247474704e-07   1.8482092321485408e-06
-3.2149329824793295e-06   6.989992962349928e-07   5.892250836454015e-06
-3.2149329824793295e-06   6.989992962349928e-07   5.892250836454015e-06
-3.2149329824793295e-06   6.989992962349928e-07   5.892250836454015e-06
-3.2149329824793295e-06   6.989992962349928e-07   5.892250836454015e-06
-7.542788701606876e-07   6.173727114269689e-07   1.0436146852148124e-05
-7.542788701606876e-07   6.173727114269689e-07   1.0436146852148124e-05
-7.542788701606876e-07   6.173727114269689e-07   1.0436146852148124e-05
-7.542788701606876e-07   6.173727114269689e-07   1.0436146852148124e-05
-5.907041442160436e-06   6.039183247474704e-07   1.8401366001408355e-06
-5.907041442160436e-06   6.039183247474704e-07   1.8401366001408355e-06
-5.907041442160436e-06   6.039183247474704e-07   1.8401366001408355e-06
-5.907041442160436e-06   6.039183247474704e-07   1.8401366001408355e-06
-6.120457674159471e-06   5.086488885823817e-07   1.0550859115038996e-05
-6.120457674159471e-06   5.086488885823817e-07   1.0550859115038996e-05
-6.120457674159471e-06   5.086488885823817e-07   1.0550859115038996e-05
-6.120457674159471e-06   5.086488885823817e-07   1.0550859115038996e-05
-9.674115733993356e-07   4.671143295043945e-07   1.987369682552243e-06
-9.674115733993356e-07   4.671143295043945e-07   1.987369682552243e-06
-9.674115733993356e-07   4.671143295043945e-07   1.987369682552243e-06
-9.674115733993356e-07   4.671143295043945e-07   1.987369682552243e-06
-3.417687924044575e-06   6.039367187594784e-07   5.989070166741205e-06
-3.417687924044575e-06   6.039367187594784e-07   5.989070166741205e-06
-3.417687924044575e-06   6.039367187594784e-07   5.989070166741205e-06
-3.417687924044575e-06   6.039367187594784e-07   5.989070166741205e-06
-5.484357616599281e-06   1.976306928092189e-06   9.18284457851915e-06
-5.484357616599281e-06   1.976306928092189e-06   9.18284457851915e-06
-5.484357616599281e-06   1.976306928092189e-06   9.18284457851915e-06
-5.484357616599281e-06   1.976306928092189e-06   9.18284457851915e-06
-1.0536261466533695e-05   1.7733461819017735e-06   6.412283809142602e-07
-1.0536261466533695e-05   1.7733461819017735e-06   6.412283809142602e-07
-1.0536261466533695e-05   1.7733461819017735e-06   6.412283809142602e-07
-1.0536261466533695e-05   1.7733461819017735e-06   6.412283809142602e-07
-1.0761528167422098e-05   1.8579463266785515e-06   9.12870497246491e-06
-1.0761528167422098e-05   1.8579463266785515e-06   9.12870497246491e-06
-1.0761528167422098e-05   1.8579463266785515e-06   9.12870497246491e-06
-1.0761528167422098e-05   1.8579463266785515e-06   9.12870497246491e-06
-5.693249984147244e-06   1.6344854924480335e-06   8.156511675451759e-07
-5.693249984147244e-06   1.6344854924480335e-06   8.156511675451759e-07
-5.693249984147244e-06   1.6344854924480335e-06   8.156511675451759e-07
-5.693249984147244e-06   1.6344854924480335e-06   8.156511675451759e-07
-8.091572489393932e-06   1.7848702817380678e-06   4.722624469382291e-06
-8.091572489393932e-06   1.7848702817380678e-06   4.722624469382291e-06
-8.091572489393932e-06   1.7848702817380678e-06   4.722624469382291e-06
-8.091572489393932e-06   1.7848702817380678e-06   4.722624469382291e-06
-5.693249984147235e-06   1.8579463266786245e-06   9.262781473003286e-06
-5.693249984147235e-06   1.8579463266786245e-06   9.262781473003286e-06
-5.693249984147235e-06   1.8579463266786245e-06   9.262781473003286e-06
-5.693249984147235e-06   1.8579463266786245e-06   9.262781473003286e-06
-1.0761528167422071e-05   1.6344854924480335e-06   6.815746670067865e-07
-1.0761528167422071e-05   1.6344854924480335e-06   6.815746670067865e-07
-1.0761528167422071e-05   1.6344854924480335e-06   6.815746670067865e-07
-1.0761528167422071e-05   1.6344854924480335e-06   6.815746670067865e-07
-1.1008720136567484e-05   1.7470925043758722e-06   9.472938010542456e-06
-1.1008720136567484e-05   1.7470925043758722e-06   9.472938010542456e-06
-1.1008720136567484e-05   1.7470925043758722e-06   9.472938010542456e-06
-1.1008720136567484e-05   1.7470925043758722e-06   9.472938010542456e-06
-5.907041442160439e-06   1.5035342986721755e-06   1.1162751099529333e-06
-5.907041442160439e-06   1.5035342986721755e-06   1.1162751099529333e-06
-5.907041442160439e-06   1.5035342986721755e-06   1.1162751099529333e-06
-5.907041442160439e-06   1.5035342986721755e-06   1.1162751099529333e-06
-8.24992621169485e-06   1.6969308394143698e-06   4.9050451347318704e-06
-8.24992621169485e-06   1.6969308394143698e-06   4.9050451347318704e-06
-8.24992621169485e-06   1.6969308394143698e-06   4.9050451347318704e-06
-8.24992621169485e-06   1.6969308394143698e-06   4.9050451347318704e-06
-5.907041442160436e-06   1.7470925043758655e-06   9.619072933964685e-06
-5.907041442160436e-06   1.7470925043758655e-06   9.619072933964685e-06
-5.907041442160436e-06   1.7470925043758655e-06   9.619072933964685e-06
-5.907041442160436e-06   1.7470925043758655e-06   9.619072933964685e-06
-1.1008720136567484e-05   1.5035342986721755e-06   9.701401865306637e-07
-1.1008720136567484e-05   1.5035342986721755e-06   9.701401865306637e-07
-1.1008720136567484e-05   1.5035342986721755e-06   9.701401865306637e-07
-1.1008720136567484e-05   1.5035342986721755e-06   9.701401865306637e-07
-1.1233803759128934e-05   1.6101364407122235e-06   9.725384544968872e-06
-1.1233803759128934e-05   1.6101364407122235e-06   9.725384544968872e-06
-1.1233803759128934e-05   1.6101364407122235e-06   9.725384544968872e-06
-1.1233803759128934e-05   1.6101364407122235e-06   9.725384544968872e-06
-6.1204576741594816e-06   1.3496003902433709e-06   1.3594627003011813e-06
-6.1204576741594816e-06   1.3496003902433709e-06   1.3594627003011813e-06
-6.1204576741594816e-06   1.3496003902433709e-06   1.3594627003011813e-06
-6.1204576741594816e-06   1.3496003902433709e-06   1.3594627003011813e-06
-8.508787748613069e-06   1.5959995594042823e-06   5.192173322893961e-06
-8.508787748613069e-06   1.5959995594042823e-06   5.192173322893961e-06
-8.508787748613069e-06   1.5959995594042823e-06   5.192173322893961e-06
-8.508787748613069e-06   1.5959995594042823e-06   5.192173322893961e-06
-1.0536261466533695e-05   2.8652131526430166e-06   4.467468123506616e-06
-1.0536261466533695e-05   2.8652131526430166e-06   4.467468123506616e-06
-1.0536261466533695e-05   2.8652131526430166e-06   4.467468123506616e-06
-1.0536261466533695e-05   2.8652131526430166e-06   4.467468123506616e-06
-1.5371559661791627e-05   2.464519496419063e-06   -3.831778395657593e-06
-1.5371559661791627e-05   2.464519496419063e-06   -3.831778395657593e-06
-1.5371559661791627e-05   2.464519496419063e-06   -3.831778395657593e-06
-1.5371559661791627e-05   2.464519496419063e-06   -3.831778395657593e-06
-1.577827442473692e-05   2.9019779826164717e-06   5.9812969625847945e-06
-1.577827442473692e-05   2.9019779826164717e-06   5.9812969625847945e-06
-1.577827442473692e-05   2.9019779826164717e-06   5.9812969625847945e-06
-1.577827442473692e-05   2.9019779826164717e-06   5.9812969625847945e-06
-1.0761528167422098e-05   2.458242799509335e-06   -2.113705689742412e-06
-1.0761528167422098e-05   2.458242799509335e-06   -2.113705689742412e-06
-1.0761528167422098e-05   2.458242799509335e-06   -2.113705689742412e-06
-1.0761528167422098e-05   2.458242799509335e-06   -2.113705689742412e-06
-1.2612167610833833e-05   2.630952003524075e-06   8.670678602017146e-07
-1.2612167610833833e-05   2.630952003524075e-06   8.670678602017146e-07
-1.2612167610833833e-05   2.630952003524075e-06   8.670678602017146e-07
-1.2612167610833833e-05   2.630952003524075e-06   8.670678602017146e-07
-1.0761528167422085e-05   2.9019779826164455e-06   6.2475380724490875e-06
-1.0761528167422085e-05   2.9019779826164455e-06   6.2475380724490875e-06
-1.0761528167422085e-05   2.9019779826164455e-06   6.2475380724490875e-06
-1.0761528167422085e-05   2.9019779826164455e-06   6.2475380724490875e-06
-1.5778274424736946e-05   2.458242799509335e-06   -2.3799467996066237e-06
-1.5778274424736946e-05   2.458242799509335e-06   -2.3799467996066237e-06
-1.5778274424736946e-05   2.458242799509335e-06   -2.3799467996066237e-06
-1.5778274424736946e-05   2.458242799509335e-06   -2.3799467996066237e-06
-1.61406887370528e-05   2.8718253448843352e-06   7.187449611465975e-06
-1.61406887370528e-05   2.8718253448843352e-06   7.187449611465975e-06
-1.61406887370528e-05   2.8718253448843352e-06   7.187449611465975e-06
-1.61406887370528e-05   2.8718253448843352e-06   7.187449611465975e-06
-1.1008720136567496e-05   2.4101587211175198e-06   -1.088831415082804e-06
-1.1008720136567496e-05   2.4101587211175198e-06   -1.088831415082804e-06
-1.1008720136567496e-05   2.4101587211175198e-06   -1.088831415082804e-06
-1.1008720136567496e-05   2.4101587211175198e-06   -1.088831415082804e-06
-1.308824606101506e-05   2.662210192869467e-06   2.225814242612503e-06
-1.308824606101506e-05   2.662210192869467e-06   2.225814242612503e-06
-1.308824606101506e-05   2.662210192869467e-06   2.225814242612503e-06
-1.308824606101506e-05   2.662210192869467e-06   2.225814242612503e-06
-1.1008720136567484e-05   2.8718253448843327e-06   7.464449585726119e-06
-1.1008720136567484e-05   2.8718253448843327e-06   7.464449585726119e-06
-1.1008720136567484e-05   2.8718253448843327e-06   7.464449585726119e-06
-1.1008720136567484e-05   2.8718253448843327e-06   7.464449585726119e-06
-1.6140688737052827e-05   2.4101587211175198e-06   -1.3658313893429204e-06
-1.6140688737052827e-05   2.4101587211175198e-06   -1.3658313893429204e-06
-1.6140688737052827e-05   2.4101587211175198e-06   -1.3658313893429204e-06
-1.6140688737052827e-05   2.4101587211175198e-06   -1.3658313893429204e-06
-1.6555454940188948e-05   2.654926199921492e-06   9.254523339156451e-06
-1.6555454940188948e-05   2.654926199921492e-06   9.254523339156451e-06
-1.6555454940188948e-05   2.654926199921492e-06   9.254523339156451e-06
-1.6555454940188948e-05   2.654926199921492e-06   9.254523339156451e-06
-1.1233803759128922e-05   2.1932222775155642e-06   6.621270574998445e-07
-1.1233803759128922e-05   2.1932222775155642e-06   6.621270574998445e-07
-1.1233803759128922e-05   2.1932222775155642e-06   6.621270574998445e-07
-1.1233803759128922e-05   2.1932222775155642e-06   6.621270574998445e-07
-1.3176057814612432e-05   2.5716880009120325e-06   3.6721377159343337e-06
-1.3176057814612432e-05   2.5716880009120325e-06   3.6721377159343337e-06
-1.3176057814612432e-05   2.5716880009120325e-06   3.6721377159343337e-06
-1.3176057814612432e-05   2.5716880009120325e-06   3.6721377159343337e-06
7.373190657835753e-06   -9.524632317113015e-07   7.2398897161983695e-06
7.373190657835753e-06   -9.524632317113015e-07   7.2398897161983695e-06
7.373190657835753e-06   -9.524632317113015e-07   7.2398897161983695e-06
7.373190657835753e-06   -9.524632317113015e-07   7.2398897161983695e-06
3.06859899291387e-06   -4.89169824665779e-07   3.4354631888919556e-07
3.06859899291387e-06   -4.89169824665779e-07   3.4354631888919556e-07
3.06859899291387e-06   -4.89169824665779e-07   3.4354631888919556e-07
3.06859899291387e-06   -4.89169824665779e-07   3.4354631888919556e-07
2.889987004631648e-06   -1.1490870743697265e-06   6.492367181503821e-06
2.889987004631648e-06   -1.1490870743697265e-06   6.492367181503821e-06
2.889987004631648e-06   -1.1490870743697265e-06   6.492367181503821e-06
2.889987004631648e-06   -1.1490870743697265e-06   6.492367181503821e-06
6.99060871306248e-06   -6.67342537171464e-07   -6.310490548665408e-07
6.99060871306248e-06   -6.67342537171464e-07   -6.310490548665408e-07
6.99060871306248e-06   -6.67342537171464e-07   -6.310490548665408e-07
6.99060871306248e-06   -6.67342537171464e-07   -6.310490548665408e-07
4.828828733596987e-06   -8.327103274059257e-07   3.071138251716793e-06
4.828828733596987e-06   -8.327103274059257e-07   3.071138251716793e-06
4.828828733596987e-06   -8.327103274059257e-07   3.071138251716793e-06
4.828828733596987e-06   -8.327103274059257e-07   3.071138251716793e-06
6.990608713062492e-06   -1.1490870743697405e-06   6.2033204591848854e-06
6.990608713062492e-06   -1.1490870743697405e-06   6.2033204591848854e-06
6.990608713062492e-06   -1.1490870743697405e-06   6.2033204591848854e-06
6.990608713062492e-06   -1.1490870743697405e-06   6.2033204591848854e-06
2.889987004631636e-06   -6.67342537171464e-07   -3.420023325475846e-07
2.889987004631636e-06   -6.67342537171464e-07   -3.420023325475846e-07
2.889987004631636e-06   -6.67342537171464e-07   -3.420023325475846e-07
2.889987004631636e-06   -6.67342537171464e-07   -3.420023325475846e-07
2.6882038704531684e-06   -1.2005800654641156e-06   5.939522989788682e-06
2.6882038704531684e-06   -1.2005800654641156e-06   5.939522989788682e-06
2.6882038704531684e-06   -1.2005800654641156e-06   5.939522989788682e-06
2.6882038704531684e-06   -1.2005800654641156e-06   5.939522989788682e-06
6.660982254950084e-06   -7.274473789463973e-07   -9.65653929616784e-07
6.660982254950084e-06   -7.274473789463973e-07   -9.65653929616784e-07
6.660982254950084e-06   -7.274473789463973e-07   -9.65653929616784e-07
6.660982254950084e-06   -7.274473789463973e-07   -9.65653929616784e-07
4.664467018858776e-06   -9.087223696938864e-07   2.4706364583173566e-06
4.664467018858776e-06   -9.087223696938864e-07   2.4706364583173566e-06
4.664467018858776e-06   -9.087223696938864e-07   2.4706364583173566e-06
4.664467018858776e-06   -9.087223696938864e-07   2.4706364583173566e-06
6.660982254950095e-06   -1.200580065464063e-06   5.655643377878018e-06
6.660982254950095e-06   -1.200580065464063e-06   5.655643377878018e-06
6.660982254950095e-06   -1.200580065464063e-06   5.655643377878018e-06
6.660982254950095e-06   -1.200580065464063e-06   5.655643377878018e-06
2.688203870453165e-06   -7.274473789463973e-07   -6.817743177061882e-07
2.688203870453165e-06   -7.274473789463973e-07   -6.817743177061882e-07
2.688203870453165e-06   -7.274473789463973e-07   -6.817743177061882e-07
2.688203870453165e-06   -7.274473789463973e-07   -6.817743177061882e-07
2.506828868299091e-06   -1.24390230927824e-06   5.2125485335138486e-06
2.506828868299091e-06   -1.24390230927824e-06   5.2125485335138486e-06
2.506828868299091e-06   -1.24390230927824e-06   5.2125485335138486e-06
2.506828868299091e-06   -1.24390230927824e-06   5.2125485335138486e-06
6.285066200427632e-06   -8.029456062116024e-07   -1.349087708540331e-06
6.285066200427632e-06   -8.029456062116024e-07   -1.349087708540331e-06
6.285066200427632e-06   -8.029456062116024e-07   -1.349087708540331e-06
6.285066200427632e-06   -8.029456062116024e-07   -1.349087708540331e-06
4.342497826580199e-06   -9.209098492182766e-07   1.9593047936759153e-06
4.342497826580199e-06   -9.209098492182766e-07   1.9593047936759153e-06
4.342497826580199e-06   -9.209098492182766e-07   1.9593047936759153e-06
4.342497826580199e-06   -9.209098492182766e-07   1.9593047936759153e-06
3.068598992913882e-06   -1.4878553274557903e-08   8.831171745763604e-06
3.068598992913882e-06   -1.4878553274557903e-08   8.831171745763604e-06
3.068598992913882e-06   -1.4878553274557903e-08   8.831171745763604e-06
3.068598992913882e-06   -1.4878553274557903e-08   8.831171745763604e-06
-9.598659706840315e-07   2.237071800040508e-07   2.2602149130676163e-06
-9.598659706840315e-07   2.237071800040508e-07   2.2602149130676163e-06
-9.598659706840315e-07   2.237071800040508e-07   2.2602149130676163e-06
-9.598659706840315e-07   2.237071800040508e-07   2.2602149130676163e-06
-1.124499211727984e-06   -1.8409278928859223e-07   8.84392469610221e-06
-1.124499211727984e-06   -1.8409278928859223e-07   8.84392469610221e-06
-1.124499211727984e-06   -1.8409278928859223e-07   8.84392469610221e-06
-1.124499211727984e-06   -1.8409278928859223e-07   8.84392469610221e-06
2.889987004631637e-06   4.5511986165381376e-08   2.015351470230473e-06
2.889987004631637e-06   4.5511986165381376e-08   2.015351470230473e-06
2.889987004631637e-06   4.5511986165381376e-08   2.015351470230473e-06
2.889987004631637e-06   4.5511986165381376e-08   2.015351470230473e-06
9.394363921526496e-07   1.7348385572069427e-09   5.292535446260521e-06
9.394363921526496e-07   1.7348385572069427e-09   5.292535446260521e-06
9.394363921526496e-07   1.7348385572069427e-09   5.292535446260521e-06
9.394363921526496e-07   1.7348385572069427e-09   5.292535446260521e-06
2.8899870046316445e-06   -1.8409278928860774e-07   8.706161830829805e-06
2.8899870046316445e-06   -1.8409278928860774e-07   8.706161830829805e-06
2.8899870046316445e-06   -1.8409278928860774e-07   8.706161830829805e-06
2.8899870046316445e-06   -1.8409278928860774e-07   8.706161830829805e-06
-1.1244992117279907e-06   4.5511986165381376e-08   2.153114335502889e-06
-1.1244992117279907e-06   4.5511986165381376e-08   2.153114335502889e-06
-1.1244992117279907e-06   4.5511986165381376e-08   2.153114335502889e-06
-1.1244992117279907e-06   4.5511986165381376e-08   2.153114335502889e-06
-1.2930891040286964e-06   -3.157434296169933e-07   8.729372026820717e-06
-1.2930891040286964e-06   -3.157434296169933e-07   8.729372026820717e-06
-1.2930891040286964e-06   -3.157434296169933e-07   8.729372026820717e-06
-1.2930891040286964e-06   -3.157434296169933e-07   8.729372026820717e-06
2.6882038704531645e-06   -9.866321905451598e-08   1.963635609680148e-06
2.6882038704531645e-06   -9.866321905451598e-08   1.963635609680148e-06
2.6882038704531645e-06   -9.866321905451598e-08   1.963635609680148e-06
2.6882038704531645e-06   -9.866321905451598e-08   1.963635609680148e-06
7.572515558129972e-07   -1.1613907254762364e-07   5.192374979509927e-06
7.572515558129972e-07   -1.1613907254762364e-07   5.192374979509927e-06
7.572515558129972e-07   -1.1613907254762364e-07   5.192374979509927e-06
7.572515558129972e-07   -1.1613907254762364e-07   5.192374979509927e-06
2.6882038704531734e-06   -3.157434296170499e-07   8.599123900483274e-06
2.6882038704531734e-06   -3.157434296170499e-07   8.599123900483274e-06
2.6882038704531734e-06   -3.157434296170499e-07   8.599123900483274e-06
2.6882038704531734e-06   -3.157434296170499e-07   8.599123900483274e-06
-1.2930891040286897e-06   -9.866321905457019e-08   2.0938837360176825e-06
-1.2930891040286897e-06   -9.866321905457019e-08   2.0938837360176825e-06
-1.2930891040286897e-06   -9.866321905457019e-08   2.0938837360176825e-06
-1.2930891040286897e-06   -9.866321905457019e-08   2.0938837360176825e-06
-1.4604636169855914e-06   -4.355253960649976e-07   8.79957079545098e-06
-1.4604636169855914e-06   -4.355253960649976e-07   8.79957079545098e-06
-1.4604636169855914e-06   -4.355253960649976e-07   8.79957079545098e-06
-1.4604636169855914e-06   -4.355253960649976e-07   8.79957079545098e-06
2.5068288682990822e-06   -2.3866560318417523e-07   2.069300777581342e-06
2.5068288682990822e-06   -2.3866560318417523e-07   2.069300777581342e-06
2.5068288682990822e-06   -2.3866560318417523e-07   2.069300777581342e-06
2.5068288682990822e-06   -2.3866560318417523e-07   2.069300777581342e-06
6.152540343436149e-07   -2.1243952150651509e-07   5.2061898518337345e-06
6.152540343436149e-07   -2.1243952150651509e-07   5.2061898518337345e-06
6.152540343436149e-07   -2.1243952150651509e-07   5.2061898518337345e-06
6.152540343436149e-07   -2.1243952150651509e-07   5.2061898518337345e-06
-9.598659706840383e-07   8.949909594735978e-07   9.560266885189983e-06
-9.598659706840383e-07   8.949909594735978e-07   9.560266885189983e-06
-9.598659706840383e-07   8.949909594735978e-07   9.560266885189983e-06
-9.598659706840383e-07   8.949909594735978e-07   9.560266885189983e-06
-4.917846637507409e-06   8.863237472608973e-07   2.9584321131567606e-06
-4.917846637507409e-06   8.863237472608973e-07   2.9584321131567606e-06
-4.917846637507409e-06   8.863237472608973e-07   2.9584321131567606e-06
-4.917846637507409e-06   8.863237472608973e-07   2.9584321131567606e-06
-5.080847282558891e-06   7.482448275649735e-07   9.498298697153745e-06
-5.080847282558891e-06   7.482448275649735e-07   9.498298697153745e-06
-5.080847282558891e-06   7.482448275649735e-07   9.498298697153745e-06
-5.080847282558891e-06   7.482448275649735e-07   9.498298697153745e-06
-1.1244992117279825e-06   7.262212767129286e-07   2.917599376280195e-06
-1.1244992117279825e-06   7.262212767129286e-07   2.917599376280195e-06
-1.1244992117279825e-06   7.262212767129286e-07   2.917599376280195e-06
-1.1244992117279825e-06   7.262212767129286e-07   2.917599376280195e-06
-3.028476795430679e-06   7.925337612928705e-07   6.051107858370293e-06
-3.028476795430679e-06   7.925337612928705e-07   6.051107858370293e-06
-3.028476795430679e-06   7.925337612928705e-07   6.051107858370293e-06
-3.028476795430679e-06   7.925337612928705e-07   6.051107858370293e-06
-1.124499211727984e-06   7.482448275649949e-07   9.51151282766507e-06
-1.124499211727984e-06   7.482448275649949e-07   9.51151282766507e-06
-1.124499211727984e-06   7.482448275649949e-07   9.51151282766507e-06
-1.124499211727984e-06   7.482448275649949e-07   9.51151282766507e-06
-5.0808472825589044e-06   7.262212767129828e-07   2.904385245768986e-06
-5.0808472825589044e-06   7.262212767129828e-07   2.904385245768986e-06
-5.0808472825589044e-06   7.262212767129828e-07   2.904385245768986e-06
-5.0808472825589044e-06   7.262212767129828e-07   2.904385245768986e-06
-5.247535190457726e-06   6.03918324747362e-07   9.542179748936517e-06
-5.247535190457726e-06   6.03918324747362e-07   9.542179748936517e-06
-5.247535190457726e-06   6.03918324747362e-07   9.542179748936517e-06
-5.247535190457726e-06   6.03918324747362e-07   9.542179748936517e-06
-1.2930891040286914e-06   5.680129803183704e-07   2.9729794782122534e-06
-1.2930891040286914e-06   5.680129803183704e-07   2.9729794782122534e-06
-1.2930891040286914e-06   5.680129803183704e-07   2.9729794782122534e-06
-1.2930891040286914e-06   5.680129803183704e-07   2.9729794782122534e-06
-3.1771857564182283e-06   6.771055531198272e-07   6.047685021847479e-06
-3.1771857564182283e-06   6.771055531198272e-07   6.047685021847479e-06
-3.1771857564182283e-06   6.771055531198272e-07   6.047685021847479e-06
-3.1771857564182283e-06   6.771055531198272e-07   6.047685021847479e-06
-1.2930891040286897e-06   6.03918324747494e-07   9.563722955593967e-06
-1.2930891040286897e-06   6.03918324747494e-07   9.563722955593967e-06
-1.2930891040286897e-06   6.03918324747494e-07   9.563722955593967e-06
-1.2930891040286897e-06   6.03918324747494e-07   9.563722955593967e-06
-5.247535190457739e-06   5.680129803184246e-07   2.9514362715548585e-06
-5.247535190457739e-06   5.680129803184246e-07   2.9514362715548585e-06
-5.247535190457739e-06   5.680129803184246e-07   2.9514362715548585e-06
-5.247535190457739e-06   5.680129803184246e-07   2.9514362715548585e-06
-5.41204999002731e-06   4.671143295043945e-07   9.663746798832659e-06
-5.41204999002731e-06   4.671143295043945e-07   9.663746798832659e-06
-5.41204999002731e-06   4.671143295043945e-07   9.663746798832659e-06
-5.41204999002731e-06   4.671143295043945e-07   9.663746798832659e-06
-1.460463616985589e-06   4.159634753768751e-07   3.108460022906227e-06
-1.460463616985589e-06   4.159634753768751e-07   3.108460022906227e-06
-1.460463616985589e-06   4.159634753768751e-07   3.108460022906227e-06
-1.460463616985589e-06   4.159634753768751e-07   3.108460022906227e-06
-3.333030963292691e-06   5.645956861153874e-07   6.140226273641485e-06
-3.333030963292691e-06   5.645956861153874e-07   6.140226273641485e-06
-3.333030963292691e-06   5.645956861153874e-07   6.140226273641485e-06
-3.333030963292691e-06   5.645956861153874e-07   6.140226273641485e-06
-4.917846637507409e-06   1.7733461819017862e-06   8.475103223749402e-06
-4.917846637507409e-06   1.7733461819017862e-06   8.475103223749402e-06
-4.917846637507409e-06   1.7733461819017862e-06   8.475103223749402e-06
-4.917846637507409e-06   1.7733461819017862e-06   8.475103223749402e-06
-8.821412434842046e-06   1.5323418923152382e-06   1.8245576544396764e-06
-8.821412434842046e-06   1.5323418923152382e-06   1.8245576544396764e-06
-8.821412434842046e-06   1.5323418923152382e-06   1.8245576544396764e-06
-8.821412434842046e-06   1.5323418923152382e-06   1.8245576544396764e-06
-8.996944150486776e-06   1.6344854924480335e-06   8.368315920079185e-06
-8.996944150486776e-06   1.6344854924480335e-06   8.368315920079185e-06
-8.996944150486776e-06   1.6344854924480335e-06   8.368315920079185e-06
-8.996944150486776e-06   1.6344854924480335e-06   8.368315920079185e-06
-5.080847282558884e-06   1.3772119499800791e-06   1.9958519323468764e-06
-5.080847282558884e-06   1.3772119499800791e-06   1.9958519323468764e-06
-5.080847282558884e-06   1.3772119499800791e-06   1.9958519323468764e-06
-5.080847282558884e-06   1.3772119499800791e-06   1.9958519323468764e-06
-6.934212158050548e-06   1.550528539820753e-06   4.980803437595435e-06
-6.934212158050548e-06   1.550528539820753e-06   4.980803437595435e-06
-6.934212158050548e-06   1.550528539820753e-06   4.980803437595435e-06
-6.934212158050548e-06   1.550528539820753e-06   4.980803437595435e-06
-5.0808472825589044e-06   1.634485492448004e-06   8.522680045560023e-06
-5.0808472825589044e-06   1.634485492448004e-06   8.522680045560023e-06
-5.0808472825589044e-06   1.634485492448004e-06   8.522680045560023e-06
-5.0808472825589044e-06   1.634485492448004e-06   8.522680045560023e-06
-8.996944150486762e-06   1.377211949980025e-06   1.84148780686612e-06
-8.996944150486762e-06   1.377211949980025e-06   1.84148780686612e-06
-8.996944150486762e-06   1.377211949980025e-06   1.84148780686612e-06
-8.996944150486762e-06   1.377211949980025e-06   1.84148780686612e-06
-9.193861533801932e-06   1.5035342986721755e-06   8.65558937067606e-06
-9.193861533801932e-06   1.5035342986721755e-06   8.65558937067606e-06
-9.193861533801932e-06   1.5035342986721755e-06   8.65558937067606e-06
-9.193861533801932e-06   1.5035342986721755e-06   8.65558937067606e-06
-5.247535190457716e-06   1.2323194852178945e-06   2.2411076865083457e-06
-5.247535190457716e-06   1.2323194852178945e-06   2.2411076865083457e-06
-5.247535190457716e-06   1.2323194852178945e-06   2.2411076865083457e-06
-5.247535190457716e-06   1.2323194852178945e-06   2.2411076865083457e-06
-7.0529958150840085e-06   1.4454382412225917e-06   5.122337473949511e-06
-7.0529958150840085e-06   1.4454382412225917e-06   5.122337473949511e-06
-7.0529958150840085e-06   1.4454382412225917e-06   5.122337473949511e-06
-7.0529958150840085e-06   1.4454382412225917e-06   5.122337473949511e-06
-5.247535190457739e-06   1.5035342986721503e-06   8.818318258748629e-06
-5.247535190457739e-06   1.5035342986721503e-06   8.818318258748629e-06
-5.247535190457739e-06   1.5035342986721503e-06   8.818318258748629e-06
-5.247535190457739e-06   1.5035342986721503e-06   8.818318258748629e-06
-9.193861533801932e-06   1.2323194852178402e-06   2.0783787984358178e-06
-9.193861533801932e-06   1.2323194852178402e-06   2.0783787984358178e-06
-9.193861533801932e-06   1.2323194852178402e-06   2.0783787984358178e-06
-9.193861533801932e-06   1.2323194852178402e-06   2.0783787984358178e-06
-9.367932475392346e-06   1.3496003902433709e-06   8.892409816974934e-06
-9.367932475392346e-06   1.3496003902433709e-06   8.892409816974934e-06
-9.367932475392346e-06   1.3496003902433709e-06   8.892409816974934e-06
-9.367932475392346e-06   1.3496003902433709e-06   8.892409816974934e-06
-5.412049990027302e-06   1.069015831820961e-06   2.4676230764199557e-06
-5.412049990027302e-06   1.069015831820961e-06   2.4676230764199557e-06
-5.412049990027302e-06   1.069015831820961e-06   2.4676230764199557e-06
-5.412049990027302e-06   1.069015831820961e-06   2.4676230764199557e-06
-7.251932676174627e-06   1.3333070964504376e-06   5.3755194612208865e-06
-7.251932676174627e-06   1.3333070964504376e-06   5.3755194612208865e-06
-7.251932676174627e-06   1.3333070964504376e-06   5.3755194612208865e-06
-7.251932676174627e-06   1.3333070964504376e-06   5.3755194612208865e-06
-8.821412434842046e-06   2.464519496419094e-06   4.097910067159922e-06
-8.821412434842046e-06   2.464519496419094e-06   4.097910067159922e-06
-8.821412434842046e-06   2.464519496419094e-06   4.097910067159922e-06
-8.821412434842046e-06   2.464519496419094e-06   4.097910067159922e-06
-1.2517503953954524e-05   2.0297154303484445e-06   -2.3231249043365596e-06
-1.2517503953954524e-05   2.0297154303484445e-06   -2.3231249043365596e-06
-1.2517503953954524e-05   2.0297154303484445e-06   -2.3231249043365596e-06
-1.2517503953954524e-05   2.0297154303484445e-06   -2.3231249043365596e-06
-1.2887111525993939e-05   2.458242799509335e-06   5.288127175019641e-06
-1.2887111525993939e-05   2.458242799509335e-06   5.288127175019641e-06
-1.2887111525993939e-05   2.458242799509335e-06   5.288127175019641e-06
-1.2887111525993939e-05   2.458242799509335e-06   5.288127175019641e-06
-8.996944150486742e-06   1.9833954856587053e-06   -9.105767291818707e-07
-8.996944150486742e-06   1.9833954856587053e-06   -9.105767291818707e-07
-8.996944150486742e-06   1.9833954856587053e-06   -9.105767291818707e-07
-8.996944150486742e-06   1.9833954856587053e-06   -9.105767291818707e-07
-1.039988567664497e-05   2.1910723384780556e-06   1.3030530360570432e-06
-1.039988567664497e-05   2.1910723384780556e-06   1.3030530360570432e-06
-1.039988567664497e-05   2.1910723384780556e-06   1.3030530360570432e-06
-1.039988567664497e-05   2.1910723384780556e-06   1.3030530360570432e-06
-8.996944150486776e-06   2.458242799509378e-06   5.573035563330041e-06
-8.996944150486776e-06   2.458242799509378e-06   5.573035563330041e-06
-8.996944150486776e-06   2.458242799509378e-06   5.573035563330041e-06
-8.996944150486776e-06   2.458242799509378e-06   5.573035563330041e-06
-1.2887111525993925e-05   1.9833954856587053e-06   -1.1954851174923243e-06
-1.2887111525993925e-05   1.9833954856587053e-06   -1.1954851174923243e-06
-1.2887111525993925e-05   1.9833954856587053e-06   -1.1954851174923243e-06
-1.2887111525993925e-05   1.9833954856587053e-06   -1.1954851174923243e-06
-1.3207860462144513e-05   2.4101587211175198e-06   6.30352445094766e-06
-1.3207860462144513e-05   2.4101587211175198e-06   6.30352445094766e-06
-1.3207860462144513e-05   2.4101587211175198e-06   6.30352445094766e-06
-1.3207860462144513e-05   2.4101587211175198e-06   6.30352445094766e-06
-9.193861533801903e-06   1.921669857592569e-06   -9.338044484167338e-08
-9.193861533801903e-06   1.921669857592569e-06   -9.338044484167338e-08
-9.193861533801903e-06   1.921669857592569e-06   -9.338044484167338e-08
-9.193861533801903e-06   1.921669857592569e-06   -9.338044484167338e-08
-1.079715108667846e-05   2.1950214454474976e-06   2.4147578572400246e-06
-1.079715108667846e-05   2.1950214454474976e-06   2.4147578572400246e-06
-1.079715108667846e-05   2.1950214454474976e-06   2.4147578572400246e-06
-1.079715108667846e-05   2.1950214454474976e-06   2.4147578572400246e-06
-9.193861533801932e-06   2.4101587211175054e-06   6.596617769062565e-06
-9.193861533801932e-06   2.4101587211175054e-06   6.596617769062565e-06
-9.193861533801932e-06   2.4101587211175054e-06   6.596617769062565e-06
-9.193861533801932e-06   2.4101587211175054e-06   6.596617769062565e-06
-1.32078604621445e-05   1.921669857592569e-06   -3.864737629566059e-07
-1.32078604621445e-05   1.921669857592569e-06   -3.864737629566059e-07
-1.32078604621445e-05   1.921669857592569e-06   -3.864737629566059e-07
-1.32078604621445e-05   1.921669857592569e-06   -3.864737629566059e-07
-1.357842198088746e-05   2.1932222775155642e-06   8.061793701624514e-06
-1.357842198088746e-05   2.1932222775155642e-06   8.061793701624514e-06
-1.357842198088746e-05   2.1932222775155642e-06   8.061793701624514e-06
-1.357842198088746e-05   2.1932222775155642e-06   8.061793701624514e-06
-9.367932475392312e-06   1.7105521061314111e-06   1.3339132952964409e-06
-9.367932475392312e-06   1.7105521061314111e-06   1.3339132952964409e-06
-9.367932475392312e-06   1.7105521061314111e-06   1.3339132952964409e-06
-9.367932475392312e-06   1.7105521061314111e-06   1.3339132952964409e-06
-1.0874953323866257e-05   2.1027025723442975e-06   3.6103244296915003e-06
-1.0874953323866257e-05   2.1027025723442975e-06   3.6103244296915003e-06
-1.0874953323866257e-05   2.1027025723442975e-06   3.6103244296915003e-06
-1.0874953323866257e-05   2.1027025723442975e-06   3.6103244296915003e-06
4.251374482137561e-06   -4.89169824665782e-07   5.785393360745845e-06
4.251374482137561e-06   -4.89169824665782e-07   5.785393360745845e-06
4.251374482137561e-06   -4.89169824665782e-07   5.785393360745845e-06
4.251374482137561e-06   -4.89169824665782e-07   5.785393360745845e-06
1.1725069105776012e-06   -2.3739001018022957e-08   9.33205902334624e-07
1.1725069105776012e-06   -2.3739001018022957e-08   9.33205902334624e-07
1.1725069105776012e-06   -2.3739001018022957e-08   9.33205902334624e-07
1.1725069105776012e-06   -2.3739001018022957e-08   9.33205902334624e-07
1.0363987692247246e-06   -6.673425371715182e-07   5.373170542842195e-06
1.0363987692247246e-06   -6.673425371715182e-07   5.373170542842195e-06
1.0363987692247246e-06   -6.673425371715182e-07   5.373170542842195e-06
1.0363987692247246e-06   -6.673425371715182e-07   5.373170542842195e-06
3.913144565237485e-06   -1.8490691941529594e-07   2.891328455005676e-07
3.913144565237485e-06   -1.8490691941529594e-07   2.891328455005676e-07
3.913144565237485e-06   -1.8490691941529594e-07   2.891328455005676e-07
3.913144565237485e-06   -1.8490691941529594e-07   2.891328455005676e-07
2.4431115062899487e-06   -3.640665308624557e-07   2.8466837106149736e-06
2.4431115062899487e-06   -3.640665308624557e-07   2.8466837106149736e-06
2.4431115062899487e-06   -3.640665308624557e-07   2.8466837106149736e-06
2.4431115062899487e-06   -3.640665308624557e-07   2.8466837106149736e-06
3.9131445652374916e-06   -6.673425371715189e-07   5.083709172188494e-06
3.9131445652374916e-06   -6.673425371715189e-07   5.083709172188494e-06
3.9131445652374916e-06   -6.673425371715189e-07   5.083709172188494e-06
3.9131445652374916e-06   -6.673425371715189e-07   5.083709172188494e-06
1.036398769224723e-06   -1.8490691941529594e-07   5.785942161543023e-07
1.036398769224723e-06   -1.8490691941529594e-07   5.785942161543023e-07
1.036398769224723e-06   -1.8490691941529594e-07   5.785942161543023e-07
1.036398769224723e-06   -1.8490691941529594e-07   5.785942161543023e-07
8.766736771665221e-07   -7.274473789463973e-07   5.02901772166548e-06
8.766736771665221e-07   -7.274473789463973e-07   5.02901772166548e-06
8.766736771665221e-07   -7.274473789463973e-07   5.02901772166548e-06
8.766736771665221e-07   -7.274473789463973e-07   5.02901772166548e-06
3.6254997193384153e-06   -2.526490830016045e-07   1.6276200714548922e-07
3.6254997193384153e-06   -2.526490830016045e-07   1.6276200714548922e-07
3.6254997193384153e-06   -2.526490830016045e-07   1.6276200714548922e-07
3.6254997193384153e-06   -2.526490830016045e-07   1.6276200714548922e-07
2.283891510269913e-06   -4.345889142389923e-07   2.5079395876687265e-06
2.283891510269913e-06   -4.345889142389923e-07   2.5079395876687265e-06
2.283891510269913e-06   -4.345889142389923e-07   2.5079395876687265e-06
2.283891510269913e-06   -4.345889142389923e-07   2.5079395876687265e-06
3.625499719338419e-06   -7.274473789464127e-07   4.744138744098561e-06
3.625499719338419e-06   -7.274473789464127e-07   4.744138744098561e-06
3.625499719338419e-06   -7.274473789464127e-07   4.744138744098561e-06
3.625499719338419e-06   -7.274473789464127e-07   4.744138744098561e-06
8.766736771665188e-07   -2.526490830016045e-07   4.4764098471234727e-07
8.766736771665188e-07   -2.526490830016045e-07   4.4764098471234727e-07
8.766736771665188e-07   -2.526490830016045e-07   4.4764098471234727e-07
8.766736771665188e-07   -2.526490830016045e-07   4.4764098471234727e-07
7.377113339584729e-07   -8.029456062116024e-07   4.620584128166809e-06
7.377113339584729e-07   -8.029456062116024e-07   4.620584128166809e-06
7.377113339584729e-07   -8.029456062116024e-07   4.620584128166809e-06
7.377113339584729e-07   -8.029456062116024e-07   4.620584128166809e-06
3.286846432067046e-06   -3.621837310907334e-07   1.075685062467419e-07
3.286846432067046e-06   -3.621837310907334e-07   1.075685062467419e-07
3.286846432067046e-06   -3.621837310907334e-07   1.075685062467419e-07
3.286846432067046e-06   -3.621837310907334e-07   1.075685062467419e-07
2.03746831778824e-06   -4.677775367993033e-07   2.2532216468031793e-06
2.03746831778824e-06   -4.677775367993033e-07   2.2532216468031793e-06
2.03746831778824e-06   -4.677775367993033e-07   2.2532216468031793e-06
2.03746831778824e-06   -4.677775367993033e-07   2.2532216468031793e-06
1.1725069105776029e-06   2.2370718000403029e-07   7.838169009145846e-06
1.1725069105776029e-06   2.2370718000403029e-07   7.838169009145846e-06
1.1725069105776029e-06   2.2370718000403029e-07   7.838169009145846e-06
1.1725069105776029e-06   2.2370718000403029e-07   7.838169009145846e-06
-1.6222227419105542e-06   4.3803292734684177e-07   3.308881703404558e-06
-1.6222227419105542e-06   4.3803292734684177e-07   3.308881703404558e-06
-1.6222227419105542e-06   4.3803292734684177e-07   3.308881703404558e-06
-1.6222227419105542e-06   4.3803292734684177e-07   3.308881703404558e-06
-1.7423925025783496e-06   4.5511986165435586e-08   7.858159516231026e-06
-1.7423925025783496e-06   4.5511986165435586e-08   7.858159516231026e-06
-1.7423925025783496e-06   4.5511986165435586e-08   7.858159516231026e-06
-1.7423925025783496e-06   4.5511986165435586e-08   7.858159516231026e-06
1.0363987692247232e-06   2.5823727051676147e-07   3.0992055592818734e-06
1.0363987692247232e-06   2.5823727051676147e-07   3.0992055592818734e-06
1.0363987692247232e-06   2.5823727051676147e-07   3.0992055592818734e-06
1.0363987692247232e-06   2.5823727051676147e-07   3.0992055592818734e-06
-3.1056692082152667e-07   2.2244646349272104e-07   5.365622860240273e-06
-3.1056692082152667e-07   2.2244646349272104e-07   5.365622860240273e-06
-3.1056692082152667e-07   2.2244646349272104e-07   5.365622860240273e-06
-3.1056692082152667e-07   2.2244646349272104e-07   5.365622860240273e-06
1.0363987692247238e-06   4.5511986165405966e-08   7.730524345620209e-06
1.0363987692247238e-06   4.5511986165405966e-08   7.730524345620209e-06
1.0363987692247238e-06   4.5511986165405966e-08   7.730524345620209e-06
1.0363987692247238e-06   4.5511986165405966e-08   7.730524345620209e-06
-1.7423925025783496e-06   2.5823727051676147e-07   3.2268407298926855e-06
-1.7423925025783496e-06   2.5823727051676147e-07   3.2268407298926855e-06
-1.7423925025783496e-06   2.5823727051676147e-07   3.2268407298926855e-06
-1.7423925025783496e-06   2.5823727051676147e-07   3.2268407298926855e-06
-1.8663242065830062e-06   -9.866321905457019e-08   7.798175878325083e-06
-1.8663242065830062e-06   -9.866321905457019e-08   7.798175878325083e-06
-1.8663242065830062e-06   -9.866321905457019e-08   7.798175878325083e-06
-1.8663242065830062e-06   -9.866321905457019e-08   7.798175878325083e-06
8.766736771665189e-07   1.0758382973423625e-07   3.102764509469296e-06
8.766736771665189e-07   1.0758382973423625e-07   3.102764509469296e-06
8.766736771665189e-07   1.0758382973423625e-07   3.102764509469296e-06
8.766736771665189e-07   1.0758382973423625e-07   3.102764509469296e-06
-4.395634922287308e-07   9.813614289163599e-08   5.30216173723367e-06
-4.395634922287308e-07   9.813614289163599e-08   5.30216173723367e-06
-4.395634922287308e-07   9.813614289163599e-08   5.30216173723367e-06
-4.395634922287308e-07   9.813614289163599e-08   5.30216173723367e-06
8.766736771665221e-07   -9.866321905456387e-08   7.674427649051799e-06
8.766736771665221e-07   -9.866321905456387e-08   7.674427649051799e-06
8.766736771665221e-07   -9.866321905456387e-08   7.674427649051799e-06
8.766736771665221e-07   -9.866321905456387e-08   7.674427649051799e-06
-1.866324206583013e-06   1.0758382973423625e-07   3.2265127387425766e-06
-1.866324206583013e-06   1.0758382973423625e-07   3.2265127387425766e-06
-1.866324206583013e-06   1.0758382973423625e-07   3.2265127387425766e-06
-1.866324206583013e-06   1.0758382973423625e-07   3.2265127387425766e-06
-1.9886957249048805e-06   -2.3866560318417523e-07   7.891039492163875e-06
-1.9886957249048805e-06   -2.3866560318417523e-07   7.891039492163875e-06
-1.9886957249048805e-06   -2.3866560318417523e-07   7.891039492163875e-06
-1.9886957249048805e-06   -2.3866560318417523e-07   7.891039492163875e-06
7.37711333958471e-07   -4.426410365868973e-08   3.2303868276763374e-06
7.37711333958471e-07   -4.426410365868973e-08   3.2303868276763374e-06
7.37711333958471e-07   -4.426410365868973e-08   3.2303868276763374e-06
7.37711333958471e-07   -4.426410365868973e-08   3.2303868276763374e-06
-5.476268716607639e-07   -1.1443853549411142e-08   5.352925020309461e-06
-5.476268716607639e-07   -1.1443853549411142e-08   5.352925020309461e-06
-5.476268716607639e-07   -1.1443853549411142e-08   5.352925020309461e-06
-5.476268716607639e-07   -1.1443853549411142e-08   5.352925020309461e-06
-1.6222227419105542e-06   8.863237472609225e-07   8.670181984968283e-06
-1.6222227419105542e-06   8.863237472609225e-07   8.670181984968283e-06
-1.6222227419105542e-06   8.863237472609225e-07   8.670181984968283e-06
-1.6222227419105542e-06   8.863237472609225e-07   8.670181984968283e-06
-4.362844166426157e-06   8.409975612161391e-07   4.075283899148714e-06
-4.362844166426157e-06   8.409975612161391e-07   4.075283899148714e-06
-4.362844166426157e-06   8.409975612161391e-07   4.075283899148714e-06
-4.362844166426157e-06   8.409975612161391e-07   4.075283899148714e-06
-4.478683001802407e-06   7.262212767129286e-07   8.593110930216446e-06
-4.478683001802407e-06   7.262212767129286e-07   8.593110930216446e-06
-4.478683001802407e-06   7.262212767129286e-07   8.593110930216446e-06
-4.478683001802407e-06   7.262212767129286e-07   8.593110930216446e-06
-1.7423925025783399e-06   6.769985653930981e-07   4.062160391634994e-06
-1.7423925025783399e-06   6.769985653930981e-07   4.062160391634994e-06
-1.7423925025783399e-06   6.769985653930981e-07   4.062160391634994e-06
-1.7423925025783399e-06   6.769985653930981e-07   4.062160391634994e-06
-3.0577567426694675e-06   7.623351630636072e-07   6.203232166518196e-06
-3.0577567426694675e-06   7.623351630636072e-07   6.203232166518196e-06
-3.0577567426694675e-06   7.623351630636072e-07   6.203232166518196e-06
-3.0577567426694675e-06   7.623351630636072e-07   6.203232166518196e-06
-1.7423925025783496e-06   7.262212767129745e-07   8.62264455700842e-06
-1.7423925025783496e-06   7.262212767129745e-07   8.62264455700842e-06
-1.7423925025783496e-06   7.262212767129745e-07   8.62264455700842e-06
-1.7423925025783496e-06   7.262212767129745e-07   8.62264455700842e-06
-4.478683001802407e-06   6.769985653930981e-07   4.032626764843101e-06
-4.478683001802407e-06   6.769985653930981e-07   4.032626764843101e-06
-4.478683001802407e-06   6.769985653930981e-07   4.032626764843101e-06
-4.478683001802407e-06   6.769985653930981e-07   4.032626764843101e-06
-4.5981122556165106e-06   5.680129803184246e-07   8.644798525640394e-06
-4.5981122556165106e-06   5.680129803184246e-07   8.644798525640394e-06
-4.5981122556165106e-06   5.680129803184246e-07   8.644798525640394e-06
-4.5981122556165106e-06   5.680129803184246e-07   8.644798525640394e-06
-1.8663242065830045e-06   5.138911555196035e-07   4.1242915387971555e-06
-1.8663242065830045e-06   5.138911555196035e-07   4.1242915387971555e-06
-1.8663242065830045e-06   5.138911555196035e-07   4.1242915387971555e-06
-1.8663242065830045e-06   5.138911555196035e-07   4.1242915387971555e-06
-3.1604699422218613e-06   6.384053332768335e-07   6.206492591540909e-06
-3.1604699422218613e-06   6.384053332768335e-07   6.206492591540909e-06
-3.1604699422218613e-06   6.384053332768335e-07   6.206492591540909e-06
-3.1604699422218613e-06   6.384053332768335e-07   6.206492591540909e-06
-1.866324206583013e-06   5.68012980318428e-07   8.677271620519654e-06
-1.866324206583013e-06   5.68012980318428e-07   8.677271620519654e-06
-1.866324206583013e-06   5.68012980318428e-07   8.677271620519654e-06
-1.866324206583013e-06   5.68012980318428e-07   8.677271620519654e-06
-4.5981122556165106e-06   5.138911555196577e-07   4.091818443917929e-06
-4.5981122556165106e-06   5.138911555196577e-07   4.091818443917929e-06
-4.5981122556165106e-06   5.138911555196577e-07   4.091818443917929e-06
-4.5981122556165106e-06   5.138911555196577e-07   4.091818443917929e-06
-4.7155347131951336e-06   4.159634753768751e-07   8.777407115644162e-06
-4.7155347131951336e-06   4.159634753768751e-07   8.777407115644162e-06
-4.7155347131951336e-06   4.159634753768751e-07   8.777407115644162e-06
-4.7155347131951336e-06   4.159634753768751e-07   8.777407115644162e-06
-1.988695724904875e-06   3.581705651833412e-07   4.26735121460985e-06
-1.988695724904875e-06   3.581705651833412e-07   4.26735121460985e-06
-1.988695724904875e-06   3.581705651833412e-07   4.26735121460985e-06
-1.988695724904875e-06   3.581705651833412e-07   4.26735121460985e-06
-3.2699610194601055e-06   5.171888059264684e-07   6.307382427756027e-06
-3.2699610194601055e-06   5.171888059264684e-07   6.307382427756027e-06
-3.2699610194601055e-06   5.171888059264684e-07   6.307382427756027e-06
-3.2699610194601055e-06   5.171888059264684e-07   6.307382427756027e-06
-4.362844166426157e-06   1.532341892315214e-06   7.653714388376298e-06
-4.362844166426157e-06   1.532341892315214e-06   7.653714388376298e-06
-4.362844166426157e-06   1.532341892315214e-06   7.653714388376298e-06
-4.362844166426157e-06   1.532341892315214e-06   7.653714388376298e-06
-7.063128785742646e-06   1.2613709573935602e-06   2.990657461895876e-06
-7.063128785742646e-06   1.2613709573935602e-06   2.990657461895876e-06
-7.063128785742646e-06   1.2613709573935602e-06   2.990657461895876e-06
-7.063128785742646e-06   1.2613709573935602e-06   2.990657461895876e-06
-7.189982750687552e-06   1.3772119499800791e-06   7.516321351466e-06
-7.189982750687552e-06   1.3772119499800791e-06   7.516321351466e-06
-7.189982750687552e-06   1.3772119499800791e-06   7.516321351466e-06
-7.189982750687552e-06   1.3772119499800791e-06   7.516321351466e-06
-4.4786830018023965e-06   1.0967848410994635e-06   3.165744701985856e-06
-4.4786830018023965e-06   1.0967848410994635e-06   3.165744701985856e-06
-4.4786830018023965e-06   1.0967848410994635e-06   3.165744701985856e-06
-4.4786830018023965e-06   1.0967848410994635e-06   3.165744701985856e-06
-5.75949575790694e-06   1.2932891108063428e-06   5.182530067002937e-06
-5.75949575790694e-06   1.2932891108063428e-06   5.182530067002937e-06
-5.75949575790694e-06   1.2932891108063428e-06   5.182530067002937e-06
-5.75949575790694e-06   1.2932891108063428e-06   5.182530067002937e-06
-4.478683001802407e-06   1.377211949980045e-06   7.684577616794391e-06
-4.478683001802407e-06   1.377211949980045e-06   7.684577616794391e-06
-4.478683001802407e-06   1.377211949980045e-06   7.684577616794391e-06
-4.478683001802407e-06   1.377211949980045e-06   7.684577616794391e-06
-7.189982750687552e-06   1.0967848410994635e-06   2.997488436657519e-06
-7.189982750687552e-06   1.0967848410994635e-06   2.997488436657519e-06
-7.189982750687552e-06   1.0967848410994635e-06   2.997488436657519e-06
-7.189982750687552e-06   1.0967848410994635e-06   2.997488436657519e-06
-7.339504050373562e-06   1.2323194852178945e-06   7.762680731011732e-06
-7.339504050373562e-06   1.2323194852178945e-06   7.762680731011732e-06
-7.339504050373562e-06   1.2323194852178945e-06   7.762680731011732e-06
-7.339504050373562e-06   1.2323194852178945e-06   7.762680731011732e-06
-4.598112255616499e-06   9.460041359143087e-07   3.3654836159988295e-06
-4.598112255616499e-06   9.460041359143087e-07   3.3654836159988295e-06
-4.598112255616499e-06   9.460041359143087e-07   3.3654836159988295e-06
-4.598112255616499e-06   9.460041359143087e-07   3.3654836159988295e-06
-5.839849670699734e-06   1.1775076033682932e-06   5.296143893998467e-06
-5.839849670699734e-06   1.1775076033682932e-06   5.296143893998467e-06
-5.839849670699734e-06   1.1775076033682932e-06   5.296143893998467e-06
-5.839849670699734e-06   1.1775076033682932e-06   5.296143893998467e-06
-4.5981122556165106e-06   1.2323194852178746e-06   7.934469940593894e-06
-4.5981122556165106e-06   1.2323194852178746e-06   7.934469940593894e-06
-4.5981122556165106e-06   1.2323194852178746e-06   7.934469940593894e-06
-4.5981122556165106e-06   1.2323194852178746e-06   7.934469940593894e-06
-7.339504050373535e-06   9.460041359143087e-07   3.1936944064166943e-06
-7.339504050373535e-06   9.460041359143087e-07   3.1936944064166943e-06
-7.339504050373535e-06   9.460041359143087e-07   3.1936944064166943e-06
-7.339504050373535e-06   9.460041359143087e-07   3.1936944064166943e-06
-7.466916585402032e-06   1.069015831820961e-06   7.996047801558253e-06
-7.466916585402032e-06   1.069015831820961e-06   7.996047801558253e-06
-7.466916585402032e-06   1.069015831820961e-06   7.996047801558253e-06
-7.466916585402032e-06   1.069015831820961e-06   7.996047801558253e-06
-4.715534713195131e-06   7.836610316939237e-07   3.5816242279563176e-06
-4.715534713195131e-06   7.836610316939237e-07   3.5816242279563176e-06
-4.715534713195131e-06   7.836610316939237e-07   3.5816242279563176e-06
-4.715534713195131e-06   7.836610316939237e-07   3.5816242279563176e-06
-5.981491334769274e-06   1.0602517489341381e-06   5.5255975002356885e-06
-5.981491334769274e-06   1.0602517489341381e-06   5.5255975002356885e-06
-5.981491334769274e-06   1.0602517489341381e-06   5.5255975002356885e-06
-5.981491334769274e-06   1.0602517489341381e-06   5.5255975002356885e-06
-7.063128785742646e-06   2.0297154303484334e-06   3.6043317082894047e-06
-7.063128785742646e-06   2.0297154303484334e-06   3.6043317082894047e-06
-7.063128785742646e-06   2.0297154303484334e-06   3.6043317082894047e-06
-7.063128785742646e-06   2.0297154303484334e-06   3.6043317082894047e-06
-9.534969231983511e-06   1.5706544709982837e-06   -7.90838944388783e-07
-9.534969231983511e-06   1.5706544709982837e-06   -7.90838944388783e-07
-9.534969231983511e-06   1.5706544709982837e-06   -7.90838944388783e-07
-9.534969231983511e-06   1.5706544709982837e-06   -7.90838944388783e-07
-9.861758729790034e-06   1.9833954856587053e-06   4.467123924679407e-06
-9.861758729790034e-06   1.9833954856587053e-06   4.467123924679407e-06
-9.861758729790034e-06   1.9833954856587053e-06   4.467123924679407e-06
-9.861758729790034e-06   1.9833954856587053e-06   4.467123924679407e-06
-7.189982750687523e-06   1.4881740010944133e-06   3.1129685024720074e-07
-7.189982750687523e-06   1.4881740010944133e-06   3.1129685024720074e-07
-7.189982750687523e-06   1.4881740010944133e-06   3.1129685024720074e-07
-7.189982750687523e-06   1.4881740010944133e-06   3.1129685024720074e-07
-8.105105382190666e-06   1.732942372840952e-06   1.6896402130381588e-06
-8.105105382190666e-06   1.732942372840952e-06   1.6896402130381588e-06
-8.105105382190666e-06   1.732942372840952e-06   1.6896402130381588e-06
-8.105105382190666e-06   1.732942372840952e-06   1.6896402130381588e-06
-7.1899827506875384e-06   1.983395485658728e-06   4.764256815417982e-06
-7.1899827506875384e-06   1.983395485658728e-06   4.764256815417982e-06
-7.1899827506875384e-06   1.983395485658728e-06   4.764256815417982e-06
-7.1899827506875384e-06   1.983395485658728e-06   4.764256815417982e-06
-9.861758729790048e-06   1.488174001094359e-06   1.416395950863908e-08
-9.861758729790048e-06   1.488174001094359e-06   1.416395950863908e-08
-9.861758729790048e-06   1.488174001094359e-06   1.416395950863908e-08
-9.861758729790048e-06   1.488174001094359e-06   1.416395950863908e-08
-1.0141497960707035e-05   1.921669857592569e-06   5.288071890608315e-06
-1.0141497960707035e-05   1.921669857592569e-06   5.288071890608315e-06
-1.0141497960707035e-05   1.921669857592569e-06   5.288071890608315e-06
-1.0141497960707035e-05   1.921669857592569e-06   5.288071890608315e-06
-7.339504050373531e-06   1.416920529049323e-06   9.209316371784659e-07
-7.339504050373531e-06   1.416920529049323e-06   9.209316371784659e-07
-7.339504050373531e-06   1.416920529049323e-06   9.209316371784659e-07
-7.339504050373531e-06   1.416920529049323e-06   9.209316371784659e-07
-8.422404912477828e-06   1.7131134475636555e-06   2.5480506562438514e-06
-8.422404912477828e-06   1.7131134475636555e-06   2.5480506562438514e-06
-8.422404912477828e-06   1.7131134475636555e-06   2.5480506562438514e-06
-8.422404912477828e-06   1.7131134475636555e-06   2.5480506562438514e-06
-7.339504050373535e-06   1.9216698575925626e-06   5.590921487734295e-06
-7.339504050373535e-06   1.9216698575925626e-06   5.590921487734295e-06
-7.339504050373535e-06   1.9216698575925626e-06   5.590921487734295e-06
-7.339504050373535e-06   1.9216698575925626e-06   5.590921487734295e-06
-1.0141497960707035e-05   1.416920529049323e-06   6.180820400525128e-07
-1.0141497960707035e-05   1.416920529049323e-06   6.180820400525128e-07
-1.0141497960707035e-05   1.416920529049323e-06   6.180820400525128e-07
-1.0141497960707035e-05   1.416920529049323e-06   6.180820400525128e-07
-1.0474499869724248e-05   1.7105521061314653e-06   6.735943379170201e-06
-1.0474499869724248e-05   1.7105521061314653e-06   6.735943379170201e-06
-1.0474499869724248e-05   1.7105521061314653e-06   6.735943379170201e-06
-1.0474499869724248e-05   1.7105521061314653e-06   6.735943379170201e-06
-7.466916585401994e-06   1.2193098122681824e-06   2.0180499482844204e-06
-7.466916585401994e-06   1.2193098122681824e-06   2.0180499482844204e-06
-7.466916585401994e-06   1.2193098122681824e-06   2.0180499482844204e-06
-7.466916585401994e-06   1.2193098122681824e-06   2.0180499482844204e-06
-8.49405881514674e-06   1.623231599996906e-06   3.4876005918881687e-06
-8.49405881514674e-06   1.623231599996906e-06   3.4876005918881687e-06
-8.49405881514674e-06   1.623231599996906e-06   3.4876005918881687e-06
-8.49405881514674e-06   1.623231599996906e-06   3.4876005918881687e-06
1.083011678330242e-06   -2.373900101799053e-08   4.399294765357532e-06
1.083011678330242e-06   -2.373900101799053e-08   4.399294765357532e-06
1.083011678330242e-06   -2.373900101799053e-08   4.399294765357532e-06
1.083011678330242e-06   -2.373900101799053e-08   4.399294765357532e-06
-7.479553759201606e-07   4.288878707269894e-07   1.6192591313204995e-06
-7.479553759201606e-07   4.288878707269894e-07   1.6192591313204995e-06
-7.479553759201606e-07   4.288878707269894e-07   1.6192591313204995e-06
-7.479553759201606e-07   4.288878707269894e-07   1.6192591313204995e-06
-8.478849666106183e-07   -1.8490691941529594e-07   4.309695275103037e-06
-8.478849666106183e-07   -1.8490691941529594e-07   4.309695275103037e-06
-8.478849666106183e-07   -1.8490691941529594e-07   4.309695275103037e-06
-8.478849666106183e-07   -1.8490691941529594e-07   4.309695275103037e-06
7.817860614976776e-07   2.7829745087018173e-07   1.3156542727512895e-06
7.817860614976776e-07   2.7829745087018173e-07   1.3156542727512895e-06
7.817860614976776e-07   2.7829745087018173e-07   1.3156542727512895e-06
7.817860614976776e-07   2.7829745087018173e-07   1.3156542727512895e-06
1.784912424221348e-08   9.799477462010906e-08   2.6970641072604037e-06
1.784912424221348e-08   9.799477462010906e-08   2.6970641072604037e-06
1.784912424221348e-08   9.799477462010906e-08   2.6970641072604037e-06
1.784912424221348e-08   9.799477462010906e-08   2.6970641072604037e-06
7.817860614976768e-07   -1.8490691941529284e-07   4.031772652931777e-06
7.817860614976768e-07   -1.8490691941529284e-07   4.031772652931777e-06
7.817860614976768e-07   -1.8490691941529284e-07   4.031772652931777e-06
7.817860614976768e-07   -1.8490691941529284e-07   4.031772652931777e-06
-8.478849666106183e-07   2.7829745087018173e-07   1.593576894922549e-06
-8.478849666106183e-07   2.7829745087018173e-07   1.593576894922549e-06
-8.478849666106183e-07   2.7829745087018173e-07   1.593576894922549e-06
-8.478849666106183e-07   2.7829745087018173e-07   1.593576894922549e-06
-9.719227761975361e-07   -2.526490830016045e-07   4.178266903756908e-06
-9.719227761975361e-07   -2.526490830016045e-07   4.178266903756908e-06
-9.719227761975361e-07   -2.526490830016045e-07   4.178266903756908e-06
-9.719227761975361e-07   -2.526490830016045e-07   4.178266903756908e-06
5.188495500220057e-07   1.9788144153994047e-07   1.4233280453327632e-06
5.188495500220057e-07   1.9788144153994047e-07   1.4233280453327632e-06
5.188495500220057e-07   1.9788144153994047e-07   1.4233280453327632e-06
5.188495500220057e-07   1.9788144153994047e-07   1.4233280453327632e-06
-1.421260913615867e-07   3.401646895602071e-08   2.6232730978557752e-06
-1.421260913615867e-07   3.401646895602071e-08   2.6232730978557752e-06
-1.421260913615867e-07   3.401646895602071e-08   2.6232730978557752e-06
-1.421260913615867e-07   3.401646895602071e-08   2.6232730978557752e-06
5.188495500220063e-07   -2.5264908300161644e-07   3.907948589031965e-06
5.188495500220063e-07   -2.5264908300161644e-07   3.907948589031965e-06
5.188495500220063e-07   -2.5264908300161644e-07   3.907948589031965e-06
5.188495500220063e-07   -2.5264908300161644e-07   3.907948589031965e-06
-9.719227761975353e-07   1.9788144153994047e-07   1.6936463600576658e-06
-9.719227761975353e-07   1.9788144153994047e-07   1.6936463600576658e-06
-9.719227761975353e-07   1.9788144153994047e-07   1.6936463600576658e-06
-9.719227761975353e-07   1.9788144153994047e-07   1.6936463600576658e-06
-1.0765915285518561e-06   -3.621837310907334e-07   4.104014273103316e-06
-1.0765915285518561e-06   -3.621837310907334e-07   4.104014273103316e-06
-1.0765915285518561e-06   -3.621837310907334e-07   4.104014273103316e-06
-1.0765915285518561e-06   -3.621837310907334e-07   4.104014273103316e-06
1.87756274978037e-07   2.9722004829698095e-08   1.7616244923345862e-06
1.87756274978037e-07   2.9722004829698095e-08   1.7616244923345862e-06
1.87756274978037e-07   2.9722004829698095e-08   1.7616244923345862e-06
1.87756274978037e-07   2.9722004829698095e-08   1.7616244923345862e-06
-3.231627260934749e-07   -2.0995734685178794e-08   2.6435868044960263e-06
-3.231627260934749e-07   -2.0995734685178794e-08   2.6435868044960263e-06
-3.231627260934749e-07   -2.0995734685178794e-08   2.6435868044960263e-06
-3.231627260934749e-07   -2.0995734685178794e-08   2.6435868044960263e-06
-7.479553759201606e-07   4.380329273468234e-07   6.917951241068772e-06
-7.479553759201606e-07   4.380329273468234e-07   6.917951241068772e-06
-7.479553759201606e-07   4.380329273468234e-07   6.917951241068772e-06
-7.479553759201606e-07   4.380329273468234e-07   6.917951241068772e-06
-2.275592798958949e-06   5.320612532356932e-07   4.428305864870736e-06
-2.275592798958949e-06   5.320612532356932e-07   4.428305864870736e-06
-2.275592798958949e-06   5.320612532356932e-07   4.428305864870736e-06
-2.275592798958949e-06   5.320612532356932e-07   4.428305864870736e-06
-2.3521996041415315e-06   2.5823727051676147e-07   6.894500926269071e-06
-2.3521996041415315e-06   2.5823727051676147e-07   6.894500926269071e-06
-2.3521996041415315e-06   2.5823727051676147e-07   6.894500926269071e-06
-2.3521996041415315e-06   2.5823727051676147e-07   6.894500926269071e-06
-8.478849666106179e-07   3.652277839142357e-07   4.3231155556790485e-06
-8.478849666106179e-07   3.652277839142357e-07   4.3231155556790485e-06
-8.478849666106179e-07   3.652277839142357e-07   4.3231155556790485e-06
-8.478849666106179e-07   3.652277839142357e-07   4.3231155556790485e-06
-1.5677324245094564e-06   3.7763465459485527e-07   5.515417196435436e-06
-1.5677324245094564e-06   3.7763465459485527e-07   5.515417196435436e-06
-1.5677324245094564e-06   3.7763465459485527e-07   5.515417196435436e-06
-1.5677324245094564e-06   3.7763465459485527e-07   5.515417196435436e-06
-8.478849666106157e-07   2.58237270516735e-07   6.8303066182305214e-06
-8.478849666106157e-07   2.58237270516735e-07   6.8303066182305214e-06
-8.478849666106157e-07   2.58237270516735e-07   6.8303066182305214e-06
-8.478849666106157e-07   2.58237270516735e-07   6.8303066182305214e-06
-2.3521996041415315e-06   3.652277839142357e-07   4.3873098637175676e-06
-2.3521996041415315e-06   3.652277839142357e-07   4.3873098637175676e-06
-2.3521996041415315e-06   3.652277839142357e-07   4.3873098637175676e-06
-2.3521996041415315e-06   3.652277839142357e-07   4.3873098637175676e-06
-2.4313936637755727e-06   1.0758382973418204e-07   6.896912331508622e-06
-2.4313936637755727e-06   1.0758382973418204e-07   6.896912331508622e-06
-2.4313936637755727e-06   1.0758382973418204e-07   6.896912331508622e-06
-2.4313936637755727e-06   1.0758382973418204e-07   6.896912331508622e-06
-9.719227761975349e-07   2.1345366805878728e-07   4.400938949217118e-06
-9.719227761975349e-07   2.1345366805878728e-07   4.400938949217118e-06
-9.719227761975349e-07   2.1345366805878728e-07   4.400938949217118e-06
-9.719227761975349e-07   2.1345366805878728e-07   4.400938949217118e-06
-1.6463433947159147e-06   2.5703775430947935e-07   5.4988228616640954e-06
-1.6463433947159147e-06   2.5703775430947935e-07   5.4988228616640954e-06
-1.6463433947159147e-06   2.5703775430947935e-07   5.4988228616640954e-06
-1.6463433947159147e-06   2.5703775430947935e-07   5.4988228616640954e-06
-9.719227761975353e-07   1.0758382973421485e-07   6.833390428513826e-06
-9.719227761975353e-07   1.0758382973421485e-07   6.833390428513826e-06
-9.719227761975353e-07   1.0758382973421485e-07   6.833390428513826e-06
-9.719227761975353e-07   1.0758382973421485e-07   6.833390428513826e-06
-2.4313936637755727e-06   2.1345366805878728e-07   4.464460852211864e-06
-2.4313936637755727e-06   2.1345366805878728e-07   4.464460852211864e-06
-2.4313936637755727e-06   2.1345366805878728e-07   4.464460852211864e-06
-2.4313936637755727e-06   2.1345366805878728e-07   4.464460852211864e-06
-2.5095495785377748e-06   -4.426410365874394e-08   7.019768532765105e-06
-2.5095495785377748e-06   -4.426410365874394e-08   7.019768532765105e-06
-2.5095495785377748e-06   -4.426410365874394e-08   7.019768532765105e-06
-2.5095495785377748e-06   -4.426410365874394e-08   7.019768532765105e-06
-1.0765915285518546e-06   5.1391001849106395e-08   4.574112052817236e-06
-1.0765915285518546e-06   5.1391001849106395e-08   4.574112052817236e-06
-1.0765915285518546e-06   5.1391001849106395e-08   4.574112052817236e-06
-1.0765915285518546e-06   5.1391001849106395e-08   4.574112052817236e-06
-1.7240566127161592e-06   1.4064282588186188e-07   5.599669432004721e-06
-1.7240566127161592e-06   1.4064282588186188e-07   5.599669432004721e-06
-1.7240566127161592e-06   1.4064282588186188e-07   5.599669432004721e-06
-1.7240566127161592e-06   1.4064282588186188e-07   5.599669432004721e-06
-2.275592798958949e-06   8.409975612161595e-07   7.767966143973088e-06
-2.275592798958949e-06   8.409975612161595e-07   7.767966143973088e-06
-2.275592798958949e-06   8.409975612161595e-07   7.767966143973088e-06
-2.275592798958949e-06   8.409975612161595e-07   7.767966143973088e-06
-3.7855453801585877e-06   6.527789462805445e-07   5.138447339678989e-06
-3.7855453801585877e-06   6.527789462805445e-07   5.138447339678989e-06
-3.7855453801585877e-06   6.527789462805445e-07   5.138447339678989e-06
-3.7855453801585877e-06   6.527789462805445e-07   5.138447339678989e-06
-3.851202913823603e-06   6.769985653930439e-07   7.623586222882091e-06
-3.851202913823603e-06   6.769985653930439e-07   7.623586222882091e-06
-3.851202913823603e-06   6.769985653930439e-07   7.623586222882091e-06
-3.851202913823603e-06   6.769985653930439e-07   7.623586222882091e-06
-2.352199604141533e-06   4.999412901775268e-07   5.231481738541315e-06
-2.352199604141533e-06   4.999412901775268e-07   5.231481738541315e-06
-2.352199604141533e-06   4.999412901775268e-07   5.231481738541315e-06
-2.352199604141533e-06   4.999412901775268e-07   5.231481738541315e-06
-3.0685362645584867e-06   6.529548184154338e-07   6.333568055626784e-06
-3.0685362645584867e-06   6.529548184154338e-07   6.333568055626784e-06
-3.0685362645584867e-06   6.529548184154338e-07   6.333568055626784e-06
-3.0685362645584867e-06   6.529548184154338e-07   6.333568055626784e-06
-2.3521996041415315e-06   6.769985653930682e-07   7.729820588011434e-06
-2.3521996041415315e-06   6.769985653930682e-07   7.729820588011434e-06
-2.3521996041415315e-06   6.769985653930682e-07   7.729820588011434e-06
-2.3521996041415315e-06   6.769985653930682e-07   7.729820588011434e-06
-3.851202913823603e-06   4.999412901775268e-07   5.1252473734119726e-06
-3.851202913823603e-06   4.999412901775268e-07   5.1252473734119726e-06
-3.851202913823603e-06   4.999412901775268e-07   5.1252473734119726e-06
-3.851202913823603e-06   4.999412901775268e-07   5.1252473734119726e-06
-3.921240957062224e-06   5.138911555196577e-07   7.693230093194737e-06
-3.921240957062224e-06   5.138911555196577e-07   7.693230093194737e-06
-3.921240957062224e-06   5.138911555196577e-07   7.693230093194737e-06
-3.921240957062224e-06   5.138911555196577e-07   7.693230093194737e-06
-2.431393663775573e-06   3.447894249054861e-07   5.311612309418816e-06
-2.431393663775573e-06   3.447894249054861e-07   5.311612309418816e-06
-2.431393663775573e-06   3.447894249054861e-07   5.311612309418816e-06
-2.431393663775573e-06   3.447894249054861e-07   5.311612309418816e-06
-3.1246866186310356e-06   5.315259426345083e-07   6.355058656873808e-06
-3.1246866186310356e-06   5.315259426345083e-07   6.355058656873808e-06
-3.1246866186310356e-06   5.315259426345083e-07   6.355058656873808e-06
-3.1246866186310356e-06   5.315259426345083e-07   6.355058656873808e-06
-2.4313936637755727e-06   5.138911555196294e-07   7.794691131563208e-06
-2.4313936637755727e-06   5.138911555196294e-07   7.794691131563208e-06
-2.4313936637755727e-06   5.138911555196294e-07   7.794691131563208e-06
-2.4313936637755727e-06   5.138911555196294e-07   7.794691131563208e-06
-3.921240957062224e-06   3.447894249054861e-07   5.210151271050305e-06
-3.921240957062224e-06   3.447894249054861e-07   5.210151271050305e-06
-3.921240957062224e-06   3.447894249054861e-07   5.210151271050305e-06
-3.921240957062224e-06   3.447894249054861e-07   5.210151271050305e-06
-3.989852577508313e-06   3.581705651833954e-07   7.844341717256394e-06
-3.989852577508313e-06   3.581705651833954e-07   7.844341717256394e-06
-3.989852577508313e-06   3.581705651833954e-07   7.844341717256394e-06
-3.989852577508313e-06   3.581705651833954e-07   7.844341717256394e-06
-2.509549578537785e-06   1.9858672730511473e-07   5.472920355032499e-06
-2.509549578537785e-06   1.9858672730511473e-07   5.472920355032499e-06
-2.509549578537785e-06   1.9858672730511473e-07   5.472920355032499e-06
-2.509549578537785e-06   1.9858672730511473e-07   5.472920355032499e-06
-3.187180149841355e-06   4.1228698509419934e-07   6.474084485864965e-06
-3.187180149841355e-06   4.1228698509419934e-07   6.474084485864965e-06
-3.187180149841355e-06   4.1228698509419934e-07   6.474084485864965e-06
-3.187180149841355e-06   4.1228698509419934e-07   6.474084485864965e-06
-3.7855453801586013e-06   1.2613709573935735e-06   6.732991098711878e-06
-3.7855453801586013e-06   1.2613709573935735e-06   6.732991098711878e-06
-3.7855453801586013e-06   1.2613709573935735e-06   6.732991098711878e-06
-3.7855453801586013e-06   1.2613709573935735e-06   6.732991098711878e-06
-5.27652570939352e-06   8.920463625147431e-07   4.0264291263930285e-06
-5.27652570939352e-06   8.920463625147431e-07   4.0264291263930285e-06
-5.27652570939352e-06   8.920463625147431e-07   4.0264291263930285e-06
-5.27652570939352e-06   8.920463625147431e-07   4.0264291263930285e-06
-5.348949390268797e-06   1.0967848410995177e-06   6.537511188741871e-06
-5.348949390268797e-06   1.0967848410995177e-06   6.537511188741871e-06
-5.348949390268797e-06   1.0967848410995177e-06   6.537511188741871e-06
-5.348949390268797e-06   1.0967848410995177e-06   6.537511188741871e-06
-3.851202913823607e-06   7.314632222944154e-07   4.260460032616279e-06
-3.851202913823607e-06   7.314632222944154e-07   4.260460032616279e-06
-3.851202913823607e-06   7.314632222944154e-07   4.260460032616279e-06
-3.851202913823607e-06   7.314632222944154e-07   4.260460032616279e-06
-4.5558372493481e-06   9.844831524226817e-07   5.283038633746806e-06
-4.5558372493481e-06   9.844831524226817e-07   5.283038633746806e-06
-4.5558372493481e-06   9.844831524226817e-07   5.283038633746806e-06
-4.5558372493481e-06   9.844831524226817e-07   5.283038633746806e-06
-3.851202913823603e-06   1.096784841099509e-06   6.7567041600249e-06
-3.851202913823603e-06   1.096784841099509e-06   6.7567041600249e-06
-3.851202913823603e-06   1.096784841099509e-06   6.7567041600249e-06
-3.851202913823603e-06   1.096784841099509e-06   6.7567041600249e-06
-5.34894939026877e-06   7.314632222944154e-07   4.04126706133323e-06
-5.34894939026877e-06   7.314632222944154e-07   4.04126706133323e-06
-5.34894939026877e-06   7.314632222944154e-07   4.04126706133323e-06
-5.34894939026877e-06   7.314632222944154e-07   4.04126706133323e-06
-5.4473495044774195e-06   9.460041359142545e-07   6.751923360375238e-06
-5.4473495044774195e-06   9.460041359142545e-07   6.751923360375238e-06
-5.4473495044774195e-06   9.460041359142545e-07   6.751923360375238e-06
-5.4473495044774195e-06   9.460041359142545e-07   6.751923360375238e-06
-3.921240957062217e-06   5.87717627746967e-07   4.4233810195836495e-06
-3.921240957062217e-06   5.87717627746967e-07   4.4233810195836495e-06
-3.921240957062217e-06   5.87717627746967e-07   4.4233810195836495e-06
-3.921240957062217e-06   5.87717627746967e-07   4.4233810195836495e-06
-4.5950783766982226e-06   8.668609542091584e-07   5.378957389766344e-06
-4.5950783766982226e-06   8.668609542091584e-07   5.378957389766344e-06
-4.5950783766982226e-06   8.668609542091584e-07   5.378957389766344e-06
-4.5950783766982226e-06   8.668609542091584e-07   5.378957389766344e-06
-3.921240957062224e-06   9.460041359143132e-07   6.966895265275583e-06
-3.921240957062224e-06   9.460041359143132e-07   6.966895265275583e-06
-3.921240957062224e-06   9.460041359143132e-07   6.966895265275583e-06
-3.921240957062224e-06   9.460041359143132e-07   6.966895265275583e-06
-5.447349504477392e-06   5.87717627746967e-07   4.20840911468325e-06
-5.447349504477392e-06   5.87717627746967e-07   4.20840911468325e-06
-5.447349504477392e-06   5.87717627746967e-07   4.20840911468325e-06
-5.447349504477392e-06   5.87717627746967e-07   4.20840911468325e-06
-5.525842009961306e-06   7.836610316939237e-07   6.987296225983649e-06
-5.525842009961306e-06   7.836610316939237e-07   6.987296225983649e-06
-5.525842009961306e-06   7.836610316939237e-07   6.987296225983649e-06
-5.525842009961306e-06   7.836610316939237e-07   6.987296225983649e-06
-3.989852577508317e-06   4.403372804685172e-07   4.633308089297341e-06
-3.989852577508317e-06   4.403372804685172e-07   4.633308089297341e-06
-3.989852577508317e-06   4.403372804685172e-07   4.633308089297341e-06
-3.989852577508317e-06   4.403372804685172e-07   4.633308089297341e-06
-4.67751343649669e-06   7.539776982411987e-07   5.591225270280993e-06
-4.67751343649669e-06   7.539776982411987e-07   5.591225270280993e-06
-4.67751343649669e-06   7.539776982411987e-07   5.591225270280993e-06
-4.67751343649669e-06   7.539776982411987e-07   5.591225270280993e-06
-5.27652570939352e-06   1.5706544709982854e-06   3.005336511110036e-06
-5.27652570939352e-06   1.5706544709982854e-06   3.005336511110036e-06
-5.27652570939352e-06   1.5706544709982854e-06   3.005336511110036e-06
-5.27652570939352e-06   1.5706544709982854e-06   3.005336511110036e-06
-6.490795632564268e-06   1.070506877771623e-06   6.814647498894296e-07
-6.490795632564268e-06   1.070506877771623e-06   6.814647498894296e-07
-6.490795632564268e-06   1.070506877771623e-06   6.814647498894296e-07
-6.490795632564268e-06   1.070506877771623e-06   6.814647498894296e-07
-6.759989497236502e-06   1.488174001094359e-06   3.5367552506907645e-06
-6.759989497236502e-06   1.488174001094359e-06   3.5367552506907645e-06
-6.759989497236502e-06   1.488174001094359e-06   3.5367552506907645e-06
-6.759989497236502e-06   1.488174001094359e-06   3.5367552506907645e-06
-5.348949390268773e-06   9.639000816931897e-07   1.4995860907186483e-06
-5.348949390268773e-06   9.639000816931897e-07   1.4995860907186483e-06
-5.348949390268773e-06   9.639000816931897e-07   1.4995860907186483e-06
-5.348949390268773e-06   9.639000816931897e-07   1.4995860907186483e-06
-5.76088699417016e-06   1.2573448269612608e-06   2.0100819167267548e-06
-5.76088699417016e-06   1.2573448269612608e-06   2.0100819167267548e-06
-5.76088699417016e-06   1.2573448269612608e-06   2.0100819167267548e-06
-5.76088699417016e-06   1.2573448269612608e-06   2.0100819167267548e-06
-5.34894939026877e-06   1.4881740010943788e-06   3.8513196023314716e-06
-5.34894939026877e-06   1.4881740010943788e-06   3.8513196023314716e-06
-5.34894939026877e-06   1.4881740010943788e-06   3.8513196023314716e-06
-5.34894939026877e-06   1.4881740010943788e-06   3.8513196023314716e-06
-6.759989497236515e-06   9.639000816931897e-07   1.185021739077887e-06
-6.759989497236515e-06   9.639000816931897e-07   1.185021739077887e-06
-6.759989497236515e-06   9.639000816931897e-07   1.185021739077887e-06
-6.759989497236515e-06   9.639000816931897e-07   1.185021739077887e-06
-6.9898299860614706e-06   1.416920529049323e-06   4.16293445623222e-06
-6.9898299860614706e-06   1.416920529049323e-06   4.16293445623222e-06
-6.9898299860614706e-06   1.416920529049323e-06   4.16293445623222e-06
-6.9898299860614706e-06   1.416920529049323e-06   4.16293445623222e-06
-5.447349504477417e-06   8.89876970874674e-07   1.9083597884969107e-06
-5.447349504477417e-06   8.89876970874674e-07   1.9083597884969107e-06
-5.447349504477417e-06   8.89876970874674e-07   1.9083597884969107e-06
-5.447349504477417e-06   8.89876970874674e-07   1.9083597884969107e-06
-5.991163210561159e-06   1.21715276108934e-06   2.618350491174516e-06
-5.991163210561159e-06   1.21715276108934e-06   2.618350491174516e-06
-5.991163210561159e-06   1.21715276108934e-06   2.618350491174516e-06
-5.991163210561159e-06   1.21715276108934e-06   2.618350491174516e-06
-5.4473495044774195e-06   1.4169205290493208e-06   4.479160591137009e-06
-5.4473495044774195e-06   1.4169205290493208e-06   4.479160591137009e-06
-5.4473495044774195e-06   1.4169205290493208e-06   4.479160591137009e-06
-5.4473495044774195e-06   1.4169205290493208e-06   4.479160591137009e-06
-6.989829986061484e-06   8.89876970874674e-07   1.5921336535921476e-06
-6.989829986061484e-06   8.89876970874674e-07   1.5921336535921476e-06
-6.989829986061484e-06   8.89876970874674e-07   1.5921336535921476e-06
-6.989829986061484e-06   8.89876970874674e-07   1.5921336535921476e-06
-7.279679511295182e-06   1.2193098122681824e-06   5.292896456399242e-06
-7.279679511295182e-06   1.2193098122681824e-06   5.292896456399242e-06
-7.279679511295182e-06   1.2193098122681824e-06   5.292896456399242e-06
-7.279679511295182e-06   1.2193098122681824e-06   5.292896456399242e-06
-5.5258420099612874e-06   7.159125289535871e-07   2.6718723241648764e-06
-5.5258420099612874e-06   7.159125289535871e-07   2.6718723241648764e-06
-5.5258420099612874e-06   7.159125289535871e-07   2.6718723241648764e-06
-5.5258420099612874e-06   7.159125289535871e-07   2.6718723241648764e-06
-6.0533660499785224e-06   1.1347048975222083e-06   3.299803636385584e-06
-6.0533660499785224e-06   1.1347048975222083e-06   3.299803636385584e-06
-6.0533660499785224e-06   1.1347048975222083e-06   3.299803636385584e-06
-6.0533660499785224e-06   1.1347048975222083e-06   3.299803636385584e-06
-2.2638103259868954e-06   4.288878707269687e-07   3.216496966497391e-06
-2.2638103259868954e-06   4.288878707269687e-07   3.216496966497391e-06
-2.2638103259868954e-06   4.288878707269687e-07   3.216496966497391e-06
-2.2638103259868954e-06   4.288878707269687e-07   3.216496966497391e-06
-2.6473750579335733e-06   8.413274390007869e-07   2.824686154217251e-06
-2.6473750579335733e-06   8.413274390007869e-07   2.824686154217251e-06
-2.6473750579335733e-06   8.413274390007869e-07   2.824686154217251e-06
-2.6473750579335733e-06   8.413274390007869e-07   2.824686154217251e-06
-2.7240950546836114e-06   2.7829745087018173e-07   3.4082177758235706e-06
-2.7240950546836114e-06   2.7829745087018173e-07   3.4082177758235706e-06
-2.7240950546836114e-06   2.7829745087018173e-07   3.4082177758235706e-06
-2.7240950546836114e-06   2.7829745087018173e-07   3.4082177758235706e-06
-2.5696922349759104e-06   6.510697231958357e-07   2.9272163795820047e-06
-2.5696922349759104e-06   6.510697231958357e-07   2.9272163795820047e-06
-2.5696922349759104e-06   6.510697231958357e-07   2.9272163795820047e-06
-2.5696922349759104e-06   6.510697231958357e-07   2.9272163795820047e-06
-2.4930189088817986e-06   5.107661645330013e-07   2.88360963795619e-06
-2.4930189088817986e-06   5.107661645330013e-07   2.88360963795619e-06
-2.4930189088817986e-06   5.107661645330013e-07   2.88360963795619e-06
-2.4930189088817986e-06   5.107661645330013e-07   2.88360963795619e-06
-2.5696922349759163e-06   2.7829745087013764e-07   3.184554412428173e-06
-2.5696922349759163e-06   2.7829745087013764e-07   3.184554412428173e-06
-2.5696922349759163e-06   2.7829745087013764e-07   3.184554412428173e-06
-2.5696922349759163e-06   2.7829745087013764e-07   3.184554412428173e-06
-2.7240950546836114e-06   6.510697231958357e-07   3.1508797429774093e-06
-2.7240950546836114e-06   6.510697231958357e-07   3.1508797429774093e-06
-2.7240950546836114e-06   6.510697231958357e-07   3.1508797429774093e-06
-2.7240950546836114e-06   6.510697231958357e-07   3.1508797429774093e-06
-2.823338174453967e-06   1.9788144153994047e-07   3.4888122480182526e-06
-2.823338174453967e-06   1.9788144153994047e-07   3.4888122480182526e-06
-2.823338174453967e-06   1.9788144153994047e-07   3.4888122480182526e-06
-2.823338174453967e-06   1.9788144153994047e-07   3.4888122480182526e-06
-2.869184610526571e-06   5.220060481977832e-07   3.3707482108112093e-06
-2.869184610526571e-06   5.220060481977832e-07   3.3707482108112093e-06
-2.869184610526571e-06   5.220060481977832e-07   3.3707482108112093e-06
-2.869184610526571e-06   5.220060481977832e-07   3.3707482108112093e-06
-2.6741235877822244e-06   4.2943870660590647e-07   3.1011869111924456e-06
-2.6741235877822244e-06   4.2943870660590647e-07   3.1011869111924456e-06
-2.6741235877822244e-06   4.2943870660590647e-07   3.1011869111924456e-06
-2.6741235877822244e-06   4.2943870660590647e-07   3.1011869111924456e-06
-2.869184610526572e-06   1.9788144153996612e-07   3.294337484023433e-06
-2.869184610526572e-06   1.9788144153996612e-07   3.294337484023433e-06
-2.869184610526572e-06   1.9788144153996612e-07   3.294337484023433e-06
-2.869184610526572e-06   1.9788144153996612e-07   3.294337484023433e-06
-2.823338174453967e-06   5.220060481977832e-07   3.565222974805907e-06
-2.823338174453967e-06   5.220060481977832e-07   3.565222974805907e-06
-2.823338174453967e-06   5.220060481977832e-07   3.565222974805907e-06
-2.823338174453967e-06   5.220060481977832e-07   3.565222974805907e-06
-2.8896354994972104e-06   2.9722004829698095e-08   3.7867803325641978e-06
-2.8896354994972104e-06   2.9722004829698095e-08   3.7867803325641978e-06
-2.8896354994972104e-06   2.9722004829698095e-08   3.7867803325641978e-06
-2.8896354994972104e-06   2.9722004829698095e-08   3.7867803325641978e-06
-3.189321984050848e-06   2.0592364623515458e-07   4.18053682197693e-06
-3.189321984050848e-06   2.0592364623515458e-07   4.18053682197693e-06
-3.189321984050848e-06   2.0592364623515458e-07   4.18053682197693e-06
-3.189321984050848e-06   2.0592364623515458e-07   4.18053682197693e-06
-2.810489530495613e-06   3.327248622009662e-07   3.4730686698052298e-06
-2.810489530495613e-06   3.327248622009662e-07   3.4730686698052298e-06
-2.810489530495613e-06   3.327248622009662e-07   3.4730686698052298e-06
-2.810489530495613e-06   3.327248622009662e-07   3.4730686698052298e-06
-2.6473750579335733e-06   5.320612532356433e-07   6.216590445478666e-06
-2.6473750579335733e-06   5.320612532356433e-07   6.216590445478666e-06
-2.6473750579335733e-06   5.320612532356433e-07   6.216590445478666e-06
-2.6473750579335733e-06   5.320612532356433e-07   6.216590445478666e-06
-2.788523545249113e-06   2.1936036114538946e-07   5.793722431365249e-06
-2.788523545249113e-06   2.1936036114538946e-07   5.793722431365249e-06
-2.788523545249113e-06   2.1936036114538946e-07   5.793722431365249e-06
-2.788523545249113e-06   2.1936036114538946e-07   5.793722431365249e-06
-2.816878592891062e-06   3.652277839142357e-07   5.9788564193812834e-06
-2.816878592891062e-06   3.652277839142357e-07   5.9788564193812834e-06
-2.816878592891062e-06   3.652277839142357e-07   5.9788564193812834e-06
-2.816878592891062e-06   3.652277839142357e-07   5.9788564193812834e-06
-2.724095054683612e-06   1.0039442191624561e-07   5.983117206234334e-06
-2.724095054683612e-06   1.0039442191624561e-07   5.983117206234334e-06
-2.724095054683612e-06   1.0039442191624561e-07   5.983117206234334e-06
-2.724095054683612e-06   1.0039442191624561e-07   5.983117206234334e-06
-2.738120367136993e-06   2.671815571734864e-07   5.906420445835659e-06
-2.738120367136993e-06   2.671815571734864e-07   5.906420445835659e-06
-2.738120367136993e-06   2.671815571734864e-07   5.906420445835659e-06
-2.738120367136993e-06   2.671815571734864e-07   5.906420445835659e-06
-2.724095054683615e-06   3.652277839142824e-07   6.1377564365800396e-06
-2.724095054683615e-06   3.652277839142824e-07   6.1377564365800396e-06
-2.724095054683615e-06   3.652277839142824e-07   6.1377564365800396e-06
-2.724095054683615e-06   3.652277839142824e-07   6.1377564365800396e-06
-2.816878592891062e-06   1.0039442191624561e-07   5.824217189035532e-06
-2.816878592891062e-06   1.0039442191624561e-07   5.824217189035532e-06
-2.816878592891062e-06   1.0039442191624561e-07   5.824217189035532e-06
-2.816878592891062e-06   1.0039442191624561e-07   5.824217189035532e-06
-2.8511071048117515e-06   2.1345366805884149e-07   6.048104261832383e-06
-2.8511071048117515e-06   2.1345366805884149e-07   6.048104261832383e-06
-2.8511071048117515e-06   2.1345366805884149e-07   6.048104261832383e-06
-2.8511071048117515e-06   2.1345366805884149e-07   6.048104261832383e-06
-2.823338174453967e-06   -3.3213957516774455e-08   6.14982328658139e-06
-2.823338174453967e-06   -3.3213957516774455e-08   6.14982328658139e-06
-2.823338174453967e-06   -3.3213957516774455e-08   6.14982328658139e-06
-2.823338174453967e-06   -3.3213957516774455e-08   6.14982328658139e-06
-2.771883284294061e-06   1.7097003743676256e-07   5.941554739342844e-06
-2.771883284294061e-06   1.7097003743676256e-07   5.941554739342844e-06
-2.771883284294061e-06   1.7097003743676256e-07   5.941554739342844e-06
-2.771883284294061e-06   1.7097003743676256e-07   5.941554739342844e-06
-2.823338174453967e-06   2.1345366805882404e-07   6.196104837177628e-06
-2.823338174453967e-06   2.1345366805882404e-07   6.196104837177628e-06
-2.823338174453967e-06   2.1345366805882404e-07   6.196104837177628e-06
-2.823338174453967e-06   2.1345366805882404e-07   6.196104837177628e-06
-2.8511071048117515e-06   -3.3213957516774455e-08   6.00182271123605e-06
-2.8511071048117515e-06   -3.3213957516774455e-08   6.00182271123605e-06
-2.8511071048117515e-06   -3.3213957516774455e-08   6.00182271123605e-06
-2.8511071048117515e-06   -3.3213957516774455e-08   6.00182271123605e-06
-2.878640985148892e-06   5.1391001849106395e-08   6.20962048225704e-06
-2.878640985148892e-06   5.1391001849106395e-08   6.20962048225704e-06
-2.878640985148892e-06   5.1391001849106395e-08   6.20962048225704e-06
-2.878640985148892e-06   5.1391001849106395e-08   6.20962048225704e-06
-2.889635499497205e-06   -2.061156135467761e-07   6.382448642075038e-06
-2.889635499497205e-06   -2.061156135467761e-07   6.382448642075038e-06
-2.889635499497205e-06   -2.061156135467761e-07   6.382448642075038e-06
-2.889635499497205e-06   -2.061156135467761e-07   6.382448642075038e-06
-2.821053596353873e-06   6.052986294320401e-08   6.108158184275272e-06
-2.821053596353873e-06   6.052986294320401e-08   6.108158184275272e-06
-2.821053596353873e-06   6.052986294320401e-08   6.108158184275272e-06
-2.821053596353873e-06   6.052986294320401e-08   6.108158184275272e-06
-2.78852354524912e-06   6.527789462805739e-07   6.852042553994082e-06
-2.78852354524912e-06   6.527789462805739e-07   6.852042553994082e-06
-2.78852354524912e-06   6.527789462805739e-07   6.852042553994082e-06
-2.78852354524912e-06   6.527789462805739e-07   6.852042553994082e-06
-3.087760901294276e-06   6.329867675914963e-08   5.999625465539287e-06
-3.087760901294276e-06   6.329867675914963e-08   5.999625465539287e-06
-3.087760901294276e-06   6.329867675914963e-08   5.999625465539287e-06
-3.087760901294276e-06   6.329867675914963e-08   5.999625465539287e-06
-3.1018769232406837e-06   4.999412901775268e-07   6.502360700028927e-06
-3.1018769232406837e-06   4.999412901775268e-07   6.502360700028927e-06
-3.1018769232406837e-06   4.999412901775268e-07   6.502360700028927e-06
-3.1018769232406837e-06   4.999412901775268e-07   6.502360700028927e-06
-2.8168785928910612e-06   -3.45047001159757e-08   6.348031076955693e-06
-2.8168785928910612e-06   -3.45047001159757e-08   6.348031076955693e-06
-2.8168785928910612e-06   -3.45047001159757e-08   6.348031076955693e-06
-2.8168785928910612e-06   -3.45047001159757e-08   6.348031076955693e-06
-2.944864006653322e-06   2.840246077259582e-07   6.37022251518764e-06
-2.944864006653322e-06   2.840246077259582e-07   6.37022251518764e-06
-2.944864006653322e-06   2.840246077259582e-07   6.37022251518764e-06
-2.944864006653322e-06   2.840246077259582e-07   6.37022251518764e-06
-2.816878592891062e-06   4.999412901775234e-07   6.823028294205045e-06
-2.816878592891062e-06   4.999412901775234e-07   6.823028294205045e-06
-2.816878592891062e-06   4.999412901775234e-07   6.823028294205045e-06
-2.816878592891062e-06   4.999412901775234e-07   6.823028294205045e-06
-3.10187692324067e-06   -3.45047001159757e-08   6.027363482779576e-06
-3.10187692324067e-06   -3.45047001159757e-08   6.027363482779576e-06
-3.10187692324067e-06   -3.45047001159757e-08   6.027363482779576e-06
-3.10187692324067e-06   -3.45047001159757e-08   6.027363482779576e-06
-3.1222451406547524e-06   3.447894249054861e-07   6.59753115437968e-06
-3.1222451406547524e-06   3.447894249054861e-07   6.59753115437968e-06
-3.1222451406547524e-06   3.447894249054861e-07   6.59753115437968e-06
-3.1222451406547524e-06   3.447894249054861e-07   6.59753115437968e-06
-2.8511071048117503e-06   -1.5141818286056518e-07   6.443358992634291e-06
-2.8511071048117503e-06   -1.5141818286056518e-07   6.443358992634291e-06
-2.8511071048117503e-06   -1.5141818286056518e-07   6.443358992634291e-06
-2.8511071048117503e-06   -1.5141818286056518e-07   6.443358992634291e-06
-2.952950196604355e-06   1.8830754610767273e-07   6.409262041574365e-06
-2.952950196604355e-06   1.8830754610767273e-07   6.409262041574365e-06
-2.952950196604355e-06   1.8830754610767273e-07   6.409262041574365e-06
-2.952950196604355e-06   1.8830754610767273e-07   6.409262041574365e-06
-2.8511071048117515e-06   3.447894249054438e-07   6.895255719039213e-06
-2.8511071048117515e-06   3.447894249054438e-07   6.895255719039213e-06
-2.8511071048117515e-06   3.447894249054438e-07   6.895255719039213e-06
-2.8511071048117515e-06   3.447894249054438e-07   6.895255719039213e-06
-3.1222451406547524e-06   -1.5141818286056518e-07   6.145634427974676e-06
-3.1222451406547524e-06   -1.5141818286056518e-07   6.145634427974676e-06
-3.1222451406547524e-06   -1.5141818286056518e-07   6.145634427974676e-06
-3.1222451406547524e-06   -1.5141818286056518e-07   6.145634427974676e-06
-3.1379237786030584e-06   1.9858672730511473e-07   6.771604821730629e-06
-3.1379237786030584e-06   1.9858672730511473e-07   6.771604821730629e-06
-3.1379237786030584e-06   1.9858672730511473e-07   6.771604821730629e-06
-3.1379237786030584e-06   1.9858672730511473e-07   6.771604821730629e-06
-2.878640985148882e-06   -2.6713143842321775e-07   6.6188977320772715e-06
-2.878640985148882e-06   -2.6713143842321775e-07   6.6188977320772715e-06
-2.878640985148882e-06   -2.6713143842321775e-07   6.6188977320772715e-06
-2.878640985148882e-06   -2.6713143842321775e-07   6.6188977320772715e-06
-2.9663003237487537e-06   9.027033401819932e-08   6.5505555662786065e-06
-2.9663003237487537e-06   9.027033401819932e-08   6.5505555662786065e-06
-2.9663003237487537e-06   9.027033401819932e-08   6.5505555662786065e-06
-2.9663003237487537e-06   9.027033401819932e-08   6.5505555662786065e-06
-3.087760901294276e-06   8.920463625147504e-07   5.607930935922536e-06
-3.087760901294276e-06   8.920463625147504e-07   5.607930935922536e-06
-3.087760901294276e-06   8.920463625147504e-07   5.607930935922536e-06
-3.087760901294276e-06   8.920463625147504e-07   5.607930935922536e-06
-3.4829512049655743e-06   2.975394369728339e-07   4.592576274478546e-06
-3.4829512049655743e-06   2.975394369728339e-07   4.592576274478546e-06
-3.4829512049655743e-06   2.975394369728339e-07   4.592576274478546e-06
-3.4829512049655743e-06   2.975394369728339e-07   4.592576274478546e-06
-3.495556354614579e-06   7.314632222944696e-07   5.299356266961195e-06
-3.495556354614579e-06   7.314632222944696e-07   5.299356266961195e-06
-3.495556354614579e-06   7.314632222944696e-07   5.299356266961195e-06
-3.495556354614579e-06   7.314632222944696e-07   5.299356266961195e-06
-3.1018769232406816e-06   1.6776806850774808e-07   4.98144097361007e-06
-3.1018769232406816e-06   1.6776806850774808e-07   4.98144097361007e-06
-3.1018769232406816e-06   1.6776806850774808e-07   4.98144097361007e-06
-3.1018769232406816e-06   1.6776806850774808e-07   4.98144097361007e-06
-3.2836315656939604e-06   5.323118397688792e-07   5.065639114942182e-06
-3.2836315656939604e-06   5.323118397688792e-07   5.065639114942182e-06
-3.2836315656939604e-06   5.323118397688792e-07   5.065639114942182e-06
-3.2836315656939604e-06   5.323118397688792e-07   5.065639114942182e-06
-3.1018769232406837e-06   7.314632222944261e-07   5.6375733592332335e-06
-3.1018769232406837e-06   7.314632222944261e-07   5.6375733592332335e-06
-3.1018769232406837e-06   7.314632222944261e-07   5.6375733592332335e-06
-3.1018769232406837e-06   7.314632222944261e-07   5.6375733592332335e-06
-3.495556354614579e-06   1.6776806850774808e-07   4.6432238813380606e-06
-3.495556354614579e-06   1.6776806850774808e-07   4.6432238813380606e-06
-3.495556354614579e-06   1.6776806850774808e-07   4.6432238813380606e-06
-3.495556354614579e-06   1.6776806850774808e-07   4.6432238813380606e-06
-3.5390455493518552e-06   5.87717627746967e-07   5.491810950646904e-06
-3.5390455493518552e-06   5.87717627746967e-07   5.491810950646904e-06
-3.5390455493518552e-06   5.87717627746967e-07   5.491810950646904e-06
-3.5390455493518552e-06   5.87717627746967e-07   5.491810950646904e-06
-3.1222451406547503e-06   5.613437397013589e-08   5.116093555084547e-06
-3.1222451406547503e-06   5.613437397013589e-08   5.116093555084547e-06
-3.1222451406547503e-06   5.613437397013589e-08   5.116093555084547e-06
-3.1222451406547503e-06   5.613437397013589e-08   5.116093555084547e-06
-3.2804444393289803e-06   4.2696398184523384e-07   5.157261288149881e-06
-3.2804444393289803e-06   4.2696398184523384e-07   5.157261288149881e-06
-3.2804444393289803e-06   4.2696398184523384e-07   5.157261288149881e-06
-3.2804444393289803e-06   4.2696398184523384e-07   5.157261288149881e-06
-3.1222451406547524e-06   5.877176277469796e-07   5.810760902912943e-06
-3.1222451406547524e-06   5.877176277469796e-07   5.810760902912943e-06
-3.1222451406547524e-06   5.877176277469796e-07   5.810760902912943e-06
-3.1222451406547524e-06   5.877176277469796e-07   5.810760902912943e-06
-3.5390455493518552e-06   5.613437397010879e-08   4.7971436028184555e-06
-3.5390455493518552e-06   5.613437397010879e-08   4.7971436028184555e-06
-3.5390455493518552e-06   5.613437397010879e-08   4.7971436028184555e-06
-3.5390455493518552e-06   5.613437397010879e-08   4.7971436028184555e-06
-3.566854974368185e-06   4.403372804685172e-07   5.729499093390963e-06
-3.566854974368185e-06   4.403372804685172e-07   5.729499093390963e-06
-3.566854974368185e-06   4.403372804685172e-07   5.729499093390963e-06
-3.566854974368185e-06   4.403372804685172e-07   5.729499093390963e-06
-3.137923778603061e-06   -5.6735661750498614e-08   5.312857532447144e-06
-3.137923778603061e-06   -5.6735661750498614e-08   5.312857532447144e-06
-3.137923778603061e-06   -5.6735661750498614e-08   5.312857532447144e-06
-3.137923778603061e-06   -5.6735661750498614e-08   5.312857532447144e-06
-3.3034624530152973e-06   3.3217704479415874e-07   5.355407699207069e-06
-3.3034624530152973e-06   3.3217704479415874e-07   5.355407699207069e-06
-3.3034624530152973e-06   3.3217704479415874e-07   5.355407699207069e-06
-3.3034624530152973e-06   3.3217704479415874e-07   5.355407699207069e-06
-3.4829512049655743e-06   1.0705068777715973e-06   2.206350960029795e-06
-3.4829512049655743e-06   1.0705068777715973e-06   2.206350960029795e-06
-3.4829512049655743e-06   1.0705068777715973e-06   2.206350960029795e-06
-3.4829512049655743e-06   1.0705068777715973e-06   2.206350960029795e-06
-3.5371817588347254e-06   5.019379865733148e-07   1.7748253688622728e-06
-3.5371817588347254e-06   5.019379865733148e-07   1.7748253688622728e-06
-3.5371817588347254e-06   5.019379865733148e-07   1.7748253688622728e-06
-3.5371817588347254e-06   5.019379865733148e-07   1.7748253688622728e-06
-3.719552691983796e-06   9.639000816931355e-07   2.4245179081020408e-06
-3.719552691983796e-06   9.639000816931355e-07   2.4245179081020408e-06
-3.719552691983796e-06   9.639000816931355e-07   2.4245179081020408e-06
-3.719552691983796e-06   9.639000816931355e-07   2.4245179081020408e-06
-3.495556354614577e-06   4.0863776795211086e-07   2.3843480673979523e-06
-3.495556354614577e-06   4.0863776795211086e-07   2.3843480673979523e-06
-3.495556354614577e-06   4.0863776795211086e-07   2.3843480673979523e-06
-3.495556354614577e-06   4.0863776795211086e-07   2.3843480673979523e-06
-3.4422664312283202e-06   7.573828329970943e-07   2.0862844893938684e-06
-3.4422664312283202e-06   7.573828329970943e-07   2.0862844893938684e-06
-3.4422664312283202e-06   7.573828329970943e-07   2.0862844893938684e-06
-3.4422664312283202e-06   7.573828329970943e-07   2.0862844893938684e-06
-3.4955563546145655e-06   9.639000816931389e-07   2.7576752963466068e-06
-3.4955563546145655e-06   9.639000816931389e-07   2.7576752963466068e-06
-3.4955563546145655e-06   9.639000816931389e-07   2.7576752963466068e-06
-3.4955563546145655e-06   9.639000816931389e-07   2.7576752963466068e-06
-3.719552691983796e-06   4.0863776795211086e-07   2.0511906791533186e-06
-3.719552691983796e-06   4.0863776795211086e-07   2.0511906791533186e-06
-3.719552691983796e-06   4.0863776795211086e-07   2.0511906791533186e-06
-3.719552691983796e-06   4.0863776795211086e-07   2.0511906791533186e-06
-3.878949738317226e-06   8.89876970874674e-07   2.8666346940737965e-06
-3.878949738317226e-06   8.89876970874674e-07   2.8666346940737965e-06
-3.878949738317226e-06   8.89876970874674e-07   2.8666346940737965e-06
-3.878949738317226e-06   8.89876970874674e-07   2.8666346940737965e-06
-3.539045549351846e-06   3.4799875356323956e-07   2.6252546428516413e-06
-3.539045549351846e-06   3.4799875356323956e-07   2.6252546428516413e-06
-3.539045549351846e-06   3.4799875356323956e-07   2.6252546428516413e-06
-3.539045549351846e-06   3.4799875356323956e-07   2.6252546428516413e-06
-3.574746756170095e-06   7.051705513460638e-07   2.470453575545824e-06
-3.574746756170095e-06   7.051705513460638e-07   2.470453575545824e-06
-3.574746756170095e-06   7.051705513460638e-07   2.470453575545824e-06
-3.574746756170095e-06   7.051705513460638e-07   2.470453575545824e-06
-3.5390455493518417e-06   8.898769708746769e-07   3.191761624460511e-06
-3.5390455493518417e-06   8.898769708746769e-07   3.191761624460511e-06
-3.5390455493518417e-06   8.898769708746769e-07   3.191761624460511e-06
-3.5390455493518417e-06   8.898769708746769e-07   3.191761624460511e-06
-3.878949738317226e-06   3.4799875356323956e-07   2.300127712464778e-06
-3.878949738317226e-06   3.4799875356323956e-07   2.300127712464778e-06
-3.878949738317226e-06   3.4799875356323956e-07   2.300127712464778e-06
-3.878949738317226e-06   3.4799875356323956e-07   2.300127712464778e-06
-4.110115792320949e-06   7.159125289535871e-07   3.6775740785336786e-06
-4.110115792320949e-06   7.159125289535871e-07   3.6775740785336786e-06
-4.110115792320949e-06   7.159125289535871e-07   3.6775740785336786e-06
-4.110115792320949e-06   7.159125289535871e-07   3.6775740785336786e-06
-3.5668549743681714e-06   2.2177336152007015e-07   3.068622882405707e-06
-3.5668549743681714e-06   2.2177336152007015e-07   3.068622882405707e-06
-3.5668549743681714e-06   2.2177336152007015e-07   3.068622882405707e-06
-3.5668549743681714e-06   2.2177336152007015e-07   3.068622882405707e-06
-3.6201107228035382e-06   6.397663837721772e-07   2.9065866497795384e-06
-3.6201107228035382e-06   6.397663837721772e-07   2.9065866497795384e-06
-3.6201107228035382e-06   6.397663837721772e-07   2.9065866497795384e-06
-3.6201107228035382e-06   6.397663837721772e-07   2.9065866497795384e-06
-6.33800051940418e-06   8.413274390008011e-07   2.7532008050912835e-06
-6.33800051940418e-06   8.413274390008011e-07   2.7532008050912835e-06
-6.33800051940418e-06   8.413274390008011e-07   2.7532008050912835e-06
-6.33800051940418e-06   8.413274390008011e-07   2.7532008050912835e-06
-4.35800083351504e-06   1.1552625693666516e-06   6.241561359792685e-06
-4.35800083351504e-06   1.1552625693666516e-06   6.241561359792685e-06
-4.35800083351504e-06   1.1552625693666516e-06   6.241561359792685e-06
-4.35800083351504e-06   1.1552625693666516e-06   6.241561359792685e-06
-4.361412611413289e-06   6.510697231958357e-07   3.0533888834991327e-06
-4.361412611413289e-06   6.510697231958357e-07   3.0533888834991327e-06
-4.361412611413289e-06   6.510697231958357e-07   3.0533888834991327e-06
-4.361412611413289e-06   6.510697231958357e-07   3.0533888834991327e-06
-7.025507485217511e-06   4.287681608201394e-07   7.626927943931613e-06
-7.025507485217511e-06   4.287681608201394e-07   7.626927943931613e-06
-7.025507485217511e-06   4.287681608201394e-07   7.626927943931613e-06
-7.025507485217511e-06   4.287681608201394e-07   7.626927943931613e-06
-5.234191827835798e-06   6.754810420689199e-07   4.493374119546132e-06
-5.234191827835798e-06   6.754810420689199e-07   4.493374119546132e-06
-5.234191827835798e-06   6.754810420689199e-07   4.493374119546132e-06
-5.234191827835798e-06   6.754810420689199e-07   4.493374119546132e-06
-7.025507485217525e-06   6.510697231958371e-07   3.1867698209245017e-06
-7.025507485217525e-06   6.510697231958371e-07   3.1867698209245017e-06
-7.025507485217525e-06   6.510697231958371e-07   3.1867698209245017e-06
-7.025507485217525e-06   6.510697231958371e-07   3.1867698209245017e-06
-4.361412611413282e-06   4.287681608201394e-07   7.493547006506189e-06
-4.361412611413282e-06   4.287681608201394e-07   7.493547006506189e-06
-4.361412611413282e-06   4.287681608201394e-07   7.493547006506189e-06
-4.361412611413282e-06   4.287681608201394e-07   7.493547006506189e-06
-4.434855037200971e-06   5.220060481978103e-07   3.380390020398083e-06
-4.434855037200971e-06   5.220060481978103e-07   3.380390020398083e-06
-4.434855037200971e-06   5.220060481978103e-07   3.380390020398083e-06
-4.434855037200971e-06   5.220060481978103e-07   3.380390020398083e-06
-7.062880163318588e-06   2.9374686424092243e-07   7.897387407634909e-06
-7.062880163318588e-06   2.9374686424092243e-07   7.897387407634909e-06
-7.062880163318588e-06   2.9374686424092243e-07   7.897387407634909e-06
-7.062880163318588e-06   2.9374686424092243e-07   7.897387407634909e-06
-5.607665016386375e-06   4.0756514963895827e-07   5.4037378581756885e-06
-5.607665016386375e-06   4.0756514963895827e-07   5.4037378581756885e-06
-5.607665016386375e-06   4.0756514963895827e-07   5.4037378581756885e-06
-5.607665016386375e-06   4.0756514963895827e-07   5.4037378581756885e-06
-7.062880163318598e-06   5.220060481977841e-07   3.517345530772235e-06
-7.062880163318598e-06   5.220060481977841e-07   3.517345530772235e-06
-7.062880163318598e-06   5.220060481977841e-07   3.517345530772235e-06
-7.062880163318598e-06   5.220060481977841e-07   3.517345530772235e-06
-4.434855037200963e-06   2.9374686424092243e-07   7.760431897260787e-06
-4.434855037200963e-06   2.9374686424092243e-07   7.760431897260787e-06
-4.434855037200963e-06   2.9374686424092243e-07   7.760431897260787e-06
-4.434855037200963e-06   2.9374686424092243e-07   7.760431897260787e-06
-4.401254847097209e-06   2.0592364623515458e-07   3.949639479948011e-06
-4.401254847097209e-06   2.0592364623515458e-07   3.949639479948011e-06
-4.401254847097209e-06   2.0592364623515458e-07   3.949639479948011e-06
-4.401254847097209e-06   2.0592364623515458e-07   3.949639479948011e-06
-7.1611327504109214e-06   -2.886790137242973e-07   8.846197581446514e-06
-7.1611327504109214e-06   -2.886790137242973e-07   8.846197581446514e-06
-7.1611327504109214e-06   -2.886790137242973e-07   8.846197581446514e-06
-7.1611327504109214e-06   -2.886790137242973e-07   8.846197581446514e-06
-5.536226956451109e-06   1.802082805385291e-07   5.856688881622473e-06
-5.536226956451109e-06   1.802082805385291e-07   5.856688881622473e-06
-5.536226956451109e-06   1.802082805385291e-07   5.856688881622473e-06
-5.536226956451109e-06   1.802082805385291e-07   5.856688881622473e-06
-4.358000833515046e-06   2.1936036114537048e-07   6.098218695712955e-06
-4.358000833515046e-06   2.1936036114537048e-07   6.098218695712955e-06
-4.358000833515046e-06   2.1936036114537048e-07   6.098218695712955e-06
-4.358000833515046e-06   2.1936036114537048e-07   6.098218695712955e-06
-2.712055405238215e-06   -1.4307228310090015e-06   7.851411160881712e-06
-2.712055405238215e-06   -1.4307228310090015e-06   7.851411160881712e-06
-2.712055405238215e-06   -1.4307228310090015e-06   7.851411160881712e-06
-2.712055405238215e-06   -1.4307228310090015e-06   7.851411160881712e-06
-2.726485179197532e-06   1.0039442191627271e-07   5.1149084309110265e-06
-2.726485179197532e-06   1.0039442191627271e-07   5.1149084309110265e-06
-2.726485179197532e-06   1.0039442191627271e-07   5.1149084309110265e-06
-2.726485179197532e-06   1.0039442191627271e-07   5.1149084309110265e-06
-4.361412611413281e-06   -1.184135437825486e-06   8.61050540044899e-06
-4.361412611413281e-06   -1.184135437825486e-06   8.61050540044899e-06
-4.361412611413281e-06   -1.184135437825486e-06   8.61050540044899e-06
-4.361412611413281e-06   -1.184135437825486e-06   8.61050540044899e-06
-3.524054073526916e-06   -7.100726425523856e-07   6.930470160141176e-06
-3.524054073526916e-06   -7.100726425523856e-07   6.930470160141176e-06
-3.524054073526916e-06   -7.100726425523856e-07   6.930470160141176e-06
-3.524054073526916e-06   -7.100726425523856e-07   6.930470160141176e-06
-4.361412611413284e-06   1.0039442191626528e-07   5.885626346755971e-06
-4.361412611413284e-06   1.0039442191626528e-07   5.885626346755971e-06
-4.361412611413284e-06   1.0039442191626528e-07   5.885626346755971e-06
-4.361412611413284e-06   1.0039442191626528e-07   5.885626346755971e-06
-2.7264851791975253e-06   -1.184135437825486e-06   7.839787484603938e-06
-2.7264851791975253e-06   -1.184135437825486e-06   7.839787484603938e-06
-2.7264851791975253e-06   -1.184135437825486e-06   7.839787484603938e-06
-2.7264851791975253e-06   -1.184135437825486e-06   7.839787484603938e-06
-2.7499286763331507e-06   -3.321395751680156e-08   5.260865435864317e-06
-2.7499286763331507e-06   -3.321395751680156e-08   5.260865435864317e-06
-2.7499286763331507e-06   -3.321395751680156e-08   5.260865435864317e-06
-2.7499286763331507e-06   -3.321395751680156e-08   5.260865435864317e-06
-4.434855037200964e-06   -1.2067554513655145e-06   8.773200933619934e-06
-4.434855037200964e-06   -1.2067554513655145e-06   8.773200933619934e-06
-4.434855037200964e-06   -1.2067554513655145e-06   8.773200933619934e-06
-4.434855037200964e-06   -1.2067554513655145e-06   8.773200933619934e-06
-3.507445544494764e-06   -6.210024695946443e-07   6.876066656713731e-06
-3.507445544494764e-06   -6.210024695946443e-07   6.876066656713731e-06
-3.507445544494764e-06   -6.210024695946443e-07   6.876066656713731e-06
-3.507445544494764e-06   -6.210024695946443e-07   6.876066656713731e-06
-4.434855037200971e-06   -3.32139575167844e-08   5.964990332173607e-06
-4.434855037200971e-06   -3.32139575167844e-08   5.964990332173607e-06
-4.434855037200971e-06   -3.32139575167844e-08   5.964990332173607e-06
-4.434855037200971e-06   -3.32139575167844e-08   5.964990332173607e-06
-2.749928676333144e-06   -1.2067554513655145e-06   8.069076037310691e-06
-2.749928676333144e-06   -1.2067554513655145e-06   8.069076037310691e-06
-2.749928676333144e-06   -1.2067554513655145e-06   8.069076037310691e-06
-2.749928676333144e-06   -1.2067554513655145e-06   8.069076037310691e-06
-2.738362862766371e-06   -2.061156135467761e-07   5.4459762467900315e-06
-2.738362862766371e-06   -2.061156135467761e-07   5.4459762467900315e-06
-2.738362862766371e-06   -2.061156135467761e-07   5.4459762467900315e-06
-2.738362862766371e-06   -2.061156135467761e-07   5.4459762467900315e-06
-4.401254847097198e-06   -1.205872394234841e-06   8.817316955754208e-06
-4.401254847097198e-06   -1.205872394234841e-06   8.817316955754208e-06
-4.401254847097198e-06   -1.205872394234841e-06   8.817316955754208e-06
-4.401254847097198e-06   -1.205872394234841e-06   8.817316955754208e-06
-3.5372912441830625e-06   -6.891701505753578e-07   7.0673562713683015e-06
-3.5372912441830625e-06   -6.891701505753578e-07   7.0673562713683015e-06
-3.5372912441830625e-06   -6.891701505753578e-07   7.0673562713683015e-06
-3.5372912441830625e-06   -6.891701505753578e-07   7.0673562713683015e-06
-2.712055405238215e-06   6.329867675914515e-08   5.6677599763072255e-06
-2.712055405238215e-06   6.329867675914515e-08   5.6677599763072255e-06
-2.712055405238215e-06   6.329867675914515e-08   5.6677599763072255e-06
-2.712055405238215e-06   6.329867675914515e-08   5.6677599763072255e-06
-2.0410161155901343e-06   -1.1190603240201802e-06   6.076743391919782e-06
-2.0410161155901343e-06   -1.1190603240201802e-06   6.076743391919782e-06
-2.0410161155901343e-06   -1.1190603240201802e-06   6.076743391919782e-06
-2.0410161155901343e-06   -1.1190603240201802e-06   6.076743391919782e-06
-2.033009863399186e-06   -3.45047001159757e-08   4.999961287738969e-06
-2.033009863399186e-06   -3.45047001159757e-08   4.999961287738969e-06
-2.033009863399186e-06   -3.45047001159757e-08   4.999961287738969e-06
-2.033009863399186e-06   -3.45047001159757e-08   4.999961287738969e-06
-2.7264851791975257e-06   -1.0991064186030125e-06   6.794514511828409e-06
-2.7264851791975257e-06   -1.0991064186030125e-06   6.794514511828409e-06
-2.7264851791975257e-06   -1.0991064186030125e-06   6.794514511828409e-06
-2.7264851791975257e-06   -1.0991064186030125e-06   6.794514511828409e-06
-2.365076893879356e-06   -5.628123089279527e-07   5.8703909038264215e-06
-2.365076893879356e-06   -5.628123089279527e-07   5.8703909038264215e-06
-2.365076893879356e-06   -5.628123089279527e-07   5.8703909038264215e-06
-2.365076893879356e-06   -5.628123089279527e-07   5.8703909038264215e-06
-2.7264851791975253e-06   -3.450470011598486e-08   5.63872231883112e-06
-2.7264851791975253e-06   -3.450470011598486e-08   5.63872231883112e-06
-2.7264851791975253e-06   -3.450470011598486e-08   5.63872231883112e-06
-2.7264851791975253e-06   -3.450470011598486e-08   5.63872231883112e-06
-2.033009863399186e-06   -1.0991064186030125e-06   6.155753480736198e-06
-2.033009863399186e-06   -1.0991064186030125e-06   6.155753480736198e-06
-2.033009863399186e-06   -1.0991064186030125e-06   6.155753480736198e-06
-2.033009863399186e-06   -1.0991064186030125e-06   6.155753480736198e-06
-2.0295897565479496e-06   -1.5141818286056518e-07   5.115119271010177e-06
-2.0295897565479496e-06   -1.5141818286056518e-07   5.115119271010177e-06
-2.0295897565479496e-06   -1.5141818286056518e-07   5.115119271010177e-06
-2.0295897565479496e-06   -1.5141818286056518e-07   5.115119271010177e-06
-2.7499286763331465e-06   -1.1302222599478436e-06   6.9029665835712215e-06
-2.7499286763331465e-06   -1.1302222599478436e-06   6.9029665835712215e-06
-2.7499286763331465e-06   -1.1302222599478436e-06   6.9029665835712215e-06
-2.7499286763331465e-06   -1.1302222599478436e-06   6.9029665835712215e-06
-2.354495650450878e-06   -5.946912519553898e-07   5.922592935638578e-06
-2.354495650450878e-06   -5.946912519553898e-07   5.922592935638578e-06
-2.354495650450878e-06   -5.946912519553898e-07   5.922592935638578e-06
-2.354495650450878e-06   -5.946912519553898e-07   5.922592935638578e-06
-2.749928676333144e-06   -1.5141818286057725e-07   5.702401717262598e-06
-2.749928676333144e-06   -1.5141818286057725e-07   5.702401717262598e-06
-2.749928676333144e-06   -1.5141818286057725e-07   5.702401717262598e-06
-2.749928676333144e-06   -1.5141818286057725e-07   5.702401717262598e-06
-2.0295897565479496e-06   -1.1302222599478436e-06   6.315684137318851e-06
-2.0295897565479496e-06   -1.1302222599478436e-06   6.315684137318851e-06
-2.0295897565479496e-06   -1.1302222599478436e-06   6.315684137318851e-06
-2.0295897565479496e-06   -1.1302222599478436e-06   6.315684137318851e-06
-2.0041562922515235e-06   -2.6713143842319064e-07   5.29502453146087e-06
-2.0041562922515235e-06   -2.6713143842319064e-07   5.29502453146087e-06
-2.0041562922515235e-06   -2.6713143842319064e-07   5.29502453146087e-06
-2.0041562922515235e-06   -2.6713143842319064e-07   5.29502453146087e-06
-2.738362862766367e-06   -1.1703060627047524e-06   7.060606923554508e-06
-2.738362862766367e-06   -1.1703060627047524e-06   7.060606923554508e-06
-2.738362862766367e-06   -1.1703060627047524e-06   7.060606923554508e-06
-2.738362862766367e-06   -1.1703060627047524e-06   7.060606923554508e-06
-2.342899745139272e-06   -6.435967409018509e-07   6.085476134427614e-06
-2.342899745139272e-06   -6.435967409018509e-07   6.085476134427614e-06
-2.342899745139272e-06   -6.435967409018509e-07   6.085476134427614e-06
-2.342899745139272e-06   -6.435967409018509e-07   6.085476134427614e-06
-2.0410161155901343e-06   2.9753943697283494e-07   3.907999540104075e-06
-2.0410161155901343e-06   2.9753943697283494e-07   3.907999540104075e-06
-2.0410161155901343e-06   2.9753943697283494e-07   3.907999540104075e-06
-2.0410161155901343e-06   2.9753943697283494e-07   3.907999540104075e-06
-1.755509579239129e-06   -4.6380691837306085e-07   3.927035954148219e-06
-1.755509579239129e-06   -4.6380691837306085e-07   3.927035954148219e-06
-1.755509579239129e-06   -4.6380691837306085e-07   3.927035954148219e-06
-1.755509579239129e-06   -4.6380691837306085e-07   3.927035954148219e-06
-1.7295793707894862e-06   1.6776806850774808e-07   3.530213772987771e-06
-1.7295793707894862e-06   1.6776806850774808e-07   3.530213772987771e-06
-1.7295793707894862e-06   1.6776806850774808e-07   3.530213772987771e-06
-1.7295793707894862e-06   1.6776806850774808e-07   3.530213772987771e-06
-2.03300986339918e-06   -5.386069407950137e-07   4.459756266252278e-06
-2.03300986339918e-06   -5.386069407950137e-07   4.459756266252278e-06
-2.03300986339918e-06   -5.386069407950137e-07   4.459756266252278e-06
-2.03300986339918e-06   -5.386069407950137e-07   4.459756266252278e-06
-1.8765152447806423e-06   -1.0656354877095105e-07   3.939705866673601e-06
-1.8765152447806423e-06   -1.0656354877095105e-07   3.939705866673601e-06
-1.8765152447806423e-06   -1.0656354877095105e-07   3.939705866673601e-06
-1.8765152447806423e-06   -1.0656354877095105e-07   3.939705866673601e-06
-2.033009863399186e-06   1.6776806850773524e-07   3.9540387785693955e-06
-2.033009863399186e-06   1.6776806850773524e-07   3.9540387785693955e-06
-2.033009863399186e-06   1.6776806850773524e-07   3.9540387785693955e-06
-2.033009863399186e-06   1.6776806850773524e-07   3.9540387785693955e-06
-1.7295793707894862e-06   -5.386069407950137e-07   4.0359312606705995e-06
-1.7295793707894862e-06   -5.386069407950137e-07   4.0359312606705995e-06
-1.7295793707894862e-06   -5.386069407950137e-07   4.0359312606705995e-06
-1.7295793707894862e-06   -5.386069407950137e-07   4.0359312606705995e-06
-1.7247334168987044e-06   5.613437397013589e-08   3.693857399597887e-06
-1.7247334168987044e-06   5.613437397013589e-08   3.693857399597887e-06
-1.7247334168987044e-06   5.613437397013589e-08   3.693857399597887e-06
-1.7247334168987044e-06   5.613437397013589e-08   3.693857399597887e-06
-2.029589756547946e-06   -5.967339569001721e-07   4.593672297535488e-06
-2.029589756547946e-06   -5.967339569001721e-07   4.593672297535488e-06
-2.029589756547946e-06   -5.967339569001721e-07   4.593672297535488e-06
-2.029589756547946e-06   -5.967339569001721e-07   4.593672297535488e-06
-1.8504153318432623e-06   -1.8391189541983326e-07   4.04735501947272e-06
-1.8504153318432623e-06   -1.8391189541983326e-07   4.04735501947272e-06
-1.8504153318432623e-06   -1.8391189541983326e-07   4.04735501947272e-06
-1.8504153318432623e-06   -1.8391189541983326e-07   4.04735501947272e-06
-2.0295897565479496e-06   5.613437397011875e-08   4.085578398120115e-06
-2.0295897565479496e-06   5.613437397011875e-08   4.085578398120115e-06
-2.0295897565479496e-06   5.613437397011875e-08   4.085578398120115e-06
-2.0295897565479496e-06   5.613437397011875e-08   4.085578398120115e-06
-1.7247334168987044e-06   -5.967339569001721e-07   4.201951299013307e-06
-1.7247334168987044e-06   -5.967339569001721e-07   4.201951299013307e-06
-1.7247334168987044e-06   -5.967339569001721e-07   4.201951299013307e-06
-1.7247334168987044e-06   -5.967339569001721e-07   4.201951299013307e-06
-1.7092536641073313e-06   -5.6735661750498614e-08   3.899326504751998e-06
-1.7092536641073313e-06   -5.6735661750498614e-08   3.899326504751998e-06
-1.7092536641073313e-06   -5.6735661750498614e-08   3.899326504751998e-06
-1.7092536641073313e-06   -5.6735661750498614e-08   3.899326504751998e-06
-2.0041562922515244e-06   -6.718835392767155e-07   4.759919611507996e-06
-2.0041562922515244e-06   -6.718835392767155e-07   4.759919611507996e-06
-2.0041562922515244e-06   -6.718835392767155e-07   4.759919611507996e-06
-2.0041562922515244e-06   -6.718835392767155e-07   4.759919611507996e-06
-1.834399499365488e-06   -2.5279447436963036e-07   4.2255381844203495e-06
-1.834399499365488e-06   -2.5279447436963036e-07   4.2255381844203495e-06
-1.834399499365488e-06   -2.5279447436963036e-07   4.2255381844203495e-06
-1.834399499365488e-06   -2.5279447436963036e-07   4.2255381844203495e-06
-1.7555095792391154e-06   5.019379865733075e-07   9.745821559991962e-07
-1.7555095792391154e-06   5.019379865733075e-07   9.745821559991962e-07
-1.7555095792391154e-06   5.019379865733075e-07   9.745821559991962e-07
-1.7555095792391154e-06   5.019379865733075e-07   9.745821559991962e-07
-1.098575806840436e-06   -4.4421267314477195e-08   1.7416562243309606e-06
-1.098575806840436e-06   -4.4421267314477195e-08   1.7416562243309606e-06
-1.098575806840436e-06   -4.4421267314477195e-08   1.7416562243309606e-06
-1.098575806840436e-06   -4.4421267314477195e-08   1.7416562243309606e-06
-1.1702201677525636e-06   4.0863776795211086e-07   9.87115727573611e-07
-1.1702201677525636e-06   4.0863776795211086e-07   9.87115727573611e-07
-1.1702201677525636e-06   4.0863776795211086e-07   9.87115727573611e-07
-1.1702201677525636e-06   4.0863776795211086e-07   9.87115727573611e-07
-1.7295793707894845e-06   -6.506595117126187e-08   2.20360329744254e-06
-1.7295793707894845e-06   -6.506595117126187e-08   2.20360329744254e-06
-1.7295793707894845e-06   -6.506595117126187e-08   2.20360329744254e-06
-1.7295793707894845e-06   -6.506595117126187e-08   2.20360329744254e-06
-1.388762247999513e-06   2.598918938627318e-07   1.4406000524388757e-06
-1.388762247999513e-06   2.598918938627318e-07   1.4406000524388757e-06
-1.388762247999513e-06   2.598918938627318e-07   1.4406000524388757e-06
-1.388762247999513e-06   2.598918938627318e-07   1.4406000524388757e-06
-1.7295793707894862e-06   4.0863776795211674e-07   1.2713379590475695e-06
-1.7295793707894862e-06   4.0863776795211674e-07   1.2713379590475695e-06
-1.7295793707894862e-06   4.0863776795211674e-07   1.2713379590475695e-06
-1.7295793707894862e-06   4.0863776795211674e-07   1.2713379590475695e-06
-1.1702201677525636e-06   -6.506595117126187e-08   1.9193810659685e-06
-1.1702201677525636e-06   -6.506595117126187e-08   1.9193810659685e-06
-1.1702201677525636e-06   -6.506595117126187e-08   1.9193810659685e-06
-1.1702201677525636e-06   -6.506595117126187e-08   1.9193810659685e-06
-1.230546216329857e-06   3.4799875356326666e-07   1.2579852903385805e-06
-1.230546216329857e-06   3.4799875356326666e-07   1.2579852903385805e-06
-1.230546216329857e-06   3.4799875356326666e-07   1.2579852903385805e-06
-1.230546216329857e-06   3.4799875356326666e-07   1.2579852903385805e-06
-1.7247334168987048e-06   -9.197316192423712e-08   2.345613773912451e-06
-1.7247334168987048e-06   -9.197316192423712e-08   2.345613773912451e-06
-1.7247334168987048e-06   -9.197316192423712e-08   2.345613773912451e-06
-1.7247334168987048e-06   -9.197316192423712e-08   2.345613773912451e-06
-1.4255104290619424e-06   2.1565669100652896e-07   1.6623308824260713e-06
-1.4255104290619424e-06   2.1565669100652896e-07   1.6623308824260713e-06
-1.4255104290619424e-06   2.1565669100652896e-07   1.6623308824260713e-06
-1.4255104290619424e-06   2.1565669100652896e-07   1.6623308824260713e-06
-1.7247334168987044e-06   3.479987535632681e-07   1.5219684396311018e-06
-1.7247334168987044e-06   3.479987535632681e-07   1.5219684396311018e-06
-1.7247334168987044e-06   3.479987535632681e-07   1.5219684396311018e-06
-1.7247334168987044e-06   3.479987535632681e-07   1.5219684396311018e-06
-1.230546216329857e-06   -9.197316192425067e-08   2.0816306246199703e-06
-1.230546216329857e-06   -9.197316192425067e-08   2.0816306246199703e-06
-1.230546216329857e-06   -9.197316192425067e-08   2.0816306246199703e-06
-1.230546216329857e-06   -9.197316192425067e-08   2.0816306246199703e-06
-1.3588076641788327e-06   2.2177336152004305e-07   1.7433791962351351e-06
-1.3588076641788327e-06   2.2177336152004305e-07   1.7433791962351351e-06
-1.3588076641788327e-06   2.2177336152004305e-07   1.7433791962351351e-06
-1.3588076641788327e-06   2.2177336152004305e-07   1.7433791962351351e-06
-1.7092536641073362e-06   -1.2815401149158493e-07   2.5374122865894912e-06
-1.7092536641073362e-06   -1.2815401149158493e-07   2.5374122865894912e-06
-1.7092536641073362e-06   -1.2815401149158493e-07   2.5374122865894912e-06
-1.7092536641073362e-06   -1.2815401149158493e-07   2.5374122865894912e-06
-1.4389789069995917e-06   1.838627059915865e-07   1.8997443275866298e-06
-1.4389789069995917e-06   1.838627059915865e-07   1.8997443275866298e-06
-1.4389789069995917e-06   1.838627059915865e-07   1.8997443275866298e-06
-1.4389789069995917e-06   1.838627059915865e-07   1.8997443275866298e-06
-1.5287167692560268e-05   1.155262569366643e-06   7.066401870527249e-06
-1.5287167692560268e-05   1.155262569366643e-06   7.066401870527249e-06
-1.5287167692560268e-05   1.155262569366643e-06   7.066401870527249e-06
-1.5287167692560268e-05   1.155262569366643e-06   7.066401870527249e-06
-3.5344758038574042e-06   -8.102002599843834e-06   2.109986258350575e-05
-3.5344758038574042e-06   -8.102002599843834e-06   2.109986258350575e-05
-3.5344758038574042e-06   -8.102002599843834e-06   2.109986258350575e-05
-3.5344758038574042e-06   -8.102002599843834e-06   2.109986258350575e-05
-4.189193386282907e-06   4.2876816082015293e-07   3.8271431352318495e-06
-4.189193386282907e-06   4.2876816082015293e-07   3.8271431352318495e-06
-4.189193386282907e-06   4.2876816082015293e-07   3.8271431352318495e-06
-4.189193386282907e-06   4.2876816082015293e-07   3.8271431352318495e-06
-1.3942755335518128e-05   -6.3927159542596595e-06   2.4175970186338393e-05
-1.3942755335518128e-05   -6.3927159542596595e-06   2.4175970186338393e-05
-1.3942755335518128e-05   -6.3927159542596595e-06   2.4175970186338393e-05
-1.3942755335518128e-05   -6.3927159542596595e-06   2.4175970186338393e-05
-9.280618207891086e-06   -3.1783733907930458e-06   1.4477136102213354e-05
-9.280618207891086e-06   -3.1783733907930458e-06   1.4477136102213354e-05
-9.280618207891086e-06   -3.1783733907930458e-06   1.4477136102213354e-05
-9.280618207891086e-06   -3.1783733907930458e-06   1.4477136102213354e-05
-1.3942755335518102e-05   4.2876816082014684e-07   7.920033604279724e-06
-1.3942755335518102e-05   4.2876816082014684e-07   7.920033604279724e-06
-1.3942755335518102e-05   4.2876816082014684e-07   7.920033604279724e-06
-1.3942755335518102e-05   4.2876816082014684e-07   7.920033604279724e-06
-4.189193386282916e-06   -6.3927159542596595e-06   2.0083079717290512e-05
-4.189193386282916e-06   -6.3927159542596595e-06   2.0083079717290512e-05
-4.189193386282916e-06   -6.3927159542596595e-06   2.0083079717290512e-05
-4.189193386282916e-06   -6.3927159542596595e-06   2.0083079717290512e-05
-4.304223807377621e-06   2.9374686424092243e-07   4.20923436761279e-06
-4.304223807377621e-06   2.9374686424092243e-07   4.20923436761279e-06
-4.304223807377621e-06   2.9374686424092243e-07   4.20923436761279e-06
-4.304223807377621e-06   2.9374686424092243e-07   4.20923436761279e-06
-1.3159851789769792e-05   -5.581818500662662e-06   2.2493953557208525e-05
-1.3159851789769792e-05   -5.581818500662662e-06   2.2493953557208525e-05
-1.3159851789769792e-05   -5.581818500662662e-06   2.2493953557208525e-05
-1.3159851789769792e-05   -5.581818500662662e-06   2.2493953557208525e-05
-9.019008200468294e-06   -3.021301215190706e-06   1.4056237203756207e-05
-9.019008200468294e-06   -3.021301215190706e-06   1.4056237203756207e-05
-9.019008200468294e-06   -3.021301215190706e-06   1.4056237203756207e-05
-9.019008200468294e-06   -3.021301215190706e-06   1.4056237203756207e-05
-1.315985178976977e-05   2.937468642409278e-07   7.734573586554939e-06
-1.315985178976977e-05   2.937468642409278e-07   7.734573586554939e-06
-1.315985178976977e-05   2.937468642409278e-07   7.734573586554939e-06
-1.315985178976977e-05   2.937468642409278e-07   7.734573586554939e-06
-4.3042238073776275e-06   -5.581818500662662e-06   1.896861433826637e-05
-4.3042238073776275e-06   -5.581818500662662e-06   1.896861433826637e-05
-4.3042238073776275e-06   -5.581818500662662e-06   1.896861433826637e-05
-4.3042238073776275e-06   -5.581818500662662e-06   1.896861433826637e-05
-4.75623174359066e-06   -2.886790137242973e-07   5.251964431849863e-06
-4.75623174359066e-06   -2.886790137242973e-07   5.251964431849863e-06
-4.75623174359066e-06   -2.886790137242973e-07   5.251964431849863e-06
-4.75623174359066e-06   -2.886790137242973e-07   5.251964431849863e-06
-1.2149500076968039e-05   -4.4967870582402475e-06   2.009894314752171e-05
-1.2149500076968039e-05   -4.4967870582402475e-06   2.009894314752171e-05
-1.2149500076968039e-05   -4.4967870582402475e-06   2.009894314752171e-05
-1.2149500076968039e-05   -4.4967870582402475e-06   2.009894314752171e-05
-8.696274829325367e-06   -2.793437418537147e-06   1.3321557950962078e-05
-8.696274829325367e-06   -2.793437418537147e-06   1.3321557950962078e-05
-8.696274829325367e-06   -2.793437418537147e-06   1.3321557950962078e-05
-8.696274829325367e-06   -2.793437418537147e-06   1.3321557950962078e-05
-3.534475803857399e-06   -1.4307228310090053e-06   4.1119424853826e-06
-3.534475803857399e-06   -1.4307228310090053e-06   4.1119424853826e-06
-3.534475803857399e-06   -1.4307228310090053e-06   4.1119424853826e-06
-3.534475803857399e-06   -1.4307228310090053e-06   4.1119424853826e-06
-1.2138346301314364e-06   -2.6861574659785e-06   7.226416993944174e-06
-1.2138346301314364e-06   -2.6861574659785e-06   7.226416993944174e-06
-1.2138346301314364e-06   -2.6861574659785e-06   7.226416993944174e-06
-1.2138346301314364e-06   -2.6861574659785e-06   7.226416993944174e-06
-1.379859339813482e-06   -1.1841354378254996e-06   3.5615199004718104e-06
-1.379859339813482e-06   -1.1841354378254996e-06   3.5615199004718104e-06
-1.379859339813482e-06   -1.1841354378254996e-06   3.5615199004718104e-06
-1.379859339813482e-06   -1.1841354378254996e-06   3.5615199004718104e-06
-4.189193386282917e-06   -3.488438152330235e-06   9.626324939957017e-06
-4.189193386282917e-06   -3.488438152330235e-06   9.626324939957017e-06
-4.189193386282917e-06   -3.488438152330235e-06   9.626324939957017e-06
-4.189193386282917e-06   -3.488438152330235e-06   9.626324939957017e-06
-2.444487637036602e-06   -1.8013366629508252e-06   5.706221130918829e-06
-2.444487637036602e-06   -1.8013366629508252e-06   5.706221130918829e-06
-2.444487637036602e-06   -1.8013366629508252e-06   5.706221130918829e-06
-2.444487637036602e-06   -1.8013366629508252e-06   5.706221130918829e-06
-4.189193386282904e-06   -1.1841354378254943e-06   4.944101529174606e-06
-4.189193386282904e-06   -1.1841354378254943e-06   4.944101529174606e-06
-4.189193386282904e-06   -1.1841354378254943e-06   4.944101529174606e-06
-4.189193386282904e-06   -1.1841354378254943e-06   4.944101529174606e-06
-1.379859339813482e-06   -3.488438152330235e-06   8.24374331125417e-06
-1.379859339813482e-06   -3.488438152330235e-06   8.24374331125417e-06
-1.379859339813482e-06   -3.488438152330235e-06   8.24374331125417e-06
-1.379859339813482e-06   -3.488438152330235e-06   8.24374331125417e-06
-1.5239350479901253e-06   -1.2067554513655145e-06   4.007536751905608e-06
-1.5239350479901253e-06   -1.2067554513655145e-06   4.007536751905608e-06
-1.5239350479901253e-06   -1.2067554513655145e-06   4.007536751905608e-06
-1.5239350479901253e-06   -1.2067554513655145e-06   4.007536751905608e-06
-4.304223807377628e-06   -3.23086653814276e-06   9.85581800295108e-06
-4.304223807377628e-06   -3.23086653814276e-06   9.85581800295108e-06
-4.304223807377628e-06   -3.23086653814276e-06   9.85581800295108e-06
-4.304223807377628e-06   -3.23086653814276e-06   9.85581800295108e-06
-2.783339653432025e-06   -2.179317658165479e-06   6.69008175172209e-06
-2.783339653432025e-06   -2.179317658165479e-06   6.69008175172209e-06
-2.783339653432025e-06   -2.179317658165479e-06   6.69008175172209e-06
-2.783339653432025e-06   -2.179317658165479e-06   6.69008175172209e-06
-4.3042238073776275e-06   -1.2067554513655207e-06   5.2220034039719406e-06
-4.3042238073776275e-06   -1.2067554513655207e-06   5.2220034039719406e-06
-4.3042238073776275e-06   -1.2067554513655207e-06   5.2220034039719406e-06
-4.3042238073776275e-06   -1.2067554513655207e-06   5.2220034039719406e-06
-1.5239350479901253e-06   -3.23086653814276e-06   8.641351350884738e-06
-1.5239350479901253e-06   -3.23086653814276e-06   8.641351350884738e-06
-1.5239350479901253e-06   -3.23086653814276e-06   8.641351350884738e-06
-1.5239350479901253e-06   -3.23086653814276e-06   8.641351350884738e-06
-1.7622938194525271e-06   -1.2058723942348545e-06   4.4048992471465345e-06
-1.7622938194525271e-06   -1.2058723942348545e-06   4.4048992471465345e-06
-1.7622938194525271e-06   -1.2058723942348545e-06   4.4048992471465345e-06
-1.7622938194525271e-06   -1.2058723942348545e-06   4.4048992471465345e-06
-4.756231743590654e-06   -3.0641159858793658e-06   1.0509741942363427e-05
-4.756231743590654e-06   -3.0641159858793658e-06   1.0509741942363427e-05
-4.756231743590654e-06   -3.0641159858793658e-06   1.0509741942363427e-05
-4.756231743590654e-06   -3.0641159858793658e-06   1.0509741942363427e-05
-2.9949582958829532e-06   -1.9936243799661185e-06   6.931991232635996e-06
-2.9949582958829532e-06   -1.9936243799661185e-06   6.931991232635996e-06
-2.9949582958829532e-06   -1.9936243799661185e-06   6.931991232635996e-06
-2.9949582958829532e-06   -1.9936243799661185e-06   6.931991232635996e-06
-1.2138346301314364e-06   -1.11906032402018e-06   2.293429335906555e-06
-1.2138346301314364e-06   -1.11906032402018e-06   2.293429335906555e-06
-1.2138346301314364e-06   -1.11906032402018e-06   2.293429335906555e-06
-1.2138346301314364e-06   -1.11906032402018e-06   2.293429335906555e-06
-6.879752008910302e-07   -8.491736153765256e-07   3.331793743160106e-06
-6.879752008910302e-07   -8.491736153765256e-07   3.331793743160106e-06
-6.879752008910302e-07   -8.491736153765256e-07   3.331793743160106e-06
-6.879752008910302e-07   -8.491736153765256e-07   3.331793743160106e-06
-6.736907637116098e-07   -1.0991064186030125e-06   2.5282412028801383e-06
-6.736907637116098e-07   -1.0991064186030125e-06   2.5282412028801383e-06
-6.736907637116098e-07   -1.0991064186030125e-06   2.5282412028801383e-06
-6.736907637116098e-07   -1.0991064186030125e-06   2.5282412028801383e-06
-1.3798593398134846e-06   -1.0791159599632293e-06   3.693194554532688e-06
-1.3798593398134846e-06   -1.0791159599632293e-06   3.693194554532688e-06
-1.3798593398134846e-06   -1.0791159599632293e-06   3.693194554532688e-06
-1.3798593398134846e-06   -1.0791159599632293e-06   3.693194554532688e-06
-9.250889434070456e-07   -9.65278353040536e-07   2.8669413297016286e-06
-9.250889434070456e-07   -9.65278353040536e-07   2.8669413297016286e-06
-9.250889434070456e-07   -9.65278353040536e-07   2.8669413297016286e-06
-9.250889434070456e-07   -9.65278353040536e-07   2.8669413297016286e-06
-1.379859339813482e-06   -1.0991064186029945e-06   2.5162469276962884e-06
-1.379859339813482e-06   -1.0991064186029945e-06   2.5162469276962884e-06
-1.379859339813482e-06   -1.0991064186029945e-06   2.5162469276962884e-06
-1.379859339813482e-06   -1.0991064186029945e-06   2.5162469276962884e-06
-6.736907637116098e-07   -1.0791159599632276e-06   3.7051888297165583e-06
-6.736907637116098e-07   -1.0791159599632276e-06   3.7051888297165583e-06
-6.736907637116098e-07   -1.0791159599632276e-06   3.7051888297165583e-06
-6.736907637116098e-07   -1.0791159599632276e-06   3.7051888297165583e-06
-6.876296156108704e-07   -1.1302222599478436e-06   2.7115348802264226e-06
-6.876296156108704e-07   -1.1302222599478436e-06   2.7115348802264226e-06
-6.876296156108704e-07   -1.1302222599478436e-06   2.7115348802264226e-06
-6.876296156108704e-07   -1.1302222599478436e-06   2.7115348802264226e-06
-1.5239350479901228e-06   -1.346709623180667e-06   4.235269685464853e-06
-1.5239350479901228e-06   -1.346709623180667e-06   4.235269685464853e-06
-1.5239350479901228e-06   -1.346709623180667e-06   4.235269685464853e-06
-1.5239350479901228e-06   -1.346709623180667e-06   4.235269685464853e-06
-9.96770858296886e-07   -1.0546288772094294e-06   3.18141425506006e-06
-9.96770858296886e-07   -1.0546288772094294e-06   3.18141425506006e-06
-9.96770858296886e-07   -1.0546288772094294e-06   3.18141425506006e-06
-9.96770858296886e-07   -1.0546288772094294e-06   3.18141425506006e-06
-1.5239350479901185e-06   -1.1302222599478408e-06   2.841427298166104e-06
-1.5239350479901185e-06   -1.1302222599478408e-06   2.841427298166104e-06
-1.5239350479901185e-06   -1.1302222599478408e-06   2.841427298166104e-06
-1.5239350479901185e-06   -1.1302222599478408e-06   2.841427298166104e-06
-6.876296156108704e-07   -1.346709623180667e-06   4.1053772675251515e-06
-6.876296156108704e-07   -1.346709623180667e-06   4.1053772675251515e-06
-6.876296156108704e-07   -1.346709623180667e-06   4.1053772675251515e-06
-6.876296156108704e-07   -1.346709623180667e-06   4.1053772675251515e-06
-7.211971447890415e-07   -1.1703060627047524e-06   2.990771628295924e-06
-7.211971447890415e-07   -1.1703060627047524e-06   2.990771628295924e-06
-7.211971447890415e-07   -1.1703060627047524e-06   2.990771628295924e-06
-7.211971447890415e-07   -1.1703060627047524e-06   2.990771628295924e-06
-1.7622938194525254e-06   -1.5990921544776256e-06   4.983204407798755e-06
-1.7622938194525254e-06   -1.5990921544776256e-06   4.983204407798755e-06
-1.7622938194525254e-06   -1.5990921544776256e-06   4.983204407798755e-06
-1.7622938194525254e-06   -1.5990921544776256e-06   4.983204407798755e-06
-1.0814895318716892e-06   -1.1399121209900492e-06   3.5730225750714927e-06
-1.0814895318716892e-06   -1.1399121209900492e-06   3.5730225750714927e-06
-1.0814895318716892e-06   -1.1399121209900492e-06   3.5730225750714927e-06
-1.0814895318716892e-06   -1.1399121209900492e-06   3.5730225750714927e-06
-6.879752008910302e-07   -4.638069183730578e-07   7.624617365287358e-07
-6.879752008910302e-07   -4.638069183730578e-07   7.624617365287358e-07
-6.879752008910302e-07   -4.638069183730578e-07   7.624617365287358e-07
-6.879752008910302e-07   -4.638069183730578e-07   7.624617365287358e-07
-5.35209406162909e-07   3.340904886399581e-08   1.3154009747511476e-06
-5.35209406162909e-07   3.340904886399581e-08   1.3154009747511476e-06
-5.35209406162909e-07   3.340904886399581e-08   1.3154009747511476e-06
-5.35209406162909e-07   3.340904886399581e-08   1.3154009747511476e-06
-4.437462037322503e-07   -5.386069407950137e-07   1.1207304875447644e-06
-4.437462037322503e-07   -5.386069407950137e-07   1.1207304875447644e-06
-4.437462037322503e-07   -5.386069407950137e-07   1.1207304875447644e-06
-4.437462037322503e-07   -5.386069407950137e-07   1.1207304875447644e-06
-6.736907637116151e-07   -5.7796108880746094e-08   1.2154849216951187e-06
-6.736907637116151e-07   -5.7796108880746094e-08   1.2154849216951187e-06
-6.736907637116151e-07   -5.7796108880746094e-08   1.2154849216951187e-06
-6.736907637116151e-07   -5.7796108880746094e-08   1.2154849216951187e-06
-5.481162257731273e-07   -2.5193984967766543e-07   1.1226802696090834e-06
-5.481162257731273e-07   -2.5193984967766543e-07   1.1226802696090834e-06
-5.481162257731273e-07   -2.5193984967766543e-07   1.1226802696090834e-06
-5.481162257731273e-07   -2.5193984967766543e-07   1.1226802696090834e-06
-6.736907637116098e-07   -5.386069407950127e-07   8.322439883962202e-07
-6.736907637116098e-07   -5.386069407950127e-07   8.322439883962202e-07
-6.736907637116098e-07   -5.386069407950127e-07   8.322439883962202e-07
-6.736907637116098e-07   -5.386069407950127e-07   8.322439883962202e-07
-4.437462037322503e-07   -5.7796108880746094e-08   1.5039714208436698e-06
-4.437462037322503e-07   -5.7796108880746094e-08   1.5039714208436698e-06
-4.437462037322503e-07   -5.7796108880746094e-08   1.5039714208436698e-06
-4.437462037322503e-07   -5.7796108880746094e-08   1.5039714208436698e-06
-3.9814681223915597e-07   -5.967339569001721e-07   1.2323140013564013e-06
-3.9814681223915597e-07   -5.967339569001721e-07   1.2323140013564013e-06
-3.9814681223915597e-07   -5.967339569001721e-07   1.2323140013564013e-06
-3.9814681223915597e-07   -5.967339569001721e-07   1.2323140013564013e-06
-6.876296156108729e-07   -1.9208235537794343e-07   1.4719943793958817e-06
-6.876296156108729e-07   -1.9208235537794343e-07   1.4719943793958817e-06
-6.876296156108729e-07   -1.9208235537794343e-07   1.4719943793958817e-06
-6.876296156108729e-07   -1.9208235537794343e-07   1.4719943793958817e-06
-5.06749556149929e-07   -3.153044153403808e-07   1.2444608496051308e-06
-5.06749556149929e-07   -3.153044153403808e-07   1.2444608496051308e-06
-5.06749556149929e-07   -3.153044153403808e-07   1.2444608496051308e-06
-5.06749556149929e-07   -3.153044153403808e-07   1.2444608496051308e-06
-6.876296156108704e-07   -5.967339569001839e-07   9.89523040443056e-07
-6.876296156108704e-07   -5.967339569001839e-07   9.89523040443056e-07
-6.876296156108704e-07   -5.967339569001839e-07   9.89523040443056e-07
-6.876296156108704e-07   -5.967339569001839e-07   9.89523040443056e-07
-3.9814681223915597e-07   -1.9208235537794343e-07   1.7147853403092406e-06
-3.9814681223915597e-07   -1.9208235537794343e-07   1.7147853403092406e-06
-3.9814681223915597e-07   -1.9208235537794343e-07   1.7147853403092406e-06
-3.9814681223915597e-07   -1.9208235537794343e-07   1.7147853403092406e-06
-3.288647760329018e-07   -6.718835392767155e-07   1.3621216980019412e-06
-3.288647760329018e-07   -6.718835392767155e-07   1.3621216980019412e-06
-3.288647760329018e-07   -6.718835392767155e-07   1.3621216980019412e-06
-3.288647760329018e-07   -6.718835392767155e-07   1.3621216980019412e-06
-7.211971447890348e-07   -4.549958606373344e-07   1.885876372078544e-06
-7.211971447890348e-07   -4.549958606373344e-07   1.885876372078544e-06
-7.211971447890348e-07   -4.549958606373344e-07   1.885876372078544e-06
-7.211971447890348e-07   -4.549958606373344e-07   1.885876372078544e-06
-4.782018406122607e-07   -4.072691868160918e-07   1.4522481941578382e-06
-4.782018406122607e-07   -4.072691868160918e-07   1.4522481941578382e-06
-4.782018406122607e-07   -4.072691868160918e-07   1.4522481941578382e-06
-4.782018406122607e-07   -4.072691868160918e-07   1.4522481941578382e-06
-5.35209406162909e-07   -4.4421267314474223e-08   -7.96772860613605e-07
-5.35209406162909e-07   -4.4421267314474223e-08   -7.96772860613605e-07
-5.35209406162909e-07   -4.4421267314474223e-08   -7.96772860613605e-07
-5.35209406162909e-07   -4.4421267314474223e-08   -7.96772860613605e-07
-1.2526077273705238e-07   6.629836674478581e-08   -4.7093357801613646e-08
-1.2526077273705238e-07   6.629836674478581e-08   -4.7093357801613646e-08
-1.2526077273705238e-07   6.629836674478581e-08   -4.7093357801613646e-08
-1.2526077273705238e-07   6.629836674478581e-08   -4.7093357801613646e-08
-3.63929207016151e-08   -6.506595117126187e-08   -6.061896575317049e-07
-3.63929207016151e-08   -6.506595117126187e-08   -6.061896575317049e-07
-3.63929207016151e-08   -6.506595117126187e-08   -6.061896575317049e-07
-3.63929207016151e-08   -6.506595117126187e-08   -6.061896575317049e-07
-4.43746203732248e-07   1.1061374574812961e-07   -3.267533729895723e-08
-4.43746203732248e-07   1.1061374574812961e-07   -3.267533729895723e-08
-4.43746203732248e-07   1.1061374574812961e-07   -3.267533729895723e-08
-4.43746203732248e-07   1.1061374574812961e-07   -3.267533729895723e-08
-2.6048582261680453e-07   3.3755335504664636e-08   -2.919942596786855e-07
-2.6048582261680453e-07   3.3755335504664636e-08   -2.919942596786855e-07
-2.6048582261680453e-07   3.3755335504664636e-08   -2.919942596786855e-07
-2.6048582261680453e-07   3.3755335504664636e-08   -2.919942596786855e-07
-4.437462037322503e-07   -6.506595117126374e-08   -7.115974756833628e-07
-4.437462037322503e-07   -6.506595117126374e-08   -7.115974756833628e-07
-4.437462037322503e-07   -6.506595117126374e-08   -7.115974756833628e-07
-4.437462037322503e-07   -6.506595117126374e-08   -7.115974756833628e-07
-3.63929207016151e-08   1.1061374574812961e-07   7.273248085268714e-08
-3.63929207016151e-08   1.1061374574812961e-07   7.273248085268714e-08
-3.63929207016151e-08   1.1061374574812961e-07   7.273248085268714e-08
-3.63929207016151e-08   1.1061374574812961e-07   7.273248085268714e-08
5.352433925844826e-09   -9.197316192425067e-08   -5.18805818381583e-07
5.352433925844826e-09   -9.197316192425067e-08   -5.18805818381583e-07
5.352433925844826e-09   -9.197316192425067e-08   -5.18805818381583e-07
5.352433925844826e-09   -9.197316192425067e-08   -5.18805818381583e-07
-3.9814681223915237e-07   8.33896803471833e-08   4.847521986383685e-08
-3.9814681223915237e-07   8.33896803471833e-08   4.847521986383685e-08
-3.9814681223915237e-07   8.33896803471833e-08   4.847521986383685e-08
-3.9814681223915237e-07   8.33896803471833e-08   4.847521986383685e-08
-1.9723052163950406e-07   2.1122482138044053e-08   -2.4902494554328845e-07
-1.9723052163950406e-07   2.1122482138044053e-08   -2.4902494554328845e-07
-1.9723052163950406e-07   2.1122482138044053e-08   -2.4902494554328845e-07
-1.9723052163950406e-07   2.1122482138044053e-08   -2.4902494554328845e-07
-3.9814681223915597e-07   -9.197316192424364e-08   -6.240235237444549e-07
-3.9814681223915597e-07   -9.197316192424364e-08   -6.240235237444549e-07
-3.9814681223915597e-07   -9.197316192424364e-08   -6.240235237444549e-07
-3.9814681223915597e-07   -9.197316192424364e-08   -6.240235237444549e-07
5.352433925871931e-09   8.33896803471833e-08   1.5369292522668843e-07
5.352433925871931e-09   8.33896803471833e-08   1.5369292522668843e-07
5.352433925871931e-09   8.33896803471833e-08   1.5369292522668843e-07
5.352433925871931e-09   8.33896803471833e-08   1.5369292522668843e-07
5.4131261280473617e-08   -1.2815401149158493e-07   -3.8449180779652936e-07
5.4131261280473617e-08   -1.2815401149158493e-07   -3.8449180779652936e-07
5.4131261280473617e-08   -1.2815401149158493e-07   -3.8449180779652936e-07
5.4131261280473617e-08   -1.2815401149158493e-07   -3.8449180779652936e-07
-3.2886477603289014e-07   4.9854476182085585e-08   1.4702982845476672e-07
-3.2886477603289014e-07   4.9854476182085585e-08   1.4702982845476672e-07
-3.2886477603289014e-07   4.9854476182085585e-08   1.4702982845476672e-07
-3.2886477603289014e-07   4.9854476182085585e-08   1.4702982845476672e-07
-1.4108674226034337e-07   3.6544176401474707e-09   -1.382135260410912e-07
-1.4108674226034337e-07   3.6544176401474707e-09   -1.382135260410912e-07
-1.4108674226034337e-07   3.6544176401474707e-09   -1.382135260410912e-07
-1.4108674226034337e-07   3.6544176401474707e-09   -1.382135260410912e-07
              </DataArray>   
             <DataArray type="Float64" NumberOfComponents="3" Name="Stress" format="ascii">   
-0.8027376327462447   -0.20068440818656116   -0.20068440818656116
-0.8027376327462447   -0.20068440818656116   -0.20068440818656116
-0.8027376327462447   -0.20068440818656116   -0.20068440818656116
-0.8027376327462447   -0.20068440818656116   -0.20068440818656116
-0.46418926130066634   -0.015439539082824694   -0.009594233512565088
-0.46418926130066634   -0.015439539082824694   -0.009594233512565088
-0.46418926130066634   -0.015439539082824694   -0.009594233512565088
-0.46418926130066634   -0.015439539082824694   -0.009594233512565088
-0.49970264116333085   -0.12492566029083271   -0.12492566029083271
-0.49970264116333085   -0.12492566029083271   -0.12492566029083271
-0.49970264116333085   -0.12492566029083271   -0.12492566029083271
-0.49970264116333085   -0.12492566029083271   -0.12492566029083271
-0.7733924641822846   -0.06408951856250802   -0.024691094031182532
-0.7733924641822846   -0.06408951856250802   -0.024691094031182532
-0.7733924641822846   -0.06408951856250802   -0.024691094031182532
-0.7733924641822846   -0.06408951856250802   -0.024691094031182532
-0.6063923473967323   -0.09975667534751116   -0.0017144453396104788
-0.6063923473967323   -0.09975667534751116   -0.0017144453396104788
-0.6063923473967323   -0.09975667534751116   -0.0017144453396104788
-0.6063923473967323   -0.09975667534751116   -0.0017144453396104788
-0.8395959351817196   -0.2098989837954299   -0.2098989837954299
-0.8395959351817196   -0.2098989837954299   -0.2098989837954299
-0.8395959351817196   -0.2098989837954299   -0.2098989837954299
-0.8395959351817196   -0.2098989837954299   -0.2098989837954299
-0.44925878218933724   0.0051241929166488814   -0.002756218628346227
-0.44925878218933724   0.0051241929166488814   -0.002756218628346227
-0.44925878218933724   0.0051241929166488814   -0.002756218628346227
-0.44925878218933724   0.0051241929166488814   -0.002756218628346227
-0.5006685636250279   -0.12516714090625697   -0.12516714090625697
-0.5006685636250279   -0.12516714090625697   -0.12516714090625697
-0.5006685636250279   -0.12516714090625697   -0.12516714090625697
-0.5006685636250279   -0.12516714090625697   -0.12516714090625697
-0.7988868142635348   -0.06456500849606057   -0.036119696193247286
-0.7988868142635348   -0.06456500849606057   -0.036119696193247286
-0.7988868142635348   -0.06456500849606057   -0.036119696193247286
-0.7988868142635348   -0.06456500849606057   -0.036119696193247286
-0.6285337517150585   -0.09376245290045815   -0.03331118335965743
-0.6285337517150585   -0.09376245290045815   -0.03331118335965743
-0.6285337517150585   -0.09376245290045815   -0.03331118335965743
-0.6285337517150585   -0.09376245290045815   -0.03331118335965743
-0.8652776370285273   -0.21631940925713183   -0.21631940925713183
-0.8652776370285273   -0.21631940925713183   -0.21631940925713183
-0.8652776370285273   -0.21631940925713183   -0.21631940925713183
-0.8652776370285273   -0.21631940925713183   -0.21631940925713183
-0.4475395728799821   0.013325427834868009   0.001985244077843
-0.4475395728799821   0.013325427834868009   0.001985244077843
-0.4475395728799821   0.013325427834868009   0.001985244077843
-0.4475395728799821   0.013325427834868009   0.001985244077843
-0.4999056473572319   -0.12497641183930798   -0.12497641183930798
-0.4999056473572319   -0.12497641183930798   -0.12497641183930798
-0.4999056473572319   -0.12497641183930798   -0.12497641183930798
-0.4999056473572319   -0.12497641183930798   -0.12497641183930798
-0.8445818922511721   -0.05631019229918707   -0.02190553518447396
-0.8445818922511721   -0.05631019229918707   -0.02190553518447396
-0.8445818922511721   -0.05631019229918707   -0.02190553518447396
-0.8445818922511721   -0.05631019229918707   -0.02190553518447396
-0.6447890100186863   -0.09216801512440348   -0.060114645101075004
-0.6447890100186863   -0.09216801512440348   -0.060114645101075004
-0.6447890100186863   -0.09216801512440348   -0.060114645101075004
-0.6447890100186863   -0.09216801512440348   -0.060114645101075004
-0.5102027853128769   -0.12755069632821922   -0.12755069632821922
-0.5102027853128769   -0.12755069632821922   -0.12755069632821922
-0.5102027853128769   -0.12755069632821922   -0.12755069632821922
-0.5102027853128769   -0.12755069632821922   -0.12755069632821922
-0.2134583659518272   -0.014685457238727155   -0.00472834799467599
-0.2134583659518272   -0.014685457238727155   -0.00472834799467599
-0.2134583659518272   -0.014685457238727155   -0.00472834799467599
-0.2134583659518272   -0.014685457238727155   -0.00472834799467599
-0.22353108486147336   -0.05588277121536834   -0.05588277121536834
-0.22353108486147336   -0.05588277121536834   -0.05588277121536834
-0.22353108486147336   -0.05588277121536834   -0.05588277121536834
-0.22353108486147336   -0.05588277121536834   -0.05588277121536834
-0.46420637289510164   -0.054883526021360325   -0.017486453219159107
-0.46420637289510164   -0.054883526021360325   -0.017486453219159107
-0.46420637289510164   -0.054883526021360325   -0.017486453219159107
-0.46420637289510164   -0.054883526021360325   -0.017486453219159107
-0.34267573855044636   -0.06508085151790494   0.0026033666579591257
-0.34267573855044636   -0.06508085151790494   0.0026033666579591257
-0.34267573855044636   -0.06508085151790494   0.0026033666579591257
-0.34267573855044636   -0.06508085151790494   0.0026033666579591257
-0.4997026411633304   -0.1249256602908326   -0.1249256602908326
-0.4997026411633304   -0.1249256602908326   -0.1249256602908326
-0.4997026411633304   -0.1249256602908326   -0.1249256602908326
-0.4997026411633304   -0.1249256602908326   -0.1249256602908326
-0.20098860457693765   0.0012055750704104626   -0.00025871607846870634
-0.20098860457693765   0.0012055750704104626   -0.00025871607846870634
-0.20098860457693765   0.0012055750704104626   -0.00025871607846870634
-0.20098860457693765   0.0012055750704104626   -0.00025871607846870634
-0.2181094562739669   -0.05452736406849173   -0.05452736406849173
-0.2181094562739669   -0.05452736406849173   -0.05452736406849173
-0.2181094562739669   -0.05452736406849173   -0.05452736406849173
-0.2181094562739669   -0.05452736406849173   -0.05452736406849173
-0.46260922623873635   -0.044655374049583724   -0.015382220831472594
-0.46260922623873635   -0.044655374049583724   -0.015382220831472594
-0.46260922623873635   -0.044655374049583724   -0.015382220831472594
-0.46260922623873635   -0.044655374049583724   -0.015382220831472594
-0.3374748649526482   -0.05469999903314379   -0.017597106496177073
-0.3374748649526482   -0.05469999903314379   -0.017597106496177073
-0.3374748649526482   -0.05469999903314379   -0.017597106496177073
-0.3374748649526482   -0.05469999903314379   -0.017597106496177073
-0.5006685636250279   -0.12516714090625697   -0.12516714090625697
-0.5006685636250279   -0.12516714090625697   -0.12516714090625697
-0.5006685636250279   -0.12516714090625697   -0.12516714090625697
-0.5006685636250279   -0.12516714090625697   -0.12516714090625697
-0.1925974795922575   0.0134370420835997   0.005068113187965646
-0.1925974795922575   0.0134370420835997   0.005068113187965646
-0.1925974795922575   0.0134370420835997   0.005068113187965646
-0.1925974795922575   0.0134370420835997   0.005068113187965646
-0.21309940358334598   -0.053274850895836494   -0.053274850895836494
-0.21309940358334598   -0.053274850895836494   -0.053274850895836494
-0.21309940358334598   -0.053274850895836494   -0.053274850895836494
-0.21309940358334598   -0.053274850895836494   -0.053274850895836494
-0.4587387746533816   -0.03433231526296654   -0.009786144896403816
-0.4587387746533816   -0.03433231526296654   -0.009786144896403816
-0.4587387746533816   -0.03433231526296654   -0.009786144896403816
-0.4587387746533816   -0.03433231526296654   -0.009786144896403816
-0.3386802279213728   -0.04828315403040251   -0.039140059357620834
-0.3386802279213728   -0.04828315403040251   -0.039140059357620834
-0.3386802279213728   -0.04828315403040251   -0.039140059357620834
-0.3386802279213728   -0.04828315403040251   -0.039140059357620834
-0.23286178322794107   -0.05821544580698527   -0.05821544580698527
-0.23286178322794107   -0.05821544580698527   -0.05821544580698527
-0.23286178322794107   -0.05821544580698527   -0.05821544580698527
-0.23286178322794107   -0.05821544580698527   -0.05821544580698527
0.026259066145671087   0.0014853498081695646   0.00023481494053461337
0.026259066145671087   0.0014853498081695646   0.00023481494053461337
0.026259066145671087   0.0014853498081695646   0.00023481494053461337
0.026259066145671087   0.0014853498081695646   0.00023481494053461337
0.034955757757537696   0.008738939439384424   0.008738939439384424
0.034955757757537696   0.008738939439384424   0.008738939439384424
0.034955757757537696   0.008738939439384424   0.008738939439384424
0.034955757757537696   0.008738939439384424   0.008738939439384424
-0.21011564869576138   -0.03630470708871634   -0.008383654513460567
-0.21011564869576138   -0.03630470708871634   -0.008383654513460567
-0.21011564869576138   -0.03630470708871634   -0.008383654513460567
-0.21011564869576138   -0.03630470708871634   -0.008383654513460567
-0.09064256805503235   -0.0229650944520731   0.01504081148531789
-0.09064256805503235   -0.0229650944520731   0.01504081148531789
-0.09064256805503235   -0.0229650944520731   0.01504081148531789
-0.09064256805503235   -0.0229650944520731   0.01504081148531789
-0.22353108486147372   -0.05588277121536843   -0.05588277121536843
-0.22353108486147372   -0.05588277121536843   -0.05588277121536843
-0.22353108486147372   -0.05588277121536843   -0.05588277121536843
-0.22353108486147372   -0.05588277121536843   -0.05588277121536843
0.0356443880646126   0.015590197707399327   0.005330832706743758
0.0356443880646126   0.015590197707399327   0.005330832706743758
0.0356443880646126   0.015590197707399327   0.005330832706743758
0.0356443880646126   0.015590197707399327   0.005330832706743758
0.03987722418140057   0.009969306045350143   0.009969306045350143
0.03987722418140057   0.009969306045350143   0.009969306045350143
0.03987722418140057   0.009969306045350143   0.009969306045350143
0.03987722418140057   0.009969306045350143   0.009969306045350143
-0.20228129125071823   -0.02429627882786235   -0.005617624192879371
-0.20228129125071823   -0.02429627882786235   -0.005617624192879371
-0.20228129125071823   -0.02429627882786235   -0.005617624192879371
-0.20228129125071823   -0.02429627882786235   -0.005617624192879371
-0.08652617444350968   -0.014132120199895777   -0.005277565487488907
-0.08652617444350968   -0.014132120199895777   -0.005277565487488907
-0.08652617444350968   -0.014132120199895777   -0.005277565487488907
-0.08652617444350968   -0.014132120199895777   -0.005277565487488907
-0.2181094562739673   -0.054527364068491825   -0.054527364068491825
-0.2181094562739673   -0.054527364068491825   -0.054527364068491825
-0.2181094562739673   -0.054527364068491825   -0.054527364068491825
-0.2181094562739673   -0.054527364068491825   -0.054527364068491825
0.04323575659799955   0.02773075867933006   0.009000515494364878
0.04323575659799955   0.02773075867933006   0.009000515494364878
0.04323575659799955   0.02773075867933006   0.009000515494364878
0.04323575659799955   0.02773075867933006   0.009000515494364878
0.04635191552725188   0.01158797888181297   0.01158797888181297
0.04635191552725188   0.01158797888181297   0.01158797888181297
0.04635191552725188   0.01158797888181297   0.01158797888181297
0.04635191552725188   0.01158797888181297   0.01158797888181297
-0.19376240013174403   -0.01001033766417711   0.0001456531305129849
-0.19376240013174403   -0.01001033766417711   0.0001456531305129849
-0.19376240013174403   -0.01001033766417711   0.0001456531305129849
-0.19376240013174403   -0.01001033766417711   0.0001456531305129849
-0.08349690749546167   -0.00561620337277537   -0.025413867424424134
-0.08349690749546167   -0.00561620337277537   -0.025413867424424134
-0.08349690749546167   -0.00561620337277537   -0.025413867424424134
-0.08349690749546167   -0.00561620337277537   -0.025413867424424134
0.028794481328811447   0.007198620332202862   0.007198620332202862
0.028794481328811447   0.007198620332202862   0.007198620332202862
0.028794481328811447   0.007198620332202862   0.007198620332202862
0.028794481328811447   0.007198620332202862   0.007198620332202862
0.28902439427753673   0.026574984327342316   0.00916692465855375
0.28902439427753673   0.026574984327342316   0.00916692465855375
0.28902439427753673   0.026574984327342316   0.00916692465855375
0.28902439427753673   0.026574984327342316   0.00916692465855375
0.3143046012729073   0.07857615031822683   0.07857615031822683
0.3143046012729073   0.07857615031822683   0.07857615031822683
0.3143046012729073   0.07857615031822683   0.07857615031822683
0.3143046012729073   0.07857615031822683   0.07857615031822683
0.026587163144972385   -0.020307048802349105   -0.004058045381708877
0.026587163144972385   -0.020307048802349105   -0.004058045381708877
0.026587163144972385   -0.020307048802349105   -0.004058045381708877
0.026587163144972385   -0.020307048802349105   -0.004058045381708877
0.1644491403957747   0.02049992932755072   0.02977283679745573
0.1644491403957747   0.02049992932755072   0.02977283679745573
0.1644491403957747   0.02049992932755072   0.02977283679745573
0.1644491403957747   0.02049992932755072   0.02977283679745573
0.034955757757537814   0.008738939439384454   0.008738939439384454
0.034955757757537814   0.008738939439384454   0.008738939439384454
0.034955757757537814   0.008738939439384454   0.008738939439384454
0.034955757757537814   0.008738939439384454   0.008738939439384454
0.29298819390155745   0.03658234931770924   0.013987914461997769
0.29298819390155745   0.03658234931770924   0.013987914461997769
0.29298819390155745   0.03658234931770924   0.013987914461997769
0.29298819390155745   0.03658234931770924   0.013987914461997769
0.3134342845644191   0.07835857114110477   0.07835857114110477
0.3134342845644191   0.07835857114110477   0.07835857114110477
0.3134342845644191   0.07835857114110477   0.07835857114110477
0.3134342845644191   0.07835857114110477   0.07835857114110477
0.03422407913220305   -0.00854653711172458   0.00021942395643699802
0.03422407913220305   -0.00854653711172458   0.00021942395643699802
0.03422407913220305   -0.00854653711172458   0.00021942395643699802
0.03422407913220305   -0.00854653711172458   0.00021942395643699802
0.16372013005875435   0.027085057642198568   0.007637997427170163
0.16372013005875435   0.027085057642198568   0.007637997427170163
0.16372013005875435   0.027085057642198568   0.007637997427170163
0.16372013005875435   0.027085057642198568   0.007637997427170163
0.03987722418140063   0.009969306045350158   0.009969306045350158
0.03987722418140063   0.009969306045350158   0.009969306045350158
0.03987722418140063   0.009969306045350158   0.009969306045350158
0.03987722418140063   0.009969306045350158   0.009969306045350158
0.29496045893097234   0.047022047399781344   0.017325966715196844
0.29496045893097234   0.047022047399781344   0.017325966715196844
0.29496045893097234   0.047022047399781344   0.017325966715196844
0.29496045893097234   0.047022047399781344   0.017325966715196844
0.31996174828742124   0.07999043707185531   0.07999043707185531
0.31996174828742124   0.07999043707185531   0.07999043707185531
0.31996174828742124   0.07999043707185531   0.07999043707185531
0.31996174828742124   0.07999043707185531   0.07999043707185531
0.044115061779931714   0.006967886860116174   0.0050238021669085425
0.044115061779931714   0.006967886860116174   0.0050238021669085425
0.044115061779931714   0.006967886860116174   0.0050238021669085425
0.044115061779931714   0.006967886860116174   0.0050238021669085425
0.16672337272093296   0.03686230514191418   -0.012883129592098645
0.16672337272093296   0.03686230514191418   -0.012883129592098645
0.16672337272093296   0.03686230514191418   -0.012883129592098645
0.16672337272093296   0.03686230514191418   -0.012883129592098645
0.3131955694226206   0.07829889235565515   0.07829889235565515
0.3131955694226206   0.07829889235565515   0.07829889235565515
0.3131955694226206   0.07829889235565515   0.07829889235565515
0.3131955694226206   0.07829889235565515   0.07829889235565515
0.6525179389448862   0.049891079748643485   0.017685201456438607
0.6525179389448862   0.049891079748643485   0.017685201456438607
0.6525179389448862   0.049891079748643485   0.017685201456438607
0.6525179389448862   0.049891079748643485   0.017685201456438607
0.667524538653994   0.1668811346634985   0.1668811346634985
0.667524538653994   0.1668811346634985   0.1668811346634985
0.667524538653994   0.1668811346634985   0.1668811346634985
0.667524538653994   0.1668811346634985   0.1668811346634985
0.27950227527642935   -0.015672361115664238   -0.001186968230269099
0.27950227527642935   -0.015672361115664238   -0.001186968230269099
0.27950227527642935   -0.015672361115664238   -0.001186968230269099
0.27950227527642935   -0.015672361115664238   -0.001186968230269099
0.46497961512836816   0.06597579322996627   0.05230203923949156
0.46497961512836816   0.06597579322996627   0.05230203923949156
0.46497961512836816   0.06597579322996627   0.05230203923949156
0.46497961512836816   0.06597579322996627   0.05230203923949156
0.314304601272907   0.07857615031822675   0.07857615031822675
0.314304601272907   0.07857615031822675   0.07857615031822675
0.314304601272907   0.07857615031822675   0.07857615031822675
0.314304601272907   0.07857615031822675   0.07857615031822675
0.6188276642098849   0.05873807478197561   0.031539822324475664
0.6188276642098849   0.05873807478197561   0.031539822324475664
0.6188276642098849   0.05873807478197561   0.031539822324475664
0.6188276642098849   0.05873807478197561   0.031539822324475664
0.6481509465084386   0.16203773662710966   0.16203773662710966
0.6481509465084386   0.16203773662710966   0.16203773662710966
0.6481509465084386   0.16203773662710966   0.16203773662710966
0.6481509465084386   0.16203773662710966   0.16203773662710966
0.2809293940766144   -0.008389162325232541   0.002581852168420891
0.2809293940766144   -0.008389162325232541   0.002581852168420891
0.2809293940766144   -0.008389162325232541   0.002581852168420891
0.2809293940766144   -0.008389162325232541   0.002581852168420891
0.45172081080664   0.06802844916813108   0.025050622357041717
0.45172081080664   0.06802844916813108   0.025050622357041717
0.45172081080664   0.06802844916813108   0.025050622357041717
0.45172081080664   0.06802844916813108   0.025050622357041717
0.3134342845644191   0.07835857114110477   0.07835857114110477
0.3134342845644191   0.07835857114110477   0.07835857114110477
0.3134342845644191   0.07835857114110477   0.07835857114110477
0.3134342845644191   0.07835857114110477   0.07835857114110477
0.5994254542760328   0.05906940141617155   0.02137861067602306
0.5994254542760328   0.05906940141617155   0.02137861067602306
0.5994254542760328   0.05906940141617155   0.02137861067602306
0.5994254542760328   0.05906940141617155   0.02137861067602306
0.6189765568651623   0.15474413921629057   0.15474413921629057
0.6189765568651623   0.15474413921629057   0.15474413921629057
0.6189765568651623   0.15474413921629057   0.15474413921629057
0.6189765568651623   0.15474413921629057   0.15474413921629057
0.29180823116956084   0.00993514739287818   0.00927814116153395
0.29180823116956084   0.00993514739287818   0.00927814116153395
0.29180823116956084   0.00993514739287818   0.00927814116153395
0.29180823116956084   0.00993514739287818   0.00927814116153395
0.43303167045534807   0.07393661478942495   -0.0067026557292389835
0.43303167045534807   0.07393661478942495   -0.0067026557292389835
0.43303167045534807   0.07393661478942495   -0.0067026557292389835
0.43303167045534807   0.07393661478942495   -0.0067026557292389835
-0.6303374249849487   -0.045211210013553285   0.007695575518075202
-0.6303374249849487   -0.045211210013553285   0.007695575518075202
-0.6303374249849487   -0.045211210013553285   0.007695575518075202
-0.6303374249849487   -0.045211210013553285   0.007695575518075202
-0.4018097596395666   -0.00983766478453374   -0.0028087299393176578
-0.4018097596395666   -0.00983766478453374   -0.0028087299393176578
-0.4018097596395666   -0.00983766478453374   -0.0028087299393176578
-0.4018097596395666   -0.00983766478453374   -0.0028087299393176578
-0.4040530288483129   0.016479970280642492   0.008816914850598968
-0.4040530288483129   0.016479970280642492   0.008816914850598968
-0.4040530288483129   0.016479970280642492   0.008816914850598968
-0.4040530288483129   0.016479970280642492   0.008816914850598968
-0.6394801883647712   -0.04392339158937329   -0.0078371916054699
-0.6394801883647712   -0.04392339158937329   -0.0078371916054699
-0.6394801883647712   -0.04392339158937329   -0.0078371916054699
-0.6394801883647712   -0.04392339158937329   -0.0078371916054699
-0.4985601861351358   -0.017206425360644637   -0.002284250230291971
-0.4985601861351358   -0.017206425360644637   -0.002284250230291971
-0.4985601861351358   -0.017206425360644637   -0.002284250230291971
-0.4985601861351358   -0.017206425360644637   -0.002284250230291971
-0.6345595626289869   -0.030680175290663775   0.003522720774741535
-0.6345595626289869   -0.030680175290663775   0.003522720774741535
-0.6345595626289869   -0.030680175290663775   0.003522720774741535
-0.6345595626289869   -0.030680175290663775   0.003522720774741535
-0.40961581836247424   0.0025945902035573315   -0.005111652643115611
-0.40961581836247424   0.0025945902035573315   -0.005111652643115611
-0.40961581836247424   0.0025945902035573315   -0.005111652643115611
-0.40961581836247424   0.0025945902035573315   -0.005111652643115611
-0.40424350933995534   0.023574990832233952   0.009936995524646948
-0.40424350933995534   0.023574990832233952   0.009936995524646948
-0.40424350933995534   0.023574990832233952   0.009936995524646948
-0.40424350933995534   0.023574990832233952   0.009936995524646948
-0.6429480162017857   -0.03858080336489375   -0.010316658023282708
-0.6429480162017857   -0.03858080336489375   -0.010316658023282708
-0.6429480162017857   -0.03858080336489375   -0.010316658023282708
-0.6429480162017857   -0.03858080336489375   -0.010316658023282708
-0.512196283700119   -0.011400747335015143   -0.005006228939239219
-0.512196283700119   -0.011400747335015143   -0.005006228939239219
-0.512196283700119   -0.011400747335015143   -0.005006228939239219
-0.512196283700119   -0.011400747335015143   -0.005006228939239219
-0.6311013667710289   -0.018097352171491457   0.028433137937093414
-0.6311013667710289   -0.018097352171491457   0.028433137937093414
-0.6311013667710289   -0.018097352171491457   0.028433137937093414
-0.6311013667710289   -0.018097352171491457   0.028433137937093414
-0.41122846133196767   0.007953237077575545   -0.009366010680752362
-0.41122846133196767   0.007953237077575545   -0.009366010680752362
-0.41122846133196767   0.007953237077575545   -0.009366010680752362
-0.41122846133196767   0.007953237077575545   -0.009366010680752362
-0.39656320231549486   0.04122681171832954   0.017760794967432665
-0.39656320231549486   0.04122681171832954   0.017760794967432665
-0.39656320231549486   0.04122681171832954   0.017760794967432665
-0.39656320231549486   0.04122681171832954   0.017760794967432665
-0.6245681153427683   -0.030876232728471717   -0.016736336909416175
-0.6245681153427683   -0.030876232728471717   -0.016736336909416175
-0.6245681153427683   -0.030876232728471717   -0.016736336909416175
-0.6245681153427683   -0.030876232728471717   -0.016736336909416175
-0.49215320665353907   0.004862290977519432   0.011006049522323362
-0.49215320665353907   0.004862290977519432   0.011006049522323362
-0.49215320665353907   0.004862290977519432   0.011006049522323362
-0.49215320665353907   0.004862290977519432   0.011006049522323362
-0.41162180851791075   -0.05476150331343601   -0.00694513580213626
-0.41162180851791075   -0.05476150331343601   -0.00694513580213626
-0.41162180851791075   -0.05476150331343601   -0.00694513580213626
-0.41162180851791075   -0.05476150331343601   -0.00694513580213626
-0.19037904033179612   -0.004604403895426039   0.001931835177259678
-0.19037904033179612   -0.004604403895426039   0.001931835177259678
-0.19037904033179612   -0.004604403895426039   0.001931835177259678
-0.19037904033179612   -0.004604403895426039   0.001931835177259678
-0.19284811667414944   0.0034912234670655823   0.0030290380020181994
-0.19284811667414944   0.0034912234670655823   0.0030290380020181994
-0.19284811667414944   0.0034912234670655823   0.0030290380020181994
-0.19284811667414944   0.0034912234670655823   0.0030290380020181994
-0.4195993288963468   -0.04002958689596788   -0.012405028212960462
-0.4195993288963468   -0.04002958689596788   -0.012405028212960462
-0.4195993288963468   -0.04002958689596788   -0.012405028212960462
-0.4195993288963468   -0.04002958689596788   -0.012405028212960462
-0.3036313931559068   -0.024831385423634438   -0.007112703187064735
-0.3036313931559068   -0.024831385423634438   -0.007112703187064735
-0.3036313931559068   -0.024831385423634438   -0.007112703187064735
-0.3036313931559068   -0.024831385423634438   -0.007112703187064735
-0.4191455236307113   -0.04367265273400076   -0.006492936046751175
-0.4191455236307113   -0.04367265273400076   -0.006492936046751175
-0.4191455236307113   -0.04367265273400076   -0.006492936046751175
-0.4191455236307113   -0.04367265273400076   -0.006492936046751175
-0.19256044254149635   0.00787576870338684   8.286342896075306e-05
-0.19256044254149635   0.00787576870338684   8.286342896075306e-05
-0.19256044254149635   0.00787576870338684   8.286342896075306e-05
-0.19256044254149635   0.00787576870338684   8.286342896075306e-05
-0.19186055468629748   0.013370791879493693   0.003999937261476048
-0.19186055468629748   0.013370791879493693   0.003999937261476048
-0.19186055468629748   0.013370791879493693   0.003999937261476048
-0.19186055468629748   0.013370791879493693   0.003999937261476048
-0.4194709361133394   -0.029186294396698953   -0.013438853113340032
-0.4194709361133394   -0.029186294396698953   -0.013438853113340032
-0.4194709361133394   -0.029186294396698953   -0.013438853113340032
-0.4194709361133394   -0.029186294396698953   -0.013438853113340032
-0.3027792188682896   -0.01375749158468939   -0.003392826644834035
-0.3027792188682896   -0.01375749158468939   -0.003392826644834035
-0.3027792188682896   -0.01375749158468939   -0.003392826644834035
-0.3027792188682896   -0.01375749158468939   -0.003392826644834035
-0.4177812883316674   -0.03287393668517619   -0.0013029719165029586
-0.4177812883316674   -0.03287393668517619   -0.0013029719165029586
-0.4177812883316674   -0.03287393668517619   -0.0013029719165029586
-0.4177812883316674   -0.03287393668517619   -0.0013029719165029586
-0.19216974174542786   0.018438894890512772   -0.0026141010451929785
-0.19216974174542786   0.018438894890512772   -0.0026141010451929785
-0.19216974174542786   0.018438894890512772   -0.0026141010451929785
-0.19216974174542786   0.018438894890512772   -0.0026141010451929785
-0.18839895734666512   0.023267665647635882   0.007873942349891357
-0.18839895734666512   0.023267665647635882   0.007873942349891357
-0.18839895734666512   0.023267665647635882   0.007873942349891357
-0.18839895734666512   0.023267665647635882   0.007873942349891357
-0.4146871344754122   -0.016653051157391865   -0.014979002956434864
-0.4146871344754122   -0.016653051157391865   -0.014979002956434864
-0.4146871344754122   -0.016653051157391865   -0.014979002956434864
-0.4146871344754122   -0.016653051157391865   -0.014979002956434864
-0.3012301735808703   -0.0032727258267627735   0.001498764864810851
-0.3012301735808703   -0.0032727258267627735   0.001498764864810851
-0.3012301735808703   -0.0032727258267627735   0.001498764864810851
-0.3012301735808703   -0.0032727258267627735   0.001498764864810851
-0.20063642114396849   -0.045610504328059326   -0.008348968450970724
-0.20063642114396849   -0.045610504328059326   -0.008348968450970724
-0.20063642114396849   -0.045610504328059326   -0.008348968450970724
-0.20063642114396849   -0.045610504328059326   -0.008348968450970724
0.019349961488480245   0.00438335877736952   0.007814144994686556
0.019349961488480245   0.00438335877736952   0.007814144994686556
0.019349961488480245   0.00438335877736952   0.007814144994686556
0.019349961488480245   0.00438335877736952   0.007814144994686556
0.01866749091429167   0.011263060127615899   0.0006720419581480249
0.01866749091429167   0.011263060127615899   0.0006720419581480249
0.01866749091429167   0.011263060127615899   0.0006720419581480249
0.01866749091429167   0.011263060127615899   0.0006720419581480249
-0.20124331187135708   -0.03011298013782395   -0.0053427343791320366
-0.20124331187135708   -0.03011298013782395   -0.0053427343791320366
-0.20124331187135708   -0.03011298013782395   -0.0053427343791320366
-0.20124331187135708   -0.03011298013782395   -0.0053427343791320366
-0.09185004064140186   -0.015224153186760323   -0.0029847104327728686
-0.09185004064140186   -0.015224153186760323   -0.0029847104327728686
-0.09185004064140186   -0.015224153186760323   -0.0029847104327728686
-0.09185004064140186   -0.015224153186760323   -0.0029847104327728686
-0.20264323124886077   -0.034687129147949206   -0.007768182256525297
-0.20264323124886077   -0.034687129147949206   -0.007768182256525297
-0.20264323124886077   -0.034687129147949206   -0.007768182256525297
-0.20264323124886077   -0.034687129147949206   -0.007768182256525297
0.020823502431265562   0.016593301277211363   0.006121858393421883
0.020823502431265562   0.016593301277211363   0.006121858393421883
0.020823502431265562   0.016593301277211363   0.006121858393421883
0.020823502431265562   0.016593301277211363   0.006121858393421883
0.020505205742890335   0.022105767447519825   0.0036061101904234054
0.020505205742890335   0.022105767447519825   0.0036061101904234054
0.020505205742890335   0.022105767447519825   0.0036061101904234054
0.020505205742890335   0.022105767447519825   0.0036061101904234054
-0.200315011586925   -0.018215292701139293   -0.006686262661030177
-0.200315011586925   -0.018215292701139293   -0.006686262661030177
-0.200315011586925   -0.018215292701139293   -0.006686262661030177
-0.200315011586925   -0.018215292701139293   -0.006686262661030177
-0.0901605554978978   -0.003719207353296644   0.001015141613667035
-0.0901605554978978   -0.003719207353296644   0.001015141613667035
-0.0901605554978978   -0.003719207353296644   0.001015141613667035
-0.0901605554978978   -0.003719207353296644   0.001015141613667035
-0.20087641586316948   -0.0236945785503793   -0.004013998193012637
-0.20087641586316948   -0.0236945785503793   -0.004013998193012637
-0.20087641586316948   -0.0236945785503793   -0.004013998193012637
-0.20087641586316948   -0.0236945785503793   -0.004013998193012637
0.021882833443354163   0.028401276720979206   0.004198739419283168
0.021882833443354163   0.028401276720979206   0.004198739419283168
0.021882833443354163   0.028401276720979206   0.004198739419283168
0.021882833443354163   0.028401276720979206   0.004198739419283168
0.021261309107978455   0.03414288376017044   0.0058880510125287125
0.021261309107978455   0.03414288376017044   0.0058880510125287125
0.021261309107978455   0.03414288376017044   0.0058880510125287125
0.021261309107978455   0.03414288376017044   0.0058880510125287125
-0.19742187462213326   -0.005517226484314748   -0.008455751895499587
-0.19742187462213326   -0.005517226484314748   -0.008455751895499587
-0.19742187462213326   -0.005517226484314748   -0.008455751895499587
-0.19742187462213326   -0.005517226484314748   -0.008455751895499587
-0.08763950538514442   0.008311322276807795   0.005394659725833331
-0.08763950538514442   0.008311322276807795   0.005394659725833331
-0.08763950538514442   0.008311322276807795   0.005394659725833331
-0.08763950538514442   0.008311322276807795   0.005394659725833331
0.008129026451713013   -0.033515757043241   -0.010391414368539083
0.008129026451713013   -0.033515757043241   -0.010391414368539083
0.008129026451713013   -0.033515757043241   -0.010391414368539083
0.008129026451713013   -0.033515757043241   -0.010391414368539083
0.23607617184532745   0.01612905179807022   0.014433158346797231
0.23607617184532745   0.01612905179807022   0.014433158346797231
0.23607617184532745   0.01612905179807022   0.014433158346797231
0.23607617184532745   0.01612905179807022   0.014433158346797231
0.2360266064460038   0.02191971143703623   -0.0023636874858140805
0.2360266064460038   0.02191971143703623   -0.0023636874858140805
0.2360266064460038   0.02191971143703623   -0.0023636874858140805
0.2360266064460038   0.02191971143703623   -0.0023636874858140805
0.012609692968811556   -0.019952755980763067   0.0015988683391262807
0.012609692968811556   -0.019952755980763067   0.0015988683391262807
0.012609692968811556   -0.019952755980763067   0.0015988683391262807
0.012609692968811556   -0.019952755980763067   0.0015988683391262807
0.1216749340305129   -0.0029903521983097384   0.0001679166777926273
0.1216749340305129   -0.0029903521983097384   0.0001679166777926273
0.1216749340305129   -0.0029903521983097384   0.0001679166777926273
0.1216749340305129   -0.0029903521983097384   0.0001679166777926273
0.009831368107193116   -0.024413084269590688   -0.007832427680138164
0.009831368107193116   -0.024413084269590688   -0.007832427680138164
0.009831368107193116   -0.024413084269590688   -0.007832427680138164
0.009831368107193116   -0.024413084269590688   -0.007832427680138164
0.24018054999088426   0.027755658409125944   0.012570083266498612
0.24018054999088426   0.027755658409125944   0.012570083266498612
0.24018054999088426   0.027755658409125944   0.012570083266498612
0.24018054999088426   0.027755658409125944   0.012570083266498612
0.23823067329456402   0.032661338567574735   0.002252208190572158
0.23823067329456402   0.032661338567574735   0.002252208190572158
0.23823067329456402   0.032661338567574735   0.002252208190572158
0.23823067329456402   0.032661338567574735   0.002252208190572158
0.013393659484044763   -0.009302569337350075   -0.0005432843189345565
0.013393659484044763   -0.009302569337350075   -0.0005432843189345565
0.013393659484044763   -0.009302569337350075   -0.0005432843189345565
0.013393659484044763   -0.009302569337350075   -0.0005432843189345565
0.12362833987706556   0.0072661195135807835   0.005086005819352971
0.12362833987706556   0.0072661195135807835   0.005086005819352971
0.12362833987706556   0.0072661195135807835   0.005086005819352971
0.12362833987706556   0.0072661195135807835   0.005086005819352971
0.011339804325181467   -0.014325252295446966   -0.005789877155154135
0.011339804325181467   -0.014325252295446966   -0.005789877155154135
0.011339804325181467   -0.014325252295446966   -0.005789877155154135
0.011339804325181467   -0.014325252295446966   -0.005789877155154135
0.24128273121997199   0.03868222429221637   0.011491612092970442
0.24128273121997199   0.03868222429221637   0.011491612092970442
0.24128273121997199   0.03868222429221637   0.011491612092970442
0.24128273121997199   0.03868222429221637   0.011491612092970442
0.2346767862126633   0.045050454012079834   0.004874913493994742
0.2346767862126633   0.045050454012079834   0.004874913493994742
0.2346767862126633   0.045050454012079834   0.004874913493994742
0.2346767862126633   0.045050454012079834   0.004874913493994742
0.013545514500527827   0.0038341178741032895   -0.0023821561386572986
0.013545514500527827   0.0038341178741032895   -0.0023821561386572986
0.013545514500527827   0.0038341178741032895   -0.0023821561386572986
0.013545514500527827   0.0038341178741032895   -0.0023821561386572986
0.12577843437664574   0.01898125910119145   0.00965581761657158
0.12577843437664574   0.01898125910119145   0.00965581761657158
0.12577843437664574   0.01898125910119145   0.00965581761657158
0.12577843437664574   0.01898125910119145   0.00965581761657158
0.2171534499642701   -0.04460761515904258   -0.019443784101376572
0.2171534499642701   -0.04460761515904258   -0.019443784101376572
0.2171534499642701   -0.04460761515904258   -0.019443784101376572
0.2171534499642701   -0.04460761515904258   -0.019443784101376572
0.4485451161320326   0.02964385530715137   0.014334404457786953
0.4485451161320326   0.02964385530715137   0.014334404457786953
0.4485451161320326   0.02964385530715137   0.014334404457786953
0.4485451161320326   0.02964385530715137   0.014334404457786953
0.4539757943862037   0.013603591324311437   -0.029280725140164526
0.4539757943862037   0.013603591324311437   -0.029280725140164526
0.4539757943862037   0.013603591324311437   -0.029280725140164526
0.4539757943862037   0.013603591324311437   -0.029280725140164526
0.23210347389261599   -0.008727039343632989   0.008667400527914284
0.23210347389261599   -0.008727039343632989   0.008667400527914284
0.23210347389261599   -0.008727039343632989   0.008667400527914284
0.23210347389261599   -0.008727039343632989   0.008667400527914284
0.32108694414643585   -0.005916866282372493   -0.00826397394843444
0.32108694414643585   -0.005916866282372493   -0.00826397394843444
0.32108694414643585   -0.005916866282372493   -0.00826397394843444
0.32108694414643585   -0.005916866282372493   -0.00826397394843444
0.22366666386563464   -0.029209022951578158   -0.013034665999044183
0.22366666386563464   -0.029209022951578158   -0.013034665999044183
0.22366666386563464   -0.029209022951578158   -0.013034665999044183
0.22366666386563464   -0.029209022951578158   -0.013034665999044183
0.4665962301884912   0.03826920070756448   0.009155844488024433
0.4665962301884912   0.03826920070756448   0.009155844488024433
0.4665962301884912   0.03826920070756448   0.009155844488024433
0.4665962301884912   0.03826920070756448   0.009155844488024433
0.45948795674820353   0.025407325990156354   -0.006994268926224255
0.45948795674820353   0.025407325990156354   -0.006994268926224255
0.45948795674820353   0.025407325990156354   -0.006994268926224255
0.45948795674820353   0.025407325990156354   -0.006994268926224255
0.23149248260145833   -0.003382287345141198   0.004604880637759932
0.23149248260145833   -0.003382287345141198   0.004604880637759932
0.23149248260145833   -0.003382287345141198   0.004604880637759932
0.23149248260145833   -0.003382287345141198   0.004604880637759932
0.3384549019919993   0.00848457911895742   0.005620433096497939
0.3384549019919993   0.00848457911895742   0.005620433096497939
0.3384549019919993   0.00848457911895742   0.005620433096497939
0.3384549019919993   0.00848457911895742   0.005620433096497939
0.22467497490181765   -0.02227450469582711   -0.010590440509755654
0.22467497490181765   -0.02227450469582711   -0.010590440509755654
0.22467497490181765   -0.02227450469582711   -0.010590440509755654
0.22467497490181765   -0.02227450469582711   -0.010590440509755654
0.4657851863364867   0.04377926522948506   0.006119939775862839
0.4657851863364867   0.04377926522948506   0.006119939775862839
0.4657851863364867   0.04377926522948506   0.006119939775862839
0.4657851863364867   0.04377926522948506   0.006119939775862839
0.4592985564397936   0.03946401497888147   -0.010567846178682845
0.4592985564397936   0.03946401497888147   -0.010567846178682845
0.4592985564397936   0.03946401497888147   -0.010567846178682845
0.4592985564397936   0.03946401497888147   -0.010567846178682845
0.22698824474243284   0.008821991846585317   0.002660668308336391
0.22698824474243284   0.008821991846585317   0.002660668308336391
0.22698824474243284   0.008821991846585317   0.002660668308336391
0.22698824474243284   0.008821991846585317   0.002660668308336391
0.33020231837316616   0.015071704528946364   0.00435084085428631
0.33020231837316616   0.015071704528946364   0.00435084085428631
0.33020231837316616   0.015071704528946364   0.00435084085428631
0.33020231837316616   0.015071704528946364   0.00435084085428631
-0.4920738557318687   -0.022128111840972173   0.026003130870790918
-0.4920738557318687   -0.022128111840972173   0.026003130870790918
-0.4920738557318687   -0.022128111840972173   0.026003130870790918
-0.4920738557318687   -0.022128111840972173   0.026003130870790918
-0.3278341716497342   -0.012888967104039258   -0.0067657449595380555
-0.3278341716497342   -0.012888967104039258   -0.0067657449595380555
-0.3278341716497342   -0.012888967104039258   -0.0067657449595380555
-0.3278341716497342   -0.012888967104039258   -0.0067657449595380555
-0.315640612542731   0.02676092539949998   0.021744817516856293
-0.315640612542731   0.02676092539949998   0.021744817516856293
-0.315640612542731   0.02676092539949998   0.021744817516856293
-0.315640612542731   0.02676092539949998   0.021744817516856293
-0.4942074876070904   -0.03543660141968544   -0.010559904176601968
-0.4942074876070904   -0.03543660141968544   -0.010559904176601968
-0.4942074876070904   -0.03543660141968544   -0.010559904176601968
-0.4942074876070904   -0.03543660141968544   -0.010559904176601968
-0.3909650430785694   -0.006036243103530153   -0.0010235465964860864
-0.3909650430785694   -0.006036243103530153   -0.0010235465964860864
-0.3909650430785694   -0.006036243103530153   -0.0010235465964860864
-0.3909650430785694   -0.006036243103530153   -0.0010235465964860864
-0.4801398765712787   -0.004682984160855441   0.029024533743626246
-0.4801398765712787   -0.004682984160855441   0.029024533743626246
-0.4801398765712787   -0.004682984160855441   0.029024533743626246
-0.4801398765712787   -0.004682984160855441   0.029024533743626246
-0.32749928720236904   -0.0017837554831563185   -0.009003874898677704
-0.32749928720236904   -0.0017837554831563185   -0.009003874898677704
-0.32749928720236904   -0.0017837554831563185   -0.009003874898677704
-0.32749928720236904   -0.0017837554831563185   -0.009003874898677704
-0.31420610264915727   0.033251234835474305   0.02010161942593104
-0.31420610264915727   0.033251234835474305   0.02010161942593104
-0.31420610264915727   0.033251234835474305   0.02010161942593104
-0.31420610264915727   0.033251234835474305   0.02010161942593104
-0.4862265877987584   -0.029537108942753368   -0.014410333274031475
-0.4862265877987584   -0.029537108942753368   -0.014410333274031475
-0.4862265877987584   -0.029537108942753368   -0.014410333274031475
-0.4862265877987584   -0.029537108942753368   -0.014410333274031475
-0.39152696964978717   0.0015850143889285517   0.004364405064874427
-0.39152696964978717   0.0015850143889285517   0.004364405064874427
-0.39152696964978717   0.0015850143889285517   0.004364405064874427
-0.39152696964978717   0.0015850143889285517   0.004364405064874427
-0.47314548145462604   0.0014455442416414777   0.02001254526223485
-0.47314548145462604   0.0014455442416414777   0.02001254526223485
-0.47314548145462604   0.0014455442416414777   0.02001254526223485
-0.47314548145462604   0.0014455442416414777   0.02001254526223485
-0.32656106859171713   0.002994722052652915   -0.011416697504045052
-0.32656106859171713   0.002994722052652915   -0.011416697504045052
-0.32656106859171713   0.002994722052652915   -0.011416697504045052
-0.32656106859171713   0.002994722052652915   -0.011416697504045052
-0.3143770703391147   0.03769996632771132   0.01595361336784533
-0.3143770703391147   0.03769996632771132   0.01595361336784533
-0.3143770703391147   0.03769996632771132   0.01595361336784533
-0.3143770703391147   0.03769996632771132   0.01595361336784533
-0.475955757082368   -0.023185205092697933   -0.018334071788645455
-0.475955757082368   -0.023185205092697933   -0.018334071788645455
-0.475955757082368   -0.023185205092697933   -0.018334071788645455
-0.475955757082368   -0.023185205092697933   -0.018334071788645455
-0.38004550166110507   0.008449634143432014   0.009340675336341983
-0.38004550166110507   0.008449634143432014   0.009340675336341983
-0.38004550166110507   0.008449634143432014   0.009340675336341983
-0.38004550166110507   0.008449634143432014   0.009340675336341983
-0.32861309024085866   -0.03112286826377539   0.007573563244575674
-0.32861309024085866   -0.03112286826377539   0.007573563244575674
-0.32861309024085866   -0.03112286826377539   0.007573563244575674
-0.32861309024085866   -0.03112286826377539   0.007573563244575674
-0.1669214259248579   -0.0062800513611934415   0.00027307784189250974
-0.1669214259248579   -0.0062800513611934415   0.00027307784189250974
-0.1669214259248579   -0.0062800513611934415   0.00027307784189250974
-0.1669214259248579   -0.0062800513611934415   0.00027307784189250974
-0.16200353191551384   0.016329314240324445   0.01179368048766624
-0.16200353191551384   0.016329314240324445   0.01179368048766624
-0.16200353191551384   0.016329314240324445   0.01179368048766624
-0.16200353191551384   0.016329314240324445   0.01179368048766624
-0.333783127885843   -0.030690909177710134   -0.011515924621493924
-0.333783127885843   -0.030690909177710134   -0.011515924621493924
-0.333783127885843   -0.030690909177710134   -0.011515924621493924
-0.333783127885843   -0.030690909177710134   -0.011515924621493924
-0.24698428006629716   -0.012123710898526784   -0.005148743175608572
-0.24698428006629716   -0.012123710898526784   -0.005148743175608572
-0.24698428006629716   -0.012123710898526784   -0.005148743175608572
-0.24698428006629716   -0.012123710898526784   -0.005148743175608572
-0.3274175463859572   -0.017656675009377523   0.0072777487096006895
-0.3274175463859572   -0.017656675009377523   0.0072777487096006895
-0.3274175463859572   -0.017656675009377523   0.0072777487096006895
-0.3274175463859572   -0.017656675009377523   0.0072777487096006895
-0.1670905139313192   0.004573679556072047   -0.0018855949071068401
-0.1670905139313192   0.004573679556072047   -0.0018855949071068401
-0.1670905139313192   0.004573679556072047   -0.0018855949071068401
-0.1670905139313192   0.004573679556072047   -0.0018855949071068401
-0.16136169298497832   0.0271591841370403   0.010179296426995138
-0.16136169298497832   0.0271591841370403   0.010179296426995138
-0.16136169298497832   0.0271591841370403   0.010179296426995138
-0.16136169298497832   0.0271591841370403   0.010179296426995138
-0.3317207245931593   -0.020607370148667432   -0.01361288530993801
-0.3317207245931593   -0.020607370148667432   -0.01361288530993801
-0.3317207245931593   -0.020607370148667432   -0.01361288530993801
-0.3317207245931593   -0.020607370148667432   -0.01361288530993801
-0.2441472485593248   -0.0012105537085940962   -9.722636488285023e-05
-0.2441472485593248   -0.0012105537085940962   -9.722636488285023e-05
-0.2441472485593248   -0.0012105537085940962   -9.722636488285023e-05
-0.2441472485593248   -0.0012105537085940962   -9.722636488285023e-05
-0.32522833232971954   -0.006668051537990091   0.004909757396584034
-0.32522833232971954   -0.006668051537990091   0.004909757396584034
-0.32522833232971954   -0.006668051537990091   0.004909757396584034
-0.32522833232971954   -0.006668051537990091   0.004909757396584034
-0.1668138654063599   0.014260085368421535   -0.004182466911292626
-0.1668138654063599   0.014260085368421535   -0.004182466911292626
-0.1668138654063599   0.014260085368421535   -0.004182466911292626
-0.1668138654063599   0.014260085368421535   -0.004182466911292626
-0.16118842491955573   0.03856392501400188   0.007607168344679279
-0.16118842491955573   0.03856392501400188   0.007607168344679279
-0.16118842491955573   0.03856392501400188   0.007607168344679279
-0.16118842491955573   0.03856392501400188   0.007607168344679279
-0.3299736936956721   -0.009692808459887597   -0.014636728627344213
-0.3299736936956721   -0.009692808459887597   -0.014636728627344213
-0.3299736936956721   -0.009692808459887597   -0.014636728627344213
-0.3299736936956721   -0.009692808459887597   -0.014636728627344213
-0.24415193860069964   0.008842170140510176   0.0037847761123684116
-0.24415193860069964   0.008842170140510176   0.0037847761123684116
-0.24415193860069964   0.008842170140510176   0.0037847761123684116
-0.24415193860069964   0.008842170140510176   0.0037847761123684116
-0.17305585093904138   -0.03583037702093023   -0.0008487215692901504
-0.17305585093904138   -0.03583037702093023   -0.0008487215692901504
-0.17305585093904138   -0.03583037702093023   -0.0008487215692901504
-0.17305585093904138   -0.03583037702093023   -0.0008487215692901504
-0.007427938128486298   0.001451652799490257   0.007379572173134716
-0.007427938128486298   0.001451652799490257   0.007379572173134716
-0.007427938128486298   0.001451652799490257   0.007379572173134716
-0.007427938128486298   0.001451652799490257   0.007379572173134716
-0.007937800888218135   0.010325680299379634   0.0035450568237488512
-0.007937800888218135   0.010325680299379634   0.0035450568237488512
-0.007937800888218135   0.010325680299379634   0.0035450568237488512
-0.007937800888218135   0.010325680299379634   0.0035450568237488512
-0.17304563142069113   -0.022826458177384747   -0.004261044620512435
-0.17304563142069113   -0.022826458177384747   -0.004261044620512435
-0.17304563142069113   -0.022826458177384747   -0.004261044620512435
-0.17304563142069113   -0.022826458177384747   -0.004261044620512435
-0.09065144962527998   -0.011327655306554456   -0.002912574982508549
-0.09065144962527998   -0.011327655306554456   -0.002912574982508549
-0.09065144962527998   -0.011327655306554456   -0.002912574982508549
-0.09065144962527998   -0.011327655306554456   -0.002912574982508549
-0.17285791559321986   -0.023830948948731848   -0.002317974711807665
-0.17285791559321986   -0.023830948948731848   -0.002317974711807665
-0.17285791559321986   -0.023830948948731848   -0.002317974711807665
-0.17285791559321986   -0.023830948948731848   -0.002317974711807665
-0.007174803525201006   0.012280884261215493   0.005404839676998636
-0.007174803525201006   0.012280884261215493   0.005404839676998636
-0.007174803525201006   0.012280884261215493   0.005404839676998636
-0.007174803525201006   0.012280884261215493   0.005404839676998636
-0.0070181866699959225   0.022112809247914603   0.0016574221673102312
-0.0070181866699959225   0.022112809247914603   0.0016574221673102312
-0.0070181866699959225   0.022112809247914603   0.0016574221673102312
-0.0070181866699959225   0.022112809247914603   0.0016574221673102312
-0.17247817795024695   -0.011971733866834047   -0.006272210395473625
-0.17247817795024695   -0.011971733866834047   -0.006272210395473625
-0.17247817795024695   -0.011971733866834047   -0.006272210395473625
-0.17247817795024695   -0.011971733866834047   -0.006272210395473625
-0.08964704497205767   -0.00044691614229537546   0.0011757375238673033
-0.08964704497205767   -0.00044691614229537546   0.0011757375238673033
-0.08964704497205767   -0.00044691614229537546   0.0011757375238673033
-0.08964704497205767   -0.00044691614229537546   0.0011757375238673033
-0.17222236831024995   -0.012210408938385538   -0.004754487123937179
-0.17222236831024995   -0.012210408938385538   -0.004754487123937179
-0.17222236831024995   -0.012210408938385538   -0.004754487123937179
-0.17222236831024995   -0.012210408938385538   -0.004754487123937179
-0.006490034586589884   0.023135446042869885   0.003275545789385143
-0.006490034586589884   0.023135446042869885   0.003275545789385143
-0.006490034586589884   0.023135446042869885   0.003275545789385143
-0.006490034586589884   0.023135446042869885   0.003275545789385143
-0.006719740625046539   0.034243692235921185   -0.00035329229140858287
-0.006719740625046539   0.034243692235921185   -0.00035329229140858287
-0.006719740625046539   0.034243692235921185   -0.00035329229140858287
-0.006719740625046539   0.034243692235921185   -0.00035329229140858287
-0.17227358278896543   -0.0009402237723903431   -0.008314472215976093
-0.17227358278896543   -0.0009402237723903431   -0.008314472215976093
-0.17227358278896543   -0.0009402237723903431   -0.008314472215976093
-0.17227358278896543   -0.0009402237723903431   -0.008314472215976093
-0.08883768194703413   0.010444897654917382   0.004927103990439639
-0.08883768194703413   0.010444897654917382   0.004927103990439639
-0.08883768194703413   0.010444897654917382   0.004927103990439639
-0.08883768194703413   0.010444897654917382   0.004927103990439639
-0.018800573830800936   -0.03944943309525377   -0.008582520443694357
-0.018800573830800936   -0.03944943309525377   -0.008582520443694357
-0.018800573830800936   -0.03944943309525377   -0.008582520443694357
-0.018800573830800936   -0.03944943309525377   -0.008582520443694357
0.15123806617746433   0.010462797367053335   0.014048135200968622
0.15123806617746433   0.010462797367053335   0.014048135200968622
0.15123806617746433   0.010462797367053335   0.014048135200968622
0.15123806617746433   0.010462797367053335   0.014048135200968622
0.14625236036010283   0.0053172093413516655   -0.005693972441591344
0.14625236036010283   0.0053172093413516655   -0.005693972441591344
0.14625236036010283   0.0053172093413516655   -0.005693972441591344
0.14625236036010283   0.0053172093413516655   -0.005693972441591344
-0.012939127280422602   -0.014269082183952708   0.0031331873460588595
-0.012939127280422602   -0.014269082183952708   0.0031331873460588595
-0.012939127280422602   -0.014269082183952708   0.0031331873460588595
-0.012939127280422602   -0.014269082183952708   0.0031331873460588595
0.06548354836936253   -0.009326508348612933   -0.001676179336772562
0.06548354836936253   -0.009326508348612933   -0.001676179336772562
0.06548354836936253   -0.009326508348612933   -0.001676179336772562
0.06548354836936253   -0.009326508348612933   -0.001676179336772562
-0.01861215662277759   -0.028680923230699817   -0.010820118318968975
-0.01861215662277759   -0.028680923230699817   -0.010820118318968975
-0.01861215662277759   -0.028680923230699817   -0.010820118318968975
-0.01861215662277759   -0.028680923230699817   -0.010820118318968975
0.15300768010568286   0.020811340791323664   0.012588494836335243
0.15300768010568286   0.020811340791323664   0.012588494836335243
0.15300768010568286   0.020811340791323664   0.012588494836335243
0.15300768010568286   0.020811340791323664   0.012588494836335243
0.14883634863056136   0.016296507935689507   -0.007990587100253216
0.14883634863056136   0.016296507935689507   -0.007990587100253216
0.14883634863056136   0.016296507935689507   -0.007990587100253216
0.14883634863056136   0.016296507935689507   -0.007990587100253216
-0.012484293419891594   -0.0045392226500590195   0.000978920315805597
-0.012484293419891594   -0.0045392226500590195   0.000978920315805597
-0.012484293419891594   -0.0045392226500590195   0.000978920315805597
-0.012484293419891594   -0.0045392226500590195   0.000978920315805597
0.06623980022439661   0.0005487257840874962   0.0023982405865787516
0.06623980022439661   0.0005487257840874962   0.0023982405865787516
0.06623980022439661   0.0005487257840874962   0.0023982405865787516
0.06623980022439661   0.0005487257840874962   0.0023982405865787516
-0.018005460776699726   -0.018089136957808935   -0.013077002160485254
-0.018005460776699726   -0.018089136957808935   -0.013077002160485254
-0.018005460776699726   -0.018089136957808935   -0.013077002160485254
-0.018005460776699726   -0.018089136957808935   -0.013077002160485254
0.1555380039076277   0.031026910163697546   0.0107872870570691
0.1555380039076277   0.031026910163697546   0.0107872870570691
0.1555380039076277   0.031026910163697546   0.0107872870570691
0.1555380039076277   0.031026910163697546   0.0107872870570691
0.15048821123109107   0.030019105307601265   -0.00839991570172875
0.15048821123109107   0.030019105307601265   -0.00839991570172875
0.15048821123109107   0.030019105307601265   -0.00839991570172875
0.15048821123109107   0.030019105307601265   -0.00839991570172875
-0.012374744378544572   0.0067865554621685965   -0.0011711742851460215
-0.012374744378544572   0.0067865554621685965   -0.0011711742851460215
-0.012374744378544572   0.0067865554621685965   -0.0011711742851460215
-0.012374744378544572   0.0067865554621685965   -0.0011711742851460215
0.06874106601179597   0.011511643665460747   0.007215955576797482
0.06874106601179597   0.011511643665460747   0.007215955576797482
0.06874106601179597   0.011511643665460747   0.007215955576797482
0.06874106601179597   0.011511643665460747   0.007215955576797482
0.1351121065174289   -0.03927783387813111   -0.016841031854022658
0.1351121065174289   -0.03927783387813111   -0.016841031854022658
0.1351121065174289   -0.03927783387813111   -0.016841031854022658
0.1351121065174289   -0.03927783387813111   -0.016841031854022658
0.2987483578605314   0.022221188278635375   0.015829908028385936
0.2987483578605314   0.022221188278635375   0.015829908028385936
0.2987483578605314   0.022221188278635375   0.015829908028385936
0.2987483578605314   0.022221188278635375   0.015829908028385936
0.296466101485672   -0.002072945663736829   -0.022424758665662896
0.296466101485672   -0.002072945663736829   -0.022424758665662896
0.296466101485672   -0.002072945663736829   -0.022424758665662896
0.296466101485672   -0.002072945663736829   -0.022424758665662896
0.14786730711901888   -0.00298621101794036   0.010684181712280834
0.14786730711901888   -0.00298621101794036   0.010684181712280834
0.14786730711901888   -0.00298621101794036   0.010684181712280834
0.14786730711901888   -0.00298621101794036   0.010684181712280834
0.20888037426271117   -0.007827330453993739   -0.006977999646952877
0.20888037426271117   -0.007827330453993739   -0.006977999646952877
0.20888037426271117   -0.007827330453993739   -0.006977999646952877
0.20888037426271117   -0.007827330453993739   -0.006977999646952877
0.13539235535537797   -0.03394841731786319   -0.02072837080600044
0.13539235535537797   -0.03394841731786319   -0.02072837080600044
0.13539235535537797   -0.03394841731786319   -0.02072837080600044
0.13539235535537797   -0.03394841731786319   -0.02072837080600044
0.30983265160608425   0.029780858992957397   0.012554187279704242
0.30983265160608425   0.029780858992957397   0.012554187279704242
0.30983265160608425   0.029780858992957397   0.012554187279704242
0.30983265160608425   0.029780858992957397   0.012554187279704242
0.30411264468641075   0.004189402493246182   -0.03015683225525556
0.30411264468641075   0.004189402493246182   -0.03015683225525556
0.30411264468641075   0.004189402493246182   -0.03015683225525556
0.30411264468641075   0.004189402493246182   -0.03015683225525556
0.14913672369317   0.0017964672940936899   0.008011328854386832
0.14913672369317   0.0017964672940936899   0.008011328854386832
0.14913672369317   0.0017964672940936899   0.008011328854386832
0.14913672369317   0.0017964672940936899   0.008011328854386832
0.21865427557402048   -0.0010265749494751536   -0.0020581912415986673
0.21865427557402048   -0.0010265749494751536   -0.0020581912415986673
0.21865427557402048   -0.0010265749494751536   -0.0020581912415986673
0.21865427557402048   -0.0010265749494751536   -0.0020581912415986673
0.13711042190317901   -0.027703681810536684   -0.02262003099093868
0.13711042190317901   -0.027703681810536684   -0.02262003099093868
0.13711042190317901   -0.027703681810536684   -0.02262003099093868
0.13711042190317901   -0.027703681810536684   -0.02262003099093868
0.318113881675568   0.0356644867970432   0.008374268386736468
0.318113881675568   0.0356644867970432   0.008374268386736468
0.318113881675568   0.0356644867970432   0.008374268386736468
0.318113881675568   0.0356644867970432   0.008374268386736468
0.3162337089932533   0.02044761384098496   -0.028456685970483973
0.3162337089932533   0.02044761384098496   -0.028456685970483973
0.3162337089932533   0.02044761384098496   -0.028456685970483973
0.3162337089932533   0.02044761384098496   -0.028456685970483973
0.14979154681877047   0.01225271161476224   0.00588315592951047
0.14979154681877047   0.01225271161476224   0.00588315592951047
0.14979154681877047   0.01225271161476224   0.00588315592951047
0.14979154681877047   0.01225271161476224   0.00588315592951047
0.220601734624209   0.006703377610174581   0.003432174438869017
0.220601734624209   0.006703377610174581   0.003432174438869017
0.220601734624209   0.006703377610174581   0.003432174438869017
0.220601734624209   0.006703377610174581   0.003432174438869017
-0.3488924037340896   -0.011072268700640993   0.023375979141807085
-0.3488924037340896   -0.011072268700640993   0.023375979141807085
-0.3488924037340896   -0.011072268700640993   0.023375979141807085
-0.3488924037340896   -0.011072268700640993   0.023375979141807085
-0.2454283150665567   -0.01673343711642817   -0.00874832790811721
-0.2454283150665567   -0.01673343711642817   -0.00874832790811721
-0.2454283150665567   -0.01673343711642817   -0.00874832790811721
-0.2454283150665567   -0.01673343711642817   -0.00874832790811721
-0.23079067896036742   0.023336344317508514   0.019888015862644826
-0.23079067896036742   0.023336344317508514   0.019888015862644826
-0.23079067896036742   0.023336344317508514   0.019888015862644826
-0.23079067896036742   0.023336344317508514   0.019888015862644826
-0.34890433147161226   -0.028795548789182203   -0.012813808893189492
-0.34890433147161226   -0.028795548789182203   -0.012813808893189492
-0.34890433147161226   -0.028795548789182203   -0.012813808893189492
-0.34890433147161226   -0.028795548789182203   -0.012813808893189492
-0.2815523675614555   -0.0044104746853754   -0.0008927346944017298
-0.2815523675614555   -0.0044104746853754   -0.0008927346944017298
-0.2815523675614555   -0.0044104746853754   -0.0008927346944017298
-0.2815523675614555   -0.0044104746853754   -0.0008927346944017298
-0.33557515464700777   0.0028409594131510174   0.022195567027499516
-0.33557515464700777   0.0028409594131510174   0.022195567027499516
-0.33557515464700777   0.0028409594131510174   0.022195567027499516
-0.33557515464700777   0.0028409594131510174   0.022195567027499516
-0.24302908868073445   -0.00720939678058706   -0.010758291641091587
-0.24302908868073445   -0.00720939678058706   -0.010758291641091587
-0.24302908868073445   -0.00720939678058706   -0.010758291641091587
-0.24302908868073445   -0.00720939678058706   -0.010758291641091587
-0.22860487961186007   0.028224636346503816   0.016776684985356165
-0.22860487961186007   0.028224636346503816   0.016776684985356165
-0.22860487961186007   0.028224636346503816   0.016776684985356165
-0.22860487961186007   0.028224636346503816   0.016776684985356165
-0.34047652649130505   -0.023339490203456638   -0.016156917215554165
-0.34047652649130505   -0.023339490203456638   -0.016156917215554165
-0.34047652649130505   -0.023339490203456638   -0.016156917215554165
-0.34047652649130505   -0.023339490203456638   -0.016156917215554165
-0.27946233687140715   0.002019745422757721   0.002774696252863444
-0.27946233687140715   0.002019745422757721   0.002774696252863444
-0.27946233687140715   0.002019745422757721   0.002774696252863444
-0.27946233687140715   0.002019745422757721   0.002774696252863444
-0.327284606697733   0.008688326868356466   0.017774864680492417
-0.327284606697733   0.008688326868356466   0.017774864680492417
-0.327284606697733   0.008688326868356466   0.017774864680492417
-0.327284606697733   0.008688326868356466   0.017774864680492417
-0.24081652861642203   -0.0028229099362988286   -0.013234013754648085
-0.24081652861642203   -0.0028229099362988286   -0.013234013754648085
-0.24081652861642203   -0.0028229099362988286   -0.013234013754648085
-0.24081652861642203   -0.0028229099362988286   -0.013234013754648085
-0.22740026511523678   0.033079178556876525   0.014432354492095657
-0.22740026511523678   0.033079178556876525   0.014432354492095657
-0.22740026511523678   0.033079178556876525   0.014432354492095657
-0.22740026511523678   0.033079178556876525   0.014432354492095657
-0.32923726639846956   -0.016083685798973096   -0.019318927778740985
-0.32923726639846956   -0.016083685798973096   -0.019318927778740985
-0.32923726639846956   -0.016083685798973096   -0.019318927778740985
-0.32923726639846956   -0.016083685798973096   -0.019318927778740985
-0.268888681533172   0.008085456896459703   0.007867057035469827
-0.268888681533172   0.008085456896459703   0.007867057035469827
-0.268888681533172   0.008085456896459703   0.007867057035469827
-0.268888681533172   0.008085456896459703   0.007867057035469827
-0.24247204088888105   -0.01965405729134126   0.008953663155172238
-0.24247204088888105   -0.01965405729134126   0.008953663155172238
-0.24247204088888105   -0.01965405729134126   0.008953663155172238
-0.24247204088888105   -0.01965405729134126   0.008953663155172238
-0.1418107036231365   -0.010834684143769285   -0.0014170340116663634
-0.1418107036231365   -0.010834684143769285   -0.0014170340116663634
-0.1418107036231365   -0.010834684143769285   -0.0014170340116663634
-0.1418107036231365   -0.010834684143769285   -0.0014170340116663634
-0.13457563663674713   0.013597315823706772   0.010717709136494698
-0.13457563663674713   0.013597315823706772   0.010717709136494698
-0.13457563663674713   0.013597315823706772   0.010717709136494698
-0.13457563663674713   0.013597315823706772   0.010717709136494698
-0.24618019005293026   -0.023475983167128095   -0.010247212115532114
-0.24618019005293026   -0.023475983167128095   -0.010247212115532114
-0.24618019005293026   -0.023475983167128095   -0.010247212115532114
-0.24618019005293026   -0.023475983167128095   -0.010247212115532114
-0.19052712031032212   -0.00920802510850071   -0.004006601827170674
-0.19052712031032212   -0.00920802510850071   -0.004006601827170674
-0.19052712031032212   -0.00920802510850071   -0.004006601827170674
-0.19052712031032212   -0.00920802510850071   -0.004006601827170674
-0.23958904695094663   -0.008085336684150575   0.007317856911407905
-0.23958904695094663   -0.008085336684150575   0.007317856911407905
-0.23958904695094663   -0.008085336684150575   0.007317856911407905
-0.23958904695094663   -0.008085336684150575   0.007317856911407905
-0.14031935510415414   -0.000945906024694694   -0.003457661352141223
-0.14031935510415414   -0.000945906024694694   -0.003457661352141223
-0.14031935510415414   -0.000945906024694694   -0.003457661352141223
-0.14031935510415414   -0.000945906024694694   -0.003457661352141223
-0.13286870470676165   0.023640017808247652   0.008772034588239727
-0.13286870470676165   0.023640017808247652   0.008772034588239727
-0.13286870470676165   0.023640017808247652   0.008772034588239727
-0.13286870470676165   0.023640017808247652   0.008772034588239727
-0.24282936549219508   -0.014037200352124107   -0.012083907717691281
-0.24282936549219508   -0.014037200352124107   -0.012083907717691281
-0.24282936549219508   -0.014037200352124107   -0.012083907717691281
-0.24282936549219508   -0.014037200352124107   -0.012083907717691281
-0.1868598411511168   0.0006167401239358522   0.00021717139339454475
-0.1868598411511168   0.0006167401239358522   0.00021717139339454475
-0.1868598411511168   0.0006167401239358522   0.00021717139339454475
-0.1868598411511168   0.0006167401239358522   0.00021717139339454475
-0.2357401810770023   0.00264689868148469   0.006677915324664202
-0.2357401810770023   0.00264689868148469   0.006677915324664202
-0.2357401810770023   0.00264689868148469   0.006677915324664202
-0.2357401810770023   0.00264689868148469   0.006677915324664202
-0.13890567759531727   0.008008130301276305   -0.005780942347567054
-0.13890567759531727   0.008008130301276305   -0.005780942347567054
-0.13890567759531727   0.008008130301276305   -0.005780942347567054
-0.13890567759531727   0.008008130301276305   -0.005780942347567054
-0.1312180695207325   0.034377705353124614   0.006960216262773383
-0.1312180695207325   0.034377705353124614   0.006960216262773383
-0.1312180695207325   0.034377705353124614   0.006960216262773383
-0.1312180695207325   0.034377705353124614   0.006960216262773383
-0.24033574626473175   -0.0038271645012105115   -0.013338708197292347
-0.24033574626473175   -0.0038271645012105115   -0.013338708197292347
-0.24033574626473175   -0.0038271645012105115   -0.013338708197292347
-0.24033574626473175   -0.0038271645012105115   -0.013338708197292347
-0.1854204006813128   0.009910832920524797   0.004257858794620043
-0.1854204006813128   0.009910832920524797   0.004257858794620043
-0.1854204006813128   0.009910832920524797   0.004257858794620043
-0.1854204006813128   0.009910832920524797   0.004257858794620043
-0.14474076129959298   -0.027389356314084273   0.00048734977636719046
-0.14474076129959298   -0.027389356314084273   0.00048734977636719046
-0.14474076129959298   -0.027389356314084273   0.00048734977636719046
-0.14474076129959298   -0.027389356314084273   0.00048734977636719046
-0.03914646368799329   -0.0034758307859951024   0.005874164752498062
-0.03914646368799329   -0.0034758307859951024   0.005874164752498062
-0.03914646368799329   -0.0034758307859951024   0.005874164752498062
-0.03914646368799329   -0.0034758307859951024   0.005874164752498062
-0.03824089418491356   0.005387529452357801   0.0020041562924227345
-0.03824089418491356   0.005387529452357801   0.0020041562924227345
-0.03824089418491356   0.005387529452357801   0.0020041562924227345
-0.03824089418491356   0.005387529452357801   0.0020041562924227345
-0.1431587252564592   -0.015900597190653384   -0.0026998209477078713
-0.1431587252564592   -0.015900597190653384   -0.0026998209477078713
-0.1431587252564592   -0.015900597190653384   -0.0026998209477078713
-0.1431587252564592   -0.015900597190653384   -0.0026998209477078713
-0.09148334150318872   -0.009894092982972674   -0.002862403341144032
-0.09148334150318872   -0.009894092982972674   -0.002862403341144032
-0.09148334150318872   -0.009894092982972674   -0.002862403341144032
-0.09148334150318872   -0.009894092982972674   -0.002862403341144032
-0.14291719931009733   -0.016189267093727956   -0.001203521312822579
-0.14291719931009733   -0.016189267093727956   -0.001203521312822579
-0.14291719931009733   -0.016189267093727956   -0.001203521312822579
-0.14291719931009733   -0.016189267093727956   -0.001203521312822579
-0.037632617455351895   0.006526002031356188   0.003907067361232697
-0.037632617455351895   0.006526002031356188   0.003907067361232697
-0.037632617455351895   0.006526002031356188   0.003907067361232697
-0.037632617455351895   0.006526002031356188   0.003907067361232697
-0.036176466105260714   0.016638246503131914   0.00047597960936993436
-0.036176466105260714   0.016638246503131914   0.00047597960936993436
-0.036176466105260714   0.016638246503131914   0.00047597960936993436
-0.036176466105260714   0.016638246503131914   0.00047597960936993436
-0.14144794085730067   -0.00582494254864686   -0.004659185807560913
-0.14144794085730067   -0.00582494254864686   -0.004659185807560913
-0.14144794085730067   -0.00582494254864686   -0.004659185807560913
-0.14144794085730067   -0.00582494254864686   -0.004659185807560913
-0.08927644729965614   0.0001965914129645023   0.0011267571954126773
-0.08927644729965614   0.0001965914129645023   0.0011267571954126773
-0.08927644729965614   0.0001965914129645023   0.0011267571954126773
-0.08927644729965614   0.0001965914129645023   0.0011267571954126773
-0.1409160632904531   -0.004974847466811774   -0.002849893055158006
-0.1409160632904531   -0.004974847466811774   -0.002849893055158006
-0.1409160632904531   -0.004974847466811774   -0.002849893055158006
-0.1409160632904531   -0.004974847466811774   -0.002849893055158006
-0.03592349168040926   0.016573003412996182   0.0018060948237629045
-0.03592349168040926   0.016573003412996182   0.0018060948237629045
-0.03592349168040926   0.016573003412996182   0.0018060948237629045
-0.03592349168040926   0.016573003412996182   0.0018060948237629045
-0.034318493786500495   0.028052334811941318   -0.0013067682967826798
-0.034318493786500495   0.028052334811941318   -0.0013067682967826798
-0.034318493786500495   0.028052334811941318   -0.0013067682967826798
-0.034318493786500495   0.028052334811941318   -0.0013067682967826798
-0.13995699589700714   0.00436343483557141   -0.006720145101046187
-0.13995699589700714   0.00436343483557141   -0.006720145101046187
-0.13995699589700714   0.00436343483557141   -0.006720145101046187
-0.13995699589700714   0.00436343483557141   -0.006720145101046187
-0.08726277195550117   0.010336048637048883   0.004970117294118696
-0.08726277195550117   0.010336048637048883   0.004970117294118696
-0.08726277195550117   0.010336048637048883   0.004970117294118696
-0.08726277195550117   0.010336048637048883   0.004970117294118696
-0.04792337099857619   -0.03373029802135878   -0.007755904565053071
-0.04792337099857619   -0.03373029802135878   -0.007755904565053071
-0.04792337099857619   -0.03373029802135878   -0.007755904565053071
-0.04792337099857619   -0.03373029802135878   -0.007755904565053071
0.06189524598698966   0.004751901344755579   0.01272286824476901
0.06189524598698966   0.004751901344755579   0.01272286824476901
0.06189524598698966   0.004751901344755579   0.01272286824476901
0.06189524598698966   0.004751901344755579   0.01272286824476901
0.057268317409206335   -0.002314484917143136   -0.007301271009522216
0.057268317409206335   -0.002314484917143136   -0.007301271009522216
0.057268317409206335   -0.002314484917143136   -0.007301271009522216
0.057268317409206335   -0.002314484917143136   -0.007301271009522216
-0.04030663942585828   -0.007728613518389512   0.004791573058446124
-0.04030663942585828   -0.007728613518389512   0.004791573058446124
-0.04030663942585828   -0.007728613518389512   0.004791573058446124
-0.04030663942585828   -0.007728613518389512   0.004791573058446124
0.007348810426735409   -0.009481612818606593   -0.0020482814854890655
0.007348810426735409   -0.009481612818606593   -0.0020482814854890655
0.007348810426735409   -0.009481612818606593   -0.0020482814854890655
0.007348810426735409   -0.009481612818606593   -0.0020482814854890655
-0.0463336655563231   -0.02349088460899854   -0.009581286503268609
-0.0463336655563231   -0.02349088460899854   -0.009581286503268609
-0.0463336655563231   -0.02349088460899854   -0.009581286503268609
-0.0463336655563231   -0.02349088460899854   -0.009581286503268609
0.0643054309541443   0.014457873587938895   0.011111938210085581
0.0643054309541443   0.014457873587938895   0.011111938210085581
0.0643054309541443   0.014457873587938895   0.011111938210085581
0.0643054309541443   0.014457873587938895   0.011111938210085581
0.061130314415703546   0.008331318293661027   -0.008282982801193153
0.061130314415703546   0.008331318293661027   -0.008282982801193153
0.061130314415703546   0.008331318293661027   -0.008282982801193153
0.061130314415703546   0.008331318293661027   -0.008282982801193153
-0.038818826964631944   0.0012814973021165934   0.002620924513528771
-0.038818826964631944   0.0012814973021165934   0.002620924513528771
-0.038818826964631944   0.0012814973021165934   0.002620924513528771
-0.038818826964631944   0.0012814973021165934   0.002620924513528771
0.009416202599346234   -0.0003046154199727747   0.00201875377481174
0.009416202599346234   -0.0003046154199727747   0.00201875377481174
0.009416202599346234   -0.0003046154199727747   0.00201875377481174
0.009416202599346234   -0.0003046154199727747   0.00201875377481174
-0.04463581384504343   -0.013501511096276857   -0.011681001490134884
-0.04463581384504343   -0.013501511096276857   -0.011681001490134884
-0.04463581384504343   -0.013501511096276857   -0.011681001490134884
-0.04463581384504343   -0.013501511096276857   -0.011681001490134884
0.06782415493915223   0.0239911803350909   0.009526357774619965
0.06782415493915223   0.0239911803350909   0.009526357774619965
0.06782415493915223   0.0239911803350909   0.009526357774619965
0.06782415493915223   0.0239911803350909   0.009526357774619965
0.06424860377662632   0.02042735932276777   -0.009590503137317217
0.06424860377662632   0.02042735932276777   -0.009590503137317217
0.06424860377662632   0.02042735932276777   -0.009590503137317217
0.06424860377662632   0.02042735932276777   -0.009590503137317217
-0.03723089229139222   0.011627966643110652   0.000555607347589358
-0.03723089229139222   0.011627966643110652   0.000555607347589358
-0.03723089229139222   0.011627966643110652   0.000555607347589358
-0.03723089229139222   0.011627966643110652   0.000555607347589358
0.012565609621794484   0.00962581588821907   0.006213057998407056
0.012565609621794484   0.00962581588821907   0.006213057998407056
0.012565609621794484   0.00962581588821907   0.006213057998407056
0.012565609621794484   0.00962581588821907   0.006213057998407056
0.04850407385257103   -0.03407489028762284   -0.015406200794945236
0.04850407385257103   -0.03407489028762284   -0.015406200794945236
0.04850407385257103   -0.03407489028762284   -0.015406200794945236
0.04850407385257103   -0.03407489028762284   -0.015406200794945236
0.15083664866855426   0.015034609065139495   0.01664793668435774
0.15083664866855426   0.015034609065139495   0.01664793668435774
0.15083664866855426   0.015034609065139495   0.01664793668435774
0.15083664866855426   0.015034609065139495   0.01664793668435774
0.14922685856400342   -0.008911315592426024   -0.020300892605132015
0.14922685856400342   -0.008911315592426024   -0.020300892605132015
0.14922685856400342   -0.008911315592426024   -0.020300892605132015
0.14922685856400342   -0.008911315592426024   -0.020300892605132015
0.06228181934050397   0.0030016259027520822   0.012450127827070919
0.06228181934050397   0.0030016259027520822   0.012450127827070919
0.06228181934050397   0.0030016259027520822   0.012450127827070919
0.06228181934050397   0.0030016259027520822   0.012450127827070919
0.09733982854099076   -0.007214201127371551   -0.005303209315480156
0.09733982854099076   -0.007214201127371551   -0.005303209315480156
0.09733982854099076   -0.007214201127371551   -0.005303209315480156
0.09733982854099076   -0.007214201127371551   -0.005303209315480156
0.049970571180802996   -0.028269409968146864   -0.017835077100534683
0.049970571180802996   -0.028269409968146864   -0.017835077100534683
0.049970571180802996   -0.028269409968146864   -0.017835077100534683
0.049970571180802996   -0.028269409968146864   -0.017835077100534683
0.16256782829072475   0.023389441845493443   0.014103198590556936
0.16256782829072475   0.023389441845493443   0.014103198590556936
0.16256782829072475   0.023389441845493443   0.014103198590556936
0.16256782829072475   0.023389441845493443   0.014103198590556936
0.15777320969436712   -0.0029596623508233375   -0.024405805371395403
0.15777320969436712   -0.0029596623508233375   -0.024405805371395403
0.15777320969436712   -0.0029596623508233375   -0.024405805371395403
0.15777320969436712   -0.0029596623508233375   -0.024405805371395403
0.06454180203409107   0.0073651132299316305   0.00974066035447343
0.06454180203409107   0.0073651132299316305   0.00974066035447343
0.06454180203409107   0.0073651132299316305   0.00974066035447343
0.06454180203409107   0.0073651132299316305   0.00974066035447343
0.10587509242619467   -0.0011860641530701058   -0.000537030322941676
0.10587509242619467   -0.0011860641530701058   -0.000537030322941676
0.10587509242619467   -0.0011860641530701058   -0.000537030322941676
0.10587509242619467   -0.0011860641530701058   -0.000537030322941676
0.0523121528600628   -0.02331600591712707   -0.02072646636860883
0.0523121528600628   -0.02331600591712707   -0.02072646636860883
0.0523121528600628   -0.02331600591712707   -0.02072646636860883
0.0523121528600628   -0.02331600591712707   -0.02072646636860883
0.17108099349295117   0.028799591420791228   0.010373859849911297
0.17108099349295117   0.028799591420791228   0.010373859849911297
0.17108099349295117   0.028799591420791228   0.010373859849911297
0.17108099349295117   0.028799591420791228   0.010373859849911297
0.1709515011925672   0.010072760718505179   -0.02617655292557155
0.1709515011925672   0.010072760718505179   -0.02617655292557155
0.1709515011925672   0.010072760718505179   -0.02617655292557155
0.1709515011925672   0.010072760718505179   -0.02617655292557155
0.06685114900595823   0.016096718175955434   0.0077528641561540115
0.06685114900595823   0.016096718175955434   0.0077528641561540115
0.06685114900595823   0.016096718175955434   0.0077528641561540115
0.06685114900595823   0.016096718175955434   0.0077528641561540115
0.11028949145660395   0.005412186722423613   0.0036061419824399716
0.11028949145660395   0.005412186722423613   0.0036061419824399716
0.11028949145660395   0.005412186722423613   0.0036061419824399716
0.11028949145660395   0.005412186722423613   0.0036061419824399716
-0.20664581808072907   -0.003070699405285496   0.020782863661766477
-0.20664581808072907   -0.003070699405285496   0.020782863661766477
-0.20664581808072907   -0.003070699405285496   0.020782863661766477
-0.20664581808072907   -0.003070699405285496   0.020782863661766477
-0.16289104393419138   -0.02095974239216291   -0.010150424780276581
-0.16289104393419138   -0.02095974239216291   -0.010150424780276581
-0.16289104393419138   -0.02095974239216291   -0.010150424780276581
-0.16289104393419138   -0.02095974239216291   -0.010150424780276581
-0.14737588240511204   0.017619450012757498   0.017732736050008805
-0.14737588240511204   0.017619450012757498   0.017732736050008805
-0.14737588240511204   0.017619450012757498   0.017732736050008805
-0.14737588240511204   0.017619450012757498   0.017732736050008805
-0.20585739897716038   -0.0224890854691981   -0.013868803256804688
-0.20585739897716038   -0.0224890854691981   -0.013868803256804688
-0.20585739897716038   -0.0224890854691981   -0.013868803256804688
-0.20585739897716038   -0.0224890854691981   -0.013868803256804688
-0.17385675629716787   -0.004697927117161917   -0.002826854558911119
-0.17385675629716787   -0.004697927117161917   -0.002826854558911119
-0.17385675629716787   -0.004697927117161917   -0.002826854558911119
-0.17385675629716787   -0.004697927117161917   -0.002826854558911119
-0.19283025542240634   0.008947995007375052   0.019829834040391715
-0.19283025542240634   0.008947995007375052   0.019829834040391715
-0.19283025542240634   0.008947995007375052   0.019829834040391715
-0.19283025542240634   0.008947995007375052   0.019829834040391715
-0.159482468751272   -0.01289707325522153   -0.012283672412810205
-0.159482468751272   -0.01289707325522153   -0.012283672412810205
-0.159482468751272   -0.01289707325522153   -0.012283672412810205
-0.159482468751272   -0.01289707325522153   -0.012283672412810205
-0.14381088954816723   0.022219235558947493   0.014971074653328701
-0.14381088954816723   0.022219235558947493   0.014971074653328701
-0.14381088954816723   0.022219235558947493   0.014971074653328701
-0.14381088954816723   0.022219235558947493   0.014971074653328701
-0.19631518396185893   -0.017272655243668063   -0.017282595668246786
-0.19631518396185893   -0.017272655243668063   -0.017282595668246786
-0.19631518396185893   -0.017272655243668063   -0.017282595668246786
-0.19631518396185893   -0.017272655243668063   -0.017282595668246786
-0.1688659138734026   0.0013029969896683896   0.0010285017226779533
-0.1688659138734026   0.0013029969896683896   0.0010285017226779533
-0.1688659138734026   0.0013029969896683896   0.0010285017226779533
-0.1688659138734026   0.0013029969896683896   0.0010285017226779533
-0.18330113164423334   0.014524978620258755   0.015990032055952633
-0.18330113164423334   0.014524978620258755   0.015990032055952633
-0.18330113164423334   0.014524978620258755   0.015990032055952633
-0.18330113164423334   0.014524978620258755   0.015990032055952633
-0.15595941016459142   -0.008712866603778284   -0.01483942626606538
-0.15595941016459142   -0.008712866603778284   -0.01483942626606538
-0.15595941016459142   -0.008712866603778284   -0.01483942626606538
-0.15595941016459142   -0.008712866603778284   -0.01483942626606538
-0.1409511098117941   0.028018814034185026   0.012907414800374177
-0.1409511098117941   0.028018814034185026   0.012907414800374177
-0.1409511098117941   0.028018814034185026   0.012907414800374177
-0.1409511098117941   0.028018814034185026   0.012907414800374177
-0.18350845959571824   -0.008907253314687912   -0.019982922564060084
-0.18350845959571824   -0.008907253314687912   -0.019982922564060084
-0.18350845959571824   -0.008907253314687912   -0.019982922564060084
-0.18350845959571824   -0.008907253314687912   -0.019982922564060084
-0.1588606115383463   0.007260373787250453   0.005778994611368139
-0.1588606115383463   0.007260373787250453   0.005778994611368139
-0.1588606115383463   0.007260373787250453   0.005778994611368139
-0.1588606115383463   0.007260373787250453   0.005778994611368139
-0.15699476557976186   -0.01159487067734932   0.009966095277057514
-0.15699476557976186   -0.01159487067734932   0.009966095277057514
-0.15699476557976186   -0.01159487067734932   0.009966095277057514
-0.15699476557976186   -0.01159487067734932   0.009966095277057514
-0.11677682199512036   -0.015870692168825307   -0.002995632846360905
-0.11677682199512036   -0.015870692168825307   -0.002995632846360905
-0.11677682199512036   -0.015870692168825307   -0.002995632846360905
-0.11677682199512036   -0.015870692168825307   -0.002995632846360905
-0.10819340230717125   0.007984884813735656   0.009070340043027661
-0.10819340230717125   0.007984884813735656   0.009070340043027661
-0.10819340230717125   0.007984884813735656   0.009070340043027661
-0.10819340230717125   0.007984884813735656   0.009070340043027661
-0.15947333570452288   -0.016550121481978517   -0.008584958952305932
-0.15947333570452288   -0.016550121481978517   -0.008584958952305932
-0.15947333570452288   -0.016550121481978517   -0.008584958952305932
-0.15947333570452288   -0.016550121481978517   -0.008584958952305932
-0.13502313277258832   -0.008273425713282143   -0.0037273965592718415
-0.13502313277258832   -0.008273425713282143   -0.0037273965592718415
-0.13502313277258832   -0.008273425713282143   -0.0037273965592718415
-0.13502313277258832   -0.008273425713282143   -0.0037273965592718415
-0.1529684377091457   -0.001088590305621178   0.008477999848219184
-0.1529684377091457   -0.001088590305621178   0.008477999848219184
-0.1529684377091457   -0.001088590305621178   0.008477999848219184
-0.1529684377091457   -0.001088590305621178   0.008477999848219184
-0.11395634064426566   -0.006734686704339441   -0.00502478012436777
-0.11395634064426566   -0.006734686704339441   -0.00502478012436777
-0.11395634064426566   -0.006734686704339441   -0.00502478012436777
-0.11395634064426566   -0.006734686704339441   -0.00502478012436777
-0.10512928884204643   0.017368232440091405   0.0072431795932375986
-0.10512928884204643   0.017368232440091405   0.0072431795932375986
-0.10512928884204643   0.017368232440091405   0.0072431795932375986
-0.10512928884204643   0.017368232440091405   0.0072431795932375986
-0.1548209870882286   -0.007573513382392906   -0.01028666410563559
-0.1548209870882286   -0.007573513382392906   -0.01028666410563559
-0.1548209870882286   -0.007573513382392906   -0.01028666410563559
-0.1548209870882286   -0.007573513382392906   -0.01028666410563559
-0.13054713952519686   0.000728890356296405   0.0003037926890306379
-0.13054713952519686   0.000728890356296405   0.0003037926890306379
-0.13054713952519686   0.000728890356296405   0.0003037926890306379
-0.13054713952519686   0.000728890356296405   0.0003037926890306379
-0.14793235503242808   0.00889631653463474   0.007686666256337251
-0.14793235503242808   0.00889631653463474   0.007686666256337251
-0.14793235503242808   0.00889631653463474   0.007686666256337251
-0.14793235503242808   0.00889631653463474   0.007686666256337251
-0.11116160855426929   0.0017547148666406769   -0.007304901394426985
-0.11116160855426929   0.0017547148666406769   -0.007304901394426985
-0.11116160855426929   0.0017547148666406769   -0.007304901394426985
-0.11116160855426929   0.0017547148666406769   -0.007304901394426985
-0.10207322949268402   0.02759360909916417   0.005502643032537125
-0.10207322949268402   0.02759360909916417   0.005502643032537125
-0.10207322949268402   0.02759360909916417   0.005502643032537125
-0.10207322949268402   0.02759360909916417   0.005502643032537125
-0.15101271675996666   0.0022714236317353947   -0.011653229538037652
-0.15101271675996666   0.0022714236317353947   -0.011653229538037652
-0.15101271675996666   0.0022714236317353947   -0.011653229538037652
-0.15101271675996666   0.0022714236317353947   -0.011653229538037652
-0.12732464906927793   0.009602446953597611   0.004264364318113376
-0.12732464906927793   0.009602446953597611   0.004264364318113376
-0.12732464906927793   0.009602446953597611   0.004264364318113376
-0.12732464906927793   0.009602446953597611   0.004264364318113376
-0.11658987650708673   -0.01977138817943099   0.001839790604411101
-0.11658987650708673   -0.01977138817943099   0.001839790604411101
-0.11658987650708673   -0.01977138817943099   0.001839790604411101
-0.11658987650708673   -0.01977138817943099   0.001839790604411101
-0.07117077392586812   -0.0085894388676509   0.004236697911710467
-0.07117077392586812   -0.0085894388676509   0.004236697911710467
-0.07117077392586812   -0.0085894388676509   0.004236697911710467
-0.07117077392586812   -0.0085894388676509   0.004236697911710467
-0.06892523653388583   -0.0004075208213473267   0.0005320721762490594
-0.06892523653388583   -0.0004075208213473267   0.0005320721762490594
-0.06892523653388583   -0.0004075208213473267   0.0005320721762490594
-0.06892523653388583   -0.0004075208213473267   0.0005320721762490594
-0.1135831205805463   -0.008925510317025745   -0.0009678561930862137
-0.1135831205805463   -0.008925510317025745   -0.0009678561930862137
-0.1135831205805463   -0.008925510317025745   -0.0009678561930862137
-0.1135831205805463   -0.008925510317025745   -0.0009678561930862137
-0.09271768849909731   -0.008977524148035243   -0.0027283779384536734
-0.09271768849909731   -0.008977524148035243   -0.0027283779384536734
-0.09271768849909731   -0.008977524148035243   -0.0027283779384536734
-0.09271768849909731   -0.008977524148035243   -0.0027283779384536734
-0.1134309128306352   -0.009367946723382339   0.00023561896282508783
-0.1134309128306352   -0.009367946723382339   0.00023561896282508783
-0.1134309128306352   -0.009367946723382339   0.00023561896282508783
-0.1134309128306352   -0.009367946723382339   0.00023561896282508783
-0.06833840321242671   0.0007739566563802619   0.0022847613058165515
-0.06833840321242671   0.0007739566563802619   0.0022847613058165515
-0.06833840321242671   0.0007739566563802619   0.0022847613058165515
-0.06833840321242671   0.0007739566563802619   0.0022847613058165515
-0.06558394225316407   0.01008543201330462   -0.0009713116019401053
-0.06558394225316407   0.01008543201330462   -0.0009713116019401053
-0.06558394225316407   0.01008543201330462   -0.0009713116019401053
-0.06558394225316407   0.01008543201330462   -0.0009713116019401053
-0.11051176763375442   0.0005732885468216625   -0.0028742704720333854
-0.11051176763375442   0.0005732885468216625   -0.0028742704720333854
-0.11051176763375442   0.0005732885468216625   -0.0028742704720333854
-0.11051176763375442   0.0005732885468216625   -0.0028742704720333854
-0.08918622105304558   0.0004357943897343279   0.0011908531867756969
-0.08918622105304558   0.0004357943897343279   0.0011908531867756969
-0.08918622105304558   0.0004357943897343279   0.0011908531867756969
-0.08918622105304558   0.0004357943897343279   0.0011908531867756969
-0.11011423197202272   0.001092479722174567   -0.00140578333872848
-0.11011423197202272   0.001092479722174567   -0.00140578333872848
-0.11011423197202272   0.001092479722174567   -0.00140578333872848
-0.11011423197202272   0.001092479722174567   -0.00140578333872848
-0.06531236881350853   0.0102353499393381   0.00023663767030291608
-0.06531236881350853   0.0102353499393381   0.00023663767030291608
-0.06531236881350853   0.0102353499393381   0.00023663767030291608
-0.06531236881350853   0.0102353499393381   0.00023663767030291608
-0.06242604146646186   0.020679012061126163   -0.0026732134038215637
-0.06242604146646186   0.020679012061126163   -0.0026732134038215637
-0.06242604146646186   0.020679012061126163   -0.0026732134038215637
-0.06242604146646186   0.020679012061126163   -0.0026732134038215637
-0.10764861102845182   0.010143824429546113   -0.0049244799766823
-0.10764861102845182   0.010143824429546113   -0.0049244799766823
-0.10764861102845182   0.010143824429546113   -0.0049244799766823
-0.10764861102845182   0.010143824429546113   -0.0049244799766823
-0.08585394589650981   0.00988355724241326   0.004951257171115083
-0.08585394589650981   0.00988355724241326   0.004951257171115083
-0.08585394589650981   0.00988355724241326   0.004951257171115083
-0.08585394589650981   0.00988355724241326   0.004951257171115083
-0.07693722244250548   -0.026830135581602514   -0.006354847957525916
-0.07693722244250548   -0.026830135581602514   -0.006354847957525916
-0.07693722244250548   -0.026830135581602514   -0.006354847957525916
-0.07693722244250548   -0.026830135581602514   -0.006354847957525916
-0.027141761821101066   -0.0008652044818112034   0.011084716178040554
-0.027141761821101066   -0.0008652044818112034   0.011084716178040554
-0.027141761821101066   -0.0008652044818112034   0.011084716178040554
-0.027141761821101066   -0.0008652044818112034   0.011084716178040554
-0.03046431501511071   -0.008394112596718425   -0.008378246743946004
-0.03046431501511071   -0.008394112596718425   -0.008378246743946004
-0.03046431501511071   -0.008394112596718425   -0.008378246743946004
-0.03046431501511071   -0.008394112596718425   -0.008378246743946004
-0.06787020478911841   -0.0010124911948769383   0.006412201273615149
-0.06787020478911841   -0.0010124911948769383   0.006412201273615149
-0.06787020478911841   -0.0010124911948769383   0.006412201273615149
-0.06787020478911841   -0.0010124911948769383   0.006412201273615149
-0.050560480591151306   -0.008875551865327128   -0.0019729734860206285
-0.050560480591151306   -0.008875551865327128   -0.0019729734860206285
-0.050560480591151306   -0.008875551865327128   -0.0019729734860206285
-0.050560480591151306   -0.008875551865327128   -0.0019729734860206285
-0.07397161028287205   -0.017034488149573337   -0.008072829240457238
-0.07397161028287205   -0.017034488149573337   -0.008072829240457238
-0.07397161028287205   -0.017034488149573337   -0.008072829240457238
-0.07397161028287205   -0.017034488149573337   -0.008072829240457238
-0.023536803229144008   0.008453990650189255   0.009411208938979366
-0.023536803229144008   0.008453990650189255   0.009411208938979366
-0.023536803229144008   0.008453990650189255   0.009411208938979366
-0.023536803229144008   0.008453990650189255   0.009411208938979366
-0.025513969400378003   0.0015308131214377772   -0.009437353954119246
-0.025513969400378003   0.0015308131214377772   -0.009437353954119246
-0.025513969400378003   0.0015308131214377772   -0.009437353954119246
-0.025513969400378003   0.0015308131214377772   -0.009437353954119246
-0.06504599118941756   0.007512852792461845   0.004291022937634667
-0.06504599118941756   0.007512852792461845   0.004291022937634667
-0.06504599118941756   0.007512852792461845   0.004291022937634667
-0.06504599118941756   0.007512852792461845   0.004291022937634667
-0.04677549983757444   -8.590410816123988e-05   0.0020289435421119613
-0.04677549983757444   -8.590410816123988e-05   0.0020289435421119613
-0.04677549983757444   -8.590410816123988e-05   0.0020289435421119613
-0.04677549983757444   -8.590410816123988e-05   0.0020289435421119613
-0.070952720853379   -0.00767951741356762   -0.010050255176143653
-0.070952720853379   -0.00767951741356762   -0.010050255176143653
-0.070952720853379   -0.00767951741356762   -0.010050255176143653
-0.070952720853379   -0.00767951741356762   -0.010050255176143653
-0.018837543615825826   0.0174928794480589   0.007982708642020525
-0.018837543615825826   0.0174928794480589   0.007982708642020525
-0.018837543615825826   0.0174928794480589   0.007982708642020525
-0.018837543615825826   0.0174928794480589   0.007982708642020525
-0.021332149711247732   0.01257913108867297   -0.010587313004743533
-0.021332149711247732   0.01257913108867297   -0.010587313004743533
-0.021332149711247732   0.01257913108867297   -0.010587313004743533
-0.021332149711247732   0.01257913108867297   -0.010587313004743533
-0.06215396970383162   0.017120758305070954   0.0022453991653848294
-0.06215396970383162   0.017120758305070954   0.0022453991653848294
-0.06215396970383162   0.017120758305070954   0.0022453991653848294
-0.06215396970383162   0.017120758305070954   0.0022453991653848294
-0.04288928682434364   0.009026142833627643   0.006014048550178331
-0.04288928682434364   0.009026142833627643   0.006014048550178331
-0.04288928682434364   0.009026142833627643   0.006014048550178331
-0.04288928682434364   0.009026142833627643   0.006014048550178331
-0.03772542385233626   -0.028789293723249617   -0.013909504736697467
-0.03772542385233626   -0.028789293723249617   -0.013909504736697467
-0.03772542385233626   -0.028789293723249617   -0.013909504736697467
-0.03772542385233626   -0.028789293723249617   -0.013909504736697467
0.005021755646777653   0.00800213011466035   0.017070302711743014
0.005021755646777653   0.00800213011466035   0.017070302711743014
0.005021755646777653   0.00800213011466035   0.017070302711743014
0.005021755646777653   0.00800213011466035   0.017070302711743014
0.004955414451270816   -0.014646590661389704   -0.01846455010440487
0.004955414451270816   -0.014646590661389704   -0.01846455010440487
0.004955414451270816   -0.014646590661389704   -0.01846455010440487
0.004955414451270816   -0.014646590661389704   -0.01846455010440487
-0.02251870291501156   0.008977776920175384   0.013977924239655692
-0.02251870291501156   0.008977776920175384   0.013977924239655692
-0.02251870291501156   0.008977776920175384   0.013977924239655692
-0.02251870291501156   0.008977776920175384   0.013977924239655692
-0.012686763340575318   -0.006279135608027956   -0.0031221600698753513
-0.012686763340575318   -0.006279135608027956   -0.0031221600698753513
-0.012686763340575318   -0.006279135608027956   -0.0031221600698753513
-0.012686763340575318   -0.006279135608027956   -0.0031221600698753513
-0.03472912744916781   -0.022091561102321855   -0.016004860408629043
-0.03472912744916781   -0.022091561102321855   -0.016004860408629043
-0.03472912744916781   -0.022091561102321855   -0.016004860408629043
-0.03472912744916781   -0.022091561102321855   -0.016004860408629043
0.018046517296691784   0.017303425672372474   0.015040947788937793
0.018046517296691784   0.017303425672372474   0.015040947788937793
0.018046517296691784   0.017303425672372474   0.015040947788937793
0.018046517296691784   0.017303425672372474   0.015040947788937793
0.01453660388207386   -0.008979422295230102   -0.021976819119318036
0.01453660388207386   -0.008979422295230102   -0.021976819119318036
0.01453660388207386   -0.008979422295230102   -0.021976819119318036
0.01453660388207386   -0.008979422295230102   -0.021976819119318036
-0.01906785152719697   0.013091539486577278   0.011232509046646397
-0.01906785152719697   0.013091539486577278   0.011232509046646397
-0.01906785152719697   0.013091539486577278   0.011232509046646397
-0.01906785152719697   0.013091539486577278   0.011232509046646397
-0.004913487586976402   -0.0004247428731627944   0.001188594588093427
-0.004913487586976402   -0.0004247428731627944   0.001188594588093427
-0.004913487586976402   -0.0004247428731627944   0.001188594588093427
-0.004913487586976402   -0.0004247428731627944   0.001188594588093427
-0.031127425962049204   -0.017426357640332582   -0.018547466000704886
-0.031127425962049204   -0.017426357640332582   -0.018547466000704886
-0.031127425962049204   -0.017426357640332582   -0.018547466000704886
-0.031127425962049204   -0.017426357640332582   -0.018547466000704886
0.027481852991999157   0.022424149506752575   0.011345854628326737
0.027481852991999157   0.022424149506752575   0.011345854628326737
0.027481852991999157   0.022424149506752575   0.011345854628326737
0.027481852991999157   0.022424149506752575   0.011345854628326737
0.028060233844673387   0.0020728335830074223   -0.023575643647301203
0.028060233844673387   0.0020728335830074223   -0.023575643647301203
0.028060233844673387   0.0020728335830074223   -0.023575643647301203
0.028060233844673387   0.0020728335830074223   -0.023575643647301203
-0.015852109535973335   0.020258999493268443   0.00913301946703281
-0.015852109535973335   0.020258999493268443   0.00913301946703281
-0.015852109535973335   0.020258999493268443   0.00913301946703281
-0.015852109535973335   0.020258999493268443   0.00913301946703281
0.0022606750636712802   0.005683466265712648   0.0054392833611300925
0.0022606750636712802   0.005683466265712648   0.0054392833611300925
0.0022606750636712802   0.005683466265712648   0.0054392833611300925
0.0022606750636712802   0.005683466265712648   0.0054392833611300925
-0.0657759109325634   0.004398366097300117   0.019524984665414354
-0.0657759109325634   0.004398366097300117   0.019524984665414354
-0.0657759109325634   0.004398366097300117   0.019524984665414354
-0.0657759109325634   0.004398366097300117   0.019524984665414354
-0.08140542850801415   -0.025290934203580195   -0.01135666652861483
-0.08140542850801415   -0.025290934203580195   -0.01135666652861483
-0.08140542850801415   -0.025290934203580195   -0.01135666652861483
-0.08140542850801415   -0.025290934203580195   -0.01135666652861483
-0.06499557343542631   0.011647045677180216   0.01595002693334513
-0.06499557343542631   0.011647045677180216   0.01595002693334513
-0.06499557343542631   0.011647045677180216   0.01595002693334513
-0.06499557343542631   0.011647045677180216   0.01595002693334513
-0.06396410588048485   -0.01620653268790733   -0.014703856769128243
-0.06396410588048485   -0.01620653268790733   -0.014703856769128243
-0.06396410588048485   -0.01620653268790733   -0.014703856769128243
-0.06396410588048485   -0.01620653268790733   -0.014703856769128243
-0.06739284827067678   -0.005165882961447632   -0.005487515304734705
-0.06739284827067678   -0.005165882961447632   -0.005487515304734705
-0.06739284827067678   -0.005165882961447632   -0.005487515304734705
-0.06739284827067678   -0.005165882961447632   -0.005487515304734705
-0.051176940223848916   0.014854878915046069   0.01817055991109785
-0.051176940223848916   0.014854878915046069   0.01817055991109785
-0.051176940223848916   0.014854878915046069   0.01817055991109785
-0.051176940223848916   0.014854878915046069   0.01817055991109785
-0.07695914936440834   -0.018590776198118032   -0.013630030836265915
-0.07695914936440834   -0.018590776198118032   -0.013630030836265915
-0.07695914936440834   -0.018590776198118032   -0.013630030836265915
-0.07695914936440834   -0.018590776198118032   -0.013630030836265915
-0.06009144282901889   0.01610771000113152   0.013395489422911126
-0.06009144282901889   0.01610771000113152   0.013395489422911126
-0.06009144282901889   0.01610771000113152   0.013395489422911126
-0.06009144282901889   0.01610771000113152   0.013395489422911126
-0.05318715159687895   -0.011165399514321765   -0.018261753846515582
-0.05318715159687895   -0.011165399514321765   -0.018261753846515582
-0.05318715159687895   -0.011165399514321765   -0.018261753846515582
-0.05318715159687895   -0.011165399514321765   -0.018261753846515582
-0.05944809805205448   0.000510540202033458   -0.0012808191185375017
-0.05944809805205448   0.000510540202033458   -0.0012808191185375017
-0.05944809805205448   0.000510540202033458   -0.0012808191185375017
-0.05944809805205448   0.000510540202033458   -0.0012808191185375017
-0.04034993416624201   0.020273917172978138   0.014485016619368367
-0.04034993416624201   0.020273917172978138   0.014485016619368367
-0.04034993416624201   0.020273917172978138   0.014485016619368367
-0.04034993416624201   0.020273917172978138   0.014485016619368367
-0.07215895926344816   -0.014561905689960707   -0.016272477058141072
-0.07215895926344816   -0.014561905689960707   -0.016272477058141072
-0.07215895926344816   -0.014561905689960707   -0.016272477058141072
-0.07215895926344816   -0.014561905689960707   -0.016272477058141072
-0.055627621425484955   0.0229785414507027   0.011565213092652023
-0.055627621425484955   0.0229785414507027   0.011565213092652023
-0.055627621425484955   0.0229785414507027   0.011565213092652023
-0.055627621425484955   0.0229785414507027   0.011565213092652023
-0.0387905896316949   -0.0015885685484514703   -0.020555425770750025
-0.0387905896316949   -0.0015885685484514703   -0.020555425770750025
-0.0387905896316949   -0.0015885685484514703   -0.020555425770750025
-0.0387905896316949   -0.0015885685484514703   -0.020555425770750025
-0.049962550209608214   0.0064806866335670125   0.0031957815294329124
-0.049962550209608214   0.0064806866335670125   0.0031957815294329124
-0.049962550209608214   0.0064806866335670125   0.0031957815294329124
-0.049962550209608214   0.0064806866335670125   0.0031957815294329124
-0.07266669504495402   -0.004200272410749811   0.011246338993853588
-0.07266669504495402   -0.004200272410749811   0.011246338993853588
-0.07266669504495402   -0.004200272410749811   0.011246338993853588
-0.07266669504495402   -0.004200272410749811   0.011246338993853588
-0.09235400767361761   -0.020644032474845978   -0.004432407235938522
-0.09235400767361761   -0.020644032474845978   -0.004432407235938522
-0.09235400767361761   -0.020644032474845978   -0.004432407235938522
-0.09235400767361761   -0.020644032474845978   -0.004432407235938522
-0.08263338805771911   0.0020169774091877944   0.0074105878567218685
-0.08263338805771911   0.0020169774091877944   0.0074105878567218685
-0.08263338805771911   0.0020169774091877944   0.0074105878567218685
-0.08263338805771911   0.0020169774091877944   0.0074105878567218685
-0.0737289016134346   -0.009421994975443507   -0.006647573304071601
-0.0737289016134346   -0.009421994975443507   -0.006647573304071601
-0.0737289016134346   -0.009421994975443507   -0.006647573304071601
-0.0737289016134346   -0.009421994975443507   -0.006647573304071601
-0.08043788180514742   -0.007425086791673108   -0.0037871484868580124
-0.08043788180514742   -0.007425086791673108   -0.0037871484868580124
-0.08043788180514742   -0.007425086791673108   -0.0037871484868580124
-0.08043788180514742   -0.007425086791673108   -0.0037871484868580124
-0.0674461606645138   0.005534277174585128   0.009809859290502796
-0.0674461606645138   0.005534277174585128   0.009809859290502796
-0.0674461606645138   0.005534277174585128   0.009809859290502796
-0.0674461606645138   0.005534277174585128   0.009809859290502796
-0.0882685096355278   -0.012291675369728899   -0.006456367253405361
-0.0882685096355278   -0.012291675369728899   -0.006456367253405361
-0.0882685096355278   -0.012291675369728899   -0.006456367253405361
-0.0882685096355278   -0.012291675369728899   -0.006456367253405361
-0.07826749151073197   0.01092344162799308   0.005644615368805346
-0.07826749151073197   0.01092344162799308   0.005644615368805346
-0.07826749151073197   0.01092344162799308   0.005644615368805346
-0.07826749151073197   0.01092344162799308   0.005644615368805346
-0.06782101339208274   -0.000883670824247923   -0.008260982567026936
-0.06782101339208274   -0.000883670824247923   -0.008260982567026936
-0.06782101339208274   -0.000883670824247923   -0.008260982567026936
-0.06782101339208274   -0.000883670824247923   -0.008260982567026936
-0.07518957004195742   0.0008450119713324933   8.22484863822132e-05
-0.07518957004195742   0.0008450119713324933   8.22484863822132e-05
-0.07518957004195742   0.0008450119713324933   8.22484863822132e-05
-0.07518957004195742   0.0008450119713324933   8.22484863822132e-05
-0.061229245808700594   0.014970837166471539   0.008843347359162599
-0.061229245808700594   0.014970837166471539   0.008843347359162599
-0.061229245808700594   0.014970837166471539   0.008843347359162599
-0.061229245808700594   0.014970837166471539   0.008843347359162599
-0.0841680762557061   -0.0042398835243183   -0.008694983203755453
-0.0841680762557061   -0.0042398835243183   -0.008694983203755453
-0.0841680762557061   -0.0042398835243183   -0.008694983203755453
-0.0841680762557061   -0.0042398835243183   -0.008694983203755453
-0.07387665566285093   0.020822407292574775   0.003965627669043533
-0.07387665566285093   0.020822407292574775   0.003965627669043533
-0.07387665566285093   0.020822407292574775   0.003965627669043533
-0.07387665566285093   0.020822407292574775   0.003965627669043533
-0.06276002322876433   0.008635045200142698   -0.009753299673183516
-0.06276002322876433   0.008635045200142698   -0.009753299673183516
-0.06276002322876433   0.008635045200142698   -0.009753299673183516
-0.06276002322876433   0.008635045200142698   -0.009753299673183516
-0.07022344217382383   0.009431909440055935   0.004036982662886367
-0.07022344217382383   0.009431909440055935   0.004036982662886367
-0.07022344217382383   0.009431909440055935   0.004036982662886367
-0.07022344217382383   0.009431909440055935   0.004036982662886367
-0.0891732312789538   -0.012393151223420244   0.003220593485953388
-0.0891732312789538   -0.012393151223420244   0.003220593485953388
-0.0891732312789538   -0.012393151223420244   0.003220593485953388
-0.0891732312789538   -0.012393151223420244   0.003220593485953388
-0.10315809875898645   -0.013276082828480237   0.002653626428144799
-0.10315809875898645   -0.013276082828480237   0.002653626428144799
-0.10315809875898645   -0.013276082828480237   0.002653626428144799
-0.10315809875898645   -0.013276082828480237   0.002653626428144799
-0.09970287168661109   -0.00615235007604327   -0.0009823038821167307
-0.09970287168661109   -0.00615235007604327   -0.0009823038821167307
-0.09970287168661109   -0.00615235007604327   -0.0009823038821167307
-0.09970287168661109   -0.00615235007604327   -0.0009823038821167307
-0.08467550391880947   -0.0016792617079453669   0.0008962476684031191
-0.08467550391880947   -0.0016792617079453669   0.0008962476684031191
-0.08467550391880947   -0.0016792617079453669   0.0008962476684031191
-0.08467550391880947   -0.0016792617079453669   0.0008962476684031191
-0.0943192988380068   -0.007901790408357773   -0.0025371943395897474
-0.0943192988380068   -0.007901790408357773   -0.0025371943395897474
-0.0943192988380068   -0.007901790408357773   -0.0025371943395897474
-0.0943192988380068   -0.007901790408357773   -0.0025371943395897474
-0.0847159705723746   -0.0026296487818724453   0.0016443014745037604
-0.0847159705723746   -0.0026296487818724453   0.0016443014745037604
-0.0847159705723746   -0.0026296487818724453   0.0016443014745037604
-0.0847159705723746   -0.0026296487818724453   0.0016443014745037604
-0.09904877674599584   -0.004588334715065402   0.000724155459981632
-0.09904877674599584   -0.004588334715065402   0.000724155459981632
-0.09904877674599584   -0.004588334715065402   0.000724155459981632
-0.09904877674599584   -0.004588334715065402   0.000724155459981632
-0.09510334206416045   0.003734608537485265   -0.002476096088309337
-0.09510334206416045   0.003734608537485265   -0.002476096088309337
-0.09510334206416045   0.003734608537485265   -0.002476096088309337
-0.09510334206416045   0.003734608537485265   -0.002476096088309337
-0.08032392276711343   0.007245846267222897   -0.0009599455523320666
-0.08032392276711343   0.007245846267222897   -0.0009599455523320666
-0.08032392276711343   0.007245846267222897   -0.0009599455523320666
-0.08032392276711343   0.007245846267222897   -0.0009599455523320666
-0.08950545353750536   0.000917158719696963   0.0012938954628109508
-0.08950545353750536   0.000917158719696963   0.0012938954628109508
-0.08950545353750536   0.000917158719696963   0.0012938954628109508
-0.08950545353750536   0.000917158719696963   0.0012938954628109508
-0.08013817725813518   0.007221488640257689   -6.860380476853174e-06
-0.08013817725813518   0.007221488640257689   -6.860380476853174e-06
-0.08013817725813518   0.007221488640257689   -6.860380476853174e-06
-0.08013817725813518   0.007221488640257689   -6.860380476853174e-06
-0.09475183575204574   0.004296217985543815   -0.0012801739757951677
-0.09475183575204574   0.004296217985543815   -0.0012801739757951677
-0.09475183575204574   0.004296217985543815   -0.0012801739757951677
-0.09475183575204574   0.004296217985543815   -0.0012801739757951677
-0.09069773402024084   0.013688952869523454   -0.004149714785006572
-0.09069773402024084   0.013688952869523454   -0.004149714785006572
-0.09069773402024084   0.013688952869523454   -0.004149714785006572
-0.09069773402024084   0.013688952869523454   -0.004149714785006572
-0.0761949200491315   0.016207573573161046   -0.003010860542944865
-0.0761949200491315   0.016207573573161046   -0.003010860542944865
-0.0761949200491315   0.016207573573161046   -0.003010860542944865
-0.0761949200491315   0.016207573573161046   -0.003010860542944865
-0.08492493343208539   0.009754042874720602   0.004944429592865765
-0.08492493343208539   0.009754042874720602   0.004944429592865765
-0.08492493343208539   0.009754042874720602   0.004944429592865765
-0.08492493343208539   0.009754042874720602   0.004944429592865765
-0.10599985688846131   -0.019850013450360558   -0.004981233597350153
-0.10599985688846131   -0.019850013450360558   -0.004981233597350153
-0.10599985688846131   -0.019850013450360558   -0.004981233597350153
-0.10599985688846131   -0.019850013450360558   -0.004981233597350153
-0.11501610709865595   -0.00605075071742384   0.009399332040471747
-0.11501610709865595   -0.00605075071742384   0.009399332040471747
-0.11501610709865595   -0.00605075071742384   0.009399332040471747
-0.11501610709865595   -0.00605075071742384   0.009399332040471747
-0.11701970014448708   -0.014029579832008941   -0.009523746556676219
-0.11701970014448708   -0.014029579832008941   -0.009523746556676219
-0.11701970014448708   -0.014029579832008941   -0.009523746556676219
-0.11701970014448708   -0.014029579832008941   -0.009523746556676219
-0.09549644967413244   0.005880236077851483   0.00801722002638176
-0.09549644967413244   0.005880236077851483   0.00801722002638176
-0.09549644967413244   0.005880236077851483   0.00801722002638176
-0.09549644967413244   0.005880236077851483   0.00801722002638176
-0.1079104711136922   -0.007977059090627448   -0.001604340422283061
-0.1079104711136922   -0.007977059090627448   -0.001604340422283061
-0.1079104711136922   -0.007977059090627448   -0.001604340422283061
-0.1079104711136922   -0.007977059090627448   -0.001604340422283061
-0.10167416762629665   -0.010378292290295715   -0.006612841366292854
-0.10167416762629665   -0.010378292290295715   -0.006612841366292854
-0.10167416762629665   -0.010378292290295715   -0.006612841366292854
-0.10167416762629665   -0.010378292290295715   -0.006612841366292854
-0.1101991415370508   0.0028717891914089334   0.00767767745708735
-0.1101991415370508   0.0028717891914089334   0.00767767745708735
-0.1101991415370508   0.0028717891914089334   0.00767767745708735
-0.1101991415370508   0.0028717891914089334   0.00767767745708735
-0.11092250561274022   -0.004658333972172055   -0.010688396462212176
-0.11092250561274022   -0.004658333972172055   -0.010688396462212176
-0.11092250561274022   -0.004658333972172055   -0.010688396462212176
-0.11092250561274022   -0.004658333972172055   -0.010688396462212176
-0.09137814287463451   0.013923799349614775   0.005960709047190017
-0.09137814287463451   0.013923799349614775   0.005960709047190017
-0.09137814287463451   0.013923799349614775   0.005960709047190017
-0.09137814287463451   0.013923799349614775   0.005960709047190017
-0.10239222463472275   0.0005323407692936974   0.0023583020249851945
-0.10239222463472275   0.0005323407692936974   0.0023583020249851945
-0.10239222463472275   0.0005323407692936974   0.0023583020249851945
-0.10239222463472275   0.0005323407692936974   0.0023583020249851945
-0.09736230286889609   -0.0015132270382180839   -0.00852306453628587
-0.09736230286889609   -0.0015132270382180839   -0.00852306453628587
-0.09736230286889609   -0.0015132270382180839   -0.00852306453628587
-0.09736230286889609   -0.0015132270382180839   -0.00852306453628587
-0.10428884520870542   0.01142819282543522   0.006393378760355501
-0.10428884520870542   0.01142819282543522   0.006393378760355501
-0.10428884520870542   0.01142819282543522   0.006393378760355501
-0.10428884520870542   0.01142819282543522   0.006393378760355501
-0.10559716487963726   0.005634876184127217   -0.011740816263528206
-0.10559716487963726   0.005634876184127217   -0.011740816263528206
-0.10559716487963726   0.005634876184127217   -0.011740816263528206
-0.10559716487963726   0.005634876184127217   -0.011740816263528206
-0.08724924416732446   0.02285048883754862   0.003931198511550056
-0.08724924416732446   0.02285048883754862   0.003931198511550056
-0.08724924416732446   0.02285048883754862   0.003931198511550056
-0.08724924416732446   0.02285048883754862   0.003931198511550056
-0.09777045952034667   0.008930781447640156   0.006131443921120823
-0.09777045952034667   0.008930781447640156   0.006131443921120823
-0.09777045952034667   0.008930781447640156   0.006131443921120823
-0.09777045952034667   0.008930781447640156   0.006131443921120823
-0.12290929599207794   -0.023518011153559948   -0.012599351990504456
-0.12290929599207794   -0.023518011153559948   -0.012599351990504456
-0.12290929599207794   -0.023518011153559948   -0.012599351990504456
-0.12290929599207794   -0.023518011153559948   -0.012599351990504456
-0.13814001002776874   0.0013020213665434974   0.0171169925018234
-0.13814001002776874   0.0013020213665434974   0.0171169925018234
-0.13814001002776874   0.0013020213665434974   0.0171169925018234
-0.13814001002776874   0.0013020213665434974   0.0171169925018234
-0.13661242775985716   -0.020008275932529233   -0.016858615179021784
-0.13661242775985716   -0.020008275932529233   -0.016858615179021784
-0.13661242775985716   -0.020008275932529233   -0.016858615179021784
-0.13661242775985716   -0.020008275932529233   -0.016858615179021784
-0.1062635940938786   0.014889349232870813   0.015337854631485966
-0.1062635940938786   0.014889349232870813   0.015337854631485966
-0.1062635940938786   0.014889349232870813   0.015337854631485966
-0.1062635940938786   0.014889349232870813   0.015337854631485966
-0.12088609627500799   -0.005222089839871484   -0.0006201234218671881
-0.12088609627500799   -0.005222089839871484   -0.0006201234218671881
-0.12088609627500799   -0.005222089839871484   -0.0006201234218671881
-0.12088609627500799   -0.005222089839871484   -0.0006201234218671881
-0.11836734315471723   -0.01587153688638706   -0.014420004553450716
-0.11836734315471723   -0.01587153688638706   -0.014420004553450716
-0.11836734315471723   -0.01587153688638706   -0.014420004553450716
-0.11836734315471723   -0.01587153688638706   -0.014420004553450716
-0.12383023672891845   0.01143105215682973   0.01561301188631276
-0.12383023672891845   0.01143105215682973   0.01561301188631276
-0.12383023672891845   0.01143105215682973   0.01561301188631276
-0.12383023672891845   0.01143105215682973   0.01561301188631276
-0.12593975308138713   -0.014554938456063038   -0.020127979112365003
-0.12593975308138713   -0.014554938456063038   -0.020127979112365003
-0.12593975308138713   -0.014554938456063038   -0.020127979112365003
-0.12593975308138713   -0.014554938456063038   -0.020127979112365003
-0.10159264721253317   0.01873161923578487   0.012570942330866128
-0.10159264721253317   0.01873161923578487   0.012570942330866128
-0.10159264721253317   0.01873161923578487   0.012570942330866128
-0.10159264721253317   0.01873161923578487   0.012570942330866128
-0.11381294068967414   0.0004995245872396643   0.00316002612680062
-0.11381294068967414   0.0004995245872396643   0.00316002612680062
-0.11381294068967414   0.0004995245872396643   0.00316002612680062
-0.11381294068967414   0.0004995245872396643   0.00316002612680062
-0.11347288573477561   -0.011379746144317422   -0.016718884900244625
-0.11347288573477561   -0.011379746144317422   -0.016718884900244625
-0.11347288573477561   -0.011379746144317422   -0.016718884900244625
-0.11347288573477561   -0.011379746144317422   -0.016718884900244625
-0.11334652909516307   0.016269412388020283   0.012013789974673098
-0.11334652909516307   0.016269412388020283   0.012013789974673098
-0.11334652909516307   0.016269412388020283   0.012013789974673098
-0.11334652909516307   0.016269412388020283   0.012013789974673098
-0.11182504147306915   -0.005169022521629988   -0.02203415867036353
-0.11182504147306915   -0.005169022521629988   -0.02203415867036353
-0.11182504147306915   -0.005169022521629988   -0.02203415867036353
-0.11182504147306915   -0.005169022521629988   -0.02203415867036353
-0.09743049569839055   0.024373329774583827   0.010354076052248072
-0.09743049569839055   0.024373329774583827   0.010354076052248072
-0.09743049569839055   0.024373329774583827   0.010354076052248072
-0.09743049569839055   0.024373329774583827   0.010354076052248072
-0.10383108536458314   0.006176116974784068   0.007575089504495178
-0.10383108536458314   0.006176116974784068   0.007575089504495178
-0.10383108536458314   0.006176116974784068   0.007575089504495178
-0.10383108536458314   0.006176116974784068   0.007575089504495178
0.07478257560490972   0.011953497018577763   0.01867748546924769
0.07478257560490972   0.011953497018577763   0.01867748546924769
0.07478257560490972   0.011953497018577763   0.01867748546924769
0.07478257560490972   0.011953497018577763   0.01867748546924769
-0.0009002666753962392   -0.029874883178641124   -0.012214713646113186
-0.0009002666753962392   -0.029874883178641124   -0.012214713646113186
-0.0009002666753962392   -0.029874883178641124   -0.012214713646113186
-0.0009002666753962392   -0.029874883178641124   -0.012214713646113186
0.016379341388399738   0.005681898935389118   0.014394854078461757
0.016379341388399738   0.005681898935389118   0.014394854078461757
0.016379341388399738   0.005681898935389118   0.014394854078461757
0.016379341388399738   0.005681898935389118   0.014394854078461757
0.07761207024851781   -0.01000642218836432   -0.015351952008628968
0.07761207024851781   -0.01000642218836432   -0.015351952008628968
0.07761207024851781   -0.01000642218836432   -0.015351952008628968
0.07761207024851781   -0.01000642218836432   -0.015351952008628968
0.03825393137917367   -0.005628849912588644   -0.008986415713407938
0.03825393137917367   -0.005628849912588644   -0.008986415713407938
0.03825393137917367   -0.005628849912588644   -0.008986415713407938
0.03825393137917367   -0.005628849912588644   -0.008986415713407938
0.09024188793594677   0.020944650231030315   0.01684606400911998
0.09024188793594677   0.020944650231030315   0.01684606400911998
0.09024188793594677   0.020944650231030315   0.01684606400911998
0.09024188793594677   0.020944650231030315   0.01684606400911998
0.004549260662058836   -0.024469436522917543   -0.014604214094936101
0.004549260662058836   -0.024469436522917543   -0.014604214094936101
0.004549260662058836   -0.024469436522917543   -0.014604214094936101
0.004549260662058836   -0.024469436522917543   -0.014604214094936101
0.022506181064589927   0.010022766546986039   0.011985743798554565
0.022506181064589927   0.010022766546986039   0.011985743798554565
0.022506181064589927   0.010022766546986039   0.011985743798554565
0.022506181064589927   0.010022766546986039   0.011985743798554565
0.08959969538500523   -0.005108822831965586   -0.019137455455447372
0.08959969538500523   -0.005108822831965586   -0.019137455455447372
0.08959969538500523   -0.005108822831965586   -0.019137455455447372
0.08959969538500523   -0.005108822831965586   -0.019137455455447372
0.04909928755125016   -0.0002446961229718627   -0.004300987191111283
0.04909928755125016   -0.0002446961229718627   -0.004300987191111283
0.04909928755125016   -0.0002446961229718627   -0.004300987191111283
0.04909928755125016   -0.0002446961229718627   -0.004300987191111283
0.10234460878044128   0.02624080089033199   0.013237487799433905
0.10234460878044128   0.02624080089033199   0.013237487799433905
0.10234460878044128   0.02624080089033199   0.013237487799433905
0.10234460878044128   0.02624080089033199   0.013237487799433905
0.010533312207366795   -0.020554812637098848   -0.01730102130347525
0.010533312207366795   -0.020554812637098848   -0.01730102130347525
0.010533312207366795   -0.020554812637098848   -0.01730102130347525
0.010533312207366795   -0.020554812637098848   -0.01730102130347525
0.02844172053626749   0.018042694424218585   0.010368578924637861
0.02844172053626749   0.018042694424218585   0.010368578924637861
0.02844172053626749   0.018042694424218585   0.010368578924637861
0.02844172053626749   0.018042694424218585   0.010368578924637861
0.10554071005708102   0.005837509067677455   -0.021083141133968527
0.10554071005708102   0.005837509067677455   -0.021083141133968527
0.10554071005708102   0.005837509067677455   -0.021083141133968527
0.10554071005708102   0.005837509067677455   -0.021083141133968527
0.05806823963164332   0.005827723978539649   9.696741405278739e-05
0.05806823963164332   0.005827723978539649   9.696741405278739e-05
0.05806823963164332   0.005827723978539649   9.696741405278739e-05
0.05806823963164332   0.005827723978539649   9.696741405278739e-05
0.01076846313305237   0.003431461314311875   0.012822590903176867
0.01076846313305237   0.003431461314311875   0.012822590903176867
0.01076846313305237   0.003431461314311875   0.012822590903176867
0.01076846313305237   0.003431461314311875   0.012822590903176867
-0.06890183641927902   -0.025430301444594218   -0.005616216350430982
-0.06890183641927902   -0.025430301444594218   -0.005616216350430982
-0.06890183641927902   -0.025430301444594218   -0.005616216350430982
-0.06890183641927902   -0.025430301444594218   -0.005616216350430982
-0.058099274550926464   -0.0038094642973060195   0.005785453024107706
-0.058099274550926464   -0.0038094642973060195   0.005785453024107706
-0.058099274550926464   -0.0038094642973060195   0.005785453024107706
-0.058099274550926464   -0.0038094642973060195   0.005785453024107706
0.01097460812472366   -0.002568459378473286   -0.004378453926055788
0.01097460812472366   -0.002568459378473286   -0.004378453926055788
0.01097460812472366   -0.002568459378473286   -0.004378453926055788
0.01097460812472366   -0.002568459378473286   -0.004378453926055788
-0.026902302741289155   -0.006444109871989286   -0.004282450292900334
-0.026902302741289155   -0.006444109871989286   -0.004282450292900334
-0.026902302741289155   -0.006444109871989286   -0.004282450292900334
-0.026902302741289155   -0.006444109871989286   -0.004282450292900334
0.01710811595189323   0.012349206970583584   0.011371418860734752
0.01710811595189323   0.012349206970583584   0.011371418860734752
0.01710811595189323   0.012349206970583584   0.011371418860734752
0.01710811595189323   0.012349206970583584   0.011371418860734752
-0.06364355998122109   -0.01813790824948893   -0.00760753017518159
-0.06364355998122109   -0.01813790824948893   -0.00760753017518159
-0.06364355998122109   -0.01813790824948893   -0.00760753017518159
-0.06364355998122109   -0.01813790824948893   -0.00760753017518159
-0.05252571045968474   0.004643428965394656   0.004079213448787967
-0.05252571045968474   0.004643428965394656   0.004079213448787967
-0.05252571045968474   0.004643428965394656   0.004079213448787967
-0.05252571045968474   0.004643428965394656   0.004079213448787967
0.017999034455434732   0.0054109577762018225   -0.005938180476437013
0.017999034455434732   0.0054109577762018225   -0.005938180476437013
0.017999034455434732   0.0054109577762018225   -0.005938180476437013
0.017999034455434732   0.0054109577762018225   -0.005938180476437013
-0.020987351451103888   0.000980459990399322   -0.0005539457480098716
-0.020987351451103888   0.000980459990399322   -0.0005539457480098716
-0.020987351451103888   0.000980459990399322   -0.0005539457480098716
-0.020987351451103888   0.000980459990399322   -0.0005539457480098716
0.024395094522789387   0.021251968999532835   0.01020110863700506
0.024395094522789387   0.021251968999532835   0.01020110863700506
0.024395094522789387   0.021251968999532835   0.01020110863700506
0.024395094522789387   0.021251968999532835   0.01020110863700506
-0.05835187168598712   -0.010627683416884165   -0.009780480300445092
-0.05835187168598712   -0.010627683416884165   -0.009780480300445092
-0.05835187168598712   -0.010627683416884165   -0.009780480300445092
-0.05835187168598712   -0.010627683416884165   -0.009780480300445092
-0.046912950061288115   0.014245753662784391   0.0024531694725487335
-0.046912950061288115   0.014245753662784391   0.0024531694725487335
-0.046912950061288115   0.014245753662784391   0.0024531694725487335
-0.046912950061288115   0.014245753662784391   0.0024531694725487335
0.024146800602035345   0.01450336231234831   -0.007566688634652067
0.024146800602035345   0.01450336231234831   -0.007566688634652067
0.024146800602035345   0.01450336231234831   -0.007566688634652067
0.024146800602035345   0.01450336231234831   -0.007566688634652067
-0.014400599433702506   0.009222438628189378   0.0034376182969224718
-0.014400599433702506   0.009222438628189378   0.0034376182969224718
-0.014400599433702506   0.009222438628189378   0.0034376182969224718
-0.014400599433702506   0.009222438628189378   0.0034376182969224718
-0.06271614416934831   -0.004785023754380192   0.004666967209008577
-0.06271614416934831   -0.004785023754380192   0.004666967209008577
-0.06271614416934831   -0.004785023754380192   0.004666967209008577
-0.06271614416934831   -0.004785023754380192   0.004666967209008577
-0.13563770095684835   -0.018318545115945085   0.0011065659958482698
-0.13563770095684835   -0.018318545115945085   0.0011065659958482698
-0.13563770095684835   -0.018318545115945085   0.0011065659958482698
-0.13563770095684835   -0.018318545115945085   0.0011065659958482698
-0.1308056232525772   -0.011592361968076531   -0.0025391342984926596
-0.1308056232525772   -0.011592361968076531   -0.0025391342984926596
-0.1308056232525772   -0.011592361968076531   -0.0025391342984926596
-0.1308056232525772   -0.011592361968076531   -0.0025391342984926596
-0.056964608932228745   0.004826689486994709   0.0028226273332970227
-0.056964608932228745   0.004826689486994709   0.0028226273332970227
-0.056964608932228745   0.004826689486994709   0.0028226273332970227
-0.056964608932228745   0.004826689486994709   0.0028226273332970227
-0.09667024685453153   -0.006869696086485298   -0.0025256580697932463
-0.09667024685453153   -0.006869696086485298   -0.0025256580697932463
-0.09667024685453153   -0.006869696086485298   -0.0025256580697932463
-0.09667024685453153   -0.006869696086485298   -0.0025256580697932463
-0.05701267497093473   0.00429654322775184   0.00311244339900946
-0.05701267497093473   0.00429654322775184   0.00311244339900946
-0.05701267497093473   0.00429654322775184   0.00311244339900946
-0.05701267497093473   0.00429654322775184   0.00311244339900946
-0.13024580729741622   -0.010550465792379414   -0.0007819506983861163
-0.13024580729741622   -0.010550465792379414   -0.0007819506983861163
-0.13024580729741622   -0.010550465792379414   -0.0007819506983861163
-0.13024580729741622   -0.010550465792379414   -0.0007819506983861163
-0.12493347088996833   -0.002282393262544938   -0.00399159507830867
-0.12493347088996833   -0.002282393262544938   -0.00399159507830867
-0.12493347088996833   -0.002282393262544938   -0.00399159507830867
-0.12493347088996833   -0.002282393262544938   -0.00399159507830867
-0.051448434758408865   0.013041620334403436   0.0010674005861593472
-0.051448434758408865   0.013041620334403436   0.0010674005861593472
-0.051448434758408865   0.013041620334403436   0.0010674005861593472
-0.051448434758408865   0.013041620334403436   0.0010674005861593472
-0.09059888106749772   0.0012920555504593173   0.0012421152646210363
-0.09059888106749772   0.0012920555504593173   0.0012421152646210363
-0.09059888106749772   0.0012920555504593173   0.0012421152646210363
-0.09059888106749772   0.0012920555504593173   0.0012421152646210363
-0.05127547974631269   0.013535235981714307   0.0014385599993295504
-0.05127547974631269   0.013535235981714307   0.0014385599993295504
-0.05127547974631269   0.013535235981714307   0.0014385599993295504
-0.05127547974631269   0.013535235981714307   0.0014385599993295504
-0.12469267500414045   -0.002362258011931493   -0.0027077508997836973
-0.12469267500414045   -0.002362258011931493   -0.0027077508997836973
-0.12469267500414045   -0.002362258011931493   -0.0027077508997836973
-0.12469267500414045   -0.002362258011931493   -0.0027077508997836973
-0.11929561427491152   0.0070624710219777224   -0.005635679073081457
-0.11929561427491152   0.0070624710219777224   -0.005635679073081457
-0.11929561427491152   0.0070624710219777224   -0.005635679073081457
-0.11929561427491152   0.0070624710219777224   -0.005635679073081457
-0.0461899282348562   0.021280489328613084   -0.0009664570611195144
-0.0461899282348562   0.021280489328613084   -0.0009664570611195144
-0.0461899282348562   0.021280489328613084   -0.0009664570611195144
-0.0461899282348562   0.021280489328613084   -0.0009664570611195144
-0.08485558579990737   0.009435713999392966   0.004764257624188755
-0.08485558579990737   0.009435713999392966   0.004764257624188755
-0.08485558579990737   0.009435713999392966   0.004764257624188755
-0.08485558579990737   0.009435713999392966   0.004764257624188755
-0.13549115374762982   -0.012767895891762582   -0.0037113471822403437
-0.13549115374762982   -0.012767895891762582   -0.0037113471822403437
-0.13549115374762982   -0.012767895891762582   -0.0037113471822403437
-0.13549115374762982   -0.012767895891762582   -0.0037113471822403437
-0.20203818674617824   -0.011622287157123053   0.007678819285431022
-0.20203818674617824   -0.011622287157123053   0.007678819285431022
-0.20203818674617824   -0.011622287157123053   0.007678819285431022
-0.20203818674617824   -0.011622287157123053   0.007678819285431022
-0.20239484936040406   -0.019245980331622753   -0.010715462334717804
-0.20239484936040406   -0.019245980331622753   -0.010715462334717804
-0.20239484936040406   -0.019245980331622753   -0.010715462334717804
-0.20239484936040406   -0.019245980331622753   -0.010715462334717804
-0.12367296582274157   0.011973807363957811   0.009557983518650087
-0.12367296582274157   0.011973807363957811   0.009557983518650087
-0.12367296582274157   0.011973807363957811   0.009557983518650087
-0.12367296582274157   0.011973807363957811   0.009557983518650087
-0.1649574730522282   -0.007137226960020043   -0.0010889279912697997
-0.1649574730522282   -0.007137226960020043   -0.0010889279912697997
-0.1649574730522282   -0.007137226960020043   -0.0010889279912697997
-0.1649574730522282   -0.007137226960020043   -0.0010889279912697997
-0.12974712117707196   -0.003617616171518845   -0.005221369717524197
-0.12974712117707196   -0.003617616171518845   -0.005221369717524197
-0.12974712117707196   -0.003617616171518845   -0.005221369717524197
-0.12974712117707196   -0.003617616171518845   -0.005221369717524197
-0.19588934612249354   -0.0032232089125677904   0.005789282435781737
-0.19588934612249354   -0.0032232089125677904   0.005789282435781737
-0.19588934612249354   -0.0032232089125677904   0.005789282435781737
-0.19588934612249354   -0.0032232089125677904   0.005789282435781737
-0.1949759223882344   -0.010373235075862387   -0.011926683566603556
-0.1949759223882344   -0.010373235075862387   -0.011926683566603556
-0.1949759223882344   -0.010373235075862387   -0.011926683566603556
-0.1949759223882344   -0.010373235075862387   -0.011926683566603556
-0.11826823078481297   0.01944046201859413   0.00761175016632917
-0.11826823078481297   0.01944046201859413   0.00761175016632917
-0.11826823078481297   0.01944046201859413   0.00761175016632917
-0.11826823078481297   0.01944046201859413   0.00761175016632917
-0.15760524031452025   0.0010984436268472106   0.0028050788640920383
-0.15760524031452025   0.0010984436268472106   0.0028050788640920383
-0.15760524031452025   0.0010984436268472106   0.0028050788640920383
-0.15760524031452025   0.0010984436268472106   0.0028050788640920383
-0.12413790477627226   0.004767061337813339   -0.00706321911018656
-0.12413790477627226   0.004767061337813339   -0.00706321911018656
-0.12413790477627226   0.004767061337813339   -0.00706321911018656
-0.12413790477627226   0.004767061337813339   -0.00706321911018656
-0.1886230608756834   0.004783353126010005   0.004681035794279006
-0.1886230608756834   0.004783353126010005   0.004681035794279006
-0.1886230608756834   0.004783353126010005   0.004681035794279006
-0.1886230608756834   0.004783353126010005   0.004681035794279006
-0.18834798797868266   -0.0007253305195624726   -0.01284915446263952
-0.18834798797868266   -0.0007253305195624726   -0.01284915446263952
-0.18834798797868266   -0.0007253305195624726   -0.01284915446263952
-0.18834798797868266   -0.0007253305195624726   -0.01284915446263952
-0.11292205675660777   0.027646462656921496   0.005648116883493478
-0.11292205675660777   0.027646462656921496   0.005648116883493478
-0.11292205675660777   0.027646462656921496   0.005648116883493478
-0.11292205675660777   0.027646462656921496   0.005648116883493478
-0.15220458865033937   0.008740732759878682   0.0062834045614995546
-0.15220458865033937   0.008740732759878682   0.0062834045614995546
-0.15220458865033937   0.008740732759878682   0.0062834045614995546
-0.15220458865033937   0.008740732759878682   0.0062834045614995546
-0.20718851228109414   -0.018225080578116934   -0.011470014968154496
-0.20718851228109414   -0.018225080578116934   -0.011470014968154496
-0.20718851228109414   -0.018225080578116934   -0.011470014968154496
-0.20718851228109414   -0.018225080578116934   -0.011470014968154496
-0.27803991307790993   -0.0053031861586966544   0.016919522393925454
-0.27803991307790993   -0.0053031861586966544   0.016919522393925454
-0.27803991307790993   -0.0053031861586966544   0.016919522393925454
-0.27803991307790993   -0.0053031861586966544   0.016919522393925454
-0.27459197233450416   -0.024927768945954637   -0.015419358022023343
-0.27459197233450416   -0.024927768945954637   -0.015419358022023343
-0.27459197233450416   -0.024927768945954637   -0.015419358022023343
-0.27459197233450416   -0.024927768945954637   -0.015419358022023343
-0.18900042526605895   0.02033320732708794   0.01667747047829704
-0.18900042526605895   0.02033320732708794   0.01667747047829704
-0.18900042526605895   0.02033320732708794   0.01667747047829704
-0.18900042526605895   0.02033320732708794   0.01667747047829704
-0.22694761731701024   -0.004073716899852725   0.002021879539494318
-0.22694761731701024   -0.004073716899852725   0.002021879539494318
-0.22694761731701024   -0.004073716899852725   0.002021879539494318
-0.22694761731701024   -0.004073716899852725   0.002021879539494318
-0.200942388404716   -0.00971150677764341   -0.012987631110256094
-0.200942388404716   -0.00971150677764341   -0.012987631110256094
-0.200942388404716   -0.00971150677764341   -0.012987631110256094
-0.200942388404716   -0.00971150677764341   -0.012987631110256094
-0.26225273422794787   0.005514220126675476   0.015834843438123622
-0.26225273422794787   0.005514220126675476   0.015834843438123622
-0.26225273422794787   0.005514220126675476   0.015834843438123622
-0.26225273422794787   0.005514220126675476   0.015834843438123622
-0.26269931880794434   -0.01968052764754402   -0.01838312049036714
-0.26269931880794434   -0.01968052764754402   -0.01838312049036714
-0.26269931880794434   -0.01968052764754402   -0.01838312049036714
-0.26269931880794434   -0.01968052764754402   -0.01838312049036714
-0.18300505672788003   0.02378635630173845   0.013768053357565674
-0.18300505672788003   0.02378635630173845   0.013768053357565674
-0.18300505672788003   0.02378635630173845   0.013768053357565674
-0.18300505672788003   0.02378635630173845   0.013768053357565674
-0.2204226349709584   0.0014555977807873405   0.005147833887049799
-0.2204226349709584   0.0014555977807873405   0.005147833887049799
-0.2204226349709584   0.0014555977807873405   0.005147833887049799
-0.2204226349709584   0.0014555977807873405   0.005147833887049799
-0.1946006347749547   -0.005390719048405199   -0.015032761527662378
-0.1946006347749547   -0.005390719048405199   -0.015032761527662378
-0.1946006347749547   -0.005390719048405199   -0.015032761527662378
-0.1946006347749547   -0.005390719048405199   -0.015032761527662378
-0.25062353683090827   0.009976751632559316   0.012338510114705912
-0.25062353683090827   0.009976751632559316   0.012338510114705912
-0.25062353683090827   0.009976751632559316   0.012338510114705912
-0.25062353683090827   0.009976751632559316   0.012338510114705912
-0.24794418710728539   -0.011908488061162334   -0.020541321717587865
-0.24794418710728539   -0.011908488061162334   -0.020541321717587865
-0.24794418710728539   -0.011908488061162334   -0.020541321717587865
-0.24794418710728539   -0.011908488061162334   -0.020541321717587865
-0.17777032370387272   0.02784910315700677   0.01146473323484045
-0.17777032370387272   0.02784910315700677   0.01146473323484045
-0.17777032370387272   0.02784910315700677   0.01146473323484045
-0.17777032370387272   0.02784910315700677   0.01146473323484045
-0.20763794465243363   0.0065970283508695465   0.00959742513870154
-0.20763794465243363   0.0065970283508695465   0.00959742513870154
-0.20763794465243363   0.0065970283508695465   0.00959742513870154
-0.20763794465243363   0.0065970283508695465   0.00959742513870154
0.21668511210435834   0.019768670277681553   0.018417674855748307
0.21668511210435834   0.019768670277681553   0.018417674855748307
0.21668511210435834   0.019768670277681553   0.018417674855748307
0.21668511210435834   0.019768670277681553   0.018417674855748307
0.07890540865295251   -0.03525369199202623   -0.012103546858403445
0.07890540865295251   -0.03525369199202623   -0.012103546858403445
0.07890540865295251   -0.03525369199202623   -0.012103546858403445
0.07890540865295251   -0.03525369199202623   -0.012103546858403445
0.0968134430726345   -0.00045328774371976646   0.013212347390477129
0.0968134430726345   -0.00045328774371976646   0.013212347390477129
0.0968134430726345   -0.00045328774371976646   0.013212347390477129
0.0968134430726345   -0.00045328774371976646   0.013212347390477129
0.2202550236516702   -0.004318750863784207   -0.015479444948070461
0.2202550236516702   -0.004318750863784207   -0.015479444948070461
0.2202550236516702   -0.004318750863784207   -0.015479444948070461
0.2202550236516702   -0.004318750863784207   -0.015479444948070461
0.14375078879337813   -0.006202317857253076   -0.013698851806430896
0.14375078879337813   -0.006202317857253076   -0.013698851806430896
0.14375078879337813   -0.006202317857253076   -0.013698851806430896
0.14375078879337813   -0.006202317857253076   -0.013698851806430896
0.23287904873715762   0.027318124861838544   0.016003804753743738
0.23287904873715762   0.027318124861838544   0.016003804753743738
0.23287904873715762   0.027318124861838544   0.016003804753743738
0.23287904873715762   0.027318124861838544   0.016003804753743738
0.08510110828129842   -0.031178473175188168   -0.014624141134733818
0.08510110828129842   -0.031178473175188168   -0.014624141134733818
0.08510110828129842   -0.031178473175188168   -0.014624141134733818
0.08510110828129842   -0.031178473175188168   -0.014624141134733818
0.10371745746590127   0.003715503322277377   0.010866413234871397
0.10371745746590127   0.003715503322277377   0.010866413234871397
0.10371745746590127   0.003715503322277377   0.010866413234871397
0.10371745746590127   0.003715503322277377   0.010866413234871397
0.233071383643671   0.00040604953398014343   -0.01941542623829221
0.233071383643671   0.00040604953398014343   -0.01941542623829221
0.233071383643671   0.00040604953398014343   -0.01941542623829221
0.233071383643671   0.00040604953398014343   -0.01941542623829221
0.15721576044164165   -0.0011216294477145936   -0.008348677265399323
0.15721576044164165   -0.0011216294477145936   -0.008348677265399323
0.15721576044164165   -0.0011216294477145936   -0.008348677265399323
0.15721576044164165   -0.0011216294477145936   -0.008348677265399323
0.24581471671148233   0.03241927520947331   0.0122880134252709
0.24581471671148233   0.03241927520947331   0.0122880134252709
0.24581471671148233   0.03241927520947331   0.0122880134252709
0.24581471671148233   0.03241927520947331   0.0122880134252709
0.09192772920828836   -0.027344117543017587   -0.017022607187898213
0.09192772920828836   -0.027344117543017587   -0.017022607187898213
0.09192772920828836   -0.027344117543017587   -0.017022607187898213
0.09192772920828836   -0.027344117543017587   -0.017022607187898213
0.11061574199570554   0.012952530331790127   0.009416933247970327
0.11061574199570554   0.012952530331790127   0.009416933247970327
0.11061574199570554   0.012952530331790127   0.009416933247970327
0.11061574199570554   0.012952530331790127   0.009416933247970327
0.24994322604753091   0.012717496342483876   -0.020916448028943768
0.24994322604753091   0.012717496342483876   -0.020916448028943768
0.24994322604753091   0.012717496342483876   -0.020916448028943768
0.24994322604753091   0.012717496342483876   -0.020916448028943768
0.1653100875231874   0.0051007884627821305   -0.003768839608633832
0.1653100875231874   0.0051007884627821305   -0.003768839608633832
0.1653100875231874   0.0051007884627821305   -0.003768839608633832
0.1653100875231874   0.0051007884627821305   -0.003768839608633832
0.09358918086838805   0.01116955810697949   0.014892064119767645
0.09358918086838805   0.01116955810697949   0.014892064119767645
0.09358918086838805   0.01116955810697949   0.014892064119767645
0.09358918086838805   0.01116955810697949   0.014892064119767645
-0.04645338427392414   -0.0329251664355629   -0.0063707165231187335
-0.04645338427392414   -0.0329251664355629   -0.0063707165231187335
-0.04645338427392414   -0.0329251664355629   -0.0063707165231187335
-0.04645338427392414   -0.0329251664355629   -0.0063707165231187335
-0.03424936003316932   -0.009851556647602863   0.004430027886189316
-0.03424936003316932   -0.009851556647602863   0.004430027886189316
-0.03424936003316932   -0.009851556647602863   0.004430027886189316
-0.03424936003316932   -0.009851556647602863   0.004430027886189316
0.09406032487339826   0.0008460782220707057   -0.0018526095714949428
0.09406032487339826   0.0008460782220707057   -0.0018526095714949428
0.09406032487339826   0.0008460782220707057   -0.0018526095714949428
0.09406032487339826   0.0008460782220707057   -0.0018526095714949428
0.02549987507696362   -0.006792382777676171   -0.005774148837940953
0.02549987507696362   -0.006792382777676171   -0.005774148837940953
0.02549987507696362   -0.006792382777676171   -0.005774148837940953
0.02549987507696362   -0.006792382777676171   -0.005774148837940953
0.10070518206448911   0.01891408092991418   0.013303673676116335
0.10070518206448911   0.01891408092991418   0.013303673676116335
0.10070518206448911   0.01891408092991418   0.013303673676116335
0.10070518206448911   0.01891408092991418   0.013303673676116335
-0.04033034457173431   -0.027355686702918033   -0.008470764751321408
-0.04033034457173431   -0.027355686702918033   -0.008470764751321408
-0.04033034457173431   -0.027355686702918033   -0.008470764751321408
-0.04033034457173431   -0.027355686702918033   -0.008470764751321408
-0.027829021488497297   -0.0020108598777551995   0.0027807871977099047
-0.027829021488497297   -0.0020108598777551995   0.0027807871977099047
-0.027829021488497297   -0.0020108598777551995   0.0027807871977099047
-0.027829021488497297   -0.0020108598777551995   0.0027807871977099047
0.10167024533558042   0.007850395828653637   -0.0035045399231091335
0.10167024533558042   0.007850395828653637   -0.0035045399231091335
0.10167024533558042   0.007850395828653637   -0.0035045399231091335
0.10167024533558042   0.007850395828653637   -0.0035045399231091335
0.03168145726495087   -0.0006138340300611174   -0.002287151876275713
0.03168145726495087   -0.0006138340300611174   -0.002287151876275713
0.03168145726495087   -0.0006138340300611174   -0.002287151876275713
0.03168145726495087   -0.0006138340300611174   -0.002287151876275713
0.10858510066132232   0.0270831946829319   0.011836937851322045
0.10858510066132232   0.0270831946829319   0.011836937851322045
0.10858510066132232   0.0270831946829319   0.011836937851322045
0.10858510066132232   0.0270831946829319   0.011836937851322045
-0.03418119659321357   -0.020680978511004665   -0.010309969692621986
-0.03418119659321357   -0.020680978511004665   -0.010309969692621986
-0.03418119659321357   -0.020680978511004665   -0.010309969692621986
-0.03418119659321357   -0.020680978511004665   -0.010309969692621986
-0.021479495756309804   0.007120153209777289   0.001143562210822624
-0.021479495756309804   0.007120153209777289   0.001143562210822624
-0.021479495756309804   0.007120153209777289   0.001143562210822624
-0.021479495756309804   0.007120153209777289   0.001143562210822624
0.10838500534919447   0.01623175733193332   -0.005015976984726846
0.10838500534919447   0.01623175733193332   -0.005015976984726846
0.10838500534919447   0.01623175733193332   -0.005015976984726846
0.10838500534919447   0.01623175733193332   -0.005015976984726846
0.039417056364287786   0.007003129827040789   0.0017961851128560804
0.039417056364287786   0.007003129827040789   0.0017961851128560804
0.039417056364287786   0.007003129827040789   0.0017961851128560804
0.039417056364287786   0.007003129827040789   0.0017961851128560804
-0.03681637156393152   0.0025018697347708972   0.006387310856511513
-0.03681637156393152   0.0025018697347708972   0.006387310856511513
-0.03681637156393152   0.0025018697347708972   0.006387310856511513
-0.03681637156393152   0.0025018697347708972   0.006387310856511513
-0.16934349789054795   -0.02917892227369123   -0.0009100616485739211
-0.16934349789054795   -0.02917892227369123   -0.0009100616485739211
-0.16934349789054795   -0.02917892227369123   -0.0009100616485739211
-0.16934349789054795   -0.02917892227369123   -0.0009100616485739211
-0.16177758393101066   -0.01749163676518762   -0.003956028928832721
-0.16177758393101066   -0.01749163676518762   -0.003956028928832721
-0.16177758393101066   -0.01749163676518762   -0.003956028928832721
-0.16177758393101066   -0.01749163676518762   -0.003956028928832721
-0.03136147602623031   0.004820994049789826   0.004196897223490504
-0.03136147602623031   0.004820994049789826   0.004196897223490504
-0.03136147602623031   0.004820994049789826   0.004196897223490504
-0.03136147602623031   0.004820994049789826   0.004196897223490504
-0.0999943322746165   -0.008915413432191824   -0.0036191652113162004
-0.0999943322746165   -0.008915413432191824   -0.0036191652113162004
-0.0999943322746165   -0.008915413432191824   -0.0036191652113162004
-0.0999943322746165   -0.008915413432191824   -0.0036191652113162004
-0.03007121329050131   0.01061223678255531   0.004856968169371234
-0.03007121329050131   0.01061223678255531   0.004856968169371234
-0.03007121329050131   0.01061223678255531   0.004856968169371234
-0.03007121329050131   0.01061223678255531   0.004856968169371234
-0.16267731883379657   -0.022892351665009615   -0.003053988542940407
-0.16267731883379657   -0.022892351665009615   -0.003053988542940407
-0.16267731883379657   -0.022892351665009615   -0.003053988542940407
-0.16267731883379657   -0.022892351665009615   -0.003053988542940407
-0.15469234830974893   -0.008888412126637303   -0.005338848167704257
-0.15469234830974893   -0.008888412126637303   -0.005338848167704257
-0.15469234830974893   -0.008888412126637303   -0.005338848167704257
-0.15469234830974893   -0.008888412126637303   -0.005338848167704257
-0.0251176539566242   0.011903211889196812   0.0024235530901234054
-0.0251176539566242   0.011903211889196812   0.0024235530901234054
-0.0251176539566242   0.011903211889196812   0.0024235530901234054
-0.0251176539566242   0.011903211889196812   0.0024235530901234054
-0.09284102758802214   -0.001723434436937444   -4.715837564859063e-05
-0.09284102758802214   -0.001723434436937444   -4.715837564859063e-05
-0.09284102758802214   -0.001723434436937444   -4.715837564859063e-05
-0.09284102758802214   -0.001723434436937444   -4.715837564859063e-05
-0.02355521386693638   0.019028814567514395   0.003110150860244904
-0.02355521386693638   0.019028814567514395   0.003110150860244904
-0.02355521386693638   0.019028814567514395   0.003110150860244904
-0.02355521386693638   0.019028814567514395   0.003110150860244904
-0.15589495661940372   -0.01565418302492238   -0.004586118817693045
-0.15589495661940372   -0.01565418302492238   -0.004586118817693045
-0.15589495661940372   -0.01565418302492238   -0.004586118817693045
-0.15589495661940372   -0.01565418302492238   -0.004586118817693045
-0.14809137678885392   -0.0003015801050334499   -0.0069753556753468
-0.14809137678885392   -0.0003015801050334499   -0.0069753556753468
-0.14809137678885392   -0.0003015801050334499   -0.0069753556753468
-0.14809137678885392   -0.0003015801050334499   -0.0069753556753468
-0.019177128154162885   0.019123761444954923   0.0006517919863799609
-0.019177128154162885   0.019123761444954923   0.0006517919863799609
-0.019177128154162885   0.019123761444954923   0.0006517919863799609
-0.019177128154162885   0.019123761444954923   0.0006517919863799609
-0.08628126513681762   0.005444473683979385   0.0033460729428352745
-0.08628126513681762   0.005444473683979385   0.0033460729428352745
-0.08628126513681762   0.005444473683979385   0.0033460729428352745
-0.08628126513681762   0.005444473683979385   0.0033460729428352745
-0.1650431674663742   -0.006230427932105979   -0.0023569038692892
-0.1650431674663742   -0.006230427932105979   -0.0023569038692892
-0.1650431674663742   -0.006230427932105979   -0.0023569038692892
-0.1650431674663742   -0.006230427932105979   -0.0023569038692892
-0.28992102916505286   -0.023834675215842677   0.005275659314800024
-0.28992102916505286   -0.023834675215842677   0.005275659314800024
-0.28992102916505286   -0.023834675215842677   0.005275659314800024
-0.28992102916505286   -0.023834675215842677   0.005275659314800024
-0.2864909712464045   -0.024873798397023653   -0.011862039862594324
-0.2864909712464045   -0.024873798397023653   -0.011862039862594324
-0.2864909712464045   -0.024873798397023653   -0.011862039862594324
-0.2864909712464045   -0.024873798397023653   -0.011862039862594324
-0.1531345625103198   0.011333276272687834   0.010434165136747475
-0.1531345625103198   0.011333276272687834   0.010434165136747475
-0.1531345625103198   0.011333276272687834   0.010434165136747475
-0.1531345625103198   0.011333276272687834   0.010434165136747475
-0.22210195939794192   -0.00957037172089284   -0.0012764961352820792
-0.22210195939794192   -0.00957037172089284   -0.0012764961352820792
-0.22210195939794192   -0.00957037172089284   -0.0012764961352820792
-0.22210195939794192   -0.00957037172089284   -0.0012764961352820792
-0.1577161376179107   0.0025212412295746445   -0.00366167535809408
-0.1577161376179107   0.0025212412295746445   -0.00366167535809408
-0.1577161376179107   0.0025212412295746445   -0.00366167535809408
-0.1577161376179107   0.0025212412295746445   -0.00366167535809408
-0.28184888279363807   -0.016001250008735417   0.0024758540129495073
-0.28184888279363807   -0.016001250008735417   0.0024758540129495073
-0.28184888279363807   -0.016001250008735417   0.0024758540129495073
-0.28184888279363807   -0.016001250008735417   0.0024758540129495073
-0.2771835875286389   -0.01648952518335798   -0.013122829099605422
-0.2771835875286389   -0.01648952518335798   -0.013122829099605422
-0.2771835875286389   -0.01648952518335798   -0.013122829099605422
-0.2771835875286389   -0.01648952518335798   -0.013122829099605422
-0.14656242017922558   0.018062432364417312   0.008359947993859147
-0.14656242017922558   0.018062432364417312   0.008359947993859147
-0.14656242017922558   0.018062432364417312   0.008359947993859147
-0.14656242017922558   0.018062432364417312   0.008359947993859147
-0.2125818201089829   -0.0016333941925669865   0.0023238512494908672
-0.2125818201089829   -0.0016333941925669865   0.0023238512494908672
-0.2125818201089829   -0.0016333941925669865   0.0023238512494908672
-0.2125818201089829   -0.0016333941925669865   0.0023238512494908672
-0.15086460865494494   0.010317603339365065   -0.005406165359685244
-0.15086460865494494   0.010317603339365065   -0.005406165359685244
-0.15086460865494494   0.010317603339365065   -0.005406165359685244
-0.15086460865494494   0.010317603339365065   -0.005406165359685244
-0.2726122739234478   -0.008475571028833777   0.0017197847718259211
-0.2726122739234478   -0.008475571028833777   0.0017197847718259211
-0.2726122739234478   -0.008475571028833777   0.0017197847718259211
-0.2726122739234478   -0.008475571028833777   0.0017197847718259211
-0.26886628063499046   -0.007434230470844419   -0.01381112487695336
-0.26886628063499046   -0.007434230470844419   -0.01381112487695336
-0.26886628063499046   -0.007434230470844419   -0.01381112487695336
-0.26886628063499046   -0.007434230470844419   -0.01381112487695336
-0.14019784270423624   0.02542216172698704   0.0067685729157222745
-0.14019784270423624   0.02542216172698704   0.0067685729157222745
-0.14019784270423624   0.02542216172698704   0.0067685729157222745
-0.14019784270423624   0.02542216172698704   0.0067685729157222745
-0.206285065080071   0.005121195896320936   0.005418545506099927
-0.206285065080071   0.005121195896320936   0.005418545506099927
-0.206285065080071   0.005121195896320936   0.005418545506099927
-0.206285065080071   0.005121195896320936   0.005418545506099927
-0.29097363830421796   -0.013365206668430683   -0.010456854928437521
-0.29097363830421796   -0.013365206668430683   -0.010456854928437521
-0.29097363830421796   -0.013365206668430683   -0.010456854928437521
-0.29097363830421796   -0.013365206668430683   -0.010456854928437521
-0.4156913584326558   -0.01513037610464954   0.018062215162426776
-0.4156913584326558   -0.01513037610464954   0.018062215162426776
-0.4156913584326558   -0.01513037610464954   0.018062215162426776
-0.4156913584326558   -0.01513037610464954   0.018062215162426776
-0.4083359710657371   -0.029672089919674148   -0.01401346995583526
-0.4083359710657371   -0.029672089919674148   -0.01401346995583526
-0.4083359710657371   -0.029672089919674148   -0.01401346995583526
-0.4083359710657371   -0.029672089919674148   -0.01401346995583526
-0.27087155675165614   0.022923954477894783   0.018437279736226834
-0.27087155675165614   0.022923954477894783   0.018437279736226834
-0.27087155675165614   0.022923954477894783   0.018437279736226834
-0.27087155675165614   0.022923954477894783   0.018437279736226834
-0.33106490148416745   -0.00407824245714207   0.004045844069462687
-0.33106490148416745   -0.00407824245714207   0.004045844069462687
-0.33106490148416745   -0.00407824245714207   0.004045844069462687
-0.33106490148416745   -0.00407824245714207   0.004045844069462687
-0.2822682285140243   -0.003983560281423305   -0.011638564316294753
-0.2822682285140243   -0.003983560281423305   -0.011638564316294753
-0.2822682285140243   -0.003983560281423305   -0.011638564316294753
-0.2822682285140243   -0.003983560281423305   -0.011638564316294753
-0.3967175458009899   -0.0025428216579797547   0.016949388106203205
-0.3967175458009899   -0.0025428216579797547   0.016949388106203205
-0.3967175458009899   -0.0025428216579797547   0.016949388106203205
-0.3967175458009899   -0.0025428216579797547   0.016949388106203205
-0.39408770322183345   -0.024490398485169845   -0.01653307408302242
-0.39408770322183345   -0.024490398485169845   -0.01653307408302242
-0.39408770322183345   -0.024490398485169845   -0.01653307408302242
-0.39408770322183345   -0.024490398485169845   -0.01653307408302242
-0.2631086561789367   0.026115127606592285   0.014647174858955307
-0.2631086561789367   0.026115127606592285   0.014647174858955307
-0.2631086561789367   0.026115127606592285   0.014647174858955307
-0.2631086561789367   0.026115127606592285   0.014647174858955307
-0.32402168215223565   0.001591433154130975   0.006987579362386486
-0.32402168215223565   0.001591433154130975   0.006987579362386486
-0.32402168215223565   0.001591433154130975   0.006987579362386486
-0.32402168215223565   0.001591433154130975   0.006987579362386486
-0.27387825899115825   0.00020080238204769896   -0.0132865139776077
-0.27387825899115825   0.00020080238204769896   -0.0132865139776077
-0.27387825899115825   0.00020080238204769896   -0.0132865139776077
-0.27387825899115825   0.00020080238204769896   -0.0132865139776077
-0.38308995994407213   0.0016520672049104707   0.012313176615697037
-0.38308995994407213   0.0016520672049104707   0.012313176615697037
-0.38308995994407213   0.0016520672049104707   0.012313176615697037
-0.38308995994407213   0.0016520672049104707   0.012313176615697037
-0.3784193969058752   -0.018350896433043426   -0.018886191513408066
-0.3784193969058752   -0.018350896433043426   -0.018886191513408066
-0.3784193969058752   -0.018350896433043426   -0.018886191513408066
-0.3784193969058752   -0.018350896433043426   -0.018886191513408066
-0.2563319968595551   0.02896259094917237   0.012463472580205654
-0.2563319968595551   0.02896259094917237   0.012463472580205654
-0.2563319968595551   0.02896259094917237   0.012463472580205654
-0.2563319968595551   0.02896259094917237   0.012463472580205654
-0.3080756815467914   0.006266802410191993   0.01152250617265782
-0.3080756815467914   0.006266802410191993   0.01152250617265782
-0.3080756815467914   0.006266802410191993   0.01152250617265782
-0.3080756815467914   0.006266802410191993   0.01152250617265782
0.3594549354738176   0.027001854439219555   0.01862465847695958
0.3594549354738176   0.027001854439219555   0.01862465847695958
0.3594549354738176   0.027001854439219555   0.01862465847695958
0.3594549354738176   0.027001854439219555   0.01862465847695958
0.15786439334547037   -0.041544079420923724   -0.008737902663987707
0.15786439334547037   -0.041544079420923724   -0.008737902663987707
0.15786439334547037   -0.041544079420923724   -0.008737902663987707
0.15786439334547037   -0.041544079420923724   -0.008737902663987707
0.17543394606634205   -0.007642184986142442   0.012724462025451192
0.17543394606634205   -0.007642184986142442   0.012724462025451192
0.17543394606634205   -0.007642184986142442   0.012724462025451192
0.17543394606634205   -0.007642184986142442   0.012724462025451192
0.3630829946189041   0.00012733231858381988   -0.013571451821004322
0.3630829946189041   0.00012733231858381988   -0.013571451821004322
0.3630829946189041   0.00012733231858381988   -0.013571451821004322
0.3630829946189041   0.00012733231858381988   -0.013571451821004322
0.24853443163486671   -0.007215763817165224   -0.019156202419028934
0.24853443163486671   -0.007215763817165224   -0.019156202419028934
0.24853443163486671   -0.007215763817165224   -0.019156202419028934
0.24853443163486671   -0.007215763817165224   -0.019156202419028934
0.37547291516645337   0.032934844229878954   0.015570639005444028
0.37547291516645337   0.032934844229878954   0.015570639005444028
0.37547291516645337   0.032934844229878954   0.015570639005444028
0.37547291516645337   0.032934844229878954   0.015570639005444028
0.1642411083292962   -0.03925261408693386   -0.011629297558984826
0.1642411083292962   -0.03925261408693386   -0.011629297558984826
0.1642411083292962   -0.03925261408693386   -0.011629297558984826
0.1642411083292962   -0.03925261408693386   -0.011629297558984826
0.18217402802693755   -0.003838655053981045   0.010258406438635317
0.18217402802693755   -0.003838655053981045   0.010258406438635317
0.18217402802693755   -0.003838655053981045   0.010258406438635317
0.18217402802693755   -0.003838655053981045   0.010258406438635317
0.3750567382977048   0.004308400233176676   -0.016873558354958604
0.3750567382977048   0.004308400233176676   -0.016873558354958604
0.3750567382977048   0.004308400233176676   -0.016873558354958604
0.3750567382977048   0.004308400233176676   -0.016873558354958604
0.26370215411546355   -0.00277591466448298   -0.013079939033467554
0.26370215411546355   -0.00277591466448298   -0.013079939033467554
0.26370215411546355   -0.00277591466448298   -0.013079939033467554
0.26370215411546355   -0.00277591466448298   -0.013079939033467554
0.38736259589838945   0.037450169340758205   0.011513960540882998
0.38736259589838945   0.037450169340758205   0.011513960540882998
0.38736259589838945   0.037450169340758205   0.011513960540882998
0.38736259589838945   0.037450169340758205   0.011513960540882998
0.17090845338555974   -0.03594014120225628   -0.013967980619978374
0.17090845338555974   -0.03594014120225628   -0.013967980619978374
0.17090845338555974   -0.03594014120225628   -0.013967980619978374
0.17090845338555974   -0.03594014120225628   -0.013967980619978374
0.18829735486092763   0.006370458334581899   0.008994233118149618
0.18829735486092763   0.006370458334581899   0.008994233118149618
0.18829735486092763   0.006370458334581899   0.008994233118149618
0.18829735486092763   0.006370458334581899   0.008994233118149618
0.38985134554511836   0.01656897279857998   -0.017640759031978395
0.38985134554511836   0.01656897279857998   -0.017640759031978395
0.38985134554511836   0.01656897279857998   -0.017640759031978395
0.38985134554511836   0.01656897279857998   -0.017640759031978395
0.26911505428651267   0.003251007939591717   -0.008919465151690339
0.26911505428651267   0.003251007939591717   -0.008919465151690339
0.26911505428651267   0.003251007939591717   -0.008919465151690339
0.26911505428651267   0.003251007939591717   -0.008919465151690339
0.17458025627307436   0.01601264290756781   0.017284689645539694
0.17458025627307436   0.01601264290756781   0.017284689645539694
0.17458025627307436   0.01601264290756781   0.017284689645539694
0.17458025627307436   0.01601264290756781   0.017284689645539694
-0.022971978310322532   -0.05086875040581035   -0.0050232648065566925
-0.022971978310322532   -0.05086875040581035   -0.0050232648065566925
-0.022971978310322532   -0.05086875040581035   -0.0050232648065566925
-0.022971978310322532   -0.05086875040581035   -0.0050232648065566925
-0.00798104865840729   -0.018343664367262487   0.00424005101364465
-0.00798104865840729   -0.018343664367262487   0.00424005101364465
-0.00798104865840729   -0.018343664367262487   0.00424005101364465
-0.00798104865840729   -0.018343664367262487   0.00424005101364465
0.17297280893057415   -0.00818000414729006   0.0009565955077596496
0.17297280893057415   -0.00818000414729006   0.0009565955077596496
0.17297280893057415   -0.00818000414729006   0.0009565955077596496
0.17297280893057415   -0.00818000414729006   0.0009565955077596496
0.07699794067822248   -0.01382922998173607   -0.008979574411772074
0.07699794067822248   -0.01382922998173607   -0.008979574411772074
0.07699794067822248   -0.01382922998173607   -0.008979574411772074
0.07699794067822248   -0.01382922998173607   -0.008979574411772074
0.1818516193443488   0.021840823097024717   0.015329820332318757
0.1818516193443488   0.021840823097024717   0.015329820332318757
0.1818516193443488   0.021840823097024717   0.015329820332318757
0.1818516193443488   0.021840823097024717   0.015329820332318757
-0.01621454258139863   -0.04771917512079288   -0.007551907847781662
-0.01621454258139863   -0.04771917512079288   -0.007551907847781662
-0.01621454258139863   -0.04771917512079288   -0.007551907847781662
-0.01621454258139863   -0.04771917512079288   -0.007551907847781662
-0.0011156358135075836   -0.011497093279539152   0.002543895684999584
-0.0011156358135075836   -0.011497093279539152   0.002543895684999584
-0.0011156358135075836   -0.011497093279539152   0.002543895684999584
-0.0011156358135075836   -0.011497093279539152   0.002543895684999584
0.18004344500729597   -0.0030123802562965415   -0.0012207834572572369
0.18004344500729597   -0.0030123802562965415   -0.0012207834572572369
0.18004344500729597   -0.0030123802562965415   -0.0012207834572572369
0.18004344500729597   -0.0030123802562965415   -0.0012207834572572369
0.0829087035024051   -0.009613278981353838   -0.005792661963449517
0.0829087035024051   -0.009613278981353838   -0.005792661963449517
0.0829087035024051   -0.009613278981353838   -0.005792661963449517
0.0829087035024051   -0.009613278981353838   -0.005792661963449517
0.189399510062565   0.02883882422602588   0.013708337336765773
0.189399510062565   0.02883882422602588   0.013708337336765773
0.189399510062565   0.02883882422602588   0.013708337336765773
0.189399510062565   0.02883882422602588   0.013708337336765773
-0.010075089036045278   -0.04295168592913246   -0.010798777778095585
-0.010075089036045278   -0.04295168592913246   -0.010798777778095585
-0.010075089036045278   -0.04295168592913246   -0.010798777778095585
-0.010075089036045278   -0.04295168592913246   -0.010798777778095585
0.004281923292189654   -0.003418639255406614   0.0008351221355782986
0.004281923292189654   -0.003418639255406614   0.0008351221355782986
0.004281923292189654   -0.003418639255406614   0.0008351221355782986
0.004281923292189654   -0.003418639255406614   0.0008351221355782986
0.18531301642820874   0.0036183658834440593   -0.0031753665943086715
0.18531301642820874   0.0036183658834440593   -0.0031753665943086715
0.18531301642820874   0.0036183658834440593   -0.0031753665943086715
0.18531301642820874   0.0036183658834440593   -0.0031753665943086715
0.09029850976850756   -0.0032832748093380437   -0.002334798576907883
0.09029850976850756   -0.0032832748093380437   -0.002334798576907883
0.09029850976850756   -0.0032832748093380437   -0.002334798576907883
0.09029850976850756   -0.0032832748093380437   -0.002334798576907883
-0.00911042161624561   0.004777382468740075   0.008638385789277494
-0.00911042161624561   0.004777382468740075   0.008638385789277494
-0.00911042161624561   0.004777382468740075   0.008638385789277494
-0.00911042161624561   0.004777382468740075   0.008638385789277494
-0.20234968684812038   -0.06350920896708322   -0.003949749696714331
-0.20234968684812038   -0.06350920896708322   -0.003949749696714331
-0.20234968684812038   -0.06350920896708322   -0.003949749696714331
-0.20234968684812038   -0.06350920896708322   -0.003949749696714331
-0.18735992267986537   -0.028076653287470922   -0.0042928928091935
-0.18735992267986537   -0.028076653287470922   -0.0042928928091935
-0.18735992267986537   -0.028076653287470922   -0.0042928928091935
-0.18735992267986537   -0.028076653287470922   -0.0042928928091935
-0.008441247177363023   -0.02038436454132814   0.003979758592931666
-0.008441247177363023   -0.02038436454132814   0.003979758592931666
-0.008441247177363023   -0.02038436454132814   0.003979758592931666
-0.008441247177363023   -0.02038436454132814   0.003979758592931666
-0.10224916371206273   -0.025356351464722492   -0.007980301012516
-0.10224916371206273   -0.025356351464722492   -0.007980301012516
-0.10224916371206273   -0.025356351464722492   -0.007980301012516
-0.10224916371206273   -0.025356351464722492   -0.007980301012516
-0.001478042399107234   0.01136715409924568   0.007044263843636764
-0.001478042399107234   0.01136715409924568   0.007044263843636764
-0.001478042399107234   0.01136715409924568   0.007044263843636764
-0.001478042399107234   0.01136715409924568   0.007044263843636764
-0.19385155888934316   -0.05935660335926762   -0.005471123784785639
-0.19385155888934316   -0.05935660335926762   -0.005471123784785639
-0.19385155888934316   -0.05935660335926762   -0.005471123784785639
-0.19385155888934316   -0.05935660335926762   -0.005471123784785639
-0.17883147538752106   -0.020484930124105072   -0.005803335545504473
-0.17883147538752106   -0.020484930124105072   -0.005803335545504473
-0.17883147538752106   -0.020484930124105072   -0.005803335545504473
-0.17883147538752106   -0.020484930124105072   -0.005803335545504473
-0.0020580942878951343   -0.01540725566796235   0.0017417657014851687
-0.0020580942878951343   -0.01540725566796235   0.0017417657014851687
-0.0020580942878951343   -0.01540725566796235   0.0017417657014851687
-0.0020580942878951343   -0.01540725566796235   0.0017417657014851687
-0.09396983440652071   -0.019877132690788703   -0.004379767972819862
-0.09396983440652071   -0.019877132690788703   -0.004379767972819862
-0.09396983440652071   -0.019877132690788703   -0.004379767972819862
-0.09396983440652071   -0.019877132690788703   -0.004379767972819862
0.0055012533923115055   0.01864044368989335   0.0054908047446625245
0.0055012533923115055   0.01864044368989335   0.0054908047446625245
0.0055012533923115055   0.01864044368989335   0.0054908047446625245
0.0055012533923115055   0.01864044368989335   0.0054908047446625245
-0.18636169206659947   -0.05450349848083382   -0.009435850584167842
-0.18636169206659947   -0.05450349848083382   -0.009435850584167842
-0.18636169206659947   -0.05450349848083382   -0.009435850584167842
-0.18636169206659947   -0.05450349848083382   -0.009435850584167842
-0.17279735967613336   -0.013226870647419803   -0.007481136953538514
-0.17279735967613336   -0.013226870647419803   -0.007481136953538514
-0.17279735967613336   -0.013226870647419803   -0.007481136953538514
-0.17279735967613336   -0.013226870647419803   -0.007481136953538514
0.0021141817391599842   -0.011376365373124126   -0.0020458595118528866
0.0021141817391599842   -0.011376365373124126   -0.0020458595118528866
0.0021141817391599842   -0.011376365373124126   -0.0020458595118528866
0.0021141817391599842   -0.011376365373124126   -0.0020458595118528866
-0.08790533633071597   -0.014738962439275088   -0.002086798505324702
-0.08790533633071597   -0.014738962439275088   -0.002086798505324702
-0.08790533633071597   -0.014738962439275088   -0.002086798505324702
-0.08790533633071597   -0.014738962439275088   -0.002086798505324702
-0.1898729887008228   -0.004912743809515917   -0.0001627241177938818
-0.1898729887008228   -0.004912743809515917   -0.0001627241177938818
-0.1898729887008228   -0.004912743809515917   -0.0001627241177938818
-0.1898729887008228   -0.004912743809515917   -0.0001627241177938818
-0.38286616426720554   -0.06827984555755248   -0.0030891260432743283
-0.38286616426720554   -0.06827984555755248   -0.0030891260432743283
-0.38286616426720554   -0.06827984555755248   -0.0030891260432743283
-0.38286616426720554   -0.06827984555755248   -0.0030891260432743283
-0.366946999013889   -0.0360297541434742   -0.012568550440493528
-0.366946999013889   -0.0360297541434742   -0.012568550440493528
-0.366946999013889   -0.0360297541434742   -0.012568550440493528
-0.366946999013889   -0.0360297541434742   -0.012568550440493528
-0.1834763498730268   -0.021232034628493705   0.008280352566022244
-0.1834763498730268   -0.021232034628493705   0.008280352566022244
-0.1834763498730268   -0.021232034628493705   0.008280352566022244
-0.1834763498730268   -0.021232034628493705   0.008280352566022244
-0.278378546740508   -0.030658052372137156   -0.0056018611083549575
-0.278378546740508   -0.030658052372137156   -0.0056018611083549575
-0.278378546740508   -0.030658052372137156   -0.0056018611083549575
-0.278378546740508   -0.030658052372137156   -0.0056018611083549575
-0.1804474312605301   0.0035187097460809974   -0.001325798746069022
-0.1804474312605301   0.0035187097460809974   -0.001325798746069022
-0.1804474312605301   0.0035187097460809974   -0.001325798746069022
-0.1804474312605301   0.0035187097460809974   -0.001325798746069022
-0.3700715362519538   -0.06087611714361772   -0.003344873630670819
-0.3700715362519538   -0.06087611714361772   -0.003344873630670819
-0.3700715362519538   -0.06087611714361772   -0.003344873630670819
-0.3700715362519538   -0.06087611714361772   -0.003344873630670819
-0.3547061454338635   -0.028143095820783122   -0.01452396767750515
-0.3547061454338635   -0.028143095820783122   -0.01452396767750515
-0.3547061454338635   -0.028143095820783122   -0.01452396767750515
-0.3547061454338635   -0.028143095820783122   -0.01452396767750515
-0.1752310335420487   -0.015341965332311046   0.007055908890064564
-0.1752310335420487   -0.015341965332311046   0.007055908890064564
-0.1752310335420487   -0.015341965332311046   0.007055908890064564
-0.1752310335420487   -0.015341965332311046   0.007055908890064564
-0.26571705020924247   -0.02308792726436462   -0.001727650306567883
-0.26571705020924247   -0.02308792726436462   -0.001727650306567883
-0.26571705020924247   -0.02308792726436462   -0.001727650306567883
-0.26571705020924247   -0.02308792726436462   -0.001727650306567883
-0.17190795919492638   0.010822665017647358   -0.002493349724283493
-0.17190795919492638   0.010822665017647358   -0.002493349724283493
-0.17190795919492638   0.010822665017647358   -0.002493349724283493
-0.17190795919492638   0.010822665017647358   -0.002493349724283493
-0.35857442614936097   -0.0548529325391175   -0.007155534536655468
-0.35857442614936097   -0.0548529325391175   -0.007155534536655468
-0.35857442614936097   -0.0548529325391175   -0.007155534536655468
-0.35857442614936097   -0.0548529325391175   -0.007155534536655468
-0.34486076735596877   -0.019865726800294962   -0.01500794506897052
-0.34486076735596877   -0.019865726800294962   -0.01500794506897052
-0.34486076735596877   -0.019865726800294962   -0.01500794506897052
-0.34486076735596877   -0.019865726800294962   -0.01500794506897052
-0.17051207853385517   -0.011596978090095043   0.0023153762005287686
-0.17051207853385517   -0.011596978090095043   0.0023153762005287686
-0.17051207853385517   -0.011596978090095043   0.0023153762005287686
-0.17051207853385517   -0.011596978090095043   0.0023153762005287686
-0.2589599688405212   -0.01848990419131548   -0.00043800088128796884
-0.2589599688405212   -0.01848990419131548   -0.00043800088128796884
-0.2589599688405212   -0.01848990419131548   -0.00043800088128796884
-0.2589599688405212   -0.01848990419131548   -0.00043800088128796884
-0.3727631186243838   -0.0119399332106854   -0.008913810176032832
-0.3727631186243838   -0.0119399332106854   -0.008913810176032832
-0.3727631186243838   -0.0119399332106854   -0.008913810176032832
-0.3727631186243838   -0.0119399332106854   -0.008913810176032832
-0.5622739916600271   -0.04694794034660242   0.02039572957961837
-0.5622739916600271   -0.04694794034660242   0.02039572957961837
-0.5622739916600271   -0.04694794034660242   0.02039572957961837
-0.5622739916600271   -0.04694794034660242   0.02039572957961837
-0.5439887230986513   -0.037813720050751176   -0.012133926559992483
-0.5439887230986513   -0.037813720050751176   -0.012133926559992483
-0.5439887230986513   -0.037813720050751176   -0.012133926559992483
-0.5439887230986513   -0.037813720050751176   -0.012133926559992483
-0.35135344109709343   0.010416747748124164   0.01895273725188331
-0.35135344109709343   0.010416747748124164   0.01895273725188331
-0.35135344109709343   0.010416747748124164   0.01895273725188331
-0.35135344109709343   0.010416747748124164   0.01895273725188331
-0.437029808621534   -0.014500346659863272   0.002568497297475828
-0.437029808621534   -0.014500346659863272   0.002568497297475828
-0.437029808621534   -0.014500346659863272   0.002568497297475828
-0.437029808621534   -0.014500346659863272   0.002568497297475828
-0.3592924060927715   -0.0004272827777084126   -0.009898057200670076
-0.3592924060927715   -0.0004272827777084126   -0.009898057200670076
-0.3592924060927715   -0.0004272827777084126   -0.009898057200670076
-0.3592924060927715   -0.0004272827777084126   -0.009898057200670076
-0.5347728404774076   -0.025692771899350972   0.021824538394821784
-0.5347728404774076   -0.025692771899350972   0.021824538394821784
-0.5347728404774076   -0.025692771899350972   0.021824538394821784
-0.5347728404774076   -0.025692771899350972   0.021824538394821784
-0.524314104696998   -0.03194548847614016   -0.014450457036630258
-0.524314104696998   -0.03194548847614016   -0.014450457036630258
-0.524314104696998   -0.03194548847614016   -0.014450457036630258
-0.524314104696998   -0.03194548847614016   -0.014450457036630258
-0.33928710725785177   0.016200743154080932   0.01822738422768921
-0.33928710725785177   0.016200743154080932   0.01822738422768921
-0.33928710725785177   0.016200743154080932   0.01822738422768921
-0.33928710725785177   0.016200743154080932   0.01822738422768921
-0.4258399440438764   -0.005842994492116643   0.008836392372572926
-0.4258399440438764   -0.005842994492116643   0.008836392372572926
-0.4258399440438764   -0.005842994492116643   0.008836392372572926
-0.4258399440438764   -0.005842994492116643   0.008836392372572926
-0.3474850425844317   0.004165087919563132   -0.010726637170689786
-0.3474850425844317   0.004165087919563132   -0.010726637170689786
-0.3474850425844317   0.004165087919563132   -0.010726637170689786
-0.3474850425844317   0.004165087919563132   -0.010726637170689786
-0.5158292900050736   -0.01962295387627508   0.01565108182313091
-0.5158292900050736   -0.01962295387627508   0.01565108182313091
-0.5158292900050736   -0.01962295387627508   0.01565108182313091
-0.5158292900050736   -0.01962295387627508   0.01565108182313091
-0.503921648090374   -0.02654661323327566   -0.017492897101200253
-0.503921648090374   -0.02654661323327566   -0.017492897101200253
-0.503921648090374   -0.02654661323327566   -0.017492897101200253
-0.503921648090374   -0.02654661323327566   -0.017492897101200253
-0.3305063455171125   0.022891474356166563   0.014006962968851164
-0.3305063455171125   0.022891474356166563   0.014006962968851164
-0.3305063455171125   0.022891474356166563   0.014006962968851164
-0.3305063455171125   0.022891474356166563   0.014006962968851164
-0.4036746643345304   0.0015046798198489197   0.015255366034456076
-0.4036746643345304   0.0015046798198489197   0.015255366034456076
-0.4036746643345304   0.0015046798198489197   0.015255366034456076
-0.4036746643345304   0.0015046798198489197   0.015255366034456076
0.48751935011481307   0.029575586488161734   0.017205470112092867
0.48751935011481307   0.029575586488161734   0.017205470112092867
0.48751935011481307   0.029575586488161734   0.017205470112092867
0.48751935011481307   0.029575586488161734   0.017205470112092867
0.23149338223975383   -0.04280526696623158   0.0033730070071471066
0.23149338223975383   -0.04280526696623158   0.0033730070071471066
0.23149338223975383   -0.04280526696623158   0.0033730070071471066
0.23149338223975383   -0.04280526696623158   0.0033730070071471066
0.24384514614286817   -0.01838805651717417   0.01308945247624168
0.24384514614286817   -0.01838805651717417   0.01308945247624168
0.24384514614286817   -0.01838805651717417   0.01308945247624168
0.24384514614286817   -0.01838805651717417   0.01308945247624168
0.48983105266947596   0.005092382172900853   -0.004230343119899539
0.48983105266947596   0.005092382172900853   -0.004230343119899539
0.48983105266947596   0.005092382172900853   -0.004230343119899539
0.48983105266947596   0.005092382172900853   -0.004230343119899539
0.34222650560338075   -0.008925155420687211   -0.022424934632877383
0.34222650560338075   -0.008925155420687211   -0.022424934632877383
0.34222650560338075   -0.008925155420687211   -0.022424934632877383
0.34222650560338075   -0.008925155420687211   -0.022424934632877383
0.4989202825370481   0.0327255982871557   0.013582590103706046
0.4989202825370481   0.0327255982871557   0.013582590103706046
0.4989202825370481   0.0327255982871557   0.013582590103706046
0.4989202825370481   0.0327255982871557   0.013582590103706046
0.2369050955523304   -0.043872093354393814   0.0038732363607726673
0.2369050955523304   -0.043872093354393814   0.0038732363607726673
0.2369050955523304   -0.043872093354393814   0.0038732363607726673
0.2369050955523304   -0.043872093354393814   0.0038732363607726673
0.24842052642638   -0.015659071556805   0.009925294566457823
0.24842052642638   -0.015659071556805   0.009925294566457823
0.24842052642638   -0.015659071556805   0.009925294566457823
0.24842052642638   -0.015659071556805   0.009925294566457823
0.49808528688550496   0.008151386595275242   -0.0016739950416234592
0.49808528688550496   0.008151386595275242   -0.0016739950416234592
0.49808528688550496   0.008151386595275242   -0.0016739950416234592
0.49808528688550496   0.008151386595275242   -0.0016739950416234592
0.3560122169502054   -0.0069899718337401995   -0.015412232947461753
0.3560122169502054   -0.0069899718337401995   -0.015412232947461753
0.3560122169502054   -0.0069899718337401995   -0.015412232947461753
0.3560122169502054   -0.0069899718337401995   -0.015412232947461753
0.5058072710675021   0.03570890079237972   0.009378411671258302
0.5058072710675021   0.03570890079237972   0.009378411671258302
0.5058072710675021   0.03570890079237972   0.009378411671258302
0.5058072710675021   0.03570890079237972   0.009378411671258302
0.2421926352045944   -0.04172249279369767   0.004849259694422545
0.2421926352045944   -0.04172249279369767   0.004849259694422545
0.2421926352045944   -0.04172249279369767   0.004849259694422545
0.2421926352045944   -0.04172249279369767   0.004849259694422545
0.25520239007819684   -0.005017603642300639   0.009075314230540095
0.25520239007819684   -0.005017603642300639   0.009075314230540095
0.25520239007819684   -0.005017603642300639   0.009075314230540095
0.25520239007819684   -0.005017603642300639   0.009075314230540095
0.5067441391220203   0.015333280954353337   -0.0006897427880206523
0.5067441391220203   0.015333280954353337   -0.0006897427880206523
0.5067441391220203   0.015333280954353337   -0.0006897427880206523
0.5067441391220203   0.015333280954353337   -0.0006897427880206523
0.3574259940943785   -0.0030281936108884494   -0.011647754545675851
0.3574259940943785   -0.0030281936108884494   -0.011647754545675851
0.3574259940943785   -0.0030281936108884494   -0.011647754545675851
0.3574259940943785   -0.0030281936108884494   -0.011647754545675851
0.24451324158193039   0.007305294903591379   0.018361741848207193
0.24451324158193039   0.007305294903591379   0.018361741848207193
0.24451324158193039   0.007305294903591379   0.018361741848207193
0.24451324158193039   0.007305294903591379   0.018361741848207193
0.010638946690701534   -0.0839536523189824   0.008172452273762398
0.010638946690701534   -0.0839536523189824   0.008172452273762398
0.010638946690701534   -0.0839536523189824   0.008172452273762398
0.010638946690701534   -0.0839536523189824   0.008172452273762398
0.02655381142547926   -0.036087493859900795   0.007838144449785528
0.02655381142547926   -0.036087493859900795   0.007838144449785528
0.02655381142547926   -0.036087493859900795   0.007838144449785528
0.02655381142547926   -0.036087493859900795   0.007838144449785528
0.23836519146444426   -0.03833899973198829   0.005640622298933987
0.23836519146444426   -0.03833899973198829   0.005640622298933987
0.23836519146444426   -0.03833899973198829   0.005640622298933987
0.23836519146444426   -0.03833899973198829   0.005640622298933987
0.1258482012227287   -0.03694608448658636   -0.014010417555494715
0.1258482012227287   -0.03694608448658636   -0.014010417555494715
0.1258482012227287   -0.03694608448658636   -0.014010417555494715
0.1258482012227287   -0.03694608448658636   -0.014010417555494715
0.2500073851005019   0.010115091778828425   0.015397498968408951
0.2500073851005019   0.010115091778828425   0.015397498968408951
0.2500073851005019   0.010115091778828425   0.015397498968408951
0.2500073851005019   0.010115091778828425   0.015397498968408951
0.01798998701666042   -0.08146321614347812   0.010394744689268685
0.01798998701666042   -0.08146321614347812   0.010394744689268685
0.01798998701666042   -0.08146321614347812   0.010394744689268685
0.01798998701666042   -0.08146321614347812   0.010394744689268685
0.032887775617414364   -0.031080082582913095   0.0055963742995569325
0.032887775617414364   -0.031080082582913095   0.0055963742995569325
0.032887775617414364   -0.031080082582913095   0.0055963742995569325
0.032887775617414364   -0.031080082582913095   0.0055963742995569325
0.2438152119645055   -0.035658356344837876   0.006898007045118889
0.2438152119645055   -0.035658356344837876   0.006898007045118889
0.2438152119645055   -0.035658356344837876   0.006898007045118889
0.2438152119645055   -0.035658356344837876   0.006898007045118889
0.13117045608845845   -0.03498381174631785   -0.0070124474252638395
0.13117045608845845   -0.03498381174631785   -0.0070124474252638395
0.13117045608845845   -0.03498381174631785   -0.0070124474252638395
0.13117045608845845   -0.03498381174631785   -0.0070124474252638395
0.25514738102079254   0.014860552361830495   0.013039943619885386
0.25514738102079254   0.014860552361830495   0.013039943619885386
0.25514738102079254   0.014860552361830495   0.013039943619885386
0.25514738102079254   0.014860552361830495   0.013039943619885386
0.024511458391882103   -0.0786431394588247   0.011277845047808176
0.024511458391882103   -0.0786431394588247   0.011277845047808176
0.024511458391882103   -0.0786431394588247   0.011277845047808176
0.024511458391882103   -0.0786431394588247   0.011277845047808176
0.04265303610926209   -0.02355324997304374   0.003626534442183648
0.04265303610926209   -0.02355324997304374   0.003626534442183648
0.04265303610926209   -0.02355324997304374   0.003626534442183648
0.04265303610926209   -0.02355324997304374   0.003626534442183648
0.24974533580571634   -0.03160988262295836   0.008382321848794703
0.24974533580571634   -0.03160988262295836   0.008382321848794703
0.24974533580571634   -0.03160988262295836   0.008382321848794703
0.24974533580571634   -0.03160988262295836   0.008382321848794703
0.14074548321415525   -0.03030721809396502   0.0011584100257039862
0.14074548321415525   -0.03030721809396502   0.0011584100257039862
0.14074548321415525   -0.03030721809396502   0.0011584100257039862
0.14074548321415525   -0.03030721809396502   0.0011584100257039862
0.025187862799316   -0.01484922749890063   0.011812607996752973
0.025187862799316   -0.01484922749890063   0.011812607996752973
0.025187862799316   -0.01484922749890063   0.011812607996752973
0.025187862799316   -0.01484922749890063   0.011812607996752973
-0.21168372191470736   -0.14322688640661657   0.012169796206160242
-0.21168372191470736   -0.14322688640661657   0.012169796206160242
-0.21168372191470736   -0.14322688640661657   0.012169796206160242
-0.21168372191470736   -0.14322688640661657   0.012169796206160242
-0.18669887234313587   -0.056724364889092924   0.0005373820198805697
-0.18669887234313587   -0.056724364889092924   0.0005373820198805697
-0.18669887234313587   -0.056724364889092924   0.0005373820198805697
-0.18669887234313587   -0.056724364889092924   0.0005373820198805697
0.012842631181720479   -0.10184097522055977   0.0050357245916507545
0.012842631181720479   -0.10184097522055977   0.0050357245916507545
0.012842631181720479   -0.10184097522055977   0.0050357245916507545
0.012842631181720479   -0.10184097522055977   0.0050357245916507545
-0.09270552821663128   -0.07970540276948854   -0.016792902314334522
-0.09270552821663128   -0.07970540276948854   -0.016792902314334522
-0.09270552821663128   -0.07970540276948854   -0.016792902314334522
-0.09270552821663128   -0.07970540276948854   -0.016792902314334522
0.03182152613839568   -0.011258263971557455   0.00934748812602431
0.03182152613839568   -0.011258263971557455   0.00934748812602431
0.03182152613839568   -0.011258263971557455   0.00934748812602431
0.03182152613839568   -0.011258263971557455   0.00934748812602431
-0.20116878333758037   -0.142798092175864   0.014261554334430458
-0.20116878333758037   -0.142798092175864   0.014261554334430458
-0.20116878333758037   -0.142798092175864   0.014261554334430458
-0.20116878333758037   -0.142798092175864   0.014261554334430458
-0.1770508315157881   -0.05083550810571065   -0.00040675925936334723
-0.1770508315157881   -0.05083550810571065   -0.00040675925936334723
-0.1770508315157881   -0.05083550810571065   -0.00040675925936334723
-0.1770508315157881   -0.05083550810571065   -0.00040675925936334723
0.019537834767860012   -0.09935864166610946   0.0071252291349822895
0.019537834767860012   -0.09935864166610946   0.0071252291349822895
0.019537834767860012   -0.09935864166610946   0.0071252291349822895
0.019537834767860012   -0.09935864166610946   0.0071252291349822895
-0.0828867423971104   -0.07675027475140989   -0.0061219484147992526
-0.0828867423971104   -0.07675027475140989   -0.0061219484147992526
-0.0828867423971104   -0.07675027475140989   -0.0061219484147992526
-0.0828867423971104   -0.07675027475140989   -0.0061219484147992526
0.03788907121127783   -0.0065513514760278165   0.006074121161989945
0.03788907121127783   -0.0065513514760278165   0.006074121161989945
0.03788907121127783   -0.0065513514760278165   0.006074121161989945
0.03788907121127783   -0.0065513514760278165   0.006074121161989945
-0.1913814574389343   -0.13962218777551846   0.016726790794716263
-0.1913814574389343   -0.13962218777551846   0.016726790794716263
-0.1913814574389343   -0.13962218777551846   0.016726790794716263
-0.1913814574389343   -0.13962218777551846   0.016726790794716263
-0.16111676700323255   -0.0440735587440632   -0.002300877624140371
-0.16111676700323255   -0.0440735587440632   -0.002300877624140371
-0.16111676700323255   -0.0440735587440632   -0.002300877624140371
-0.16111676700323255   -0.0440735587440632   -0.002300877624140371
0.029974858305237724   -0.0928472978943555   0.009529693343373141
0.029974858305237724   -0.0928472978943555   0.009529693343373141
0.029974858305237724   -0.0928472978943555   0.009529693343373141
0.029974858305237724   -0.0928472978943555   0.009529693343373141
-0.07019764726838533   -0.0704874356962551   0.004905537358465526
-0.07019764726838533   -0.0704874356962551   0.004905537358465526
-0.07019764726838533   -0.0704874356962551   0.004905537358465526
-0.07019764726838533   -0.0704874356962551   0.004905537358465526
-0.18993221486877662   -0.02794595121947946   0.00564639624867513
-0.18993221486877662   -0.02794595121947946   0.00564639624867513
-0.18993221486877662   -0.02794595121947946   0.00564639624867513
-0.18993221486877662   -0.02794595121947946   0.00564639624867513
-0.46636698592170184   -0.2215511245679473   -0.00940802066253612
-0.46636698592170184   -0.2215511245679473   -0.00940802066253612
-0.46636698592170184   -0.2215511245679473   -0.00940802066253612
-0.46636698592170184   -0.2215511245679473   -0.00940802066253612
-0.4253231409231402   -0.07379413937949061   -0.012683380138848888
-0.4253231409231402   -0.07379413937949061   -0.012683380138848888
-0.4253231409231402   -0.07379413937949061   -0.012683380138848888
-0.4253231409231402   -0.07379413937949061   -0.012683380138848888
-0.21133925999745912   -0.1835608225098013   0.0041719013689726706
-0.21133925999745912   -0.1835608225098013   0.0041719013689726706
-0.21133925999745912   -0.1835608225098013   0.0041719013689726706
-0.21133925999745912   -0.1835608225098013   0.0041719013689726706
-0.32291436056064715   -0.13113799303625964   -0.017747095828637913
-0.32291436056064715   -0.13113799303625964   -0.017747095828637913
-0.32291436056064715   -0.13113799303625964   -0.017747095828637913
-0.32291436056064715   -0.13113799303625964   -0.017747095828637913
-0.1785745082164805   -0.020850641047980012   0.005285478812044411
-0.1785745082164805   -0.020850641047980012   0.005285478812044411
-0.1785745082164805   -0.020850641047980012   0.005285478812044411
-0.1785745082164805   -0.020850641047980012   0.005285478812044411
-0.4568224622280082   -0.23523889036520068   -0.00873523567747523
-0.4568224622280082   -0.23523889036520068   -0.00873523567747523
-0.4568224622280082   -0.23523889036520068   -0.00873523567747523
-0.4568224622280082   -0.23523889036520068   -0.00873523567747523
-0.4123556754393735   -0.06677434489341483   -0.01298134701811422
-0.4123556754393735   -0.06677434489341483   -0.01298134701811422
-0.4123556754393735   -0.06677434489341483   -0.01298134701811422
-0.4123556754393735   -0.06677434489341483   -0.01298134701811422
-0.2018999678615842   -0.18180240413237964   0.00631445503832629
-0.2018999678615842   -0.18180240413237964   0.00631445503832629
-0.2018999678615842   -0.18180240413237964   0.00631445503832629
-0.2018999678615842   -0.18180240413237964   0.00631445503832629
-0.3091143279936931   -0.12721509954418778   -0.011924735759832241
-0.3091143279936931   -0.12721509954418778   -0.011924735759832241
-0.3091143279936931   -0.12721509954418778   -0.011924735759832241
-0.3091143279936931   -0.12721509954418778   -0.011924735759832241
-0.1694942402910254   -0.015248042256977266   0.0017887310157182839
-0.1694942402910254   -0.015248042256977266   0.0017887310157182839
-0.1694942402910254   -0.015248042256977266   0.0017887310157182839
-0.1694942402910254   -0.015248042256977266   0.0017887310157182839
-0.4445522086992835   -0.23311951245816656   -0.007618845752909102
-0.4445522086992835   -0.23311951245816656   -0.007618845752909102
-0.4445522086992835   -0.23311951245816656   -0.007618845752909102
-0.4445522086992835   -0.23311951245816656   -0.007618845752909102
-0.3920129978191962   -0.059307051728988334   -0.01473407270859669
-0.3920129978191962   -0.059307051728988334   -0.01473407270859669
-0.3920129978191962   -0.059307051728988334   -0.01473407270859669
-0.3920129978191962   -0.059307051728988334   -0.01473407270859669
-0.18145972566762947   -0.16227067032855536   0.014181440638369687
-0.18145972566762947   -0.16227067032855536   0.014181440638369687
-0.18145972566762947   -0.16227067032855536   0.014181440638369687
-0.18145972566762947   -0.16227067032855536   0.014181440638369687
-0.2938851445582347   -0.11462317003806141   -0.005983963412346629
-0.2938851445582347   -0.11462317003806141   -0.005983963412346629
-0.2938851445582347   -0.11462317003806141   -0.005983963412346629
-0.2938851445582347   -0.11462317003806141   -0.005983963412346629
-0.4255924554197958   -0.024256731298892706   -0.002829761422060345
-0.4255924554197958   -0.024256731298892706   -0.002829761422060345
-0.4255924554197958   -0.024256731298892706   -0.002829761422060345
-0.4255924554197958   -0.024256731298892706   -0.002829761422060345
-0.7460088765754248   -0.1476642132845553   0.007687810152648247
-0.7460088765754248   -0.1476642132845553   0.007687810152648247
-0.7460088765754248   -0.1476642132845553   0.007687810152648247
-0.7460088765754248   -0.1476642132845553   0.007687810152648247
-0.7173682027629305   -0.06960776765598775   -0.01515507810283917
-0.7173682027629305   -0.06960776765598775   -0.01515507810283917
-0.7173682027629305   -0.06960776765598775   -0.01515507810283917
-0.7173682027629305   -0.06960776765598775   -0.01515507810283917
-0.41775970740069324   -0.07773667655113298   0.02907632464502834
-0.41775970740069324   -0.07773667655113298   0.02907632464502834
-0.41775970740069324   -0.07773667655113298   0.02907632464502834
-0.41775970740069324   -0.07773667655113298   0.02907632464502834
-0.5534373273123837   -0.08523230758237317   0.007262621973343788
-0.5534373273123837   -0.08523230758237317   0.007262621973343788
-0.5534373273123837   -0.08523230758237317   0.007262621973343788
-0.5534373273123837   -0.08523230758237317   0.007262621973343788
-0.4089913895867443   -0.004887618306210692   6.885546985257313e-05
-0.4089913895867443   -0.004887618306210692   6.885546985257313e-05
-0.4089913895867443   -0.004887618306210692   6.885546985257313e-05
-0.4089913895867443   -0.004887618306210692   6.885546985257313e-05
-0.7287172870228252   -0.14503759234685545   0.00352932528854802
-0.7287172870228252   -0.14503759234685545   0.00352932528854802
-0.7287172870228252   -0.14503759234685545   0.00352932528854802
-0.7287172870228252   -0.14503759234685545   0.00352932528854802
-0.7020366842614236   -0.06384644196728484   -0.019258964375567865
-0.7020366842614236   -0.06384644196728484   -0.019258964375567865
-0.7020366842614236   -0.06384644196728484   -0.019258964375567865
-0.7020366842614236   -0.06384644196728484   -0.019258964375567865
-0.40442808705197414   -0.07409097283775047   0.03397322286322173
-0.40442808705197414   -0.07409097283775047   0.03397322286322173
-0.40442808705197414   -0.07409097283775047   0.03397322286322173
-0.40442808705197414   -0.07409097283775047   0.03397322286322173
-0.5457187914098344   -0.07035830521909667   0.007135750023803641
-0.5457187914098344   -0.07035830521909667   0.007135750023803641
-0.5457187914098344   -0.07035830521909667   0.007135750023803641
-0.5457187914098344   -0.07035830521909667   0.007135750023803641
-0.3971320897964224   0.00021559755122849134   -0.0038533612479986178
-0.3971320897964224   0.00021559755122849134   -0.0038533612479986178
-0.3971320897964224   0.00021559755122849134   -0.0038533612479986178
-0.3971320897964224   0.00021559755122849134   -0.0038533612479986178
-0.7101496679727729   -0.13896999881206293   0.015299673912458237
-0.7101496679727729   -0.13896999881206293   0.015299673912458237
-0.7101496679727729   -0.13896999881206293   0.015299673912458237
-0.7101496679727729   -0.13896999881206293   0.015299673912458237
-0.6701543143917296   -0.05218476923782617   -0.021726286126510737
-0.6701543143917296   -0.05218476923782617   -0.021726286126510737
-0.6701543143917296   -0.05218476923782617   -0.021726286126510737
-0.6701543143917296   -0.05218476923782617   -0.021726286126510737
-0.38358433145781584   -0.06924702068141625   0.037349228050734616
-0.38358433145781584   -0.06924702068141625   0.037349228050734616
-0.38358433145781584   -0.06924702068141625   0.037349228050734616
-0.38358433145781584   -0.06924702068141625   0.037349228050734616
-0.5141830607942963   -0.05390557376365956   0.01526286681756147
-0.5141830607942963   -0.05390557376365956   0.01526286681756147
-0.5141830607942963   -0.05390557376365956   0.01526286681756147
-0.5141830607942963   -0.05390557376365956   0.01526286681756147
0.5340893233767317   0.018499882059508366   0.007302810998873095
0.5340893233767317   0.018499882059508366   0.007302810998873095
0.5340893233767317   0.018499882059508366   0.007302810998873095
0.5340893233767317   0.018499882059508366   0.007302810998873095
0.271196124346278   -0.014908027411802527   0.004967001937746372
0.271196124346278   -0.014908027411802527   0.004967001937746372
0.271196124346278   -0.014908027411802527   0.004967001937746372
0.271196124346278   -0.014908027411802527   0.004967001937746372
0.26107439181774816   -0.037752946781527436   0.01029967295968676
0.26107439181774816   -0.037752946781527436   0.01029967295968676
0.26107439181774816   -0.037752946781527436   0.01029967295968676
0.26107439181774816   -0.037752946781527436   0.01029967295968676
0.5302732619536039   0.029806184441071706   0.0034463042488278063
0.5302732619536039   0.029806184441071706   0.0034463042488278063
0.5302732619536039   0.029806184441071706   0.0034463042488278063
0.5302732619536039   0.029806184441071706   0.0034463042488278063
0.37789442424199315   -0.005105692562756642   -0.014043184939559467
0.37789442424199315   -0.005105692562756642   -0.014043184939559467
0.37789442424199315   -0.005105692562756642   -0.014043184939559467
0.37789442424199315   -0.005105692562756642   -0.014043184939559467
0.5276505464965837   0.01460844320271762   0.005530468202080755
0.5276505464965837   0.01460844320271762   0.005530468202080755
0.5276505464965837   0.01460844320271762   0.005530468202080755
0.5276505464965837   0.01460844320271762   0.005530468202080755
0.2628956202407911   -0.023356692577151367   0.00500956087052519
0.2628956202407911   -0.023356692577151367   0.00500956087052519
0.2628956202407911   -0.023356692577151367   0.00500956087052519
0.2628956202407911   -0.023356692577151367   0.00500956087052519
0.2545414130028411   -0.03852875569643972   0.008469167382465573
0.2545414130028411   -0.03852875569643972   0.008469167382465573
0.2545414130028411   -0.03852875569643972   0.008469167382465573
0.2545414130028411   -0.03852875569643972   0.008469167382465573
0.5243662903923308   0.028628487760774632   0.006228448339452859
0.5243662903923308   0.028628487760774632   0.006228448339452859
0.5243662903923308   0.028628487760774632   0.006228448339452859
0.5243662903923308   0.028628487760774632   0.006228448339452859
0.3771237776921365   -0.007024247551654164   -0.016023701908469103
0.3771237776921365   -0.007024247551654164   -0.016023701908469103
0.3771237776921365   -0.007024247551654164   -0.016023701908469103
0.3771237776921365   -0.007024247551654164   -0.016023701908469103
0.5203731983645409   0.013268385909717365   0.0016230900515562634
0.5203731983645409   0.013268385909717365   0.0016230900515562634
0.5203731983645409   0.013268385909717365   0.0016230900515562634
0.5203731983645409   0.013268385909717365   0.0016230900515562634
0.25706147254533146   -0.024641686330683588   0.007182395729161153
0.25706147254533146   -0.024641686330683588   0.007182395729161153
0.25706147254533146   -0.024641686330683588   0.007182395729161153
0.25706147254533146   -0.024641686330683588   0.007182395729161153
0.2476949483774108   -0.03487475464522852   0.007319269958679587
0.2476949483774108   -0.03487475464522852   0.007319269958679587
0.2476949483774108   -0.03487475464522852   0.007319269958679587
0.2476949483774108   -0.03487475464522852   0.007319269958679587
0.5153163707164137   0.029270685539047395   0.009168380397561886
0.5153163707164137   0.029270685539047395   0.009168380397561886
0.5153163707164137   0.029270685539047395   0.009168380397561886
0.5153163707164137   0.029270685539047395   0.009168380397561886
0.3632942718253606   -0.006953279492607184   -0.021426867943555184
0.3632942718253606   -0.006953279492607184   -0.021426867943555184
0.3632942718253606   -0.006953279492607184   -0.021426867943555184
0.3632942718253606   -0.006953279492607184   -0.021426867943555184
0.2696268804458124   -0.03112333751499087   0.01333609253860691
0.2696268804458124   -0.03112333751499087   0.01333609253860691
0.2696268804458124   -0.03112333751499087   0.01333609253860691
0.2696268804458124   -0.03112333751499087   0.01333609253860691
0.048751294786307714   -0.03203754752829924   0.002409113347142791
0.048751294786307714   -0.03203754752829924   0.002409113347142791
0.048751294786307714   -0.03203754752829924   0.002409113347142791
0.048751294786307714   -0.03203754752829924   0.002409113347142791
0.031256128705467165   -0.07819959678694592   0.013446699783122917
0.031256128705467165   -0.07819959678694592   0.013446699783122917
0.031256128705467165   -0.07819959678694592   0.013446699783122917
0.031256128705467165   -0.07819959678694592   0.013446699783122917
0.2708926090635797   0.011458256703124406   0.010179555704192192
0.2708926090635797   0.011458256703124406   0.010179555704192192
0.2708926090635797   0.011458256703124406   0.010179555704192192
0.2708926090635797   0.011458256703124406   0.010179555704192192
0.15273023503255412   -0.032613749951603356   -0.0006600427826533653
0.15273023503255412   -0.032613749951603356   -0.0006600427826533653
0.15273023503255412   -0.032613749951603356   -0.0006600427826533653
0.15273023503255412   -0.032613749951603356   -0.0006600427826533653
0.26232962771249596   -0.03242471317648793   0.011247618828386968
0.26232962771249596   -0.03242471317648793   0.011247618828386968
0.26232962771249596   -0.03242471317648793   0.011247618828386968
0.26232962771249596   -0.03242471317648793   0.011247618828386968
0.03764794372715725   -0.0364877932367277   0.0036939713413541176
0.03764794372715725   -0.0364877932367277   0.0036939713413541176
0.03764794372715725   -0.0364877932367277   0.0036939713413541176
0.03764794372715725   -0.0364877932367277   0.0036939713413541176
0.023359593273231824   -0.0787258538106882   0.012016138407140942
0.023359593273231824   -0.0787258538106882   0.012016138407140942
0.023359593273231824   -0.0787258538106882   0.012016138407140942
0.023359593273231824   -0.0787258538106882   0.012016138407140942
0.2648750761501188   0.009609947378827782   0.01199878004358661
0.2648750761501188   0.009609947378827782   0.01199878004358661
0.2648750761501188   0.009609947378827782   0.01199878004358661
0.2648750761501188   0.009609947378827782   0.01199878004358661
0.14194893792037178   -0.03470103992883446   -0.00714185959344432
0.14194893792037178   -0.03470103992883446   -0.00714185959344432
0.14194893792037178   -0.03470103992883446   -0.00714185959344432
0.14194893792037178   -0.03470103992883446   -0.00714185959344432
0.2558798760355623   -0.03274873297477178   0.009381459824401212
0.2558798760355623   -0.03274873297477178   0.009381459824401212
0.2558798760355623   -0.03274873297477178   0.009381459824401212
0.2558798760355623   -0.03274873297477178   0.009381459824401212
0.029988036902748472   -0.038733929942130346   0.00516643268616632
0.029988036902748472   -0.038733929942130346   0.00516643268616632
0.029988036902748472   -0.038733929942130346   0.00516643268616632
0.029988036902748472   -0.038733929942130346   0.00516643268616632
0.014539883876686765   -0.07846354767835043   0.009319448500863924
0.014539883876686765   -0.07846354767835043   0.009319448500863924
0.014539883876686765   -0.07846354767835043   0.009319448500863924
0.014539883876686765   -0.07846354767835043   0.009319448500863924
0.25804513409090346   0.009906648813750848   0.0142887950671624
0.25804513409090346   0.009906648813750848   0.0142887950671624
0.25804513409090346   0.009906648813750848   0.0142887950671624
0.25804513409090346   0.009906648813750848   0.0142887950671624
0.1354776158418089   -0.03424895007624698   -0.012605867711711443
0.1354776158418089   -0.03424895007624698   -0.012605867711711443
0.1354776158418089   -0.03424895007624698   -0.012605867711711443
0.1354776158418089   -0.03424895007624698   -0.012605867711711443
0.03839422739574117   -0.09327334167713014   0.011859570543141011
0.03839422739574117   -0.09327334167713014   0.011859570543141011
0.03839422739574117   -0.09327334167713014   0.011859570543141011
0.03839422739574117   -0.09327334167713014   0.011859570543141011
-0.16535654438727462   -0.04918835784708228   -0.00020216730382232716
-0.16535654438727462   -0.04918835784708228   -0.00020216730382232716
-0.16535654438727462   -0.04918835784708228   -0.00020216730382232716
-0.16535654438727462   -0.04918835784708228   -0.00020216730382232716
-0.19700364778819018   -0.14173660236491112   0.015403867839804644
-0.19700364778819018   -0.14173660236491112   0.015403867839804644
-0.19700364778819018   -0.14173660236491112   0.015403867839804644
-0.19700364778819018   -0.14173660236491112   0.015403867839804644
0.044158641710705625   -0.00678202017942822   0.006541688201796648
0.044158641710705625   -0.00678202017942822   0.006541688201796648
0.044158641710705625   -0.00678202017942822   0.006541688201796648
0.044158641710705625   -0.00678202017942822   0.006541688201796648
-0.06908725649494404   -0.0717075654520678   0.0027793607104712667
-0.06908725649494404   -0.0717075654520678   0.0027793607104712667
-0.06908725649494404   -0.0717075654520678   0.0027793607104712667
-0.06908725649494404   -0.0717075654520678   0.0027793607104712667
0.026249882378979194   -0.09843624635557574   0.00865211771931287
0.026249882378979194   -0.09843624635557574   0.00865211771931287
0.026249882378979194   -0.09843624635557574   0.00865211771931287
0.026249882378979194   -0.09843624635557574   0.00865211771931287
-0.18216754851319947   -0.05315503624549951   0.00100279809534527
-0.18216754851319947   -0.05315503624549951   0.00100279809534527
-0.18216754851319947   -0.05315503624549951   0.00100279809534527
-0.18216754851319947   -0.05315503624549951   0.00100279809534527
-0.20794201121105027   -0.14373578255198238   0.012719370684512628
-0.20794201121105027   -0.14373578255198238   0.012719370684512628
-0.20794201121105027   -0.14373578255198238   0.012719370684512628
-0.20794201121105027   -0.14373578255198238   0.012719370684512628
0.036745628435968625   -0.008825505433604074   0.009045965843740974
0.036745628435968625   -0.008825505433604074   0.009045965843740974
0.036745628435968625   -0.008825505433604074   0.009045965843740974
0.036745628435968625   -0.008825505433604074   0.009045965843740974
-0.08278774479388046   -0.07590797299895155   -0.006331606560817009
-0.08278774479388046   -0.07590797299895155   -0.006331606560817009
-0.08278774479388046   -0.07590797299895155   -0.006331606560817009
-0.08278774479388046   -0.07590797299895155   -0.006331606560817009
0.017838631175079153   -0.09998869449210185   0.005674168597792163
0.017838631175079153   -0.09998869449210185   0.005674168597792163
0.017838631175079153   -0.09998869449210185   0.005674168597792163
0.017838631175079153   -0.09998869449210185   0.005674168597792163
-0.19274114578191587   -0.05627872532524074   0.0012666406034421212
-0.19274114578191587   -0.05627872532524074   0.0012666406034421212
-0.19274114578191587   -0.05627872532524074   0.0012666406034421212
-0.19274114578191587   -0.05627872532524074   0.0012666406034421212
-0.21986763228649303   -0.14263639167220277   0.010426715045867598
-0.21986763228649303   -0.14263639167220277   0.010426715045867598
-0.21986763228649303   -0.14263639167220277   0.010426715045867598
-0.21986763228649303   -0.14263639167220277   0.010426715045867598
0.028514393777926056   -0.009908366434099513   0.010636816762807949
0.028514393777926056   -0.009908366434099513   0.010636816762807949
0.028514393777926056   -0.009908366434099513   0.010636816762807949
0.028514393777926056   -0.009908366434099513   0.010636816762807949
-0.09395750179234645   -0.07743813820821205   -0.015542628299520899
-0.09395750179234645   -0.07743813820821205   -0.015542628299520899
-0.09395750179234645   -0.07743813820821205   -0.015542628299520899
-0.09395750179234645   -0.07743813820821205   -0.015542628299520899
-0.18476610078029182   -0.16053083735862972   0.014092530242640643
-0.18476610078029182   -0.16053083735862972   0.014092530242640643
-0.18476610078029182   -0.16053083735862972   0.014092530242640643
-0.18476610078029182   -0.16053083735862972   0.014092530242640643
-0.4069294896887421   -0.061076834574644495   -0.009154635304576459
-0.4069294896887421   -0.061076834574644495   -0.009154635304576459
-0.4069294896887421   -0.061076834574644495   -0.009154635304576459
-0.4069294896887421   -0.061076834574644495   -0.009154635304576459
-0.4623868162320132   -0.2369427774924046   -0.011690317309489738
-0.4623868162320132   -0.2369427774924046   -0.011690317309489738
-0.4623868162320132   -0.2369427774924046   -0.011690317309489738
-0.4623868162320132   -0.2369427774924046   -0.011690317309489738
-0.17305074681979304   -0.012220744551843757   0.005652514868721679
-0.17305074681979304   -0.012220744551843757   0.005652514868721679
-0.17305074681979304   -0.012220744551843757   0.005652514868721679
-0.17305074681979304   -0.012220744551843757   0.005652514868721679
-0.3037488742497639   -0.11281522531635646   -0.008987422034548505
-0.3037488742497639   -0.11281522531635646   -0.008987422034548505
-0.3037488742497639   -0.11281522531635646   -0.008987422034548505
-0.3037488742497639   -0.11281522531635646   -0.008987422034548505
-0.20722800691101623   -0.18255321516179493   0.005098685022556823
-0.20722800691101623   -0.18255321516179493   0.005098685022556823
-0.20722800691101623   -0.18255321516179493   0.005098685022556823
-0.20722800691101623   -0.18255321516179493   0.005098685022556823
-0.4274690201873812   -0.06586977092904447   -0.008174343649693796
-0.4274690201873812   -0.06586977092904447   -0.008174343649693796
-0.4274690201873812   -0.06586977092904447   -0.008174343649693796
-0.4274690201873812   -0.06586977092904447   -0.008174343649693796
-0.4754655035778715   -0.2404808494356082   -0.013512235761529413
-0.4754655035778715   -0.2404808494356082   -0.013512235761529413
-0.4754655035778715   -0.2404808494356082   -0.013512235761529413
-0.4754655035778715   -0.2404808494356082   -0.013512235761529413
-0.1832107513777128   -0.015654397893605013   0.00829428519282151
-0.1832107513777128   -0.015654397893605013   0.00829428519282151
-0.1832107513777128   -0.015654397893605013   0.00829428519282151
-0.1832107513777128   -0.015654397893605013   0.00829428519282151
-0.3198088016665424   -0.12531156252612755   -0.01336571024372461
-0.3198088016665424   -0.12531156252612755   -0.01336571024372461
-0.3198088016665424   -0.12531156252612755   -0.01336571024372461
-0.3198088016665424   -0.12531156252612755   -0.01336571024372461
-0.21853130474454033   -0.1859867820196828   0.002023902484761836
-0.21853130474454033   -0.1859867820196828   0.002023902484761836
-0.21853130474454033   -0.1859867820196828   0.002023902484761836
-0.21853130474454033   -0.1859867820196828   0.002023902484761836
-0.44042314679489236   -0.07042666189337873   -0.008354639388867616
-0.44042314679489236   -0.07042666189337873   -0.008354639388867616
-0.44042314679489236   -0.07042666189337873   -0.008354639388867616
-0.44042314679489236   -0.07042666189337873   -0.008354639388867616
-0.48653708531636974   -0.22916751469053748   -0.015225421522800611
-0.48653708531636974   -0.22916751469053748   -0.015225421522800611
-0.48653708531636974   -0.22916751469053748   -0.015225421522800611
-0.48653708531636974   -0.22916751469053748   -0.015225421522800611
-0.19598005448667113   -0.020538659628970928   0.0077668720017452595
-0.19598005448667113   -0.020538659628970928   0.0077668720017452595
-0.19598005448667113   -0.020538659628970928   0.0077668720017452595
-0.19598005448667113   -0.020538659628970928   0.0077668720017452595
-0.3347671225724473   -0.129453485366139   -0.017686512843837134
-0.3347671225724473   -0.129453485366139   -0.017686512843837134
-0.3347671225724473   -0.129453485366139   -0.017686512843837134
-0.3347671225724473   -0.129453485366139   -0.017686512843837134
-0.40093255039338704   -0.073529887299307   0.03328311389685459
-0.40093255039338704   -0.073529887299307   0.03328311389685459
-0.40093255039338704   -0.073529887299307   0.03328311389685459
-0.40093255039338704   -0.073529887299307   0.03328311389685459
-0.6989071722946513   -0.05147228816161223   -0.0116402993980603
-0.6989071722946513   -0.05147228816161223   -0.0116402993980603
-0.6989071722946513   -0.05147228816161223   -0.0116402993980603
-0.6989071722946513   -0.05147228816161223   -0.0116402993980603
-0.7405579951033053   -0.14630149291652544   0.009050530520678036
-0.7405579951033053   -0.14630149291652544   0.009050530520678036
-0.7405579951033053   -0.14630149291652544   0.009050530520678036
-0.7405579951033053   -0.14630149291652544   0.009050530520678036
-0.4106042565550047   0.00662827112170393   0.003651432461440545
-0.4106042565550047   0.00662827112170393   0.003651432461440545
-0.4106042565550047   0.00662827112170393   0.003651432461440545
-0.4106042565550047   0.00662827112170393   0.003651432461440545
-0.5359652581444744   -0.05133742067314547   0.010602494324955355
-0.5359652581444744   -0.05133742067314547   0.010602494324955355
-0.5359652581444744   -0.05133742067314547   0.010602494324955355
-0.5359652581444744   -0.05133742067314547   0.010602494324955355
-0.42248993173482374   -0.07860643400846191   0.029457761692509327
-0.42248993173482374   -0.07860643400846191   0.029457761692509327
-0.42248993173482374   -0.07860643400846191   0.029457761692509327
-0.42248993173482374   -0.07860643400846191   0.029457761692509327
-0.726986876125985   -0.05938134398885676   -0.010014023520382689
-0.726986876125985   -0.05938134398885676   -0.010014023520382689
-0.726986876125985   -0.05938134398885676   -0.010014023520382689
-0.726986876125985   -0.05938134398885676   -0.010014023520382689
-0.7577680400111266   -0.1523002805939308   -0.0037333629585274094
-0.7577680400111266   -0.1523002805939308   -0.0037333629585274094
-0.7577680400111266   -0.1523002805939308   -0.0037333629585274094
-0.7577680400111266   -0.1523002805939308   -0.0037333629585274094
-0.42283672850474313   0.002687267746547775   0.006463522421952361
-0.42283672850474313   0.002687267746547775   0.006463522421952361
-0.42283672850474313   0.002687267746547775   0.006463522421952361
-0.42283672850474313   0.002687267746547775   0.006463522421952361
-0.5669404094902878   -0.06753003988616138   0.0042027390486929425
-0.5669404094902878   -0.06753003988616138   0.0042027390486929425
-0.5669404094902878   -0.06753003988616138   0.0042027390486929425
-0.5669404094902878   -0.06753003988616138   0.0042027390486929425
-0.4363200132431085   -0.08243094112773847   0.024165307604411358
-0.4363200132431085   -0.08243094112773847   0.024165307604411358
-0.4363200132431085   -0.08243094112773847   0.024165307604411358
-0.4363200132431085   -0.08243094112773847   0.024165307604411358
-0.7407516541812086   -0.0636489706280901   -0.007302743774771525
-0.7407516541812086   -0.0636489706280901   -0.007302743774771525
-0.7407516541812086   -0.0636489706280901   -0.007302743774771525
-0.7407516541812086   -0.0636489706280901   -0.007302743774771525
-0.772276930798669   -0.15450181451853695   -0.0002321417940157848
-0.772276930798669   -0.15450181451853695   -0.0002321417940157848
-0.772276930798669   -0.15450181451853695   -0.0002321417940157848
-0.772276930798669   -0.15450181451853695   -0.0002321417940157848
-0.4401083304217865   -0.015035681670710246   0.0027865199302874455
-0.4401083304217865   -0.015035681670710246   0.0027865199302874455
-0.4401083304217865   -0.015035681670710246   0.0027865199302874455
-0.4401083304217865   -0.015035681670710246   0.0027865199302874455
-0.5730889794753041   -0.08130774164139837   0.006577066665438922
-0.5730889794753041   -0.08130774164139837   0.006577066665438922
-0.5730889794753041   -0.08130774164139837   0.006577066665438922
-0.5730889794753041   -0.08130774164139837   0.006577066665438922
0.47191791968974806   0.02229763651136557   -0.009726473789884588
0.47191791968974806   0.02229763651136557   -0.009726473789884588
0.47191791968974806   0.02229763651136557   -0.009726473789884588
0.47191791968974806   0.02229763651136557   -0.009726473789884588
0.23634600946417   -0.005504573497974508   0.004570231681013568
0.23634600946417   -0.005504573497974508   0.004570231681013568
0.23634600946417   -0.005504573497974508   0.004570231681013568
0.23634600946417   -0.005504573497974508   0.004570231681013568
0.22191984473229806   -0.03430738495155184   -0.0087681254929995
0.22191984473229806   -0.03430738495155184   -0.0087681254929995
0.22191984473229806   -0.03430738495155184   -0.0087681254929995
0.22191984473229806   -0.03430738495155184   -0.0087681254929995
0.4666226370554434   0.033755780464279794   0.005346991039700998
0.4666226370554434   0.033755780464279794   0.005346991039700998
0.4666226370554434   0.033755780464279794   0.005346991039700998
0.4666226370554434   0.033755780464279794   0.005346991039700998
0.33090262609885845   0.0008264312667991269   -0.012763150259656665
0.33090262609885845   0.0008264312667991269   -0.012763150259656665
0.33090262609885845   0.0008264312667991269   -0.012763150259656665
0.33090262609885845   0.0008264312667991269   -0.012763150259656665
0.4594166930355567   0.012966850073840547   -0.009893798669288682
0.4594166930355567   0.012966850073840547   -0.009893798669288682
0.4594166930355567   0.012966850073840547   -0.009893798669288682
0.4594166930355567   0.012966850073840547   -0.009893798669288682
0.22874317920838072   -0.013901064104917503   0.004942226040777223
0.22874317920838072   -0.013901064104917503   0.004942226040777223
0.22874317920838072   -0.013901064104917503   0.004942226040777223
0.22874317920838072   -0.013901064104917503   0.004942226040777223
0.21412649149450716   -0.036124736415980144   -0.007297873646497338
0.21412649149450716   -0.036124736415980144   -0.007297873646497338
0.21412649149450716   -0.036124736415980144   -0.007297873646497338
0.21412649149450716   -0.036124736415980144   -0.007297873646497338
0.45584847492477076   0.03113970995352043   0.007952662628540042
0.45584847492477076   0.03113970995352043   0.007952662628540042
0.45584847492477076   0.03113970995352043   0.007952662628540042
0.45584847492477076   0.03113970995352043   0.007952662628540042
0.3269299432022569   -0.0031152649220472645   -0.015034723255591778
0.3269299432022569   -0.0031152649220472645   -0.015034723255591778
0.3269299432022569   -0.0031152649220472645   -0.015034723255591778
0.3269299432022569   -0.0031152649220472645   -0.015034723255591778
0.4485779196650899   0.010644202670140046   -0.007904606386484336
0.4485779196650899   0.010644202670140046   -0.007904606386484336
0.4485779196650899   0.010644202670140046   -0.007904606386484336
0.4485779196650899   0.010644202670140046   -0.007904606386484336
0.220845516035893   -0.016180759850893976   0.0063532724953457645
0.220845516035893   -0.016180759850893976   0.0063532724953457645
0.220845516035893   -0.016180759850893976   0.0063532724953457645
0.220845516035893   -0.016180759850893976   0.0063532724953457645
0.20661864724799434   -0.035310522548940376   -0.005039936573957626
0.20661864724799434   -0.035310522548940376   -0.005039936573957626
0.20661864724799434   -0.035310522548940376   -0.005039936573957626
0.20661864724799434   -0.035310522548940376   -0.005039936573957626
0.4425454582714593   0.029599073087374708   0.010476761313822455
0.4425454582714593   0.029599073087374708   0.010476761313822455
0.4425454582714593   0.029599073087374708   0.010476761313822455
0.4425454582714593   0.029599073087374708   0.010476761313822455
0.3112388875522001   -0.005380466936126885   -0.019618730081350906
0.3112388875522001   -0.005380466936126885   -0.019618730081350906
0.3112388875522001   -0.005380466936126885   -0.019618730081350906
0.3112388875522001   -0.005380466936126885   -0.019618730081350906
0.23821424019614176   0.005878817710681675   0.0025279941322160562
0.23821424019614176   0.005878817710681675   0.0025279941322160562
0.23821424019614176   0.005878817710681675   0.0025279941322160562
0.23821424019614176   0.005878817710681675   0.0025279941322160562
0.02072865738144164   -0.014679500249929709   -0.0007829788016079616
0.02072865738144164   -0.014679500249929709   -0.0007829788016079616
0.02072865738144164   -0.014679500249929709   -0.0007829788016079616
0.02072865738144164   -0.014679500249929709   -0.0007829788016079616
0.007128511443648086   -0.04503339658838147   -0.008514613133405593
0.007128511443648086   -0.04503339658838147   -0.008514613133405593
0.007128511443648086   -0.04503339658838147   -0.008514613133405593
0.007128511443648086   -0.04503339658838147   -0.008514613133405593
0.23838545920619653   0.02764460466327087   0.011607957261667967
0.23838545920619653   0.02764460466327087   0.011607957261667967
0.23838545920619653   0.02764460466327087   0.011607957261667967
0.23838545920619653   0.02764460466327087   0.011607957261667967
0.1238041996627558   -0.005987481683355715   -0.004738895427172095
0.1238041996627558   -0.005987481683355715   -0.004738895427172095
0.1238041996627558   -0.005987481683355715   -0.004738895427172095
0.1238041996627558   -0.005987481683355715   -0.004738895427172095
0.23180149621450036   0.002392226988134627   0.00394051997832429
0.23180149621450036   0.002392226988134627   0.00394051997832429
0.23180149621450036   0.002392226988134627   0.00394051997832429
0.23180149621450036   0.002392226988134627   0.00394051997832429
0.013977327564260861   -0.01951616578432875   0.0002122366656055587
0.013977327564260861   -0.01951616578432875   0.0002122366656055587
0.013977327564260861   -0.01951616578432875   0.0002122366656055587
0.013977327564260861   -0.01951616578432875   0.0002122366656055587
-0.00038720178801812666   -0.04704725420873335   -0.0060249499560821075
-0.00038720178801812666   -0.04704725420873335   -0.0060249499560821075
-0.00038720178801812666   -0.04704725420873335   -0.0060249499560821075
-0.00038720178801812666   -0.04704725420873335   -0.0060249499560821075
0.2301431028652901   0.023881685998578914   0.012778760792858423
0.2301431028652901   0.023881685998578914   0.012778760792858423
0.2301431028652901   0.023881685998578914   0.012778760792858423
0.2301431028652901   0.023881685998578914   0.012778760792858423
0.11508039562886768   -0.009484628708571554   -0.006706350006942474
0.11508039562886768   -0.009484628708571554   -0.006706350006942474
0.11508039562886768   -0.009484628708571554   -0.006706350006942474
0.11508039562886768   -0.009484628708571554   -0.006706350006942474
0.22393824129286793   0.0001250434871025094   0.005511095442225809
0.22393824129286793   0.0001250434871025094   0.005511095442225809
0.22393824129286793   0.0001250434871025094   0.005511095442225809
0.22393824129286793   0.0001250434871025094   0.005511095442225809
0.005791089830422034   -0.023317181651241095   0.00113643557862644
0.005791089830422034   -0.023317181651241095   0.00113643557862644
0.005791089830422034   -0.023317181651241095   0.00113643557862644
0.005791089830422034   -0.023317181651241095   0.00113643557862644
-0.00843166357828522   -0.04708397293524913   -0.004187516008664122
-0.00843166357828522   -0.04708397293524913   -0.004187516008664122
-0.00843166357828522   -0.04708397293524913   -0.004187516008664122
-0.00843166357828522   -0.04708397293524913   -0.004187516008664122
0.22182377847859142   0.02157510006335353   0.014100096966735124
0.22182377847859142   0.02157510006335353   0.014100096966735124
0.22182377847859142   0.02157510006335353   0.014100096966735124
0.22182377847859142   0.02157510006335353   0.014100096966735124
0.10839021212067883   -0.010759762193058933   -0.008347239322643156
0.10839021212067883   -0.010759762193058933   -0.008347239322643156
0.10839021212067883   -0.010759762193058933   -0.008347239322643156
0.10839021212067883   -0.010759762193058933   -0.008347239322643156
0.021742878098243337   -0.011505262485599976   0.0011138870180698417
0.021742878098243337   -0.011505262485599976   0.0011138870180698417
0.021742878098243337   -0.011505262485599976   0.0011138870180698417
0.021742878098243337   -0.011505262485599976   0.0011138870180698417
-0.18794299772923248   -0.021574755513849745   -0.005871528156234876
-0.18794299772923248   -0.021574755513849745   -0.005871528156234876
-0.18794299772923248   -0.021574755513849745   -0.005871528156234876
-0.18794299772923248   -0.021574755513849745   -0.005871528156234876
-0.2030654017489658   -0.059496270784448635   -0.009805521363633957
-0.2030654017489658   -0.059496270784448635   -0.009805521363633957
-0.2030654017489658   -0.059496270784448635   -0.009805521363633957
-0.2030654017489658   -0.059496270784448635   -0.009805521363633957
0.02328250398941651   0.020465218697568364   0.0067567343094865765
0.02328250398941651   0.020465218697568364   0.0067567343094865765
0.02328250398941651   0.020465218697568364   0.0067567343094865765
0.02328250398941651   0.020465218697568364   0.0067567343094865765
-0.08672254837865673   -0.01717260143936507   -0.004651665528949868
-0.08672254837865673   -0.01717260143936507   -0.004651665528949868
-0.08672254837865673   -0.01717260143936507   -0.004651665528949868
-0.08672254837865673   -0.01717260143936507   -0.004651665528949868
0.01608119684260057   -0.012885636115677342   0.004101053388652709
0.01608119684260057   -0.012885636115677342   0.004101053388652709
0.01608119684260057   -0.012885636115677342   0.004101053388652709
0.01608119684260057   -0.012885636115677342   0.004101053388652709
-0.19529919495300513   -0.025580516322057597   -0.0048902418462215885
-0.19529919495300513   -0.025580516322057597   -0.0048902418462215885
-0.19529919495300513   -0.025580516322057597   -0.0048902418462215885
-0.19529919495300513   -0.025580516322057597   -0.0048902418462215885
-0.2118611184576566   -0.06168440594788183   -0.006641789834022608
-0.2118611184576566   -0.06168440594788183   -0.006641789834022608
-0.2118611184576566   -0.06168440594788183   -0.006641789834022608
-0.2118611184576566   -0.06168440594788183   -0.006641789834022608
0.01504028404323994   0.016447636561006774   0.007617588430468574
0.01504028404323994   0.016447636561006774   0.007617588430468574
0.01504028404323994   0.016447636561006774   0.007617588430468574
0.01504028404323994   0.016447636561006774   0.007617588430468574
-0.09401737031343298   -0.019519094531543414   -0.005563109165880485
-0.09401737031343298   -0.019519094531543414   -0.005563109165880485
-0.09401737031343298   -0.019519094531543414   -0.005563109165880485
-0.09401737031343298   -0.019519094531543414   -0.005563109165880485
0.008289095328965537   -0.015220124116444075   0.005529405536546931
0.008289095328965537   -0.015220124116444075   0.005529405536546931
0.008289095328965537   -0.015220124116444075   0.005529405536546931
0.008289095328965537   -0.015220124116444075   0.005529405536546931
-0.20498152784692988   -0.029888243373979224   -0.004039999354291633
-0.20498152784692988   -0.029888243373979224   -0.004039999354291633
-0.20498152784692988   -0.029888243373979224   -0.004039999354291633
-0.20498152784692988   -0.029888243373979224   -0.004039999354291633
-0.22160048416338443   -0.06323812685050405   -0.005897107377904197
-0.22160048416338443   -0.06323812685050405   -0.005897107377904197
-0.22160048416338443   -0.06323812685050405   -0.005897107377904197
-0.22160048416338443   -0.06323812685050405   -0.005897107377904197
0.006122253468651228   0.01302665971187365   0.008471436578895302
0.006122253468651228   0.01302665971187365   0.008471436578895302
0.006122253468651228   0.01302665971187365   0.008471436578895302
0.006122253468651228   0.01302665971187365   0.008471436578895302
-0.10347148033667786   -0.022326031258599638   -0.0077841951023263556
-0.10347148033667786   -0.022326031258599638   -0.0077841951023263556
-0.10347148033667786   -0.022326031258599638   -0.0077841951023263556
-0.10347148033667786   -0.022326031258599638   -0.0077841951023263556
-0.18471337789272013   -0.01421860171002548   0.002920417222499725
-0.18471337789272013   -0.01421860171002548   0.002920417222499725
-0.18471337789272013   -0.01421860171002548   0.002920417222499725
-0.18471337789272013   -0.01421860171002548   0.002920417222499725
-0.3923285224564227   -0.025289702317731554   -0.010196374801147016
-0.3923285224564227   -0.025289702317731554   -0.010196374801147016
-0.3923285224564227   -0.025289702317731554   -0.010196374801147016
-0.3923285224564227   -0.025289702317731554   -0.010196374801147016
-0.4094550349418564   -0.0626260214979738   -0.009969581739865127
-0.4094550349418564   -0.0626260214979738   -0.009969581739865127
-0.4094550349418564   -0.0626260214979738   -0.009969581739865127
-0.4094550349418564   -0.0626260214979738   -0.009969581739865127
-0.1856279084750704   0.015816027853354633   0.0020696463680382263
-0.1856279084750704   0.015816027853354633   0.0020696463680382263
-0.1856279084750704   0.015816027853354633   0.0020696463680382263
-0.1856279084750704   0.015816027853354633   0.0020696463680382263
-0.29065118845439786   -0.020587797565074145   -0.003803024075409481
-0.29065118845439786   -0.020587797565074145   -0.003803024075409481
-0.29065118845439786   -0.020587797565074145   -0.003803024075409481
-0.29065118845439786   -0.020587797565074145   -0.003803024075409481
-0.19097054344220582   -0.015583922477438724   0.006756421863156169
-0.19097054344220582   -0.015583922477438724   0.006756421863156169
-0.19097054344220582   -0.015583922477438724   0.006756421863156169
-0.19097054344220582   -0.015583922477438724   0.006756421863156169
-0.40302911416743153   -0.030142785359890595   -0.010323214005826808
-0.40302911416743153   -0.030142785359890595   -0.010323214005826808
-0.40302911416743153   -0.030142785359890595   -0.010323214005826808
-0.40302911416743153   -0.030142785359890595   -0.010323214005826808
-0.42157488577594143   -0.06640666075847332   -0.0071028947332914755
-0.42157488577594143   -0.06640666075847332   -0.0071028947332914755
-0.42157488577594143   -0.06640666075847332   -0.0071028947332914755
-0.42157488577594143   -0.06640666075847332   -0.0071028947332914755
-0.19541715157632764   0.01140947377601232   0.0024841648487280293
-0.19541715157632764   0.01140947377601232   0.0024841648487280293
-0.19541715157632764   0.01140947377601232   0.0024841648487280293
-0.19541715157632764   0.01140947377601232   0.0024841648487280293
-0.2981858806038968   -0.022602040998398826   -0.0037628967388539155
-0.2981858806038968   -0.022602040998398826   -0.0037628967388539155
-0.2981858806038968   -0.022602040998398826   -0.0037628967388539155
-0.2981858806038968   -0.022602040998398826   -0.0037628967388539155
-0.2006622241769043   -0.019391578639696122   0.007059854261553207
-0.2006622241769043   -0.019391578639696122   0.007059854261553207
-0.2006622241769043   -0.019391578639696122   0.007059854261553207
-0.2006622241769043   -0.019391578639696122   0.007059854261553207
-0.41559899701220004   -0.03487479217959995   -0.008755319493460919
-0.41559899701220004   -0.03487479217959995   -0.008755319493460919
-0.41559899701220004   -0.03487479217959995   -0.008755319493460919
-0.41559899701220004   -0.03487479217959995   -0.008755319493460919
-0.4352489519993413   -0.07145073660632326   -0.007524615372346162
-0.4352489519993413   -0.07145073660632326   -0.007524615372346162
-0.4352489519993413   -0.07145073660632326   -0.007524615372346162
-0.4352489519993413   -0.07145073660632326   -0.007524615372346162
-0.2060054057681527   0.005922736676239632   0.002917421071507482
-0.2060054057681527   0.005922736676239632   0.002917421071507482
-0.2060054057681527   0.005922736676239632   0.002917421071507482
-0.2060054057681527   0.005922736676239632   0.002917421071507482
-0.3119415828639643   -0.027867663547528204   -0.006251692606998392
-0.3119415828639643   -0.027867663547528204   -0.006251692606998392
-0.3119415828639643   -0.027867663547528204   -0.006251692606998392
-0.3119415828639643   -0.027867663547528204   -0.006251692606998392
-0.37940038677932164   0.01715670756199178   0.011997893704634728
-0.37940038677932164   0.01715670756199178   0.011997893704634728
-0.37940038677932164   0.01715670756199178   0.011997893704634728
-0.37940038677932164   0.01715670756199178   0.011997893704634728
-0.5876286166195763   -0.02921736383014989   -0.007458654301510333
-0.5876286166195763   -0.02921736383014989   -0.007458654301510333
-0.5876286166195763   -0.02921736383014989   -0.007458654301510333
-0.5876286166195763   -0.02921736383014989   -0.007458654301510333
-0.601304872520702   -0.029799182214496123   0.012214781746152812
-0.601304872520702   -0.029799182214496123   0.012214781746152812
-0.601304872520702   -0.029799182214496123   0.012214781746152812
-0.601304872520702   -0.029799182214496123   0.012214781746152812
-0.3929614604404215   0.012614409336443672   -0.002742140067111449
-0.3929614604404215   0.012614409336443672   -0.002742140067111449
-0.3929614604404215   0.012614409336443672   -0.002742140067111449
-0.3929614604404215   0.012614409336443672   -0.002742140067111449
-0.46742956227668003   0.00016845425644455847   0.01196121724766278
-0.46742956227668003   0.00016845425644455847   0.01196121724766278
-0.46742956227668003   0.00016845425644455847   0.01196121724766278
-0.46742956227668003   0.00016845425644455847   0.01196121724766278
-0.3892309462953175   0.01323134556693599   0.015293494427915133
-0.3892309462953175   0.01323134556693599   0.015293494427915133
-0.3892309462953175   0.01323134556693599   0.015293494427915133
-0.3892309462953175   0.01323134556693599   0.015293494427915133
-0.6047667782072362   -0.030147509986416576   -0.004746418914598052
-0.6047667782072362   -0.030147509986416576   -0.004746418914598052
-0.6047667782072362   -0.030147509986416576   -0.004746418914598052
-0.6047667782072362   -0.030147509986416576   -0.004746418914598052
-0.618481609422203   -0.03439765958094661   0.01668376670195558
-0.618481609422203   -0.03439765958094661   0.01668376670195558
-0.618481609422203   -0.03439765958094661   0.01668376670195558
-0.618481609422203   -0.03439765958094661   0.01668376670195558
-0.40555843375549905   0.009477687884922065   -0.0029049832744779333
-0.40555843375549905   0.009477687884922065   -0.0029049832744779333
-0.40555843375549905   0.009477687884922065   -0.0029049832744779333
-0.40555843375549905   0.009477687884922065   -0.0029049832744779333
-0.48998581802597746   -0.005169978368810599   0.006865774798175853
-0.48998581802597746   -0.005169978368810599   0.006865774798175853
-0.48998581802597746   -0.005169978368810599   0.006865774798175853
-0.48998581802597746   -0.005169978368810599   0.006865774798175853
-0.40214296316623876   0.008552773201005379   0.015097284355740108
-0.40214296316623876   0.008552773201005379   0.015097284355740108
-0.40214296316623876   0.008552773201005379   0.015097284355740108
-0.40214296316623876   0.008552773201005379   0.015097284355740108
-0.6225411683295133   -0.034116833215077386   -0.003894854200460849
-0.6225411683295133   -0.034116833215077386   -0.003894854200460849
-0.6225411683295133   -0.034116833215077386   -0.003894854200460849
-0.6225411683295133   -0.034116833215077386   -0.003894854200460849
-0.6430036345138483   -0.05330907876908285   0.014314838530501705
-0.6430036345138483   -0.05330907876908285   0.014314838530501705
-0.6430036345138483   -0.05330907876908285   0.014314838530501705
-0.6430036345138483   -0.05330907876908285   0.014314838530501705
-0.4200876038598907   -0.00040877404528247285   -0.002759837236135265
-0.4200876038598907   -0.00040877404528247285   -0.002759837236135265
-0.4200876038598907   -0.00040877404528247285   -0.002759837236135265
-0.4200876038598907   -0.00040877404528247285   -0.002759837236135265
-0.49896317423171355   -0.012001424660706889   0.0025446553261597275
-0.49896317423171355   -0.012001424660706889   0.0025446553261597275
-0.49896317423171355   -0.012001424660706889   0.0025446553261597275
-0.49896317423171355   -0.012001424660706889   0.0025446553261597275
0.38688117835477887   0.021060336026340762   -0.013140389588019807
0.38688117835477887   0.021060336026340762   -0.013140389588019807
0.38688117835477887   0.021060336026340762   -0.013140389588019807
0.38688117835477887   0.021060336026340762   -0.013140389588019807
0.19078306688033486   -0.0009003397654119907   0.0045778522665426945
0.19078306688033486   -0.0009003397654119907   0.0045778522665426945
0.19078306688033486   -0.0009003397654119907   0.0045778522665426945
0.19078306688033486   -0.0009003397654119907   0.0045778522665426945
0.17507350212251732   -0.028062620570611436   -0.01219587920184433
0.17507350212251732   -0.028062620570611436   -0.01219587920184433
0.17507350212251732   -0.028062620570611436   -0.01219587920184433
0.17507350212251732   -0.028062620570611436   -0.01219587920184433
0.3799434352155809   0.03095174511427079   0.005764713822735093
0.3799434352155809   0.03095174511427079   0.005764713822735093
0.3799434352155809   0.03095174511427079   0.005764713822735093
0.3799434352155809   0.03095174511427079   0.005764713822735093
0.2685303765000633   0.0023394363077553007   -0.008855979699372397
0.2685303765000633   0.0023394363077553007   -0.008855979699372397
0.2685303765000633   0.0023394363077553007   -0.008855979699372397
0.2685303765000633   0.0023394363077553007   -0.008855979699372397
0.3723104039474587   0.011278496795020548   -0.012727194198622348
0.3723104039474587   0.011278496795020548   -0.012727194198622348
0.3723104039474587   0.011278496795020548   -0.012727194198622348
0.3723104039474587   0.011278496795020548   -0.012727194198622348
0.18239304826299108   -0.00870285737901013   0.00504208830892032
0.18239304826299108   -0.00870285737901013   0.00504208830892032
0.18239304826299108   -0.00870285737901013   0.00504208830892032
0.18239304826299108   -0.00870285737901013   0.00504208830892032
0.16722315079859376   -0.03030437579318989   -0.010642441978834585
0.16722315079859376   -0.03030437579318989   -0.010642441978834585
0.16722315079859376   -0.03030437579318989   -0.010642441978834585
0.16722315079859376   -0.03030437579318989   -0.010642441978834585
0.3682231581152992   0.027836507588897948   0.007981662953184884
0.3682231581152992   0.027836507588897948   0.007981662953184884
0.3682231581152992   0.027836507588897948   0.007981662953184884
0.3682231581152992   0.027836507588897948   0.007981662953184884
0.26264450768559383   -0.0017759401553318413   -0.011420501984650357
0.26264450768559383   -0.0017759401553318413   -0.011420501984650357
0.26264450768559383   -0.0017759401553318413   -0.011420501984650357
0.26264450768559383   -0.0017759401553318413   -0.011420501984650357
0.36074039819789977   0.008507030227880186   -0.010102659272788164
0.36074039819789977   0.008507030227880186   -0.010102659272788164
0.36074039819789977   0.008507030227880186   -0.010102659272788164
0.36074039819789977   0.008507030227880186   -0.010102659272788164
0.17441250698151348   -0.011268302166651374   0.006268265309223966
0.17441250698151348   -0.011268302166651374   0.006268265309223966
0.17441250698151348   -0.011268302166651374   0.006268265309223966
0.17441250698151348   -0.011268302166651374   0.006268265309223966
0.16008770044458984   -0.030729435907615482   -0.008708025834258986
0.16008770044458984   -0.030729435907615482   -0.008708025834258986
0.16008770044458984   -0.030729435907615482   -0.008708025834258986
0.16008770044458984   -0.030729435907615482   -0.008708025834258986
0.3550112731311639   0.025287950553442233   0.01002727216490318
0.3550112731311639   0.025287950553442233   0.01002727216490318
0.3550112731311639   0.025287950553442233   0.01002727216490318
0.3550112731311639   0.025287950553442233   0.01002727216490318
0.24809706207892623   -0.004532436950773169   -0.01540941718713366
0.24809706207892623   -0.004532436950773169   -0.01540941718713366
0.24809706207892623   -0.004532436950773169   -0.01540941718713366
0.24809706207892623   -0.004532436950773169   -0.01540941718713366
0.19442321278953106   0.020493045834525866   0.0013851962125858751
0.19442321278953106   0.020493045834525866   0.0013851962125858751
0.19442321278953106   0.020493045834525866   0.0013851962125858751
0.19442321278953106   0.020493045834525866   0.0013851962125858751
0.005169114041772404   -0.006877392576399728   -0.0009818315620668471
0.005169114041772404   -0.006877392576399728   -0.0009818315620668471
0.005169114041772404   -0.006877392576399728   -0.0009818315620668471
0.005169114041772404   -0.006877392576399728   -0.0009818315620668471
-0.006680906550135573   -0.025370894008246506   -0.008403170339586773
-0.006680906550135573   -0.025370894008246506   -0.008403170339586773
-0.006680906550135573   -0.025370894008246506   -0.008403170339586773
-0.006680906550135573   -0.025370894008246506   -0.008403170339586773
0.1908396359615357   0.02816911282230672   0.010403056600326619
0.1908396359615357   0.02816911282230672   0.010403056600326619
0.1908396359615357   0.02816911282230672   0.010403056600326619
0.1908396359615357   0.02816911282230672   0.010403056600326619
0.09443606045285029   0.004022477174726986   -0.0010029770512370033
0.09443606045285029   0.004022477174726986   -0.0010029770512370033
0.09443606045285029   0.004022477174726986   -0.0010029770512370033
0.09443606045285029   0.004022477174726986   -0.0010029770512370033
0.1867001479716164   0.015467414048857923   0.002407315424179485
0.1867001479716164   0.015467414048857923   0.002407315424179485
0.1867001479716164   0.015467414048857923   0.002407315424179485
0.1867001479716164   0.015467414048857923   0.002407315424179485
-0.002462718794215632   -0.012590495468796313   -9.263009943726074e-05
-0.002462718794215632   -0.012590495468796313   -9.263009943726074e-05
-0.002462718794215632   -0.012590495468796313   -9.263009943726074e-05
-0.002462718794215632   -0.012590495468796313   -9.263009943726074e-05
-0.014114839618008256   -0.028985674353595857   -0.007300098484701728
-0.014114839618008256   -0.028985674353595857   -0.007300098484701728
-0.014114839618008256   -0.028985674353595857   -0.007300098484701728
-0.014114839618008256   -0.028985674353595857   -0.007300098484701728
0.1824133732467976   0.023514641406257943   0.011489653062735212
0.1824133732467976   0.023514641406257943   0.011489653062735212
0.1824133732467976   0.023514641406257943   0.011489653062735212
0.1824133732467976   0.023514641406257943   0.011489653062735212
0.08528682203889124   -0.0005909678369605646   -0.0036138541575653407
0.08528682203889124   -0.0005909678369605646   -0.0036138541575653407
0.08528682203889124   -0.0005909678369605646   -0.0036138541575653407
0.08528682203889124   -0.0005909678369605646   -0.0036138541575653407
0.17843546998258064   0.011672802410871826   0.0034419757370365324
0.17843546998258064   0.011672802410871826   0.0034419757370365324
0.17843546998258064   0.011672802410871826   0.0034419757370365324
0.17843546998258064   0.011672802410871826   0.0034419757370365324
-0.010131638601864803   -0.01713853760628137   0.0007687698487010477
-0.010131638601864803   -0.01713853760628137   0.0007687698487010477
-0.010131638601864803   -0.01713853760628137   0.0007687698487010477
-0.010131638601864803   -0.01713853760628137   0.0007687698487010477
-0.021462862497555323   -0.031075449204757275   -0.005866008397672183
-0.021462862497555323   -0.031075449204757275   -0.005866008397672183
-0.021462862497555323   -0.031075449204757275   -0.005866008397672183
-0.021462862497555323   -0.031075449204757275   -0.005866008397672183
0.1743965233858839   0.019656603284304464   0.012450049680289241
0.1743965233858839   0.019656603284304464   0.012450049680289241
0.1743965233858839   0.019656603284304464   0.012450049680289241
0.1743965233858839   0.019656603284304464   0.012450049680289241
0.07863170553742371   -0.0034477497008352266   -0.005506697877167293
0.07863170553742371   -0.0034477497008352266   -0.005506697877167293
0.07863170553742371   -0.0034477497008352266   -0.005506697877167293
0.07863170553742371   -0.0034477497008352266   -0.005506697877167293
0.011710881920332893   0.020416874248483072   0.004432741005852794
0.011710881920332893   0.020416874248483072   0.004432741005852794
0.011710881920332893   0.020416874248483072   0.004432741005852794
0.011710881920332893   0.020416874248483072   0.004432741005852794
-0.17489117716273203   -0.011671860034310654   -0.005970684142078194
-0.17489117716273203   -0.011671860034310654   -0.005970684142078194
-0.17489117716273203   -0.011671860034310654   -0.005970684142078194
-0.17489117716273203   -0.011671860034310654   -0.005970684142078194
-0.1841323692435563   -0.02346665946061722   -0.00548778324845315
-0.1841323692435563   -0.02346665946061722   -0.00548778324845315
-0.1841323692435563   -0.02346665946061722   -0.00548778324845315
-0.1841323692435563   -0.02346665946061722   -0.00548778324845315
0.0057189845228360564   0.023101474972999088   0.005123916044025604
0.0057189845228360564   0.023101474972999088   0.005123916044025604
0.0057189845228360564   0.023101474972999088   0.005123916044025604
0.0057189845228360564   0.023101474972999088   0.005123916044025604
-0.08528634142307868   0.0024478158308268404   0.0003711875414155151
-0.08528634142307868   0.0024478158308268404   0.0003711875414155151
-0.08528634142307868   0.0024478158308268404   0.0003711875414155151
-0.08528634142307868   0.0024478158308268404   0.0003711875414155151
0.004464722395869333   0.01645094299449846   0.005503137387692789
0.004464722395869333   0.01645094299449846   0.005503137387692789
0.004464722395869333   0.01645094299449846   0.005503137387692789
0.004464722395869333   0.01645094299449846   0.005503137387692789
-0.18267202110408085   -0.016610041469606658   -0.005042660542086257
-0.18267202110408085   -0.016610041469606658   -0.005042660542086257
-0.18267202110408085   -0.016610041469606658   -0.005042660542086257
-0.18267202110408085   -0.016610041469606658   -0.005042660542086257
-0.1921038306296635   -0.027428872086555103   -0.004620840134452723
-0.1921038306296635   -0.027428872086555103   -0.004620840134452723
-0.1921038306296635   -0.027428872086555103   -0.004620840134452723
-0.1921038306296635   -0.027428872086555103   -0.004620840134452723
-0.0019558554763458224   0.01831858851009803   0.006190559359915537
-0.0019558554763458224   0.01831858851009803   0.006190559359915537
-0.0019558554763458224   0.01831858851009803   0.006190559359915537
-0.0019558554763458224   0.01831858851009803   0.006190559359915537
-0.09293006161465214   -0.0014700428199202024   -0.0015701734045333714
-0.09293006161465214   -0.0014700428199202024   -0.0015701734045333714
-0.09293006161465214   -0.0014700428199202024   -0.0015701734045333714
-0.09293006161465214   -0.0014700428199202024   -0.0015701734045333714
-0.0030202844978712688   0.012624504765976069   0.006562497996411286
-0.0030202844978712688   0.012624504765976069   0.006562497996411286
-0.0030202844978712688   0.012624504765976069   0.006562497996411286
-0.0030202844978712688   0.012624504765976069   0.006562497996411286
-0.19086750168012245   -0.021562888414417437   -0.004305179058885147
-0.19086750168012245   -0.021562888414417437   -0.004305179058885147
-0.19086750168012245   -0.021562888414417437   -0.004305179058885147
-0.19086750168012245   -0.021562888414417437   -0.004305179058885147
-0.20001196913619387   -0.03052933324202515   -0.003174305585753594
-0.20001196913619387   -0.03052933324202515   -0.003174305585753594
-0.20001196913619387   -0.03052933324202515   -0.003174305585753594
-0.20001196913619387   -0.03052933324202515   -0.003174305585753594
-0.00991130979751842   0.01381313563910733   0.007003170258648045
-0.00991130979751842   0.01381313563910733   0.007003170258648045
-0.00991130979751842   0.01381313563910733   0.007003170258648045
-0.00991130979751842   0.01381313563910733   0.007003170258648045
-0.10115815404200103   -0.005451690088691365   -0.0037027014733287964
-0.10115815404200103   -0.005451690088691365   -0.0037027014733287964
-0.10115815404200103   -0.005451690088691365   -0.0037027014733287964
-0.10115815404200103   -0.005451690088691365   -0.0037027014733287964
-0.16505649268990405   0.023758461861127678   0.007772416326626299
-0.16505649268990405   0.023758461861127678   0.007772416326626299
-0.16505649268990405   0.023758461861127678   0.007772416326626299
-0.16505649268990405   0.023758461861127678   0.007772416326626299
-0.34964112287861043   -0.015939061862992418   -0.009701616761398614
-0.34964112287861043   -0.015939061862992418   -0.009701616761398614
-0.34964112287861043   -0.015939061862992418   -0.009701616761398614
-0.34964112287861043   -0.015939061862992418   -0.009701616761398614
-0.35682533248021736   -0.019213484885160698   -0.001880493319391465
-0.35682533248021736   -0.019213484885160698   -0.001880493319391465
-0.35682533248021736   -0.019213484885160698   -0.001880493319391465
-0.35682533248021736   -0.019213484885160698   -0.001880493319391465
-0.17484558846239892   0.017588879659888916   -0.00010941846317155321
-0.17484558846239892   0.017588879659888916   -0.00010941846317155321
-0.17484558846239892   0.017588879659888916   -0.00010941846317155321
-0.17484558846239892   0.017588879659888916   -0.00010941846317155321
-0.25969418440697895   0.00229659525803802   0.001929740375483019
-0.25969418440697895   0.00229659525803802   0.001929740375483019
-0.25969418440697895   0.00229659525803802   0.001929740375483019
-0.25969418440697895   0.00229659525803802   0.001929740375483019
-0.17265348392317173   0.019737483557247373   0.008702500335606031
-0.17265348392317173   0.019737483557247373   0.008702500335606031
-0.17265348392317173   0.019737483557247373   0.008702500335606031
-0.17265348392317173   0.019737483557247373   0.008702500335606031
-0.35875225727690596   -0.021096909039981487   -0.009631693148016516
-0.35875225727690596   -0.021096909039981487   -0.009631693148016516
-0.35875225727690596   -0.021096909039981487   -0.009631693148016516
-0.35875225727690596   -0.021096909039981487   -0.009631693148016516
-0.3666313463512313   -0.023680436273784043   -0.0017511906253655316
-0.3666313463512313   -0.023680436273784043   -0.0017511906253655316
-0.3666313463512313   -0.023680436273784043   -0.0017511906253655316
-0.3666313463512313   -0.023680436273784043   -0.0017511906253655316
-0.1829219674709334   0.013025204245149413   0.0008343993274945519
-0.1829219674709334   0.013025204245149413   0.0008343993274945519
-0.1829219674709334   0.013025204245149413   0.0008343993274945519
-0.1829219674709334   0.013025204245149413   0.0008343993274945519
-0.26646768940106413   -0.0012335461589747104   0.00034633462983236357
-0.26646768940106413   -0.0012335461589747104   0.00034633462983236357
-0.26646768940106413   -0.0012335461589747104   0.00034633462983236357
-0.26646768940106413   -0.0012335461589747104   0.00034633462983236357
-0.18051264631400674   0.015895653108490122   0.010010556248786875
-0.18051264631400674   0.015895653108490122   0.010010556248786875
-0.18051264631400674   0.015895653108490122   0.010010556248786875
-0.18051264631400674   0.015895653108490122   0.010010556248786875
-0.368481446417443   -0.02599166404641088   -0.008690463183797301
-0.368481446417443   -0.02599166404641088   -0.008690463183797301
-0.368481446417443   -0.02599166404641088   -0.008690463183797301
-0.368481446417443   -0.02599166404641088   -0.008690463183797301
-0.3756387636340493   -0.02848446040377428   0.0005147935373344768
-0.3756387636340493   -0.02848446040377428   0.0005147935373344768
-0.3756387636340493   -0.02848446040377428   0.0005147935373344768
-0.3756387636340493   -0.02848446040377428   0.0005147935373344768
-0.19148255701399314   0.007549195188335578   0.0013942265948913932
-0.19148255701399314   0.007549195188335578   0.0013942265948913932
-0.19148255701399314   0.007549195188335578   0.0013942265948913932
-0.19148255701399314   0.007549195188335578   0.0013942265948913932
-0.27729169923212044   -0.006311676438897948   -0.0018274954290762695
-0.27729169923212044   -0.006311676438897948   -0.0018274954290762695
-0.27729169923212044   -0.006311676438897948   -0.0018274954290762695
-0.27729169923212044   -0.006311676438897948   -0.0018274954290762695
-0.33747905225199354   0.024448512337838374   0.010721162170852895
-0.33747905225199354   0.024448512337838374   0.010721162170852895
-0.33747905225199354   0.024448512337838374   0.010721162170852895
-0.33747905225199354   0.024448512337838374   0.010721162170852895
-0.5167350362667652   -0.023996258123250708   -0.008673915448473464
-0.5167350362667652   -0.023996258123250708   -0.008673915448473464
-0.5167350362667652   -0.023996258123250708   -0.008673915448473464
-0.5167350362667652   -0.023996258123250708   -0.008673915448473464
-0.5233819873490697   -0.011119207466808806   0.009010302825259067
-0.5233819873490697   -0.011119207466808806   0.009010302825259067
-0.5233819873490697   -0.011119207466808806   0.009010302825259067
-0.5233819873490697   -0.011119207466808806   0.009010302825259067
-0.3513571528506278   0.01091994193883325   -0.004673021995436802
-0.3513571528506278   0.01091994193883325   -0.004673021995436802
-0.3513571528506278   0.01091994193883325   -0.004673021995436802
-0.3513571528506278   0.01091994193883325   -0.004673021995436802
-0.4130627047014032   0.0049050988373359194   0.009668526260554321
-0.4130627047014032   0.0049050988373359194   0.009668526260554321
-0.4130627047014032   0.0049050988373359194   0.009668526260554321
-0.4130627047014032   0.0049050988373359194   0.009668526260554321
-0.3450999588943437   0.0252014296700364   0.012331460054775997
-0.3450999588943437   0.0252014296700364   0.012331460054775997
-0.3450999588943437   0.0252014296700364   0.012331460054775997
-0.3450999588943437   0.0252014296700364   0.012331460054775997
-0.5292719151581734   -0.025033429050834055   -0.006525114636227652
-0.5292719151581734   -0.025033429050834055   -0.006525114636227652
-0.5292719151581734   -0.025033429050834055   -0.006525114636227652
-0.5292719151581734   -0.025033429050834055   -0.006525114636227652
-0.53557776576314   -0.013459379945218411   0.01242900958246064
-0.53557776576314   -0.013459379945218411   0.01242900958246064
-0.53557776576314   -0.013459379945218411   0.01242900958246064
-0.53557776576314   -0.013459379945218411   0.01242900958246064
-0.3607136906972269   0.008301041162462969   -0.0041443897915916204
-0.3607136906972269   0.008301041162462969   -0.0041443897915916204
-0.3607136906972269   0.008301041162462969   -0.0041443897915916204
-0.3607136906972269   0.008301041162462969   -0.0041443897915916204
-0.4302101843162669   0.0024566907550462036   0.006410427786050769
-0.4302101843162669   0.0024566907550462036   0.006410427786050769
-0.4302101843162669   0.0024566907550462036   0.006410427786050769
-0.4302101843162669   0.0024566907550462036   0.006410427786050769
-0.3537972984027197   0.023465528482544365   0.015273084360864215
-0.3537972984027197   0.023465528482544365   0.015273084360864215
-0.3537972984027197   0.023465528482544365   0.015273084360864215
-0.3537972984027197   0.023465528482544365   0.015273084360864215
-0.5421309016842422   -0.02826061089189498   -0.005535439076366156
-0.5421309016842422   -0.02826061089189498   -0.005535439076366156
-0.5421309016842422   -0.02826061089189498   -0.005535439076366156
-0.5421309016842422   -0.02826061089189498   -0.005535439076366156
-0.5521332502940131   -0.023816579869735358   0.012246780075707375
-0.5521332502940131   -0.023816579869735358   0.012246780075707375
-0.5521332502940131   -0.023816579869735358   0.012246780075707375
-0.5521332502940131   -0.023816579869735358   0.012246780075707375
-0.3707890974100812   0.0001936040220348184   -0.003914939768635817
-0.3707890974100812   0.0001936040220348184   -0.003914939768635817
-0.3707890974100812   0.0001936040220348184   -0.003914939768635817
-0.3707890974100812   0.0001936040220348184   -0.003914939768635817
-0.4347062397441654   -0.0011806998140929809   0.005437600058776512
-0.4347062397441654   -0.0011806998140929809   0.005437600058776512
-0.4347062397441654   -0.0011806998140929809   0.005437600058776512
-0.4347062397441654   -0.0011806998140929809   0.005437600058776512
0.29751034143700567   0.016819889480673214   -0.013548276059699466
0.29751034143700567   0.016819889480673214   -0.013548276059699466
0.29751034143700567   0.016819889480673214   -0.013548276059699466
0.29751034143700567   0.016819889480673214   -0.013548276059699466
0.14080787846086812   0.002210705760313375   0.005019197627857897
0.14080787846086812   0.002210705760313375   0.005019197627857897
0.14080787846086812   0.002210705760313375   0.005019197627857897
0.14080787846086812   0.002210705760313375   0.005019197627857897
0.12582806956476644   -0.02361550690535087   -0.012956180624558743
0.12582806956476644   -0.02361550690535087   -0.012956180624558743
0.12582806956476644   -0.02361550690535087   -0.012956180624558743
0.12582806956476644   -0.02361550690535087   -0.012956180624558743
0.2914409770452986   0.027014663445537684   0.006228161205706155
0.2914409770452986   0.027014663445537684   0.006228161205706155
0.2914409770452986   0.027014663445537684   0.006228161205706155
0.2914409770452986   0.027014663445537684   0.006228161205706155
0.20284973372674503   0.002718498039111873   -0.006015050335500301
0.20284973372674503   0.002718498039111873   -0.006015050335500301
0.20284973372674503   0.002718498039111873   -0.006015050335500301
0.20284973372674503   0.002718498039111873   -0.006015050335500301
0.28381930377198605   0.008000723098284236   -0.012866264813600377
0.28381930377198605   0.008000723098284236   -0.012866264813600377
0.28381930377198605   0.008000723098284236   -0.012866264813600377
0.28381930377198605   0.008000723098284236   -0.012866264813600377
0.13330439996799548   -0.00474690942818104   0.0055568739144156495
0.13330439996799548   -0.00474690942818104   0.0055568739144156495
0.13330439996799548   -0.00474690942818104   0.0055568739144156495
0.13330439996799548   -0.00474690942818104   0.0055568739144156495
0.11885911240111235   -0.02585152043969487   -0.011094431475592359
0.11885911240111235   -0.02585152043969487   -0.011094431475592359
0.11885911240111235   -0.02585152043969487   -0.011094431475592359
0.11885911240111235   -0.02585152043969487   -0.011094431475592359
0.2805970036396257   0.023797709747557287   0.00827362436133307
0.2805970036396257   0.023797709747557287   0.00827362436133307
0.2805970036396257   0.023797709747557287   0.00827362436133307
0.2805970036396257   0.023797709747557287   0.00827362436133307
0.19681511490327275   -0.001213406013118902   -0.008269972076790123
0.19681511490327275   -0.001213406013118902   -0.008269972076790123
0.19681511490327275   -0.001213406013118902   -0.008269972076790123
0.19681511490327275   -0.001213406013118902   -0.008269972076790123
0.273137199465159   0.005147871596287837   -0.010375558359728487
0.273137199465159   0.005147871596287837   -0.010375558359728487
0.273137199465159   0.005147871596287837   -0.010375558359728487
0.273137199465159   0.005147871596287837   -0.010375558359728487
0.12612324003776343   -0.007397358826240305   0.0067720450942073875
0.12612324003776343   -0.007397358826240305   0.0067720450942073875
0.12612324003776343   -0.007397358826240305   0.0067720450942073875
0.12612324003776343   -0.007397358826240305   0.0067720450942073875
0.11260657437261316   -0.027048224778222628   -0.009248905734870357
0.11260657437261316   -0.027048224778222628   -0.009248905734870357
0.11260657437261316   -0.027048224778222628   -0.009248905734870357
0.11260657437261316   -0.027048224778222628   -0.009248905734870357
0.26834308982647814   0.02044586437854591   0.009898408829122345
0.26834308982647814   0.02044586437854591   0.009898408829122345
0.26834308982647814   0.02044586437854591   0.009898408829122345
0.26834308982647814   0.02044586437854591   0.009898408829122345
0.1842623778137287   -0.004121004404347081   -0.011714256941012469
0.1842623778137287   -0.004121004404347081   -0.011714256941012469
0.1842623778137287   -0.004121004404347081   -0.011714256941012469
0.1842623778137287   -0.004121004404347081   -0.011714256941012469
0.1434261246955975   0.020862168982618886   -0.0005410344207984865
0.1434261246955975   0.020862168982618886   -0.0005410344207984865
0.1434261246955975   0.020862168982618886   -0.0005410344207984865
0.1434261246955975   0.020862168982618886   -0.0005410344207984865
-0.010032633468123428   -0.002477279038081888   -0.00024844643392703947
-0.010032633468123428   -0.002477279038081888   -0.00024844643392703947
-0.010032633468123428   -0.002477279038081888   -0.00024844643392703947
-0.010032633468123428   -0.002477279038081888   -0.00024844643392703947
-0.020589959326733   -0.017863594895322854   -0.00833088669955259
-0.020589959326733   -0.017863594895322854   -0.00833088669955259
-0.020589959326733   -0.017863594895322854   -0.00833088669955259
-0.020589959326733   -0.017863594895322854   -0.00833088669955259
0.13993757864715245   0.024644051140805992   0.009331806741213334
0.13993757864715245   0.024644051140805992   0.009331806741213334
0.13993757864715245   0.024644051140805992   0.009331806741213334
0.13993757864715245   0.024644051140805992   0.009331806741213334
0.062202444818754296   0.0059999644762693954   0.0004897729042374816
0.062202444818754296   0.0059999644762693954   0.0004897729042374816
0.062202444818754296   0.0059999644762693954   0.0004897729042374816
0.062202444818754296   0.0059999644762693954   0.0004897729042374816
0.1363317368680696   0.015313542900725025   0.0006331060858831231
0.1363317368680696   0.015313542900725025   0.0006331060858831231
0.1363317368680696   0.015313542900725025   0.0006331060858831231
0.1363317368680696   0.015313542900725025   0.0006331060858831231
-0.016925665406514807   -0.008474634514105848   0.0006016225203213704
-0.016925665406514807   -0.008474634514105848   0.0006016225203213704
-0.016925665406514807   -0.008474634514105848   0.0006016225203213704
-0.016925665406514807   -0.008474634514105848   0.0006016225203213704
-0.02714786644574239   -0.02208109297082685   -0.0069277791301487635
-0.02714786644574239   -0.02208109297082685   -0.0069277791301487635
-0.02714786644574239   -0.02208109297082685   -0.0069277791301487635
-0.02714786644574239   -0.02208109297082685   -0.0069277791301487635
0.13219529107915798   0.019542089543879676   0.010192851931060287
0.13219529107915798   0.019542089543879676   0.010192851931060287
0.13219529107915798   0.019542089543879676   0.010192851931060287
0.13219529107915798   0.019542089543879676   0.010192851931060287
0.05406037023839202   0.0009346701034114255   -0.0020464870323618337
0.05406037023839202   0.0009346701034114255   -0.0020464870323618337
0.05406037023839202   0.0009346701034114255   -0.0020464870323618337
0.05406037023839202   0.0009346701034114255   -0.0020464870323618337
0.12871296434091165   0.010784408807729452   0.0015388989759797895
0.12871296434091165   0.010784408807729452   0.0015388989759797895
0.12871296434091165   0.010784408807729452   0.0015388989759797895
0.12871296434091165   0.010784408807729452   0.0015388989759797895
-0.023723073822336096   -0.01338094634951413   0.0014960373655699953
-0.023723073822336096   -0.01338094634951413   0.0014960373655699953
-0.023723073822336096   -0.01338094634951413   0.0014960373655699953
-0.023723073822336096   -0.01338094634951413   0.0014960373655699953
-0.033611360096501126   -0.025557163264608735   -0.005610899581891706
-0.033611360096501126   -0.025557163264608735   -0.005610899581891706
-0.033611360096501126   -0.025557163264608735   -0.005610899581891706
-0.033611360096501126   -0.025557163264608735   -0.005610899581891706
0.12504597279005303   0.014886498470160258   0.011013363103945439
0.12504597279005303   0.014886498470160258   0.011013363103945439
0.12504597279005303   0.014886498470160258   0.011013363103945439
0.12504597279005303   0.014886498470160258   0.011013363103945439
0.04790811418098199   -0.0028229912290431824   -0.004132031917047939
0.04790811418098199   -0.0028229912290431824   -0.004132031917047939
0.04790811418098199   -0.0028229912290431824   -0.004132031917047939
0.04790811418098199   -0.0028229912290431824   -0.004132031917047939
-0.003913782534272029   0.024409551299370717   0.0034589778978783127
-0.003913782534272029   0.024409551299370717   0.0034589778978783127
-0.003913782534272029   0.024409551299370717   0.0034589778978783127
-0.003913782534272029   0.024409551299370717   0.0034589778978783127
-0.1577039481565051   -0.007257644237454286   -0.005225493796271085
-0.1577039481565051   -0.007257644237454286   -0.005225493796271085
-0.1577039481565051   -0.007257644237454286   -0.005225493796271085
-0.1577039481565051   -0.007257644237454286   -0.005225493796271085
-0.16450030001347496   -0.012790408837647031   -0.004116218472893982
-0.16450030001347496   -0.012790408837647031   -0.004116218472893982
-0.16450030001347496   -0.012790408837647031   -0.004116218472893982
-0.16450030001347496   -0.012790408837647031   -0.004116218472893982
-0.010548718706563608   0.019889940983308634   0.004121780522663014
-0.010548718706563608   0.019889940983308634   0.004121780522663014
-0.010548718706563608   0.019889940983308634   0.004121780522663014
-0.010548718706563608   0.019889940983308634   0.004121780522663014
-0.08396439599426926   0.0060845025765373754   0.001638480232414444
-0.08396439599426926   0.0060845025765373754   0.001638480232414444
-0.08396439599426926   0.0060845025765373754   0.001638480232414444
-0.08396439599426926   0.0060845025765373754   0.001638480232414444
-0.010431484560622893   0.019805146995528822   0.004792745240146281
-0.010431484560622893   0.019805146995528822   0.004792745240146281
-0.010431484560622893   0.019805146995528822   0.004792745240146281
-0.010431484560622893   0.019805146995528822   0.004792745240146281
-0.16449447972074735   -0.012582560411201097   -0.004294965435701904
-0.16449447972074735   -0.012582560411201097   -0.004294965435701904
-0.16449447972074735   -0.012582560411201097   -0.004294965435701904
-0.16449447972074735   -0.012582560411201097   -0.004294965435701904
-0.1712199143184788   -0.017352480529708936   -0.0029007269969862975
-0.1712199143184788   -0.017352480529708936   -0.0029007269969862975
-0.1712199143184788   -0.017352480529708936   -0.0029007269969862975
-0.1712199143184788   -0.017352480529708936   -0.0029007269969862975
-0.017392165835386313   0.014638651344531043   0.005130979606274464
-0.017392165835386313   0.014638651344531043   0.005130979606274464
-0.017392165835386313   0.014638651344531043   0.005130979606274464
-0.017392165835386313   0.014638651344531043   0.005130979606274464
-0.09075354906323466   0.0015500205097781182   -0.00040474880512624076
-0.09075354906323466   0.0015500205097781182   -0.00040474880512624076
-0.09075354906323466   0.0015500205097781182   -0.00040474880512624076
-0.09075354906323466   0.0015500205097781182   -0.00040474880512624076
-0.017136087577354513   0.015212028888421051   0.005837993352543666
-0.017136087577354513   0.015212028888421051   0.005837993352543666
-0.017136087577354513   0.015212028888421051   0.005837993352543666
-0.017136087577354513   0.015212028888421051   0.005837993352543666
-0.1714461171136529   -0.017895982610741445   -0.0034882388918214
-0.1714461171136529   -0.017895982610741445   -0.0034882388918214
-0.1714461171136529   -0.017895982610741445   -0.0034882388918214
-0.1714461171136529   -0.017895982610741445   -0.0034882388918214
-0.17785004061331888   -0.02151361084199015   -0.001691831331038919
-0.17785004061331888   -0.02151361084199015   -0.001691831331038919
-0.17785004061331888   -0.02151361084199015   -0.001691831331038919
-0.17785004061331888   -0.02151361084199015   -0.001691831331038919
-0.02427078143996956   0.009560121103510079   0.005974709332648126
-0.02427078143996956   0.009560121103510079   0.005974709332648126
-0.02427078143996956   0.009560121103510079   0.005974709332648126
-0.02427078143996956   0.009560121103510079   0.005974709332648126
-0.09786142531173393   -0.003018110818938328   -0.0026861744874239132
-0.09786142531173393   -0.003018110818938328   -0.0026861744874239132
-0.09786142531173393   -0.003018110818938328   -0.0026861744874239132
-0.09786142531173393   -0.003018110818938328   -0.0026861744874239132
-0.14821052023241646   0.027736818613224037   0.007247182973491868
-0.14821052023241646   0.027736818613224037   0.007247182973491868
-0.14821052023241646   0.027736818613224037   0.007247182973491868
-0.14821052023241646   0.027736818613224037   0.007247182973491868
-0.30247613464354717   -0.012174554267944018   -0.009325121435273913
-0.30247613464354717   -0.012174554267944018   -0.009325121435273913
-0.30247613464354717   -0.012174554267944018   -0.009325121435273913
-0.30247613464354717   -0.012174554267944018   -0.009325121435273913
-0.30616963536673797   -0.0085603618808643   0.0004684207374014201
-0.30616963536673797   -0.0085603618808643   0.0004684207374014201
-0.30616963536673797   -0.0085603618808643   0.0004684207374014201
-0.30616963536673797   -0.0085603618808643   0.0004684207374014201
-0.1584592039129633   0.01435322441007534   -0.001054371218056755
-0.1584592039129633   0.01435322441007534   -0.001054371218056755
-0.1584592039129633   0.01435322441007534   -0.001054371218056755
-0.1584592039129633   0.01435322441007534   -0.001054371218056755
-0.22731768359519045   0.005601758424005891   0.002767330849283293
-0.22731768359519045   0.005601758424005891   0.002767330849283293
-0.22731768359519045   0.005601758424005891   0.002767330849283293
-0.22731768359519045   0.005601758424005891   0.002767330849283293
-0.15474507366328075   0.02333730600036242   0.008532198440067489
-0.15474507366328075   0.02333730600036242   0.008532198440067489
-0.15474507366328075   0.02333730600036242   0.008532198440067489
-0.15474507366328075   0.02333730600036242   0.008532198440067489
-0.30986146125449304   -0.017522139109223123   -0.009028931473019284
-0.30986146125449304   -0.017522139109223123   -0.009028931473019284
-0.30986146125449304   -0.017522139109223123   -0.009028931473019284
-0.30986146125449304   -0.017522139109223123   -0.009028931473019284
-0.3140017392972892   -0.013177157848375011   0.0009023606862282024
-0.3140017392972892   -0.013177157848375011   0.0009023606862282024
-0.3140017392972892   -0.013177157848375011   0.0009023606862282024
-0.3140017392972892   -0.013177157848375011   0.0009023606862282024
-0.16527961889151424   0.009486458996454908   -3.818938832406485e-05
-0.16527961889151424   0.009486458996454908   -3.818938832406485e-05
-0.16527961889151424   0.009486458996454908   -3.818938832406485e-05
-0.16527961889151424   0.009486458996454908   -3.818938832406485e-05
-0.23297717796484554   0.0016028674904802476   0.0008758016401134421
-0.23297717796484554   0.0016028674904802476   0.0008758016401134421
-0.23297717796484554   0.0016028674904802476   0.0008758016401134421
-0.23297717796484554   0.0016028674904802476   0.0008758016401134421
-0.1614037428940837   0.019106249345064046   0.009721400250218972
-0.1614037428940837   0.019106249345064046   0.009721400250218972
-0.1614037428940837   0.019106249345064046   0.009721400250218972
-0.1614037428940837   0.019106249345064046   0.009721400250218972
-0.3176830792291693   -0.02260241213143397   -0.008079084690113389
-0.3176830792291693   -0.02260241213143397   -0.008079084690113389
-0.3176830792291693   -0.02260241213143397   -0.008079084690113389
-0.3176830792291693   -0.02260241213143397   -0.008079084690113389
-0.32108210148674055   -0.01817917844048659   0.0023519029235279966
-0.32108210148674055   -0.01817917844048659   0.0023519029235279966
-0.32108210148674055   -0.01817917844048659   0.0023519029235279966
-0.32108210148674055   -0.01817917844048659   0.0023519029235279966
-0.17229498239386346   0.0038738869583038113   0.0006959619659455164
-0.17229498239386346   0.0038738869583038113   0.0006959619659455164
-0.17229498239386346   0.0038738869583038113   0.0006959619659455164
-0.17229498239386346   0.0038738869583038113   0.0006959619659455164
-0.24181309915524474   -0.0035085318078355437   -0.0015634975396389382
-0.24181309915524474   -0.0035085318078355437   -0.0015634975396389382
-0.24181309915524474   -0.0035085318078355437   -0.0015634975396389382
-0.24181309915524474   -0.0035085318078355437   -0.0015634975396389382
-0.2911680126680264   0.024883430434224404   0.010157503740161514
-0.2911680126680264   0.024883430434224404   0.010157503740161514
-0.2911680126680264   0.024883430434224404   0.010157503740161514
-0.2911680126680264   0.024883430434224404   0.010157503740161514
-0.4411125620611457   -0.020478361913343582   -0.01000875624886963
-0.4411125620611457   -0.020478361913343582   -0.01000875624886963
-0.4411125620611457   -0.020478361913343582   -0.01000875624886963
-0.4411125620611457   -0.020478361913343582   -0.01000875624886963
-0.44569509570628985   -0.005152476432872366   0.009302829001697271
-0.44569509570628985   -0.005152476432872366   0.009302829001697271
-0.44569509570628985   -0.005152476432872366   0.009302829001697271
-0.44569509570628985   -0.005152476432872366   0.009302829001697271
-0.30417547249417864   0.007590792809287705   -0.005711919589953738
-0.30417547249417864   0.007590792809287705   -0.005711919589953738
-0.30417547249417864   0.007590792809287705   -0.005711919589953738
-0.30417547249417864   0.007590792809287705   -0.005711919589953738
-0.354081582936418   0.005401987968855965   0.00881181428204123
-0.354081582936418   0.005401987968855965   0.00881181428204123
-0.354081582936418   0.005401987968855965   0.00881181428204123
-0.354081582936418   0.005401987968855965   0.00881181428204123
-0.2971502420913259   0.025080777947082716   0.01192424728651253
-0.2971502420913259   0.025080777947082716   0.01192424728651253
-0.2971502420913259   0.025080777947082716   0.01192424728651253
-0.2971502420913259   0.025080777947082716   0.01192424728651253
-0.4526138415899319   -0.02253597705145706   -0.007907399797924288
-0.4526138415899319   -0.02253597705145706   -0.007907399797924288
-0.4526138415899319   -0.02253597705145706   -0.007907399797924288
-0.4526138415899319   -0.02253597705145706   -0.007907399797924288
-0.4559770426579379   -0.007598585558920484   0.011620828562202064
-0.4559770426579379   -0.007598585558920484   0.011620828562202064
-0.4559770426579379   -0.007598585558920484   0.011620828562202064
-0.4559770426579379   -0.007598585558920484   0.011620828562202064
-0.31153662195891413   0.004925271101490866   -0.004874481571760573
-0.31153662195891413   0.004925271101490866   -0.004874481571760573
-0.31153662195891413   0.004925271101490866   -0.004874481571760573
-0.31153662195891413   0.004925271101490866   -0.004874481571760573
-0.368752638955157   0.002695621032286488   0.005528001825559813
-0.368752638955157   0.002695621032286488   0.005528001825559813
-0.368752638955157   0.002695621032286488   0.005528001825559813
-0.368752638955157   0.002695621032286488   0.005528001825559813
-0.3040861953583998   0.023263335579172192   0.014039586953127743
-0.3040861953583998   0.023263335579172192   0.014039586953127743
-0.3040861953583998   0.023263335579172192   0.014039586953127743
-0.3040861953583998   0.023263335579172192   0.014039586953127743
-0.4632386235143286   -0.02574780429247786   -0.006537856986189763
-0.4632386235143286   -0.02574780429247786   -0.006537856986189763
-0.4632386235143286   -0.02574780429247786   -0.006537856986189763
-0.4632386235143286   -0.02574780429247786   -0.006537856986189763
-0.4695556178702083   -0.016510795982603715   0.011329580668298605
-0.4695556178702083   -0.016510795982603715   0.011329580668298605
-0.4695556178702083   -0.016510795982603715   0.011329580668298605
-0.4695556178702083   -0.016510795982603715   0.011329580668298605
-0.3193389948604711   -0.0026849641629386883   -0.004426778222674621
-0.3193389948604711   -0.0026849641629386883   -0.004426778222674621
-0.3193389948604711   -0.0026849641629386883   -0.004426778222674621
-0.3193389948604711   -0.0026849641629386883   -0.004426778222674621
-0.3721310128996554   -0.0007466740835367636   0.004503790352918962
-0.3721310128996554   -0.0007466740835367636   0.004503790352918962
-0.3721310128996554   -0.0007466740835367636   0.004503790352918962
-0.3721310128996554   -0.0007466740835367636   0.004503790352918962
0.2083965294769768   0.012049858581825414   -0.013373689280700558
0.2083965294769768   0.012049858581825414   -0.013373689280700558
0.2083965294769768   0.012049858581825414   -0.013373689280700558
0.2083965294769768   0.012049858581825414   -0.013373689280700558
0.08897962644074461   0.005075578492824553   0.005615796213585877
0.08897962644074461   0.005075578492824553   0.005615796213585877
0.08897962644074461   0.005075578492824553   0.005615796213585877
0.08897962644074461   0.005075578492824553   0.005615796213585877
0.07528967930646138   -0.019965151056654373   -0.012519613566416928
0.07528967930646138   -0.019965151056654373   -0.012519613566416928
0.07528967930646138   -0.019965151056654373   -0.012519613566416928
0.07528967930646138   -0.019965151056654373   -0.012519613566416928
0.20385225523949818   0.023252238254814324   0.006837905044335615
0.20385225523949818   0.023252238254814324   0.006837905044335615
0.20385225523949818   0.023252238254814324   0.006837905044335615
0.20385225523949818   0.023252238254814324   0.006837905044335615
0.13651078762280489   0.0029928247674861873   -0.003718152457435459
0.13651078762280489   0.0029928247674861873   -0.003718152457435459
0.13651078762280489   0.0029928247674861873   -0.003718152457435459
0.13651078762280489   0.0029928247674861873   -0.003718152457435459
0.1961701177216408   0.00420895873469735   -0.012529503024835801
0.1961701177216408   0.00420895873469735   -0.012529503024835801
0.1961701177216408   0.00420895873469735   -0.012529503024835801
0.1961701177216408   0.00420895873469735   -0.012529503024835801
0.08282646152793066   -0.0010672268329257814   0.006266373317202589
0.08282646152793066   -0.0010672268329257814   0.006266373317202589
0.08282646152793066   -0.0010672268329257814   0.006266373317202589
0.08282646152793066   -0.0010672268329257814   0.006266373317202589
0.06949267724697696   -0.022217810575072324   -0.010699650859166228
0.06949267724697696   -0.022217810575072324   -0.010699650859166228
0.06949267724697696   -0.022217810575072324   -0.010699650859166228
0.06949267724697696   -0.022217810575072324   -0.010699650859166228
0.1942925055434577   0.020048706677399   0.008884831964452524
0.1942925055434577   0.020048706677399   0.008884831964452524
0.1942925055434577   0.020048706677399   0.008884831964452524
0.1942925055434577   0.020048706677399   0.008884831964452524
0.1306723080565235   -0.0007620750235101496   -0.005898467862389294
0.1306723080565235   -0.0007620750235101496   -0.005898467862389294
0.1306723080565235   -0.0007620750235101496   -0.005898467862389294
0.1306723080565235   -0.0007620750235101496   -0.005898467862389294
0.18671872038773202   0.00131687566463147   -0.010252262801409767
0.18671872038773202   0.00131687566463147   -0.010252262801409767
0.18671872038773202   0.00131687566463147   -0.010252262801409767
0.18671872038773202   0.00131687566463147   -0.010252262801409767
0.07684436934548339   -0.0037080726195229605   0.00754907167781703
0.07684436934548339   -0.0037080726195229605   0.00754907167781703
0.07684436934548339   -0.0037080726195229605   0.00754907167781703
0.07684436934548339   -0.0037080726195229605   0.00754907167781703
0.06433262816410715   -0.02412211544042492   -0.008931028603360777
0.06433262816410715   -0.02412211544042492   -0.008931028603360777
0.06433262816410715   -0.02412211544042492   -0.008931028603360777
0.06433262816410715   -0.02412211544042492   -0.008931028603360777
0.1830940614172092   0.015935116310633886   0.010198323414901999
0.1830940614172092   0.015935116310633886   0.010198323414901999
0.1830940614172092   0.015935116310633886   0.010198323414901999
0.1830940614172092   0.015935116310633886   0.010198323414901999
0.12034131201778155   -0.0037873856697991683   -0.008969496702391241
0.12034131201778155   -0.0037873856697991683   -0.008969496702391241
0.12034131201778155   -0.0037873856697991683   -0.008969496702391241
0.12034131201778155   -0.0037873856697991683   -0.008969496702391241
0.08982217325661197   0.017103494459001264   -0.002199385673255705
0.08982217325661197   0.017103494459001264   -0.002199385673255705
0.08982217325661197   0.017103494459001264   -0.002199385673255705
0.08982217325661197   0.017103494459001264   -0.002199385673255705
-0.026818884737320015   0.00109371539974059   0.0006328957654497798
-0.026818884737320015   0.00109371539974059   0.0006328957654497798
-0.026818884737320015   0.00109371539974059   0.0006328957654497798
-0.026818884737320015   0.00109371539974059   0.0006328957654497798
-0.036180444621433584   -0.014002526492237929   -0.00778305815542026
-0.036180444621433584   -0.014002526492237929   -0.00778305815542026
-0.036180444621433584   -0.014002526492237929   -0.00778305815542026
-0.036180444621433584   -0.014002526492237929   -0.00778305815542026
0.08756646482212602   0.020484262303296814   0.008414900651956604
0.08756646482212602   0.020484262303296814   0.008414900651956604
0.08756646482212602   0.020484262303296814   0.008414900651956604
0.08756646482212602   0.020484262303296814   0.008414900651956604
0.02797707977868973   0.005862951473063874   0.0010921979307848577
0.02797707977868973   0.005862951473063874   0.0010921979307848577
0.02797707977868973   0.005862951473063874   0.0010921979307848577
0.02797707977868973   0.005862951473063874   0.0010921979307848577
0.08382835522052429   0.011331306747238333   -0.0011226917999946273
0.08382835522052429   0.011331306747238333   -0.0011226917999946273
0.08382835522052429   0.011331306747238333   -0.0011226917999946273
0.08382835522052429   0.011331306747238333   -0.0011226917999946273
-0.032504109282500165   -0.00491134519884814   0.0015074372458580045
-0.032504109282500165   -0.00491134519884814   0.0015074372458580045
-0.032504109282500165   -0.00491134519884814   0.0015074372458580045
-0.032504109282500165   -0.00491134519884814   0.0015074372458580045
-0.04156431753604551   -0.018515248714502844   -0.006334230745664146
-0.04156431753604551   -0.018515248714502844   -0.006334230745664146
-0.04156431753604551   -0.018515248714502844   -0.006334230745664146
-0.04156431753604551   -0.018515248714502844   -0.006334230745664146
0.08095195428173806   0.015228338754181928   0.009150584985385596
0.08095195428173806   0.015228338754181928   0.009150584985385596
0.08095195428173806   0.015228338754181928   0.009150584985385596
0.08095195428173806   0.015228338754181928   0.009150584985385596
0.021290871770156903   0.000693409451318927   -0.0013901457480735256
0.021290871770156903   0.000693409451318927   -0.0013901457480735256
0.021290871770156903   0.000693409451318927   -0.0013901457480735256
0.021290871770156903   0.000693409451318927   -0.0013901457480735256
0.07733222442473317   0.0064891339314103996   -0.00020885947686859673
0.07733222442473317   0.0064891339314103996   -0.00020885947686859673
0.07733222442473317   0.0064891339314103996   -0.00020885947686859673
0.07733222442473317   0.0064891339314103996   -0.00020885947686859673
-0.03809325523300872   -0.009924711445702405   0.00243054350071838
-0.03809325523300872   -0.009924711445702405   0.00243054350071838
-0.03809325523300872   -0.009924711445702405   0.00243054350071838
-0.03809325523300872   -0.009924711445702405   0.00243054350071838
-0.046870280208741205   -0.0226988204986972   -0.0049969787415476315
-0.046870280208741205   -0.0226988204986972   -0.0049969787415476315
-0.046870280208741205   -0.0226988204986972   -0.0049969787415476315
-0.046870280208741205   -0.0226988204986972   -0.0049969787415476315
0.07498350101499136   0.010235589729177878   0.009965630481458815
0.07498350101499136   0.010235589729177878   0.009965630481458815
0.07498350101499136   0.010235589729177878   0.009965630481458815
0.07498350101499136   0.010235589729177878   0.009965630481458815
0.015994476288764513   -0.0035252967367010515   -0.003560767679097886
0.015994476288764513   -0.0035252967367010515   -0.003560767679097886
0.015994476288764513   -0.0035252967367010515   -0.003560767679097886
0.015994476288764513   -0.0035252967367010515   -0.003560767679097886
-0.022520846572504534   0.021222862697046384   0.0019939392922223792
-0.022520846572504534   0.021222862697046384   0.0019939392922223792
-0.022520846572504534   0.021222862697046384   0.0019939392922223792
-0.022520846572504534   0.021222862697046384   0.0019939392922223792
-0.1408294913586893   -0.0039478064512367406   -0.0043243511349113795
-0.1408294913586893   -0.0039478064512367406   -0.0043243511349113795
-0.1408294913586893   -0.0039478064512367406   -0.0043243511349113795
-0.1408294913586893   -0.0039478064512367406   -0.0043243511349113795
-0.14616937752307138   -0.008699955259316914   -0.0032070418739569414
-0.14616937752307138   -0.008699955259316914   -0.0032070418739569414
-0.14616937752307138   -0.008699955259316914   -0.0032070418739569414
-0.14616937752307138   -0.008699955259316914   -0.0032070418739569414
-0.028045366389907248   0.015600791795824237   0.0032890147141490297
-0.028045366389907248   0.015600791795824237   0.0032890147141490297
-0.028045366389907248   0.015600791795824237   0.0032890147141490297
-0.028045366389907248   0.015600791795824237   0.0032890147141490297
-0.08417981650564714   0.00593234912374991   0.0016980349014554946
-0.08417981650564714   0.00593234912374991   0.0016980349014554946
-0.08417981650564714   0.00593234912374991   0.0016980349014554946
-0.08417981650564714   0.00593234912374991   0.0016980349014554946
-0.027898972123075814   0.01626657480358361   0.003355203040547077
-0.027898972123075814   0.01626657480358361   0.003355203040547077
-0.027898972123075814   0.01626657480358361   0.003355203040547077
-0.027898972123075814   0.01626657480358361   0.003355203040547077
-0.146338802382642   -0.00938876885981332   -0.0033653525713116727
-0.146338802382642   -0.00938876885981332   -0.0033653525713116727
-0.146338802382642   -0.00938876885981332   -0.0033653525713116727
-0.146338802382642   -0.00938876885981332   -0.0033653525713116727
-0.15161379232743788   -0.013617013593851243   -0.0019257185935700367
-0.15161379232743788   -0.013617013593851243   -0.0019257185935700367
-0.15161379232743788   -0.013617013593851243   -0.0019257185935700367
-0.15161379232743788   -0.013617013593851243   -0.0019257185935700367
-0.03369788641414177   0.010193104408376431   0.0042895717409745186
-0.03369788641414177   0.010193104408376431   0.0042895717409745186
-0.03369788641414177   0.010193104408376431   0.0042895717409745186
-0.03369788641414177   0.010193104408376431   0.0042895717409745186
-0.0897747964339856   0.001122240282620205   -0.00042443791936891233
-0.0897747964339856   0.001122240282620205   -0.00042443791936891233
-0.0897747964339856   0.001122240282620205   -0.00042443791936891233
-0.0897747964339856   0.001122240282620205   -0.00042443791936891233
-0.033436099051598216   0.01130165947704012   0.004489953485028403
-0.033436099051598216   0.01130165947704012   0.004489953485028403
-0.033436099051598216   0.01130165947704012   0.004489953485028403
-0.033436099051598216   0.01130165947704012   0.004489953485028403
-0.15197367690519673   -0.01482366587772552   -0.0025184891984879757
-0.15197367690519673   -0.01482366587772552   -0.0025184891984879757
-0.15197367690519673   -0.01482366587772552   -0.0025184891984879757
-0.15197367690519673   -0.01482366587772552   -0.0025184891984879757
-0.15695681730362773   -0.018306525434671674   -0.0006724874946024808
-0.15695681730362773   -0.018306525434671674   -0.0006724874946024808
-0.15695681730362773   -0.018306525434671674   -0.0006724874946024808
-0.15695681730362773   -0.018306525434671674   -0.0006724874946024808
-0.03931071618142847   0.004941689413452972   0.005160331482865503
-0.03931071618142847   0.004941689413452972   0.005160331482865503
-0.03931071618142847   0.004941689413452972   0.005160331482865503
-0.03931071618142847   0.004941689413452972   0.005160331482865503
-0.09560876355670901   -0.0036897350748351654   -0.0027302014027941216
-0.09560876355670901   -0.0036897350748351654   -0.0027302014027941216
-0.09560876355670901   -0.0036897350748351654   -0.0027302014027941216
-0.09560876355670901   -0.0036897350748351654   -0.0027302014027941216
-0.13298547714874928   0.024815153508984236   0.006132759954567732
-0.13298547714874928   0.024815153508984236   0.006132759954567732
-0.13298547714874928   0.024815153508984236   0.006132759954567732
-0.13298547714874928   0.024815153508984236   0.006132759954567732
-0.2531844746638361   -0.009008435115043519   -0.008684078673987657
-0.2531844746638361   -0.009008435115043519   -0.008684078673987657
-0.2531844746638361   -0.009008435115043519   -0.008684078673987657
-0.2531844746638361   -0.009008435115043519   -0.008684078673987657
-0.25516475612549977   -0.004440207046287191   0.0016840237126670883
-0.25516475612549977   -0.004440207046287191   0.0016840237126670883
-0.25516475612549977   -0.004440207046287191   0.0016840237126670883
-0.25516475612549977   -0.004440207046287191   0.0016840237126670883
-0.14209602938170987   0.010206534185667346   -0.0017467906121345998
-0.14209602938170987   0.010206534185667346   -0.0017467906121345998
-0.14209602938170987   0.010206534185667346   -0.0017467906121345998
-0.14209602938170987   0.010206534185667346   -0.0017467906121345998
-0.19466289103109258   0.005435577093705617   0.0024409881149841106
-0.19466289103109258   0.005435577093705617   0.0024409881149841106
-0.19466289103109258   0.005435577093705617   0.0024409881149841106
-0.19466289103109258   0.005435577093705617   0.0024409881149841106
-0.13827098065519489   0.02009895062205136   0.007486036584059093
-0.13827098065519489   0.02009895062205136   0.007486036584059093
-0.13827098065519489   0.02009895062205136   0.007486036584059093
-0.13827098065519489   0.02009895062205136   0.007486036584059093
-0.25916912939890996   -0.014511948029568185   -0.008266101671104528
-0.25916912939890996   -0.014511948029568185   -0.008266101671104528
-0.25916912939890996   -0.014511948029568185   -0.008266101671104528
-0.25916912939890996   -0.014511948029568185   -0.008266101671104528
-0.26159647677062003   -0.009316225054772302   0.002265248234645651
-0.26159647677062003   -0.009316225054772302   0.002265248234645651
-0.26159647677062003   -0.009316225054772302   0.002265248234645651
-0.26159647677062003   -0.009316225054772302   0.002265248234645651
-0.14760171679193548   0.005214855976080998   -0.0006972104859915649
-0.14760171679193548   0.005214855976080998   -0.0006972104859915649
-0.14760171679193548   0.005214855976080998   -0.0006972104859915649
-0.14760171679193548   0.005214855976080998   -0.0006972104859915649
-0.1993137659230163   0.0011076372382143804   0.0003224409810914444
-0.1993137659230163   0.0011076372382143804   0.0003224409810914444
-0.1993137659230163   0.0011076372382143804   0.0003224409810914444
-0.1993137659230163   0.0011076372382143804   0.0003224409810914444
-0.14363632829287132   0.01557639382577524   0.008768194159638231
-0.14363632829287132   0.01557639382577524   0.008768194159638231
-0.14363632829287132   0.01557639382577524   0.008768194159638231
-0.14363632829287132   0.01557639382577524   0.008768194159638231
-0.2655840034993822   -0.0196999011341659   -0.007288709329771725
-0.2655840034993822   -0.0196999011341659   -0.007288709329771725
-0.2655840034993822   -0.0196999011341659   -0.007288709329771725
-0.2655840034993822   -0.0196999011341659   -0.007288709329771725
-0.26729951433014415   -0.014544364248901792   0.003609237866198189
-0.26729951433014415   -0.014544364248901792   0.003609237866198189
-0.26729951433014415   -0.014544364248901792   0.003609237866198189
-0.26729951433014415   -0.014544364248901792   0.003609237866198189
-0.15320831429790582   -0.00036317866598428034   0.0001266807653184151
-0.15320831429790582   -0.00036317866598428034   0.0001266807653184151
-0.15320831429790582   -0.00036317866598428034   0.0001266807653184151
-0.15320831429790582   -0.00036317866598428034   0.0001266807653184151
-0.20646176950245074   -0.00399319819804294   -0.0021671756355009057
-0.20646176950245074   -0.00399319819804294   -0.0021671756355009057
-0.20646176950245074   -0.00399319819804294   -0.0021671756355009057
-0.20646176950245074   -0.00399319819804294   -0.0021671756355009057
-0.24312026931345412   0.023039625398787747   0.009588887564091072
-0.24312026931345412   0.023039625398787747   0.009588887564091072
-0.24312026931345412   0.023039625398787747   0.009588887564091072
-0.24312026931345412   0.023039625398787747   0.009588887564091072
-0.3597921458432918   -0.016720222030146767   -0.011013697701746986
-0.3597921458432918   -0.016720222030146767   -0.011013697701746986
-0.3597921458432918   -0.016720222030146767   -0.011013697701746986
-0.3597921458432918   -0.016720222030146767   -0.011013697701746986
-0.36303981249176986   -0.0011452063153176428   0.009472424784610774
-0.36303981249176986   -0.0011452063153176428   0.009472424784610774
-0.36303981249176986   -0.0011452063153176428   0.009472424784610774
-0.36303981249176986   -0.0011452063153176428   0.009472424784610774
-0.2551581895303249   0.003794820222105262   -0.0065181705798556325
-0.2551581895303249   0.003794820222105262   -0.0065181705798556325
-0.2551581895303249   0.003794820222105262   -0.0065181705798556325
-0.2551581895303249   0.003794820222105262   -0.0065181705798556325
-0.2917835727642097   0.005153187092441683   0.007512772331773209
-0.2917835727642097   0.005153187092441683   0.007512772331773209
-0.2917835727642097   0.005153187092441683   0.007512772331773209
-0.2917835727642097   0.005153187092441683   0.007512772331773209
-0.24789944944701767   0.022252042790391648   0.011318307268398876
-0.24789944944701767   0.022252042790391648   0.011318307268398876
-0.24789944944701767   0.022252042790391648   0.011318307268398876
-0.24789944944701767   0.022252042790391648   0.011318307268398876
-0.37045561259239707   -0.01975948890092251   -0.00899229313292229
-0.37045561259239707   -0.01975948890092251   -0.00899229313292229
-0.37045561259239707   -0.01975948890092251   -0.00899229313292229
-0.37045561259239707   -0.01975948890092251   -0.00899229313292229
-0.3721665968268832   -0.0038416444216202578   0.011920915680652872
-0.3721665968268832   -0.0038416444216202578   0.011920915680652872
-0.3721665968268832   -0.0038416444216202578   0.011920915680652872
-0.3721665968268832   -0.0038416444216202578   0.011920915680652872
-0.261081043011643   0.0010602389687433475   -0.005534046993988833
-0.261081043011643   0.0010602389687433475   -0.005534046993988833
-0.261081043011643   0.0010602389687433475   -0.005534046993988833
-0.261081043011643   0.0010602389687433475   -0.005534046993988833
-0.3043228485196906   0.002075887029613241   0.004106749136935857
-0.3043228485196906   0.002075887029613241   0.004106749136935857
-0.3043228485196906   0.002075887029613241   0.004106749136935857
-0.3043228485196906   0.002075887029613241   0.004106749136935857
-0.25348878339909614   0.020172694279420617   0.013314795758072151
-0.25348878339909614   0.020172694279420617   0.013314795758072151
-0.25348878339909614   0.020172694279420617   0.013314795758072151
-0.25348878339909614   0.020172694279420617   0.013314795758072151
-0.3798704959471561   -0.023065739240023614   -0.007374485102310424
-0.3798704959471561   -0.023065739240023614   -0.007374485102310424
-0.3798704959471561   -0.023065739240023614   -0.007374485102310424
-0.3798704959471561   -0.023065739240023614   -0.007374485102310424
-0.384374930335444   -0.012426986574772689   0.011899045193128248
-0.384374930335444   -0.012426986574772689   0.011899045193128248
-0.384374930335444   -0.012426986574772689   0.011899045193128248
-0.384374930335444   -0.012426986574772689   0.011899045193128248
-0.26729812778165357   -0.006030533067385789   -0.00489766057287005
-0.26729812778165357   -0.006030533067385789   -0.00489766057287005
-0.26729812778165357   -0.006030533067385789   -0.00489766057287005
-0.26729812778165357   -0.006030533067385789   -0.00489766057287005
-0.30755084531757537   -0.0014944604319431093   0.0025461291711416974
-0.30755084531757537   -0.0014944604319431093   0.0025461291711416974
-0.30755084531757537   -0.0014944604319431093   0.0025461291711416974
-0.30755084531757537   -0.0014944604319431093   0.0025461291711416974
0.11911919213483428   0.007321355566055437   -0.013294884114348943
0.11911919213483428   0.007321355566055437   -0.013294884114348943
0.11911919213483428   0.007321355566055437   -0.013294884114348943
0.11911919213483428   0.007321355566055437   -0.013294884114348943
0.035986737375942955   0.007775271294146155   0.0062486877388380655
0.035986737375942955   0.007775271294146155   0.0062486877388380655
0.035986737375942955   0.007775271294146155   0.0062486877388380655
0.035986737375942955   0.007775271294146155   0.0062486877388380655
0.02367758391698803   -0.016502315225523364   -0.011760191034835017
0.02367758391698803   -0.016502315225523364   -0.011760191034835017
0.02367758391698803   -0.016502315225523364   -0.011760191034835017
0.02367758391698803   -0.016502315225523364   -0.011760191034835017
0.11614436494535336   0.01949865076562529   0.007513217980037469
0.11614436494535336   0.01949865076562529   0.007513217980037469
0.11614436494535336   0.01949865076562529   0.007513217980037469
0.11614436494535336   0.01949865076562529   0.007513217980037469
0.06948323601083564   0.0032806206346580966   -0.0015647187205076708
0.06948323601083564   0.0032806206346580966   -0.0015647187205076708
0.06948323601083564   0.0032806206346580966   -0.0015647187205076708
0.06948323601083564   0.0032806206346580966   -0.0015647187205076708
0.10836076680644756   0.000337612641301728   -0.012243734590169005
0.10836076680644756   0.000337612641301728   -0.012243734590169005
0.10836076680644756   0.000337612641301728   -0.012243734590169005
0.10836076680644756   0.000337612641301728   -0.012243734590169005
0.031219049886342044   0.002416590729248264   0.007028232857163655
0.031219049886342044   0.002416590729248264   0.007028232857163655
0.031219049886342044   0.002416590729248264   0.007028232857163655
0.031219049886342044   0.002416590729248264   0.007028232857163655
0.01904645161368579   -0.018784069959643893   -0.010032997290990046
0.01904645161368579   -0.018784069959643893   -0.010032997290990046
0.01904645161368579   -0.018784069959643893   -0.010032997290990046
0.01904645161368579   -0.018784069959643893   -0.010032997290990046
0.10781588411797638   0.01635620819612425   0.00971500210737189
0.10781588411797638   0.01635620819612425   0.00971500210737189
0.10781588411797638   0.01635620819612425   0.00971500210737189
0.10781588411797638   0.01635620819612425   0.00971500210737189
0.06380120131521964   -0.00030962869611536777   -0.0038550134309790775
0.06380120131521964   -0.00030962869611536777   -0.0038550134309790775
0.06380120131521964   -0.00030962869611536777   -0.0038550134309790775
0.06380120131521964   -0.00030962869611536777   -0.0038550134309790775
0.10005897090951638   -0.0025980314917009237   -0.010115324247103572
0.10005897090951638   -0.0025980314917009237   -0.010115324247103572
0.10005897090951638   -0.0025980314917009237   -0.010115324247103572
0.10005897090951638   -0.0025980314917009237   -0.010115324247103572
0.026473887868592668   -0.00015930722537223826   0.008479421249273169
0.026473887868592668   -0.00015930722537223826   0.008479421249273169
0.026473887868592668   -0.00015930722537223826   0.008479421249273169
0.026473887868592668   -0.00015930722537223826   0.008479421249273169
0.014918715189148815   -0.021415110983195464   -0.008377466826184395
0.014918715189148815   -0.021415110983195464   -0.008377466826184395
0.014918715189148815   -0.021415110983195464   -0.008377466826184395
0.014918715189148815   -0.021415110983195464   -0.008377466826184395
0.09746758642403693   0.011411291742899295   0.010837870239798316
0.09746758642403693   0.011411291742899295   0.010837870239798316
0.09746758642403693   0.011411291742899295   0.010837870239798316
0.09746758642403693   0.011411291742899295   0.010837870239798316
0.0556269230030592   -0.0034551250676303664   -0.006712026884109606
0.0556269230030592   -0.0034551250676303664   -0.006712026884109606
0.0556269230030592   -0.0034551250676303664   -0.006712026884109606
0.0556269230030592   -0.0034551250676303664   -0.006712026884109606
0.034962069638436316   0.012586209325742895   -0.00368558898029212
0.034962069638436316   0.012586209325742895   -0.00368558898029212
0.034962069638436316   0.012586209325742895   -0.00368558898029212
0.034962069638436316   0.012586209325742895   -0.00368558898029212
-0.04488250171505321   0.0037051944849337166   0.0014268149201436763
-0.04488250171505321   0.0037051944849337166   0.0014268149201436763
-0.04488250171505321   0.0037051944849337166   0.0014268149201436763
-0.04488250171505321   0.0037051944849337166   0.0014268149201436763
-0.05282580901400602   -0.010661061487798416   -0.006919444467395194
-0.05282580901400602   -0.010661061487798416   -0.006919444467395194
-0.05282580901400602   -0.010661061487798416   -0.006919444467395194
-0.05282580901400602   -0.010661061487798416   -0.006919444467395194
0.033923539287967576   0.015571897276771478   0.007395373317768064
0.033923539287967576   0.015571897276771478   0.007395373317768064
0.033923539287967576   0.015571897276771478   0.007395373317768064
0.033923539287967576   0.015571897276771478   0.007395373317768064
-0.007500482955739976   0.005069749357671033   0.0013730551598751125
-0.007500482955739976   0.005069749357671033   0.0013730551598751125
-0.007500482955739976   0.005069749357671033   0.0013730551598751125
-0.007500482955739976   0.005069749357671033   0.0013730551598751125
0.030145237850811482   0.0067768245503292334   -0.0027010611415702584
0.030145237850811482   0.0067768245503292334   -0.0027010611415702584
0.030145237850811482   0.0067768245503292334   -0.0027010611415702584
0.030145237850811482   0.0067768245503292334   -0.0027010611415702584
-0.049259672414832326   -0.0020781535993392893   0.0023283306400141294
-0.049259672414832326   -0.0020781535993392893   0.0023283306400141294
-0.049259672414832326   -0.0020781535993392893   0.0023283306400141294
-0.049259672414832326   -0.0020781535993392893   0.0023283306400141294
-0.05696376142842029   -0.015276423139208005   -0.005457508771398061
-0.05696376142842029   -0.015276423139208005   -0.005457508771398061
-0.05696376142842029   -0.015276423139208005   -0.005457508771398061
-0.05696376142842029   -0.015276423139208005   -0.005457508771398061
0.028495885380770674   0.010358183145492675   0.008071918439298274
0.028495885380770674   0.010358183145492675   0.008071918439298274
0.028495885380770674   0.010358183145492675   0.008071918439298274
0.028495885380770674   0.010358183145492675   0.008071918439298274
-0.012640008140371679   4.074158788363799e-05   -0.0010425481393766267
-0.012640008140371679   4.074158788363799e-05   -0.0010425481393766267
-0.012640008140371679   4.074158788363799e-05   -0.0010425481393766267
-0.012640008140371679   4.074158788363799e-05   -0.0010425481393766267
0.024824750969064183   0.001823055833183573   -0.0017486263069255328
0.024824750969064183   0.001823055833183573   -0.0017486263069255328
0.024824750969064183   0.001823055833183573   -0.0017486263069255328
0.024824750969064183   0.001823055833183573   -0.0017486263069255328
-0.05356806098936258   -0.007016729799547455   0.0032613000842308818
-0.05356806098936258   -0.007016729799547455   0.0032613000842308818
-0.05356806098936258   -0.007016729799547455   0.0032613000842308818
-0.05356806098936258   -0.007016729799547455   0.0032613000842308818
-0.061066793275801126   -0.01979524957188783   -0.004138271733077214
-0.061066793275801126   -0.01979524957188783   -0.004138271733077214
-0.061066793275801126   -0.01979524957188783   -0.004138271733077214
-0.061066793275801126   -0.01979524957188783   -0.004138271733077214
0.023742431664218636   0.005300844260413931   0.00902516030555561
0.023742431664218636   0.005300844260413931   0.00902516030555561
0.023742431664218636   0.005300844260413931   0.00902516030555561
0.023742431664218636   0.005300844260413931   0.00902516030555561
-0.017037138585303764   -0.004392155741511028   -0.0033043348450097015
-0.017037138585303764   -0.004392155741511028   -0.0033043348450097015
-0.017037138585303764   -0.004392155741511028   -0.0033043348450097015
-0.017037138585303764   -0.004392155741511028   -0.0033043348450097015
-0.042437422973284726   0.01672246506300927   0.0006349380509105412
-0.042437422973284726   0.01672246506300927   0.0006349380509105412
-0.042437422973284726   0.01672246506300927   0.0006349380509105412
-0.042437422973284726   0.01672246506300927   0.0006349380509105412
-0.12453010423967678   -0.0018061701627792928   -0.003501901486303376
-0.12453010423967678   -0.0018061701627792928   -0.003501901486303376
-0.12453010423967678   -0.0018061701627792928   -0.003501901486303376
-0.12453010423967678   -0.0018061701627792928   -0.003501901486303376
-0.12827881812388406   -0.005529825555564083   -0.0021306203088157522
-0.12827881812388406   -0.005529825555564083   -0.0021306203088157522
-0.12827881812388406   -0.005529825555564083   -0.0021306203088157522
-0.12827881812388406   -0.005529825555564083   -0.0021306203088157522
-0.04678263764585441   0.010274668373805335   0.002360682511757712
-0.04678263764585441   0.010274668373805335   0.002360682511757712
-0.04678263764585441   0.010274668373805335   0.002360682511757712
-0.04678263764585441   0.010274668373805335   0.002360682511757712
-0.0852956167342107   0.004794884042660975   0.0013996113740151663
-0.0852956167342107   0.004794884042660975   0.0013996113740151663
-0.0852956167342107   0.004794884042660975   0.0013996113740151663
-0.0852956167342107   0.004794884042660975   0.0013996113740151663
-0.046582289171878996   0.01163585245640806   0.0020012407990334
-0.046582289171878996   0.01163585245640806   0.0020012407990334
-0.046582289171878996   0.01163585245640806   0.0020012407990334
-0.046582289171878996   0.01163585245640806   0.0020012407990334
-0.12866712148288756   -0.007078964523193565   -0.002522998136203645
-0.12866712148288756   -0.007078964523193565   -0.002522998136203645
-0.12866712148288756   -0.007078964523193565   -0.002522998136203645
-0.12866712148288756   -0.007078964523193565   -0.002522998136203645
-0.13240316064322175   -0.010568707162422846   -0.0008142118839495876
-0.13240316064322175   -0.010568707162422846   -0.0008142118839495876
-0.13240316064322175   -0.010568707162422846   -0.0008142118839495876
-0.13240316064322175   -0.010568707162422846   -0.0008142118839495876
-0.05114691240031747   0.004986499889269039   0.0033638133406387613
-0.05114691240031747   0.004986499889269039   0.0033638133406387613
-0.05114691240031747   0.004986499889269039   0.0033638133406387613
-0.05114691240031747   0.004986499889269039   0.0033638133406387613
-0.08959357983569606   -3.437921851832948e-06   -0.0007579644322350601
-0.08959357983569606   -3.437921851832948e-06   -0.0007579644322350601
-0.08959357983569606   -3.437921851832948e-06   -0.0007579644322350601
-0.08959357983569606   -3.437921851832948e-06   -0.0007579644322350601
-0.05087749889047913   0.0065322864339465245   0.00316509434515418
-0.05087749889047913   0.0065322864339465245   0.00316509434515418
-0.05087749889047913   0.0065322864339465245   0.00316509434515418
-0.05087749889047913   0.0065322864339465245   0.00316509434515418
-0.13293887924716882   -0.012380798801207519   -0.0016807132649003381
-0.13293887924716882   -0.012380798801207519   -0.0016807132649003381
-0.13293887924716882   -0.012380798801207519   -0.0016807132649003381
-0.13293887924716882   -0.012380798801207519   -0.0016807132649003381
-0.13644049550622972   -0.01542266322573987   0.00046834761170256754
-0.13644049550622972   -0.01542266322573987   0.00046834761170256754
-0.13644049550622972   -0.01542266322573987   0.00046834761170256754
-0.13644049550622972   -0.01542266322573987   0.00046834761170256754
-0.05544607522848067   -9.914522056690515e-05   0.00426921415220336
-0.05544607522848067   -9.914522056690515e-05   0.00426921415220336
-0.05544607522848067   -9.914522056690515e-05   0.00426921415220336
-0.05544607522848067   -9.914522056690515e-05   0.00426921415220336
-0.09412251506813515   -0.004808898352768445   -0.0031041927343023502
-0.09412251506813515   -0.004808898352768445   -0.0031041927343023502
-0.09412251506813515   -0.004808898352768445   -0.0031041927343023502
-0.09412251506813515   -0.004808898352768445   -0.0031041927343023502
-0.1182993265721796   0.020728811313137724   0.005117005375265431
-0.1182993265721796   0.020728811313137724   0.005117005375265431
-0.1182993265721796   0.020728811313137724   0.005117005375265431
-0.1182993265721796   0.020728811313137724   0.005117005375265431
-0.20274472250908593   -0.006425270233457049   -0.007865619129388083
-0.20274472250908593   -0.006425270233457049   -0.007865619129388083
-0.20274472250908593   -0.006425270233457049   -0.007865619129388083
-0.20274472250908593   -0.006425270233457049   -0.007865619129388083
-0.20310456830877952   -0.001061559951367877   0.0029212776297589498
-0.20310456830877952   -0.001061559951367877   0.0029212776297589498
-0.20310456830877952   -0.001061559951367877   0.0029212776297589498
-0.20310456830877952   -0.001061559951367877   0.0029212776297589498
-0.12616181983520242   0.005326296793233123   -0.002401751214206058
-0.12616181983520242   0.005326296793233123   -0.002401751214206058
-0.12616181983520242   0.005326296793233123   -0.002401751214206058
-0.12616181983520242   0.005326296793233123   -0.002401751214206058
-0.16171029794315833   0.004617878543996576   0.0017992814840436782
-0.16171029794315833   0.004617878543996576   0.0017992814840436782
-0.16171029794315833   0.004617878543996576   0.0017992814840436782
-0.16171029794315833   0.004617878543996576   0.0017992814840436782
-0.12228657109511605   0.015814951517753424   0.006485837761706807
-0.12228657109511605   0.015814951517753424   0.006485837761706807
-0.12228657109511605   0.015814951517753424   0.006485837761706807
-0.12228657109511605   0.015814951517753424   0.006485837761706807
-0.2073367100540036   -0.011907107681026471   -0.007393883366702858
-0.2073367100540036   -0.011907107681026471   -0.007393883366702858
-0.2073367100540036   -0.011907107681026471   -0.007393883366702858
-0.2073367100540036   -0.011907107681026471   -0.007393883366702858
-0.20819086201556378   -0.006038690301198593   0.0036242033512387563
-0.20819086201556378   -0.006038690301198593   0.0036242033512387563
-0.20819086201556378   -0.006038690301198593   0.0036242033512387563
-0.20819086201556378   -0.006038690301198593   0.0036242033512387563
-0.13030782534011115   0.0004409195601570576   -0.0013471620909782387
-0.13030782534011115   0.0004409195601570576   -0.0013471620909782387
-0.13030782534011115   0.0004409195601570576   -0.0013471620909782387
-0.13030782534011115   0.0004409195601570576   -0.0013471620909782387
-0.16532559988701612   0.00016707582642153107   -0.00045634685748971796
-0.16532559988701612   0.00016707582642153107   -0.00045634685748971796
-0.16532559988701612   0.00016707582642153107   -0.00045634685748971796
-0.16532559988701612   0.00016707582642153107   -0.00045634685748971796
-0.12633074626278518   0.01117026895855908   0.007808883897251313
-0.12633074626278518   0.01117026895855908   0.007808883897251313
-0.12633074626278518   0.01117026895855908   0.007808883897251313
-0.12633074626278518   0.01117026895855908   0.007808883897251313
-0.21239168220018376   -0.016991780806895448   -0.006426807066168172
-0.21239168220018376   -0.016991780806895448   -0.006426807066168172
-0.21239168220018376   -0.016991780806895448   -0.006426807066168172
-0.21239168220018376   -0.016991780806895448   -0.006426807066168172
-0.2125649271750108   -0.01125918766883522   0.005003248628168738
-0.2125649271750108   -0.01125918766883522   0.005003248628168738
-0.2125649271750108   -0.01125918766883522   0.005003248628168738
-0.2125649271750108   -0.01125918766883522   0.005003248628168738
-0.1345104722199933   -0.00482110590302642   -0.0004830932798290128
-0.1345104722199933   -0.00482110590302642   -0.0004830932798290128
-0.1345104722199933   -0.00482110590302642   -0.0004830932798290128
-0.1345104722199933   -0.00482110590302642   -0.0004830932798290128
-0.17081307517765176   -0.004745300786979614   -0.0029390512314268567
-0.17081307517765176   -0.004745300786979614   -0.0029390512314268567
-0.17081307517765176   -0.004745300786979614   -0.0029390512314268567
-0.17081307517765176   -0.004745300786979614   -0.0029390512314268567
-0.19398631349594955   0.020453262600198405   0.009047893102638246
-0.19398631349594955   0.020453262600198405   0.009047893102638246
-0.19398631349594955   0.020453262600198405   0.009047893102638246
-0.19398631349594955   0.020453262600198405   0.009047893102638246
-0.2747405260750797   -0.012832900413092374   -0.011671583636639291
-0.2747405260750797   -0.012832900413092374   -0.011671583636639291
-0.2747405260750797   -0.012832900413092374   -0.011671583636639291
-0.2747405260750797   -0.012832900413092374   -0.011671583636639291
-0.2766478389153194   0.0027003813323467143   0.009499284356346144
-0.2766478389153194   0.0027003813323467143   0.009499284356346144
-0.2766478389153194   0.0027003813323467143   0.009499284356346144
-0.2766478389153194   0.0027003813323467143   0.009499284356346144
-0.20495065103548205   -0.00029078763929135665   -0.007079908315834226
-0.20495065103548205   -0.00029078763929135665   -0.007079908315834226
-0.20495065103548205   -0.00029078763929135665   -0.007079908315834226
-0.20495065103548205   -0.00029078763929135665   -0.007079908315834226
-0.22730199426785805   0.0047119652883043164   0.005650474952384901
-0.22730199426785805   0.0047119652883043164   0.005650474952384901
-0.22730199426785805   0.0047119652883043164   0.005650474952384901
-0.22730199426785805   0.0047119652883043164   0.005650474952384901
-0.19758495592197114   0.018753880818528294   0.010703898793902615
-0.19758495592197114   0.018753880818528294   0.010703898793902615
-0.19758495592197114   0.018753880818528294   0.010703898793902615
-0.19758495592197114   0.018753880818528294   0.010703898793902615
-0.28439668188115796   -0.016727434977800694   -0.009817114162697349
-0.28439668188115796   -0.016727434977800694   -0.009817114162697349
-0.28439668188115796   -0.016727434977800694   -0.009817114162697349
-0.28439668188115796   -0.016727434977800694   -0.009817114162697349
-0.2846065513934514   -0.00011684367855242794   0.012106048151340773
-0.2846065513934514   -0.00011684367855242794   0.012106048151340773
-0.2846065513934514   -0.00011684367855242794   0.012106048151340773
-0.2846065513934514   -0.00011684367855242794   0.012106048151340773
-0.20952170204163467   -0.0030160223769123487   -0.00605266470340628
-0.20952170204163467   -0.0030160223769123487   -0.00605266470340628
-0.20952170204163467   -0.0030160223769123487   -0.00605266470340628
-0.20952170204163467   -0.0030160223769123487   -0.00605266470340628
-0.23762675303120304   0.0014025549597752804   0.0022339749998222004
-0.23762675303120304   0.0014025549597752804   0.0022339749998222004
-0.23762675303120304   0.0014025549597752804   0.0022339749998222004
-0.23762675303120304   0.0014025549597752804   0.0022339749998222004
-0.20185570275985465   0.016553648569679162   0.012707660758902822
-0.20185570275985465   0.016553648569679162   0.012707660758902822
-0.20185570275985465   0.016553648569679162   0.012707660758902822
-0.20185570275985465   0.016553648569679162   0.012707660758902822
-0.29262871699028065   -0.020042680940193208   -0.008078942571164597
-0.29262871699028065   -0.020042680940193208   -0.008078942571164597
-0.29262871699028065   -0.020042680940193208   -0.008078942571164597
-0.29262871699028065   -0.020042680940193208   -0.008078942571164597
-0.29558111075392746   -0.008216968323330201   0.012453146119674102
-0.29558111075392746   -0.008216968323330201   0.012453146119674102
-0.29558111075392746   -0.008216968323330201   0.012453146119674102
-0.29558111075392746   -0.008216968323330201   0.012453146119674102
-0.21424961229029682   -0.009399439745241808   -0.00527992487186006
-0.21424961229029682   -0.009399439745241808   -0.00527992487186006
-0.21424961229029682   -0.009399439745241808   -0.00527992487186006
-0.21424961229029682   -0.009399439745241808   -0.00527992487186006
-0.24076452454102198   -0.002165092250551004   0.0002517918887047759
-0.24076452454102198   -0.002165092250551004   0.0002517918887047759
-0.24076452454102198   -0.002165092250551004   0.0002517918887047759
-0.24076452454102198   -0.002165092250551004   0.0002517918887047759
0.028419367526671107   0.0023184973387086255   -0.013467812189082318
0.028419367526671107   0.0023184973387086255   -0.013467812189082318
0.028419367526671107   0.0023184973387086255   -0.013467812189082318
0.028419367526671107   0.0023184973387086255   -0.013467812189082318
-0.01782397024154324   0.009929916325218717   0.006785918159767826
-0.01782397024154324   0.009929916325218717   0.006785918159767826
-0.01782397024154324   0.009929916325218717   0.006785918159767826
-0.01782397024154324   0.009929916325218717   0.006785918159767826
-0.028810321676376278   -0.013175089396686594   -0.010900796209792318
-0.028810321676376278   -0.013175089396686594   -0.010900796209792318
-0.028810321676376278   -0.013175089396686594   -0.010900796209792318
-0.028810321676376278   -0.013175089396686594   -0.010900796209792318
0.026756038285437735   0.014882098551472621   0.008275365173794659
0.026756038285437735   0.014882098551472621   0.008275365173794659
0.026756038285437735   0.014882098551472621   0.008275365173794659
0.026756038285437735   0.014882098551472621   0.008275365173794659
0.0013864349795600316   0.0032765365676387355   0.0011299872498882146
0.0013864349795600316   0.0032765365676387355   0.0011299872498882146
0.0013864349795600316   0.0032765365676387355   0.0011299872498882146
0.0013864349795600316   0.0032765365676387355   0.0011299872498882146
0.018929416662954442   -0.003868426136909759   -0.012107218250239301
0.018929416662954442   -0.003868426136909759   -0.012107218250239301
0.018929416662954442   -0.003868426136909759   -0.012107218250239301
0.018929416662954442   -0.003868426136909759   -0.012107218250239301
-0.02143191207658228   0.005127223269006587   0.007688939123484501
-0.02143191207658228   0.005127223269006587   0.007688939123484501
-0.02143191207658228   0.005127223269006587   0.007688939123484501
-0.02143191207658228   0.005127223269006587   0.007688939123484501
-0.03246403405012803   -0.015501162785590638   -0.009291934633098133
-0.03246403405012803   -0.015501162785590638   -0.009291934633098133
-0.03246403405012803   -0.015501162785590638   -0.009291934633098133
-0.03246403405012803   -0.015501162785590638   -0.009291934633098133
0.01931537046825597   0.011745872576553934   0.011413768436612121
0.01931537046825597   0.011745872576553934   0.011413768436612121
0.01931537046825597   0.011745872576553934   0.011413768436612121
0.01931537046825597   0.011745872576553934   0.011413768436612121
-0.004370943380852353   -0.00021691466669544464   -0.0015269603099018014
-0.004370943380852353   -0.00021691466669544464   -0.0015269603099018014
-0.004370943380852353   -0.00021691466669544464   -0.0015269603099018014
-0.004370943380852353   -0.00021691466669544464   -0.0015269603099018014
0.011290526283321228   -0.006903983145485876   -0.010060596766021881
0.011290526283321228   -0.006903983145485876   -0.010060596766021881
0.011290526283321228   -0.006903983145485876   -0.010060596766021881
0.011290526283321228   -0.006903983145485876   -0.010060596766021881
-0.025067808235592178   0.0025200745660499597   0.009667957087940398
-0.025067808235592178   0.0025200745660499597   0.009667957087940398
-0.025067808235592178   0.0025200745660499597   0.009667957087940398
-0.025067808235592178   0.0025200745660499597   0.009667957087940398
-0.03580651541703021   -0.018958398193572062   -0.007736477601491339
-0.03580651541703021   -0.018958398193572062   -0.007736477601491339
-0.03580651541703021   -0.018958398193572062   -0.007736477601491339
-0.03580651541703021   -0.018958398193572062   -0.007736477601491339
0.008978196643484074   0.0052512217724857485   0.013072248535542388
0.008978196643484074   0.0052512217724857485   0.013072248535542388
0.008978196643484074   0.0052512217724857485   0.013072248535542388
0.008978196643484074   0.0052512217724857485   0.013072248535542388
-0.01081030601457836   -0.0036842011338660435   -0.004639803196799057
-0.01081030601457836   -0.0036842011338660435   -0.004639803196799057
-0.01081030601457836   -0.0036842011338660435   -0.004639803196799057
-0.01081030601457836   -0.0036842011338660435   -0.004639803196799057
-0.020771091862618562   0.007198465622761145   -0.005218239243151231
-0.020771091862618562   0.007198465622761145   -0.005218239243151231
-0.020771091862618562   0.007198465622761145   -0.005218239243151231
-0.020771091862618562   0.007198465622761145   -0.005218239243151231
-0.0635169048376006   0.002696936559989706   0.0017149203046985472
-0.0635169048376006   0.002696936559989706   0.0017149203046985472
-0.0635169048376006   0.002696936559989706   0.0017149203046985472
-0.0635169048376006   0.002696936559989706   0.0017149203046985472
-0.0692496122408415   -0.007686809280150099   -0.00572500793803073
-0.0692496122408415   -0.007686809280150099   -0.00572500793803073
-0.0692496122408415   -0.007686809280150099   -0.00572500793803073
-0.0692496122408415   -0.007686809280150099   -0.00572500793803073
-0.021466639720143427   0.007142602646401036   0.005499921528284256
-0.021466639720143427   0.007142602646401036   0.005499921528284256
-0.021466639720143427   0.007142602646401036   0.005499921528284256
-0.021466639720143427   0.007142602646401036   0.005499921528284256
-0.0436859655203817   0.002192274761828315   0.0012120357043512529
-0.0436859655203817   0.002192274761828315   0.0012120357043512529
-0.0436859655203817   0.002192274761828315   0.0012120357043512529
-0.0436859655203817   0.002192274761828315   0.0012120357043512529
-0.02454759964740347   0.0015384497781832174   -0.004300725239798447
-0.02454759964740347   0.0015384497781832174   -0.004300725239798447
-0.02454759964740347   0.0015384497781832174   -0.004300725239798447
-0.02454759964740347   0.0015384497781832174   -0.004300725239798447
-0.06654665944702791   -0.002460663545379386   0.002563610296266618
-0.06654665944702791   -0.002460663545379386   0.002563610296266618
-0.06654665944702791   -0.002460663545379386   0.002563610296266618
-0.06654665944702791   -0.002460663545379386   0.002563610296266618
-0.07210923458751917   -0.012231682032247454   -0.004272287481104855
-0.07210923458751917   -0.012231682032247454   -0.004272287481104855
-0.07210923458751917   -0.012231682032247454   -0.004272287481104855
-0.07210923458751917   -0.012231682032247454   -0.004272287481104855
-0.025841956270693786   0.002113171539684479   0.006204119938797778
-0.025841956270693786   0.002113171539684479   0.006204119938797778
-0.025841956270693786   0.002113171539684479   0.006204119938797778
-0.025841956270693786   0.002113171539684479   0.006204119938797778
-0.04729487300528462   -0.0024068009074357504   -0.001109973766685455
-0.04729487300528462   -0.0024068009074357504   -0.001109973766685455
-0.04729487300528462   -0.0024068009074357504   -0.001109973766685455
-0.04729487300528462   -0.0024068009074357504   -0.001109973766685455
-0.028822369656514895   -0.0033640055332911194   -0.003220769917332106
-0.028822369656514895   -0.0033640055332911194   -0.003220769917332106
-0.028822369656514895   -0.0033640055332911194   -0.003220769917332106
-0.028822369656514895   -0.0033640055332911194   -0.003220769917332106
-0.06953678036419451   -0.007162464121767516   0.0035207657250385252
-0.06953678036419451   -0.007162464121767516   0.0035207657250385252
-0.06953678036419451   -0.007162464121767516   0.0035207657250385252
-0.06953678036419451   -0.007162464121767516   0.0035207657250385252
-0.07498761893944603   -0.016847969823548883   -0.002988859510586123
-0.07498761893944603   -0.016847969823548883   -0.002988859510586123
-0.07498761893944603   -0.016847969823548883   -0.002988859510586123
-0.07498761893944603   -0.016847969823548883   -0.002988859510586123
-0.02951063662719205   -0.0029090486185693884   0.0076935667726965515
-0.02951063662719205   -0.0029090486185693884   0.0076935667726965515
-0.02951063662719205   -0.0029090486185693884   0.0076935667726965515
-0.02951063662719205   -0.0029090486185693884   0.0076935667726965515
-0.050857495017679985   -0.006881666590743324   -0.00345179779832009
-0.050857495017679985   -0.006881666590743324   -0.00345179779832009
-0.050857495017679985   -0.006881666590743324   -0.00345179779832009
-0.050857495017679985   -0.006881666590743324   -0.00345179779832009
-0.06225961041488005   0.011239978912582924   -0.000541649934291899
-0.06225961041488005   0.011239978912582924   -0.000541649934291899
-0.06225961041488005   0.011239978912582924   -0.000541649934291899
-0.06225961041488005   0.011239978912582924   -0.000541649934291899
-0.10853493693341798   -0.003864454901561773   -0.0031555584730879336
-0.10853493693341798   -0.003864454901561773   -0.0031555584730879336
-0.10853493693341798   -0.003864454901561773   -0.0031555584730879336
-0.10853493693341798   -0.003864454901561773   -0.0031555584730879336
-0.1097310436250058   -0.002940958740146545   -0.0007690470788426418
-0.1097310436250058   -0.002940958740146545   -0.0007690470788426418
-0.1097310436250058   -0.002940958740146545   -0.0007690470788426418
-0.1097310436250058   -0.002940958740146545   -0.0007690470788426418
-0.06617826186571577   0.001084727558642055   0.0008602070988059994
-0.06617826186571577   0.001084727558642055   0.0008602070988059994
-0.06617826186571577   0.001084727558642055   0.0008602070988059994
-0.06617826186571577   0.001084727558642055   0.0008602070988059994
-0.08648510040614801   0.001280064300653614   0.0004923151036321915
-0.08648510040614801   0.001280064300653614   0.0004923151036321915
-0.08648510040614801   0.001280064300653614   0.0004923151036321915
-0.08648510040614801   0.001280064300653614   0.0004923151036321915
-0.06514278887370809   0.006295801291149565   0.0008264983263367442
-0.06514278887370809   0.006295801291149565   0.0008264983263367442
-0.06514278887370809   0.006295801291149565   0.0008264983263367442
-0.06514278887370809   0.006295801291149565   0.0008264983263367442
-0.11113369110660412   -0.008519206962244154   -0.0022040362647366913
-0.11113369110660412   -0.008519206962244154   -0.0022040362647366913
-0.11113369110660412   -0.008519206962244154   -0.0022040362647366913
-0.11113369110660412   -0.008519206962244154   -0.0022040362647366913
-0.112420871548118   -0.00782567255972863   0.000576910243443288
-0.112420871548118   -0.00782567255972863   0.000576910243443288
-0.112420871548118   -0.00782567255972863   0.000576910243443288
-0.112420871548118   -0.00782567255972863   0.000576910243443288
-0.06919754086661711   -0.003725889691888787   0.0017803887830468842
-0.06919754086661711   -0.003725889691888787   0.0017803887830468842
-0.06919754086661711   -0.003725889691888787   0.0017803887830468842
-0.06919754086661711   -0.003725889691888787   0.0017803887830468842
-0.08938887022472476   -0.0031631906548790154   -0.0016380039324532542
-0.08938887022472476   -0.0031631906548790154   -0.0016380039324532542
-0.08938887022472476   -0.0031631906548790154   -0.0016380039324532542
-0.08938887022472476   -0.0031631906548790154   -0.0016380039324532542
-0.06814232911004901   0.001317304544996168   0.002013253329002304
-0.06814232911004901   0.001317304544996168   0.002013253329002304
-0.06814232911004901   0.001317304544996168   0.002013253329002304
-0.06814232911004901   0.001317304544996168   0.002013253329002304
-0.1139199848213091   -0.01331276831323727   -0.0014315603690035323
-0.1139199848213091   -0.01331276831323727   -0.0014315603690035323
-0.1139199848213091   -0.01331276831323727   -0.0014315603690035323
-0.1139199848213091   -0.01331276831323727   -0.0014315603690035323
-0.11503662845402107   -0.012495749338874962   0.0018767467861958175
-0.11503662845402107   -0.012495749338874962   0.0018767467861958175
-0.11503662845402107   -0.012495749338874962   0.0018767467861958175
-0.11503662845402107   -0.012495749338874962   0.0018767467861958175
-0.07211122035708656   -0.0082443391442915   0.002789502721955308
-0.07211122035708656   -0.0082443391442915   0.002789502721955308
-0.07211122035708656   -0.0082443391442915   0.002789502721955308
-0.07211122035708656   -0.0082443391442915   0.002789502721955308
-0.09251324604731363   -0.007625812781750141   -0.00395442625226629
-0.09251324604731363   -0.007625812781750141   -0.00395442625226629
-0.09251324604731363   -0.007625812781750141   -0.00395442625226629
-0.09251324604731363   -0.007625812781750141   -0.00395442625226629
-0.10307266265153546   0.01595044764240332   0.00434091039236142
-0.10307266265153546   0.01595044764240332   0.00434091039236142
-0.10307266265153546   0.01595044764240332   0.00434091039236142
-0.10307266265153546   0.01595044764240332   0.00434091039236142
-0.15204343568776416   -0.006567944325260953   -0.007020846234376773
-0.15204343568776416   -0.006567944325260953   -0.007020846234376773
-0.15204343568776416   -0.006567944325260953   -0.007020846234376773
-0.15204343568776416   -0.006567944325260953   -0.007020846234376773
-0.1501371334878308   0.00187476546860528   0.004315905815275477
-0.1501371334878308   0.00187476546860528   0.004315905815275477
-0.1501371334878308   0.00187476546860528   0.004315905815275477
-0.1501371334878308   0.00187476546860528   0.004315905815275477
-0.10998095576666454   -0.0019064127232145192   -0.003053153804067822
-0.10998095576666454   -0.0019064127232145192   -0.003053153804067822
-0.10998095576666454   -0.0019064127232145192   -0.003053153804067822
-0.10998095576666454   -0.0019064127232145192   -0.003053153804067822
-0.12831996947586535   0.002339253332562248   0.0007118700708671289
-0.12831996947586535   0.002339253332562248   0.0007118700708671289
-0.12831996947586535   0.002339253332562248   0.0007118700708671289
-0.12831996947586535   0.002339253332562248   0.0007118700708671289
-0.1056363721601953   0.011053672393408081   0.005709679111655186
-0.1056363721601953   0.011053672393408081   0.005709679111655186
-0.1056363721601953   0.011053672393408081   0.005709679111655186
-0.1056363721601953   0.011053672393408081   0.005709679111655186
-0.15501915066376015   -0.011622753217478368   -0.006596661378291463
-0.15501915066376015   -0.011622753217478368   -0.006596661378291463
-0.15501915066376015   -0.011622753217478368   -0.006596661378291463
-0.15501915066376015   -0.011622753217478368   -0.006596661378291463
-0.15372587963337983   -0.0029492896141428207   0.005119846330798662
-0.15372587963337983   -0.0029492896141428207   0.005119846330798662
-0.15372587963337983   -0.0029492896141428207   0.005119846330798662
-0.15372587963337983   -0.0029492896141428207   0.005119846330798662
-0.11264597892365856   -0.006309705631908635   -0.002064593562080436
-0.11264597892365856   -0.006309705631908635   -0.002064593562080436
-0.11264597892365856   -0.006309705631908635   -0.002064593562080436
-0.11264597892365856   -0.006309705631908635   -0.002064593562080436
-0.1307472428787838   -0.0019365069915514045   -0.001596117099569117
-0.1307472428787838   -0.0019365069915514045   -0.001596117099569117
-0.1307472428787838   -0.0019365069915514045   -0.001596117099569117
-0.1307472428787838   -0.0019365069915514045   -0.001596117099569117
-0.1082581491523038   0.0065277142903928595   0.007037135372392788
-0.1082581491523038   0.0065277142903928595   0.007037135372392788
-0.1082581491523038   0.0065277142903928595   0.007037135372392788
-0.1082581491523038   0.0065277142903928595   0.007037135372392788
-0.15853815285932524   -0.016211152991034126   -0.005679656422041179
-0.15853815285932524   -0.016211152991034126   -0.005679656422041179
-0.15853815285932524   -0.016211152991034126   -0.005679656422041179
-0.15853815285932524   -0.016211152991034126   -0.005679656422041179
-0.1566382841098428   -0.007839170710806965   0.006554394571117784
-0.1566382841098428   -0.007839170710806965   0.006554394571117784
-0.1566382841098428   -0.007839170710806965   0.006554394571117784
-0.1566382841098428   -0.007839170710806965   0.006554394571117784
-0.1153263267996602   -0.01084768264903987   -0.0012198116318343174
-0.1153263267996602   -0.01084768264903987   -0.0012198116318343174
-0.1153263267996602   -0.01084768264903987   -0.0012198116318343174
-0.1153263267996602   -0.01084768264903987   -0.0012198116318343174
-0.13443897708193517   -0.006346311154366627   -0.003980422991027586
-0.13443897708193517   -0.006346311154366627   -0.003980422991027586
-0.13443897708193517   -0.006346311154366627   -0.003980422991027586
-0.13443897708193517   -0.006346311154366627   -0.003980422991027586
-0.14413466926527066   0.017344663322302722   0.008610378230526908
-0.14413466926527066   0.017344663322302722   0.008610378230526908
-0.14413466926527066   0.017344663322302722   0.008610378230526908
-0.14413466926527066   0.017344663322302722   0.008610378230526908
-0.18790789557266055   -0.00958717803723913   -0.011504717818219743
-0.18790789557266055   -0.00958717803723913   -0.011504717818219743
-0.18790789557266055   -0.00958717803723913   -0.011504717818219743
-0.18790789557266055   -0.00958717803723913   -0.011504717818219743
-0.18813121810977962   0.006387971059189854   0.009494452250877071
-0.18813121810977962   0.006387971059189854   0.009494452250877071
-0.18813121810977962   0.006387971059189854   0.009494452250877071
-0.18813121810977962   0.006387971059189854   0.009494452250877071
-0.15375590802729994   -0.004877874646863612   -0.007025326766604507
-0.15375590802729994   -0.004877874646863612   -0.007025326766604507
-0.15375590802729994   -0.004877874646863612   -0.007025326766604507
-0.15375590802729994   -0.004877874646863612   -0.007025326766604507
-0.16158616619550617   0.003927134252843176   0.003307544444703627
-0.16158616619550617   0.003927134252843176   0.003307544444703627
-0.16158616619550617   0.003927134252843176   0.003307544444703627
-0.16158616619550617   0.003927134252843176   0.003307544444703627
-0.14636968515754187   0.014872474822105741   0.010155438113215948
-0.14636968515754187   0.014872474822105741   0.010155438113215948
-0.14636968515754187   0.014872474822105741   0.010155438113215948
-0.14636968515754187   0.014872474822105741   0.010155438113215948
-0.19608276275315867   -0.013927700183399793   -0.009947599723426646
-0.19608276275315867   -0.013927700183399793   -0.009947599723426646
-0.19608276275315867   -0.013927700183399793   -0.009947599723426646
-0.19608276275315867   -0.013927700183399793   -0.009947599723426646
-0.19465060951138013   0.0036085901366494436   0.012199305334148133
-0.19465060951138013   0.0036085901366494436   0.012199305334148133
-0.19465060951138013   0.0036085901366494436   0.012199305334148133
-0.19465060951138013   0.0036085901366494436   0.012199305334148133
-0.1568679795092039   -0.007415055132150419   -0.0061248875303145794
-0.1568679795092039   -0.007415055132150419   -0.0061248875303145794
-0.1568679795092039   -0.007415055132150419   -0.0061248875303145794
-0.1568679795092039   -0.007415055132150419   -0.0061248875303145794
-0.1694256890711045   0.0005704292603197769   5.0719678561754813e-05
-0.1694256890711045   0.0005704292603197769   5.0719678561754813e-05
-0.1694256890711045   0.0005704292603197769   5.0719678561754813e-05
-0.1694256890711045   0.0005704292603197769   5.0719678561754813e-05
-0.14919200761097234   0.012690360679699947   0.012149556148993183
-0.14919200761097234   0.012690360679699947   0.012149556148993183
-0.14919200761097234   0.012690360679699947   0.012149556148993183
-0.14919200761097234   0.012690360679699947   0.012149556148993183
-0.2028934590170755   -0.017063703282664433   -0.008342648775013046
-0.2028934590170755   -0.017063703282664433   -0.008342648775013046
-0.2028934590170755   -0.017063703282664433   -0.008342648775013046
-0.2028934590170755   -0.017063703282664433   -0.008342648775013046
-0.2041938655490264   -0.0037593673349903753   0.0128646904381267
-0.2041938655490264   -0.0037593673349903753   0.0128646904381267
-0.2041938655490264   -0.0037593673349903753   0.0128646904381267
-0.2041938655490264   -0.0037593673349903753   0.0128646904381267
-0.15999855172505573   -0.012797173848979916   -0.00528894036677644
-0.15999855172505573   -0.012797173848979916   -0.00528894036677644
-0.15999855172505573   -0.012797173848979916   -0.00528894036677644
-0.15999855172505573   -0.012797173848979916   -0.00528894036677644
-0.1723131934195571   -0.0027945202409982092   -0.0022201507848263902
-0.1723131934195571   -0.0027945202409982092   -0.0022201507848263902
-0.1723131934195571   -0.0027945202409982092   -0.0022201507848263902
-0.1723131934195571   -0.0027945202409982092   -0.0022201507848263902
-0.06782724009825854   -0.004324440959089912   -0.0144825984050571
-0.06782724009825854   -0.004324440959089912   -0.0144825984050571
-0.06782724009825854   -0.004324440959089912   -0.0144825984050571
-0.06782724009825854   -0.004324440959089912   -0.0144825984050571
-0.07147091898507997   0.010804314900955361   0.006444660871245427
-0.07147091898507997   0.010804314900955361   0.006444660871245427
-0.07147091898507997   0.010804314900955361   0.006444660871245427
-0.07147091898507997   0.010804314900955361   0.006444660871245427
-0.0811463926076461   -0.01033996935166914   -0.009932543448830313
-0.0811463926076461   -0.01033996935166914   -0.009932543448830313
-0.0811463926076461   -0.01033996935166914   -0.009932543448830313
-0.0811463926076461   -0.01033996935166914   -0.009932543448830313
-0.06954063995222623   0.006415662894657439   0.009492588593302688
-0.06954063995222623   0.006415662894657439   0.009492588593302688
-0.06954063995222623   0.006415662894657439   0.009492588593302688
-0.06954063995222623   0.006415662894657439   0.009492588593302688
-0.06883582568064565   0.0020034389673867156   0.0065796082361595405
-0.06883582568064565   0.0020034389673867156   0.0065796082361595405
-0.06883582568064565   0.0020034389673867156   0.0065796082361595405
-0.06883582568064565   0.0020034389673867156   0.0065796082361595405
-0.07716995091999965   -0.010004860828796864   -0.012233442522109153
-0.07716995091999965   -0.010004860828796864   -0.012233442522109153
-0.07716995091999965   -0.010004860828796864   -0.012233442522109153
-0.07716995091999965   -0.010004860828796864   -0.012233442522109153
-0.07441783290607056   0.005179803105586404   0.008190482601791829
-0.07441783290607056   0.005179803105586404   0.008190482601791829
-0.07441783290607056   0.005179803105586404   0.008190482601791829
-0.07441783290607056   0.005179803105586404   0.008190482601791829
-0.08418109990766919   -0.01293067063047954   -0.0084724772226301
-0.08418109990766919   -0.01293067063047954   -0.0084724772226301
-0.08418109990766919   -0.01293067063047954   -0.0084724772226301
-0.08418109990766919   -0.01293067063047954   -0.0084724772226301
-0.07703894080313275   0.0029366388984499326   0.017858279475396092
-0.07703894080313275   0.0029366388984499326   0.017858279475396092
-0.07703894080313275   0.0029366388984499326   0.017858279475396092
-0.07703894080313275   0.0029366388984499326   0.017858279475396092
-0.0756202615112068   -0.0024279174018867096   0.002715097517037482
-0.0756202615112068   -0.0024279174018867096   0.002715097517037482
-0.0756202615112068   -0.0024279174018867096   0.002715097517037482
-0.0756202615112068   -0.0024279174018867096   0.002715097517037482
-0.08582369118435512   -0.013492050123119277   -0.009636783409146457
-0.08582369118435512   -0.013492050123119277   -0.009636783409146457
-0.08582369118435512   -0.013492050123119277   -0.009636783409146457
-0.08582369118435512   -0.013492050123119277   -0.009636783409146457
-0.07759609236827968   0.0012982755492574327   0.010223614294580508
-0.07759609236827968   0.0012982755492574327   0.010223614294580508
-0.07759609236827968   0.0012982755492574327   0.010223614294580508
-0.07759609236827968   0.0012982755492574327   0.010223614294580508
-0.08669113944015414   -0.017842958296444545   -0.006729315725470865
-0.08669113944015414   -0.017842958296444545   -0.006729315725470865
-0.08669113944015414   -0.017842958296444545   -0.006729315725470865
-0.08669113944015414   -0.017842958296444545   -0.006729315725470865
-0.08863521979471743   -0.008564010347139203   0.01667697211674705
-0.08863521979471743   -0.008564010347139203   0.01667697211674705
-0.08863521979471743   -0.008564010347139203   0.01667697211674705
-0.08863521979471743   -0.008564010347139203   0.01667697211674705
-0.0817683625187387   -0.007640889757644386   -0.003516654270919936
-0.0817683625187387   -0.007640889757644386   -0.003516654270919936
-0.0817683625187387   -0.007640889757644386   -0.003516654270919936
-0.0817683625187387   -0.007640889757644386   -0.003516654270919936
-0.07673910948568863   -0.0017574031472812682   -0.007334573583561244
-0.07673910948568863   -0.0017574031472812682   -0.007334573583561244
-0.07673910948568863   -0.0017574031472812682   -0.007334573583561244
-0.07673910948568863   -0.0017574031472812682   -0.007334573583561244
-0.08102191195652075   -0.010085983164050415   -0.0004474949658039107
-0.08102191195652075   -0.010085983164050415   -0.0004474949658039107
-0.08102191195652075   -0.010085983164050415   -0.0004474949658039107
-0.08102191195652075   -0.010085983164050415   -0.0004474949658039107
-0.08184883235285406   -0.006804156966529123   -0.003851683903655907
-0.08184883235285406   -0.006804156966529123   -0.003851683903655907
-0.08184883235285406   -0.006804156966529123   -0.003851683903655907
-0.08184883235285406   -0.006804156966529123   -0.003851683903655907
-0.07970789343385688   -0.013097016610710242   1.699967915692348e-05
-0.07970789343385688   -0.013097016610710242   1.699967915692348e-05
-0.07970789343385688   -0.013097016610710242   1.699967915692348e-05
-0.07970789343385688   -0.013097016610710242   1.699967915692348e-05
-0.0791624462758232   -0.008287409227501054   -8.07902017303957e-05
-0.0791624462758232   -0.008287409227501054   -8.07902017303957e-05
-0.0791624462758232   -0.008287409227501054   -8.07902017303957e-05
-0.0791624462758232   -0.008287409227501054   -8.07902017303957e-05
-0.07974492695011427   -0.0068883966731805215   -0.006376787839659295
-0.07974492695011427   -0.0068883966731805215   -0.006376787839659295
-0.07974492695011427   -0.0068883966731805215   -0.006376787839659295
-0.07974492695011427   -0.0068883966731805215   -0.006376787839659295
-0.08233296148279749   -0.013533939550258493   0.0004574530303562835
-0.08233296148279749   -0.013533939550258493   0.0004574530303562835
-0.08233296148279749   -0.013533939550258493   0.0004574530303562835
-0.08233296148279749   -0.013533939550258493   0.0004574530303562835
-0.08342764182329915   -0.011155083596434336   -0.0025514701891986022
-0.08342764182329915   -0.011155083596434336   -0.0025514701891986022
-0.08342764182329915   -0.011155083596434336   -0.0025514701891986022
-0.08342764182329915   -0.011155083596434336   -0.0025514701891986022
-0.08291770771778474   -0.017117278268349294   0.002031091364661849
-0.08291770771778474   -0.017117278268349294   0.002031091364661849
-0.08291770771778474   -0.017117278268349294   0.002031091364661849
-0.08291770771778474   -0.017117278268349294   0.002031091364661849
-0.08124101321857082   -0.01183872238108555   -0.0021448589841588355
-0.08124101321857082   -0.01183872238108555   -0.0021448589841588355
-0.08124101321857082   -0.01183872238108555   -0.0021448589841588355
-0.08124101321857082   -0.01183872238108555   -0.0021448589841588355
-0.08316212186674318   -0.011544447580816537   -0.0047638100676631046
-0.08316212186674318   -0.011544447580816537   -0.0047638100676631046
-0.08316212186674318   -0.011544447580816537   -0.0047638100676631046
-0.08316212186674318   -0.011544447580816537   -0.0047638100676631046
-0.08384666813506038   -0.01739135474468717   0.001589669400248098
-0.08384666813506038   -0.01739135474468717   0.001589669400248098
-0.08384666813506038   -0.01739135474468717   0.001589669400248098
-0.08384666813506038   -0.01739135474468717   0.001589669400248098
-0.08487421654008163   -0.015774295513378844   -0.0012690877884611298
-0.08487421654008163   -0.015774295513378844   -0.0012690877884611298
-0.08487421654008163   -0.015774295513378844   -0.0012690877884611298
-0.08487421654008163   -0.015774295513378844   -0.0012690877884611298
-0.08540462020779788   -0.022118276230800277   0.003978598370665325
-0.08540462020779788   -0.022118276230800277   0.003978598370665325
-0.08540462020779788   -0.022118276230800277   0.003978598370665325
-0.08540462020779788   -0.022118276230800277   0.003978598370665325
-0.08398704907763568   -0.016029705829212943   -0.004726455674892401
-0.08398704907763568   -0.016029705829212943   -0.004726455674892401
-0.08398704907763568   -0.016029705829212943   -0.004726455674892401
-0.08398704907763568   -0.016029705829212943   -0.004726455674892401
-0.07869675199506648   0.0024606317635087922   -0.0013683100860907727
-0.07869675199506648   0.0024606317635087922   -0.0013683100860907727
-0.07869675199506648   0.0024606317635087922   -0.0013683100860907727
-0.07869675199506648   0.0024606317635087922   -0.0013683100860907727
-0.09176917430108894   -0.017456685918662326   -0.004471018053642354
-0.09176917430108894   -0.017456685918662326   -0.004471018053642354
-0.09176917430108894   -0.017456685918662326   -0.004471018053642354
-0.09176917430108894   -0.017456685918662326   -0.004471018053642354
-0.08823883591803147   -0.003295956384918683   0.0010173614333180182
-0.08823883591803147   -0.003295956384918683   0.0010173614333180182
-0.08823883591803147   -0.003295956384918683   0.0010173614333180182
-0.08823883591803147   -0.003295956384918683   0.0010173614333180182
-0.08390918213062219   -0.018291531159343094   -0.002666058599682724
-0.08390918213062219   -0.018291531159343094   -0.002666058599682724
-0.08390918213062219   -0.018291531159343094   -0.002666058599682724
-0.08390918213062219   -0.018291531159343094   -0.002666058599682724
-0.085591760447081   -0.009443803957969638   -0.0018167413359902775
-0.085591760447081   -0.009443803957969638   -0.0018167413359902775
-0.085591760447081   -0.009443803957969638   -0.0018167413359902775
-0.085591760447081   -0.009443803957969638   -0.0018167413359902775
-0.08009923425236005   -0.001877565343325921   -3.028502438911021e-05
-0.08009923425236005   -0.001877565343325921   -3.028502438911021e-05
-0.08009923425236005   -0.001877565343325921   -3.028502438911021e-05
-0.08009923425236005   -0.001877565343325921   -3.028502438911021e-05
-0.09252652114276759   -0.020187659547410197   -0.003529361527872858
-0.09252652114276759   -0.020187659547410197   -0.003529361527872858
-0.09252652114276759   -0.020187659547410197   -0.003529361527872858
-0.09252652114276759   -0.020187659547410197   -0.003529361527872858
-0.08943168495784994   -0.007667453120054303   0.0023067157334521306
-0.08943168495784994   -0.007667453120054303   0.0023067157334521306
-0.08943168495784994   -0.007667453120054303   0.0023067157334521306
-0.08943168495784994   -0.007667453120054303   0.0023067157334521306
-0.0853887848896324   -0.021721121146950288   -0.001791147970349065
-0.0853887848896324   -0.021721121146950288   -0.001791147970349065
-0.0853887848896324   -0.021721121146950288   -0.001791147970349065
-0.0853887848896324   -0.021721121146950288   -0.001791147970349065
-0.08683733732761105   -0.012756008895319056   -0.003588224923219923
-0.08683733732761105   -0.012756008895319056   -0.003588224923219923
-0.08683733732761105   -0.012756008895319056   -0.003588224923219923
-0.08683733732761105   -0.012756008895319056   -0.003588224923219923
-0.0817019913660098   -0.006332098206845934   0.001253796707659822
-0.0817019913660098   -0.006332098206845934   0.001253796707659822
-0.0817019913660098   -0.006332098206845934   0.001253796707659822
-0.0817019913660098   -0.006332098206845934   0.001253796707659822
-0.09365241793523549   -0.02359041551392259   -0.002873986759607456
-0.09365241793523549   -0.02359041551392259   -0.002873986759607456
-0.09365241793523549   -0.02359041551392259   -0.002873986759607456
-0.09365241793523549   -0.02359041551392259   -0.002873986759607456
-0.09043832697145157   -0.011752287540450497   0.003576867355525355
-0.09043832697145157   -0.011752287540450497   0.003576867355525355
-0.09043832697145157   -0.011752287540450497   0.003576867355525355
-0.09043832697145157   -0.011752287540450497   0.003576867355525355
-0.08655130701389803   -0.02496320687028445   -0.0004656288006389176
-0.08655130701389803   -0.02496320687028445   -0.0004656288006389176
-0.08655130701389803   -0.02496320687028445   -0.0004656288006389176
-0.08655130701389803   -0.02496320687028445   -0.0004656288006389176
-0.08829477580306959   -0.016210651124065608   -0.0055317320808336585
-0.08829477580306959   -0.016210651124065608   -0.0055317320808336585
-0.08829477580306959   -0.016210651124065608   -0.0055317320808336585
-0.08829477580306959   -0.016210651124065608   -0.0055317320808336585
-0.08471258390928794   0.00914453739554159   0.004210710591158719
-0.08471258390928794   0.00914453739554159   0.004210710591158719
-0.08471258390928794   0.00914453739554159   0.004210710591158719
-0.08471258390928794   0.00914453739554159   0.004210710591158719
-0.10250447696838005   -0.013347905995999268   -0.006336883343272268
-0.10250447696838005   -0.013347905995999268   -0.006336883343272268
-0.10250447696838005   -0.013347905995999268   -0.006336883343272268
-0.10250447696838005   -0.013347905995999268   -0.006336883343272268
-0.09730420566200239   0.0023830060267693368   0.005717189841181633
-0.09730420566200239   0.0023830060267693368   0.005717189841181633
-0.09730420566200239   0.0023830060267693368   0.005717189841181633
-0.09730420566200239   0.0023830060267693368   0.005717189841181633
-0.09139179927271335   -0.01428267155064621   -0.0037607401743640547
-0.09139179927271335   -0.01428267155064621   -0.0037607401743640547
-0.09139179927271335   -0.01428267155064621   -0.0037607401743640547
-0.09139179927271335   -0.01428267155064621   -0.0037607401743640547
-0.09393080105009108   -0.003938135737925778   -0.001082002966834224
-0.09393080105009108   -0.003938135737925778   -0.001082002966834224
-0.09393080105009108   -0.003938135737925778   -0.001082002966834224
-0.09393080105009108   -0.003938135737925778   -0.001082002966834224
-0.08575153199191114   0.004651406440291859   0.005506518238709146
-0.08575153199191114   0.004651406440291859   0.005506518238709146
-0.08575153199191114   0.004651406440291859   0.005506518238709146
-0.08575153199191114   0.004651406440291859   0.005506518238709146
-0.1035848582958109   -0.01719145731717602   -0.006111609983915545
-0.1035848582958109   -0.01719145731717602   -0.006111609983915545
-0.1035848582958109   -0.01719145731717602   -0.006111609983915545
-0.1035848582958109   -0.01719145731717602   -0.006111609983915545
-0.09923772997873183   -0.0019148983854845973   0.006501193725113001
-0.09923772997873183   -0.0019148983854845973   0.006501193725113001
-0.09923772997873183   -0.0019148983854845973   0.006501193725113001
-0.09923772997873183   -0.0019148983854845973   0.006501193725113001
-0.09245446459127785   -0.017497681038040933   -0.002976954515701053
-0.09245446459127785   -0.017497681038040933   -0.002976954515701053
-0.09245446459127785   -0.017497681038040933   -0.002976954515701053
-0.09245446459127785   -0.017497681038040933   -0.002976954515701053
-0.09497892752512832   -0.007545878925769765   -0.0031658705348210957
-0.09497892752512832   -0.007545878925769765   -0.0031658705348210957
-0.09497892752512832   -0.007545878925769765   -0.0031658705348210957
-0.09497892752512832   -0.007545878925769765   -0.0031658705348210957
-0.08688631966638131   0.0006069689550928618   0.006759120115648007
-0.08688631966638131   0.0006069689550928618   0.006759120115648007
-0.08688631966638131   0.0006069689550928618   0.006759120115648007
-0.08688631966638131   0.0006069689550928618   0.006759120115648007
-0.10535954595221682   -0.020573219427207176   -0.00544956510058945
-0.10535954595221682   -0.020573219427207176   -0.00544956510058945
-0.10535954595221682   -0.020573219427207176   -0.00544956510058945
-0.10535954595221682   -0.020573219427207176   -0.00544956510058945
-0.10056562036477465   -0.006062669688209092   0.007944546737434015
-0.10056562036477465   -0.006062669688209092   0.007944546737434015
-0.10056562036477465   -0.006062669688209092   0.007944546737434015
-0.10056562036477465   -0.006062669688209092   0.007944546737434015
-0.09340111417643931   -0.020736427753999715   -0.002252928455863703
-0.09340111417643931   -0.020736427753999715   -0.002252928455863703
-0.09340111417643931   -0.020736427753999715   -0.002252928455863703
-0.09340111417643931   -0.020736427753999715   -0.002252928455863703
-0.09672468234604371   -0.010984184189370711   -0.005199290439183296
-0.09672468234604371   -0.010984184189370711   -0.005199290439183296
-0.09672468234604371   -0.010984184189370711   -0.005199290439183296
-0.09672468234604371   -0.010984184189370711   -0.005199290439183296
-0.09424258388692737   0.013143135897624253   0.008481540170367624
-0.09424258388692737   0.013143135897624253   0.008481540170367624
-0.09424258388692737   0.013143135897624253   0.008481540170367624
-0.09424258388692737   0.013143135897624253   0.008481540170367624
-0.10358646945175161   -0.008330562122545338   -0.009090566261099112
-0.10358646945175161   -0.008330562122545338   -0.009090566261099112
-0.10358646945175161   -0.008330562122545338   -0.009090566261099112
-0.10358646945175161   -0.008330562122545338   -0.009090566261099112
-0.10160574875469161   0.008845679157856026   0.009442282984393058
-0.10160574875469161   0.008845679157856026   0.009442282984393058
-0.10160574875469161   0.008845679157856026   0.009442282984393058
-0.10160574875469161   0.008845679157856026   0.009442282984393058
-0.10202748257214493   -0.009953571181613883   -0.005562617501148172
-0.10202748257214493   -0.009953571181613883   -0.005562617501148172
-0.10202748257214493   -0.009953571181613883   -0.005562617501148172
-0.10202748257214493   -0.009953571181613883   -0.005562617501148172
-0.09685924724331653   0.002182481237999495   0.000601982564225158
-0.09685924724331653   0.002182481237999495   0.000601982564225158
-0.09685924724331653   0.002182481237999495   0.000601982564225158
-0.09685924724331653   0.002182481237999495   0.000601982564225158
-0.09491302434236021   0.010255823280563157   0.009800279185596828
-0.09491302434236021   0.010255823280563157   0.009800279185596828
-0.09491302434236021   0.010255823280563157   0.009800279185596828
-0.09491302434236021   0.010255823280563157   0.009800279185596828
-0.1092559066870079   -0.011899415006852753   -0.008063412512479566
-0.1092559066870079   -0.011899415006852753   -0.008063412512479566
-0.1092559066870079   -0.011899415006852753   -0.008063412512479566
-0.1092559066870079   -0.011899415006852753   -0.008063412512479566
-0.1060719720105199   0.006392857881255737   0.0121186700380322
-0.1060719720105199   0.006392857881255737   0.0121186700380322
-0.1060719720105199   0.006392857881255737   0.0121186700380322
-0.1060719720105199   0.006392857881255737   0.0121186700380322
-0.10353553842280763   -0.011866076945726868   -0.005036669935025097
-0.10353553842280763   -0.011866076945726868   -0.005036669935025097
-0.10353553842280763   -0.011866076945726868   -0.005036669935025097
-0.10353553842280763   -0.011866076945726868   -0.005036669935025097
-0.10170331385961945   -0.0007685973573633778   -0.0019213059426654725
-0.10170331385961945   -0.0007685973573633778   -0.0019213059426654725
-0.10170331385961945   -0.0007685973573633778   -0.0019213059426654725
-0.10170331385961945   -0.0007685973573633778   -0.0019213059426654725
-0.09615728698967899   0.008291469112329745   0.011697041172560933
-0.09615728698967899   0.008291469112329745   0.011697041172560933
-0.09615728698967899   0.008291469112329745   0.011697041172560933
-0.09615728698967899   0.008291469112329745   0.011697041172560933
-0.11413130894930064   -0.01444577368245301   -0.007339383092162793
-0.11413130894930064   -0.01444577368245301   -0.007339383092162793
-0.11413130894930064   -0.01444577368245301   -0.007339383092162793
-0.11413130894930064   -0.01444577368245301   -0.007339383092162793
-0.11370999984344725   0.0001038347332772277   0.012927550662900824
-0.11370999984344725   0.0001038347332772277   0.012927550662900824
-0.11370999984344725   0.0001038347332772277   0.012927550662900824
-0.11370999984344725   0.0001038347332772277   0.012927550662900824
-0.10493189138671213   -0.015583406465347777   -0.004366071595116667
-0.10493189138671213   -0.015583406465347777   -0.004366071595116667
-0.10493189138671213   -0.015583406465347777   -0.004366071595116667
-0.10493189138671213   -0.015583406465347777   -0.004366071595116667
-0.10398445076945859   -0.0035223490060479687   -0.00415423756454433
-0.10398445076945859   -0.0035223490060479687   -0.00415423756454433
-0.10398445076945859   -0.0035223490060479687   -0.00415423756454433
-0.10398445076945859   -0.0035223490060479687   -0.00415423756454433
-0.1865373634077817   -0.01722487905539755   -0.018634864487819418
-0.1865373634077817   -0.01722487905539755   -0.018634864487819418
-0.1865373634077817   -0.01722487905539755   -0.018634864487819418
-0.1865373634077817   -0.01722487905539755   -0.018634864487819418
-0.12057840271925535   0.009442725865371218   0.004322378480730231
-0.12057840271925535   0.009442725865371218   0.004322378480730231
-0.12057840271925535   0.009442725865371218   0.004322378480730231
-0.12057840271925535   0.009442725865371218   0.004322378480730231
-0.1268635146548533   -0.008652472930321422   -0.008525215828964577
-0.1268635146548533   -0.008652472930321422   -0.008525215828964577
-0.1268635146548533   -0.008652472930321422   -0.008525215828964577
-0.1268635146548533   -0.008652472930321422   -0.008525215828964577
-0.19948448482477   -0.02368781750571538   0.02037470254014337
-0.19948448482477   -0.02368781750571538   0.02037470254014337
-0.19948448482477   -0.02368781750571538   0.02037470254014337
-0.19948448482477   -0.02368781750571538   0.02037470254014337
-0.14531147113490397   -0.00594168595298436   0.02002247391722997
-0.14531147113490397   -0.00594168595298436   0.02002247391722997
-0.14531147113490397   -0.00594168595298436   0.02002247391722997
-0.14531147113490397   -0.00594168595298436   0.02002247391722997
-0.20671762063995805   -0.025678341474876246   -0.013800452566634164
-0.20671762063995805   -0.025678341474876246   -0.013800452566634164
-0.20671762063995805   -0.025678341474876246   -0.013800452566634164
-0.20671762063995805   -0.025678341474876246   -0.013800452566634164
-0.12475020168816871   -0.011781771809663853   0.005170647883799729
-0.12475020168816871   -0.011781771809663853   0.005170647883799729
-0.12475020168816871   -0.011781771809663853   0.005170647883799729
-0.12475020168816871   -0.011781771809663853   0.005170647883799729
-0.12922631402368423   -0.0123270067596963   -0.0062725755947874275
-0.12922631402368423   -0.0123270067596963   -0.0062725755947874275
-0.12922631402368423   -0.0123270067596963   -0.0062725755947874275
-0.12922631402368423   -0.0123270067596963   -0.0062725755947874275
-0.2064311151075883   -0.03293732770764319   0.00017929527928184016
-0.2064311151075883   -0.03293732770764319   0.00017929527928184016
-0.2064311151075883   -0.03293732770764319   0.00017929527928184016
-0.2064311151075883   -0.03293732770764319   0.00017929527928184016
-0.16172115608684814   -0.019861978004750737   0.004740797389181892
-0.16172115608684814   -0.019861978004750737   0.004740797389181892
-0.16172115608684814   -0.019861978004750737   0.004740797389181892
-0.16172115608684814   -0.019861978004750737   0.004740797389181892
-0.20795234588293043   -0.02907544606133577   -0.011288740243734843
-0.20795234588293043   -0.02907544606133577   -0.011288740243734843
-0.20795234588293043   -0.02907544606133577   -0.011288740243734843
-0.20795234588293043   -0.02907544606133577   -0.011288740243734843
-0.12921483214528467   -0.017698637302946893   -0.0008435356595403037
-0.12921483214528467   -0.017698637302946893   -0.0008435356595403037
-0.12921483214528467   -0.017698637302946893   -0.0008435356595403037
-0.12921483214528467   -0.017698637302946893   -0.0008435356595403037
-0.12969756440126784   -0.02104493826684626   -0.004665322875237838
-0.12969756440126784   -0.02104493826684626   -0.004665322875237838
-0.12969756440126784   -0.02104493826684626   -0.004665322875237838
-0.12969756440126784   -0.02104493826684626   -0.004665322875237838
-0.21210304213312214   -0.05002767484292925   0.0028127483604639724
-0.21210304213312214   -0.05002767484292925   0.0028127483604639724
-0.21210304213312214   -0.05002767484292925   0.0028127483604639724
-0.21210304213312214   -0.05002767484292925   0.0028127483604639724
-0.1620169780383388   -0.02720438036599984   0.0004956045121377279
-0.1620169780383388   -0.02720438036599984   0.0004956045121377279
-0.1620169780383388   -0.02720438036599984   0.0004956045121377279
-0.1620169780383388   -0.02720438036599984   0.0004956045121377279
-0.1301499484570608   -0.022200513616319303   -0.011892110726605634
-0.1301499484570608   -0.022200513616319303   -0.011892110726605634
-0.1301499484570608   -0.022200513616319303   -0.011892110726605634
-0.1301499484570608   -0.022200513616319303   -0.011892110726605634
-0.09121908326475522   -0.061000990055849594   -0.01133858642671905
-0.09121908326475522   -0.061000990055849594   -0.01133858642671905
-0.09121908326475522   -0.061000990055849594   -0.01133858642671905
-0.09121908326475522   -0.061000990055849594   -0.01133858642671905
-0.0800063544685055   -0.013339110542238259   -0.0008950089438383936
-0.0800063544685055   -0.013339110542238259   -0.0008950089438383936
-0.0800063544685055   -0.013339110542238259   -0.0008950089438383936
-0.0800063544685055   -0.013339110542238259   -0.0008950089438383936
-0.1390759518474827   -0.06414516517037051   -0.014094709552063586
-0.1390759518474827   -0.06414516517037051   -0.014094709552063586
-0.1390759518474827   -0.06414516517037051   -0.014094709552063586
-0.1390759518474827   -0.06414516517037051   -0.014094709552063586
-0.10887958671500429   -0.04251652463452161   -0.003227757536441197
-0.10887958671500429   -0.04251652463452161   -0.003227757536441197
-0.10887958671500429   -0.04251652463452161   -0.003227757536441197
-0.10887958671500429   -0.04251652463452161   -0.003227757536441197
-0.13023129358607355   -0.02500701105005167   -0.009009572365336343
-0.13023129358607355   -0.02500701105005167   -0.009009572365336343
-0.13023129358607355   -0.02500701105005167   -0.009009572365336343
-0.13023129358607355   -0.02500701105005167   -0.009009572365336343
-0.08936926042068066   -0.05299551235332339   -0.00805313689363005
-0.08936926042068066   -0.05299551235332339   -0.00805313689363005
-0.08936926042068066   -0.05299551235332339   -0.00805313689363005
-0.08936926042068066   -0.05299551235332339   -0.00805313689363005
-0.08127806886713075   -0.01720888008171184   -6.655655280103561e-05
-0.08127806886713075   -0.01720888008171184   -6.655655280103561e-05
-0.08127806886713075   -0.01720888008171184   -6.655655280103561e-05
-0.08127806886713075   -0.01720888008171184   -6.655655280103561e-05
-0.1399165908059519   -0.06378724223999924   -0.008263724025823982
-0.1399165908059519   -0.06378724223999924   -0.008263724025823982
-0.1399165908059519   -0.06378724223999924   -0.008263724025823982
-0.1399165908059519   -0.06378724223999924   -0.008263724025823982
-0.1079162740656252   -0.03984432488256404   -0.003433500899552854
-0.1079162740656252   -0.03984432488256404   -0.003433500899552854
-0.1079162740656252   -0.03984432488256404   -0.003433500899552854
-0.1079162740656252   -0.03984432488256404   -0.003433500899552854
-0.1326339909862472   -0.0288286221903618   -0.0068093449769368024
-0.1326339909862472   -0.0288286221903618   -0.0068093449769368024
-0.1326339909862472   -0.0288286221903618   -0.0068093449769368024
-0.1326339909862472   -0.0288286221903618   -0.0068093449769368024
-0.08966781072821658   -0.053274642172729994   -0.005949503767213047
-0.08966781072821658   -0.053274642172729994   -0.005949503767213047
-0.08966781072821658   -0.053274642172729994   -0.005949503767213047
-0.08966781072821658   -0.053274642172729994   -0.005949503767213047
-0.08166068720898037   -0.021941856248218265   0.001116765284757875
-0.08166068720898037   -0.021941856248218265   0.001116765284757875
-0.08166068720898037   -0.021941856248218265   0.001116765284757875
-0.08166068720898037   -0.021941856248218265   0.001116765284757875
-0.1399469664494841   -0.06458919693614686   -0.012368074447020174
-0.1399469664494841   -0.06458919693614686   -0.012368074447020174
-0.1399469664494841   -0.06458919693614686   -0.012368074447020174
-0.1399469664494841   -0.06458919693614686   -0.012368074447020174
-0.10994420024644626   -0.04277601112219789   -0.006418279058130076
-0.10994420024644626   -0.04277601112219789   -0.006418279058130076
-0.10994420024644626   -0.04277601112219789   -0.006418279058130076
-0.10994420024644626   -0.04277601112219789   -0.006418279058130076
-0.0798442320173255   -0.014392131583554414   -0.0010731886618656123
-0.0798442320173255   -0.014392131583554414   -0.0010731886618656123
-0.0798442320173255   -0.014392131583554414   -0.0010731886618656123
-0.0798442320173255   -0.014392131583554414   -0.0010731886618656123
-0.06879468487290002   -0.0470518941217086   -0.00811774988678747
-0.06879468487290002   -0.0470518941217086   -0.00811774988678747
-0.06879468487290002   -0.0470518941217086   -0.00811774988678747
-0.06879468487290002   -0.0470518941217086   -0.00811774988678747
-0.059371957099933925   -0.01224054366583821   0.003051653837153436
-0.059371957099933925   -0.01224054366583821   0.003051653837153436
-0.059371957099933925   -0.01224054366583821   0.003051653837153436
-0.059371957099933925   -0.01224054366583821   0.003051653837153436
-0.08906594602617314   -0.05068693025548587   -0.008845147018929937
-0.08906594602617314   -0.05068693025548587   -0.008845147018929937
-0.08906594602617314   -0.05068693025548587   -0.008845147018929937
-0.08906594602617314   -0.05068693025548587   -0.008845147018929937
-0.07396671618885593   -0.03146330972708533   -0.0037118907332654417
-0.07396671618885593   -0.03146330972708533   -0.0037118907332654417
-0.07396671618885593   -0.03146330972708533   -0.0037118907332654417
-0.07396671618885593   -0.03146330972708533   -0.0037118907332654417
-0.0805510477948541   -0.017065174829847776   0.0001075887120270874
-0.0805510477948541   -0.017065174829847776   0.0001075887120270874
-0.0805510477948541   -0.017065174829847776   0.0001075887120270874
-0.0805510477948541   -0.017065174829847776   0.0001075887120270874
-0.06835984934914545   -0.04633529310936901   -0.007793057965373353
-0.06835984934914545   -0.04633529310936901   -0.007793057965373353
-0.06835984934914545   -0.04633529310936901   -0.007793057965373353
-0.06835984934914545   -0.04633529310936901   -0.007793057965373353
-0.05972811677944978   -0.01543457049998896   0.003980937154274958
-0.05972811677944978   -0.01543457049998896   0.003980937154274958
-0.05972811677944978   -0.01543457049998896   0.003980937154274958
-0.05972811677944978   -0.01543457049998896   0.003980937154274958
-0.08968261068229594   -0.05148453436254255   -0.00781361134779696
-0.08968261068229594   -0.05148453436254255   -0.00781361134779696
-0.08968261068229594   -0.05148453436254255   -0.00781361134779696
-0.08968261068229594   -0.05148453436254255   -0.00781361134779696
-0.0741210957899057   -0.032619042058720425   -0.004825302352008786
-0.0741210957899057   -0.032619042058720425   -0.004825302352008786
-0.0741210957899057   -0.032619042058720425   -0.004825302352008786
-0.0741210957899057   -0.032619042058720425   -0.004825302352008786
-0.08159438521101907   -0.02031284607329104   0.0014558277193355681
-0.08159438521101907   -0.02031284607329104   0.0014558277193355681
-0.08159438521101907   -0.02031284607329104   0.0014558277193355681
-0.08159438521101907   -0.02031284607329104   0.0014558277193355681
-0.06808154781944337   -0.04687146435795753   -0.006349324187724421
-0.06808154781944337   -0.04687146435795753   -0.006349324187724421
-0.06808154781944337   -0.04687146435795753   -0.006349324187724421
-0.06808154781944337   -0.04687146435795753   -0.006349324187724421
-0.059404370016673515   -0.01843953388055533   0.005005799150778347
-0.059404370016673515   -0.01843953388055533   0.005005799150778347
-0.059404370016673515   -0.01843953388055533   0.005005799150778347
-0.059404370016673515   -0.01843953388055533   0.005005799150778347
-0.08901759745186694   -0.052037591250413864   -0.005572050927479913
-0.08901759745186694   -0.052037591250413864   -0.005572050927479913
-0.08901759745186694   -0.052037591250413864   -0.005572050927479913
-0.08901759745186694   -0.052037591250413864   -0.005572050927479913
-0.07427352325646155   -0.034198294073195704   -0.0056490082719050745
-0.07427352325646155   -0.034198294073195704   -0.0056490082719050745
-0.07427352325646155   -0.034198294073195704   -0.0056490082719050745
-0.07427352325646155   -0.034198294073195704   -0.0056490082719050745
-0.05701347339671225   -0.0018625382821022187   0.0055989516545450115
-0.05701347339671225   -0.0018625382821022187   0.0055989516545450115
-0.05701347339671225   -0.0018625382821022187   0.0055989516545450115
-0.05701347339671225   -0.0018625382821022187   0.0055989516545450115
-0.055742487194234025   -0.02527983277547592   -0.0050279977333574696
-0.055742487194234025   -0.02527983277547592   -0.0050279977333574696
-0.055742487194234025   -0.02527983277547592   -0.0050279977333574696
-0.055742487194234025   -0.02527983277547592   -0.0050279977333574696
-0.04839082088472139   -0.0036450437746282744   0.006426420317733655
-0.04839082088472139   -0.0036450437746282744   0.006426420317733655
-0.04839082088472139   -0.0036450437746282744   0.006426420317733655
-0.04839082088472139   -0.0036450437746282744   0.006426420317733655
-0.06397992418031996   -0.028736921922238368   -0.0034918033083774507
-0.06397992418031996   -0.028736921922238368   -0.0034918033083774507
-0.06397992418031996   -0.028736921922238368   -0.0034918033083774507
-0.06397992418031996   -0.028736921922238368   -0.0034918033083774507
-0.05645476603974405   -0.014713405208848833   -0.0020335178534105413
-0.05645476603974405   -0.014713405208848833   -0.0020335178534105413
-0.05645476603974405   -0.014713405208848833   -0.0020335178534105413
-0.05645476603974405   -0.014713405208848833   -0.0020335178534105413
-0.057326501552182295   -0.005424821991377399   0.006463209901450762
-0.057326501552182295   -0.005424821991377399   0.006463209901450762
-0.057326501552182295   -0.005424821991377399   0.006463209901450762
-0.057326501552182295   -0.005424821991377399   0.006463209901450762
-0.055567063388660055   -0.027479963581290415   -0.00561987239529757
-0.055567063388660055   -0.027479963581290415   -0.00561987239529757
-0.055567063388660055   -0.027479963581290415   -0.00561987239529757
-0.055567063388660055   -0.027479963581290415   -0.00561987239529757
-0.04877987968636018   -0.006781080951703363   0.006931461011069133
-0.04877987968636018   -0.006781080951703363   0.006931461011069133
-0.04877987968636018   -0.006781080951703363   0.006931461011069133
-0.04877987968636018   -0.006781080951703363   0.006931461011069133
-0.06430310024865912   -0.030511584306965787   -0.0038169663847954583
-0.06430310024865912   -0.030511584306965787   -0.0038169663847954583
-0.06430310024865912   -0.030511584306965787   -0.0038169663847954583
-0.06430310024865912   -0.030511584306965787   -0.0038169663847954583
-0.05650352266254773   -0.017201816620228533   -0.003482027236688527
-0.05650352266254773   -0.017201816620228533   -0.003482027236688527
-0.05650352266254773   -0.017201816620228533   -0.003482027236688527
-0.05650352266254773   -0.017201816620228533   -0.003482027236688527
-0.05766288270212483   -0.008474555290740381   0.007347092331651119
-0.05766288270212483   -0.008474555290740381   0.007347092331651119
-0.05766288270212483   -0.008474555290740381   0.007347092331651119
-0.05766288270212483   -0.008474555290740381   0.007347092331651119
-0.0557382361279053   -0.02913624886293991   -0.005505153285419908
-0.0557382361279053   -0.02913624886293991   -0.005505153285419908
-0.0557382361279053   -0.02913624886293991   -0.005505153285419908
-0.0557382361279053   -0.02913624886293991   -0.005505153285419908
-0.04871004056366491   -0.009738157674749608   0.008047348327612433
-0.04871004056366491   -0.009738157674749608   0.008047348327612433
-0.04871004056366491   -0.009738157674749608   0.008047348327612433
-0.04871004056366491   -0.009738157674749608   0.008047348327612433
-0.0636787550546244   -0.03225932263030183   -0.002546337289229508
-0.0636787550546244   -0.03225932263030183   -0.002546337289229508
-0.0636787550546244   -0.03225932263030183   -0.002546337289229508
-0.0636787550546244   -0.03225932263030183   -0.002546337289229508
-0.05670047676221837   -0.01940095825606606   -0.004533896394809217
-0.05670047676221837   -0.01940095825606606   -0.004533896394809217
-0.05670047676221837   -0.01940095825606606   -0.004533896394809217
-0.05670047676221837   -0.01940095825606606   -0.004533896394809217
-0.046579235027844355   0.0066589033992319555   0.008849526923881112
-0.046579235027844355   0.0066589033992319555   0.008849526923881112
-0.046579235027844355   0.0066589033992319555   0.008849526923881112
-0.046579235027844355   0.0066589033992319555   0.008849526923881112
-0.03345087425420375   -0.008590396363716554   -0.003215498239380498
-0.03345087425420375   -0.008590396363716554   -0.003215498239380498
-0.03345087425420375   -0.008590396363716554   -0.003215498239380498
-0.03345087425420375   -0.008590396363716554   -0.003215498239380498
-0.02989212058410701   0.007342612399594898   0.008782938416857808
-0.02989212058410701   0.007342612399594898   0.008782938416857808
-0.02989212058410701   0.007342612399594898   0.008782938416857808
-0.02989212058410701   0.007342612399594898   0.008782938416857808
-0.05179257914748108   -0.01253780433481799   -0.0016896104358753244
-0.05179257914748108   -0.01253780433481799   -0.0016896104358753244
-0.05179257914748108   -0.01253780433481799   -0.0016896104358753244
-0.05179257914748108   -0.01253780433481799   -0.0016896104358753244
-0.03977102116403228   -0.0008902609851143377   -0.0014549867431159673
-0.03977102116403228   -0.0008902609851143377   -0.0014549867431159673
-0.03977102116403228   -0.0008902609851143377   -0.0014549867431159673
-0.03977102116403228   -0.0008902609851143377   -0.0014549867431159673
-0.04616118966712308   0.00426509785486639   0.009664434776230513
-0.04616118966712308   0.00426509785486639   0.009664434776230513
-0.04616118966712308   0.00426509785486639   0.009664434776230513
-0.04616118966712308   0.00426509785486639   0.009664434776230513
-0.03560109816519122   -0.009537877890815515   -0.002881459198152807
-0.03560109816519122   -0.009537877890815515   -0.002881459198152807
-0.03560109816519122   -0.009537877890815515   -0.002881459198152807
-0.03560109816519122   -0.009537877890815515   -0.002881459198152807
-0.03146717087122412   0.005760181335422042   0.011026253919132098
-0.03146717087122412   0.005760181335422042   0.011026253919132098
-0.03146717087122412   0.005760181335422042   0.011026253919132098
-0.03146717087122412   0.005760181335422042   0.011026253919132098
-0.051903647299082444   -0.013397717952601248   -0.0020707400516442364
-0.051903647299082444   -0.013397717952601248   -0.0020707400516442364
-0.051903647299082444   -0.013397717952601248   -0.0020707400516442364
-0.051903647299082444   -0.013397717952601248   -0.0020707400516442364
-0.041313079196922495   -0.0026088879486410423   -0.002246782323706567
-0.041313079196922495   -0.0026088879486410423   -0.002246782323706567
-0.041313079196922495   -0.0026088879486410423   -0.002246782323706567
-0.041313079196922495   -0.0026088879486410423   -0.002246782323706567
-0.04601513058105486   0.002866803105673322   0.01110732248021903
-0.04601513058105486   0.002866803105673322   0.01110732248021903
-0.04601513058105486   0.002866803105673322   0.01110732248021903
-0.04601513058105486   0.002866803105673322   0.01110732248021903
-0.037759229688227015   -0.010907881821828133   -0.003765977008632179
-0.037759229688227015   -0.010907881821828133   -0.003765977008632179
-0.037759229688227015   -0.010907881821828133   -0.003765977008632179
-0.037759229688227015   -0.010907881821828133   -0.003765977008632179
-0.03587911333884409   0.0013962558505543942   0.011479461936529971
-0.03587911333884409   0.0013962558505543942   0.011479461936529971
-0.03587911333884409   0.0013962558505543942   0.011479461936529971
-0.03587911333884409   0.0013962558505543942   0.011479461936529971
-0.051567924885948115   -0.01428032474509331   -0.0016999062134591806
-0.051567924885948115   -0.01428032474509331   -0.0016999062134591806
-0.051567924885948115   -0.01428032474509331   -0.0016999062134591806
-0.051567924885948115   -0.01428032474509331   -0.0016999062134591806
-0.042188295101539215   -0.0039162803951639244   -0.0034096797720899064
-0.042188295101539215   -0.0039162803951639244   -0.0034096797720899064
-0.042188295101539215   -0.0039162803951639244   -0.0034096797720899064
-0.042188295101539215   -0.0039162803951639244   -0.0034096797720899064
-0.4535567469662516   -0.06578943328914193   -0.038860073044838045
-0.4535567469662516   -0.06578943328914193   -0.038860073044838045
-0.4535567469662516   -0.06578943328914193   -0.038860073044838045
-0.4535567469662516   -0.06578943328914193   -0.038860073044838045
-0.15948627580559366   -0.26720378274427364   -0.030099270037871932
-0.15948627580559366   -0.26720378274427364   -0.030099270037871932
-0.15948627580559366   -0.26720378274427364   -0.030099270037871932
-0.15948627580559366   -0.26720378274427364   -0.030099270037871932
-0.12098139959014104   -0.012074473104293857   -6.1660687379892e-05
-0.12098139959014104   -0.012074473104293857   -6.1660687379892e-05
-0.12098139959014104   -0.012074473104293857   -6.1660687379892e-05
-0.12098139959014104   -0.012074473104293857   -6.1660687379892e-05
-0.48867604596838904   -0.3106209505603768   -0.15985939930575316
-0.48867604596838904   -0.3106209505603768   -0.15985939930575316
-0.48867604596838904   -0.3106209505603768   -0.15985939930575316
-0.48867604596838904   -0.3106209505603768   -0.15985939930575316
-0.29795116362067464   -0.15403989001744584   -0.022508451669338615
-0.29795116362067464   -0.15403989001744584   -0.022508451669338615
-0.29795116362067464   -0.15403989001744584   -0.022508451669338615
-0.29795116362067464   -0.15403989001744584   -0.022508451669338615
-0.42170355032975304   -0.08277512120777597   -0.052842750465177585
-0.42170355032975304   -0.08277512120777597   -0.052842750465177585
-0.42170355032975304   -0.08277512120777597   -0.052842750465177585
-0.42170355032975304   -0.08277512120777597   -0.052842750465177585
-0.1728965799989542   -0.22486298722707243   -0.046849048608666045
-0.1728965799989542   -0.22486298722707243   -0.046849048608666045
-0.1728965799989542   -0.22486298722707243   -0.046849048608666045
-0.1728965799989542   -0.22486298722707243   -0.046849048608666045
-0.12401334893160065   -0.015577873925929998   0.004558798011860137
-0.12401334893160065   -0.015577873925929998   0.004558798011860137
-0.12401334893160065   -0.015577873925929998   0.004558798011860137
-0.12401334893160065   -0.015577873925929998   0.004558798011860137
-0.4576835239363038   -0.278968238868194   -0.14733035256089957
-0.4576835239363038   -0.278968238868194   -0.14733035256089957
-0.4576835239363038   -0.278968238868194   -0.14733035256089957
-0.4576835239363038   -0.278968238868194   -0.14733035256089957
-0.28096156283637286   -0.13951563976690973   0.010897485951309127
-0.28096156283637286   -0.13951563976690973   0.010897485951309127
-0.28096156283637286   -0.13951563976690973   0.010897485951309127
-0.28096156283637286   -0.13951563976690973   0.010897485951309127
-0.39615091516340145   -0.07887021357298253   -0.039765333991602404
-0.39615091516340145   -0.07887021357298253   -0.039765333991602404
-0.39615091516340145   -0.07887021357298253   -0.039765333991602404
-0.39615091516340145   -0.07887021357298253   -0.039765333991602404
-0.16875270907799406   -0.1988826505946328   -0.03583322605140325
-0.16875270907799406   -0.1988826505946328   -0.03583322605140325
-0.16875270907799406   -0.1988826505946328   -0.03583322605140325
-0.16875270907799406   -0.1988826505946328   -0.03583322605140325
-0.1438988586757651   -0.03853907346308335   -0.007948428197663603
-0.1438988586757651   -0.03853907346308335   -0.007948428197663603
-0.1438988586757651   -0.03853907346308335   -0.007948428197663603
-0.1438988586757651   -0.03853907346308335   -0.007948428197663603
-0.4173840229058281   -0.236907540880831   -0.1308583127573318
-0.4173840229058281   -0.236907540880831   -0.1308583127573318
-0.4173840229058281   -0.236907540880831   -0.1308583127573318
-0.4173840229058281   -0.236907540880831   -0.1308583127573318
-0.26062550434015336   -0.12141692206906451   0.04881228871783713
-0.26062550434015336   -0.12141692206906451   0.04881228871783713
-0.26062550434015336   -0.12141692206906451   0.04881228871783713
-0.26062550434015336   -0.12141692206906451   0.04881228871783713
-0.11501183423964037   -0.06539832662996575   -0.009532518322414137
-0.11501183423964037   -0.06539832662996575   -0.009532518322414137
-0.11501183423964037   -0.06539832662996575   -0.009532518322414137
-0.11501183423964037   -0.06539832662996575   -0.009532518322414137
-0.05504208588030863   -0.08976436609236854   -0.013688463145576344
-0.05504208588030863   -0.08976436609236854   -0.013688463145576344
-0.05504208588030863   -0.08976436609236854   -0.013688463145576344
-0.05504208588030863   -0.08976436609236854   -0.013688463145576344
-0.047390467199984986   -0.042774645178101735   0.0010724057617845333
-0.047390467199984986   -0.042774645178101735   0.0010724057617845333
-0.047390467199984986   -0.042774645178101735   0.0010724057617845333
-0.047390467199984986   -0.042774645178101735   0.0010724057617845333
-0.1438057637127973   -0.12727961944541322   0.001021665040459415
-0.1438057637127973   -0.12727961944541322   0.001021665040459415
-0.1438057637127973   -0.12727961944541322   0.001021665040459415
-0.1438057637127973   -0.12727961944541322   0.001021665040459415
-0.07639712934785418   -0.06122948554233129   0.02513883944373952
-0.07639712934785418   -0.06122948554233129   0.02513883944373952
-0.07639712934785418   -0.06122948554233129   0.02513883944373952
-0.07639712934785418   -0.06122948554233129   0.02513883944373952
-0.13201407823175554   -0.06114479494730164   -0.006154732052445176
-0.13201407823175554   -0.06114479494730164   -0.006154732052445176
-0.13201407823175554   -0.06114479494730164   -0.006154732052445176
-0.13201407823175554   -0.06114479494730164   -0.006154732052445176
-0.06344699913399293   -0.11317431612917969   -0.008810582957177262
-0.06344699913399293   -0.11317431612917969   -0.008810582957177262
-0.06344699913399293   -0.11317431612917969   -0.008810582957177262
-0.06344699913399293   -0.11317431612917969   -0.008810582957177262
-0.05173355806804318   -0.04425340591431278   0.0012224248646996068
-0.05173355806804318   -0.04425340591431278   0.0012224248646996068
-0.05173355806804318   -0.04425340591431278   0.0012224248646996068
-0.05173355806804318   -0.04425340591431278   0.0012224248646996068
-0.1516579981077912   -0.1263446558416689   -0.022897665953352752
-0.1516579981077912   -0.1263446558416689   -0.022897665953352752
-0.1516579981077912   -0.1263446558416689   -0.022897665953352752
-0.1516579981077912   -0.1263446558416689   -0.022897665953352752
-0.0921559165800421   -0.07791106452500604   0.010974042585427102
-0.0921559165800421   -0.07791106452500604   0.010974042585427102
-0.0921559165800421   -0.07791106452500604   0.010974042585427102
-0.0921559165800421   -0.07791106452500604   0.010974042585427102
-0.1369028211218571   -0.06385419239257159   -0.011612244472779648
-0.1369028211218571   -0.06385419239257159   -0.011612244472779648
-0.1369028211218571   -0.06385419239257159   -0.011612244472779648
-0.1369028211218571   -0.06385419239257159   -0.011612244472779648
-0.06611921939825502   -0.106374353707688   -0.008584933992984396
-0.06611921939825502   -0.106374353707688   -0.008584933992984396
-0.06611921939825502   -0.106374353707688   -0.008584933992984396
-0.06611921939825502   -0.106374353707688   -0.008584933992984396
-0.05860523952941559   -0.045482967584698816   0.0018213453901534272
-0.05860523952941559   -0.045482967584698816   0.0018213453901534272
-0.05860523952941559   -0.045482967584698816   0.0018213453901534272
-0.05860523952941559   -0.045482967584698816   0.0018213453901534272
-0.16317390830325723   -0.123268178350566   -0.019594571447642515
-0.16317390830325723   -0.123268178350566   -0.019594571447642515
-0.16317390830325723   -0.123268178350566   -0.019594571447642515
-0.16317390830325723   -0.123268178350566   -0.019594571447642515
-0.09716563390562628   -0.0735508423885876   0.011509271727894094
-0.09716563390562628   -0.0735508423885876   0.011509271727894094
-0.09716563390562628   -0.0735508423885876   0.011509271727894094
-0.09716563390562628   -0.0735508423885876   0.011509271727894094
-0.04165834973979106   -0.03942325568733392   0.0028891071519769173
-0.04165834973979106   -0.03942325568733392   0.0028891071519769173
-0.04165834973979106   -0.03942325568733392   0.0028891071519769173
-0.04165834973979106   -0.03942325568733392   0.0028891071519769173
-0.02699343333299449   -0.03079502927461076   -0.0068236464642809245
-0.02699343333299449   -0.03079502927461076   -0.0068236464642809245
-0.02699343333299449   -0.03079502927461076   -0.0068236464642809245
-0.02699343333299449   -0.03079502927461076   -0.0068236464642809245
-0.025643038940690338   -0.035675758135212586   0.002787806496953673
-0.025643038940690338   -0.035675758135212586   0.002787806496953673
-0.025643038940690338   -0.035675758135212586   0.002787806496953673
-0.025643038940690338   -0.035675758135212586   0.002787806496953673
-0.04762950880135742   -0.04053697742655557   -0.002360469996623464
-0.04762950880135742   -0.04053697742655557   -0.002360469996623464
-0.04762950880135742   -0.04053697742655557   -0.002360469996623464
-0.04762950880135742   -0.04053697742655557   -0.002360469996623464
-0.029779626181882568   -0.030727426425739054   0.012729381008423161
-0.029779626181882568   -0.030727426425739054   0.012729381008423161
-0.029779626181882568   -0.030727426425739054   0.012729381008423161
-0.029779626181882568   -0.030727426425739054   0.012729381008423161
-0.04635693645893894   -0.03973584673372493   0.0032012610226379856
-0.04635693645893894   -0.03973584673372493   0.0032012610226379856
-0.04635693645893894   -0.03973584673372493   0.0032012610226379856
-0.04635693645893894   -0.03973584673372493   0.0032012610226379856
-0.0274392937090633   -0.037000571253997284   -0.004868654226126428
-0.0274392937090633   -0.037000571253997284   -0.004868654226126428
-0.0274392937090633   -0.037000571253997284   -0.004868654226126428
-0.0274392937090633   -0.037000571253997284   -0.004868654226126428
-0.02629971997704026   -0.03673752983932055   0.0025385205630574035
-0.02629971997704026   -0.03673752983932055   0.0025385205630574035
-0.02629971997704026   -0.03673752983932055   0.0025385205630574035
-0.02629971997704026   -0.03673752983932055   0.0025385205630574035
-0.051141013798065973   -0.04696144752964298   0.006893187829915494
-0.051141013798065973   -0.04696144752964298   0.006893187829915494
-0.051141013798065973   -0.04696144752964298   0.006893187829915494
-0.051141013798065973   -0.04696144752964298   0.006893187829915494
-0.032997859783612575   -0.03436234472963339   0.010416122260579861
-0.032997859783612575   -0.03436234472963339   0.010416122260579861
-0.032997859783612575   -0.03436234472963339   0.010416122260579861
-0.032997859783612575   -0.03436234472963339   0.010416122260579861
-0.05051548627111917   -0.04123042635312212   0.00428980428812805
-0.05051548627111917   -0.04123042635312212   0.00428980428812805
-0.05051548627111917   -0.04123042635312212   0.00428980428812805
-0.05051548627111917   -0.04123042635312212   0.00428980428812805
-0.02926039756452227   -0.04480370107637664   -0.00419869613729654
-0.02926039756452227   -0.04480370107637664   -0.00419869613729654
-0.02926039756452227   -0.04480370107637664   -0.00419869613729654
-0.02926039756452227   -0.04480370107637664   -0.00419869613729654
-0.027254972254696724   -0.03784645756887558   0.0036209922830413264
-0.027254972254696724   -0.03784645756887558   0.0036209922830413264
-0.027254972254696724   -0.03784645756887558   0.0036209922830413264
-0.027254972254696724   -0.03784645756887558   0.0036209922830413264
-0.06078671880709402   -0.05693787954143596   0.002368860958498229
-0.06078671880709402   -0.05693787954143596   0.002368860958498229
-0.06078671880709402   -0.05693787954143596   0.002368860958498229
-0.06078671880709402   -0.05693787954143596   0.002368860958498229
-0.0374997874937856   -0.03887758688716026   0.004409418178076257
-0.0374997874937856   -0.03887758688716026   0.004409418178076257
-0.0374997874937856   -0.03887758688716026   0.004409418178076257
-0.0374997874937856   -0.03887758688716026   0.004409418178076257
-0.021098045171857753   -0.015811409842475567   0.007669674909267588
-0.021098045171857753   -0.015811409842475567   0.007669674909267588
-0.021098045171857753   -0.015811409842475567   0.007669674909267588
-0.021098045171857753   -0.015811409842475567   0.007669674909267588
-0.01598260027285022   -0.0025726817084657143   -0.0016081886837337595
-0.01598260027285022   -0.0025726817084657143   -0.0016081886837337595
-0.01598260027285022   -0.0025726817084657143   -0.0016081886837337595
-0.01598260027285022   -0.0025726817084657143   -0.0016081886837337595
-0.015082827896223644   -0.017319960278620483   0.004695908625615677
-0.015082827896223644   -0.017319960278620483   0.004695908625615677
-0.015082827896223644   -0.017319960278620483   0.004695908625615677
-0.015082827896223644   -0.017319960278620483   0.004695908625615677
-0.02032316063228884   -0.005798311689194178   -0.0004902484070564768
-0.02032316063228884   -0.005798311689194178   -0.0004902484070564768
-0.02032316063228884   -0.005798311689194178   -0.0004902484070564768
-0.02032316063228884   -0.005798311689194178   -0.0004902484070564768
-0.016693906654268977   -0.009709080451351004   0.003797993126903624
-0.016693906654268977   -0.009709080451351004   0.003797993126903624
-0.016693906654268977   -0.009709080451351004   0.003797993126903624
-0.016693906654268977   -0.009709080451351004   0.003797993126903624
-0.02121066676397876   -0.018024939940195675   0.00729884918549468
-0.02121066676397876   -0.018024939940195675   0.00729884918549468
-0.02121066676397876   -0.018024939940195675   0.00729884918549468
-0.02121066676397876   -0.018024939940195675   0.00729884918549468
-0.01388332809975913   -0.004781338362844488   -0.001845214307837741
-0.01388332809975913   -0.004781338362844488   -0.001845214307837741
-0.01388332809975913   -0.004781338362844488   -0.001845214307837741
-0.01388332809975913   -0.004781338362844488   -0.001845214307837741
-0.014157849201959675   -0.018841196030215304   0.004389723952257503
-0.014157849201959675   -0.018841196030215304   0.004389723952257503
-0.014157849201959675   -0.018841196030215304   0.004389723952257503
-0.014157849201959675   -0.018841196030215304   0.004389723952257503
-0.020904523438294697   -0.009217867217801443   0.001994840635266477
-0.020904523438294697   -0.009217867217801443   0.001994840635266477
-0.020904523438294697   -0.009217867217801443   0.001994840635266477
-0.020904523438294697   -0.009217867217801443   0.001994840635266477
-0.015735273768245323   -0.01122035919748681   0.004249052551475152
-0.015735273768245323   -0.01122035919748681   0.004249052551475152
-0.015735273768245323   -0.01122035919748681   0.004249052551475152
-0.015735273768245323   -0.01122035919748681   0.004249052551475152
-0.02169054589435276   -0.019546923276425737   0.00839378441360009
-0.02169054589435276   -0.019546923276425737   0.00839378441360009
-0.02169054589435276   -0.019546923276425737   0.00839378441360009
-0.02169054589435276   -0.019546923276425737   0.00839378441360009
-0.013578776515181499   -0.008719089740871237   -0.002837018903195691
-0.013578776515181499   -0.008719089740871237   -0.002837018903195691
-0.013578776515181499   -0.008719089740871237   -0.002837018903195691
-0.013578776515181499   -0.008719089740871237   -0.002837018903195691
-0.012436681415473997   -0.020526207248640602   0.00487716597992622
-0.012436681415473997   -0.020526207248640602   0.00487716597992622
-0.012436681415473997   -0.020526207248640602   0.00487716597992622
-0.012436681415473997   -0.020526207248640602   0.00487716597992622
-0.02330604890424224   -0.017028135286331306   0.0025472867527685343
-0.02330604890424224   -0.017028135286331306   0.0025472867527685343
-0.02330604890424224   -0.017028135286331306   0.0025472867527685343
-0.02330604890424224   -0.017028135286331306   0.0025472867527685343
-0.015664026884523754   -0.013991198465830775   0.0033366244898468786
-0.015664026884523754   -0.013991198465830775   0.0033366244898468786
-0.015664026884523754   -0.013991198465830775   0.0033366244898468786
-0.015664026884523754   -0.013991198465830775   0.0033366244898468786
-0.014073988995015666   -0.0024995687205067478   0.00786175471748003
-0.014073988995015666   -0.0024995687205067478   0.00786175471748003
-0.014073988995015666   -0.0024995687205067478   0.00786175471748003
-0.014073988995015666   -0.0024995687205067478   0.00786175471748003
-0.0033415851719536486   0.0011760178674930359   -0.00015954438496836368
-0.0033415851719536486   0.0011760178674930359   -0.00015954438496836368
-0.0033415851719536486   0.0011760178674930359   -0.00015954438496836368
-0.0033415851719536486   0.0011760178674930359   -0.00015954438496836368
-0.00021341365482388291   -0.000889619290066386   0.0049721492952255085
-0.00021341365482388291   -0.000889619290066386   0.0049721492952255085
-0.00021341365482388291   -0.000889619290066386   0.0049721492952255085
-0.00021341365482388291   -0.000889619290066386   0.0049721492952255085
-0.012499675984802491   0.0005739794904430803   -0.0002822715863424472
-0.012499675984802491   0.0005739794904430803   -0.0002822715863424472
-0.012499675984802491   0.0005739794904430803   -0.0002822715863424472
-0.012499675984802491   0.0005739794904430803   -0.0002822715863424472
-0.0076083310299485465   -0.0006691437175838986   -0.0005137675318809926
-0.0076083310299485465   -0.0006691437175838986   -0.0005137675318809926
-0.0076083310299485465   -0.0006691437175838986   -0.0005137675318809926
-0.0076083310299485465   -0.0006691437175838986   -0.0005137675318809926
-0.011412195467206938   -0.0024816528443103373   0.00821076333638907
-0.011412195467206938   -0.0024816528443103373   0.00821076333638907
-0.011412195467206938   -0.0024816528443103373   0.00821076333638907
-0.011412195467206938   -0.0024816528443103373   0.00821076333638907
-0.0009019361055006454   0.002564971111605834   -0.0019250533598305242
-0.0009019361055006454   0.002564971111605834   -0.0019250533598305242
-0.0009019361055006454   0.002564971111605834   -0.0019250533598305242
-0.0009019361055006454   0.002564971111605834   -0.0019250533598305242
0.0011526086252771856   -0.0011426533435208996   0.006148327069399785
0.0011526086252771856   -0.0011426533435208996   0.006148327069399785
0.0011526086252771856   -0.0011426533435208996   0.006148327069399785
0.0011526086252771856   -0.0011426533435208996   0.006148327069399785
-0.011339603390823273   1.6632226004477217e-05   -0.00037687524828077944
-0.011339603390823273   1.6632226004477217e-05   -0.00037687524828077944
-0.011339603390823273   1.6632226004477217e-05   -0.00037687524828077944
-0.011339603390823273   1.6632226004477217e-05   -0.00037687524828077944
-0.005519132463057152   -0.0003696407906366423   0.0006820972873407073
-0.005519132463057152   -0.0003696407906366423   0.0006820972873407073
-0.005519132463057152   -0.0003696407906366423   0.0006820972873407073
-0.005519132463057152   -0.0003696407906366423   0.0006820972873407073
-0.010056476643105394   -0.0028358813898453797   0.008891272106158974
-0.010056476643105394   -0.0028358813898453797   0.008891272106158974
-0.010056476643105394   -0.0028358813898453797   0.008891272106158974
-0.010056476643105394   -0.0028358813898453797   0.008891272106158974
0.00018974401231657017   0.00203012240708583   -0.0018387717460138578
0.00018974401231657017   0.00203012240708583   -0.0018387717460138578
0.00018974401231657017   0.00203012240708583   -0.0018387717460138578
0.00018974401231657017   0.00203012240708583   -0.0018387717460138578
0.002352318206976834   -0.0019465761425642132   0.006048593706261367
0.002352318206976834   -0.0019465761425642132   0.006048593706261367
0.002352318206976834   -0.0019465761425642132   0.006048593706261367
0.002352318206976834   -0.0019465761425642132   0.006048593706261367
-0.009498349061932027   -0.000566886697195515   -0.0003904928038106601
-0.009498349061932027   -0.000566886697195515   -0.0003904928038106601
-0.009498349061932027   -0.000566886697195515   -0.0003904928038106601
-0.009498349061932027   -0.000566886697195515   -0.0003904928038106601
-0.003730909840003772   -0.0003174308190171959   0.001626655648836925
-0.003730909840003772   -0.0003174308190171959   0.001626655648836925
-0.003730909840003772   -0.0003174308190171959   0.001626655648836925
-0.003730909840003772   -0.0003174308190171959   0.001626655648836925
              </DataArray>   
             <DataArray type="Float64" NumberOfComponents="3" Name="Displacements" format="ascii">   
0.0   0.0   0.0
-0.0012764379319286558   -0.0008472885273223083   -0.0004282043239545909
0.0   0.0   0.0
0.0   0.0   0.0
-0.0012764379319286558   -0.0008472885273223083   -0.0004282043239545909
-0.0008112765137483896   -0.0007632067323967024   -0.00031471834524178575
0.0   0.0   0.0
-0.0007945801714611256   -0.0008009323085242361   -0.00026387527894959894
0.0   0.0   0.0
0.0   0.0   0.0
-0.0007945801714611256   -0.0008009323085242361   -0.00026387527894959894
0.0   0.0   0.0
0.0   0.0   0.0
-0.0007945801714611256   -0.0008009323085242361   -0.00026387527894959894
-0.0013350465400416018   -0.0009021978842276129   -0.0003441022612232741
-0.0012764379319286558   -0.0008472885273223083   -0.0004282043239545909
0.0   0.0   0.0
-0.0007945801714611256   -0.0008009323085242361   -0.00026387527894959894
-0.0012764379319286558   -0.0008472885273223083   -0.0004282043239545909
0.0   0.0   0.0
0.0   0.0   0.0
-0.0013350465400416018   -0.0009021978842276129   -0.0003441022612232741
0.0   0.0   0.0
0.0   0.0   0.0
-0.0013350465400416018   -0.0009021978842276129   -0.0003441022612232741
-0.0007945801714611256   -0.0008009323085242361   -0.00026387527894959894
0.0   0.0   0.0
-0.0007961160905698312   -0.0008203465751509663   -0.0002131858212192153
0.0   0.0   0.0
0.0   0.0   0.0
-0.0007961160905698312   -0.0008203465751509663   -0.0002131858212192153
0.0   0.0   0.0
0.0   0.0   0.0
-0.0007961160905698312   -0.0008203465751509663   -0.0002131858212192153
-0.0013758831684199178   -0.0009289362856760147   -0.00026367195005797857
-0.0013350465400416018   -0.0009021978842276129   -0.0003441022612232741
0.0   0.0   0.0
-0.0007961160905698312   -0.0008203465751509663   -0.0002131858212192153
-0.0013350465400416018   -0.0009021978842276129   -0.0003441022612232741
0.0   0.0   0.0
0.0   0.0   0.0
-0.0013758831684199178   -0.0009289362856760147   -0.00026367195005797857
0.0   0.0   0.0
0.0   0.0   0.0
-0.0013758831684199178   -0.0009289362856760147   -0.00026367195005797857
-0.0007961160905698312   -0.0008203465751509663   -0.0002131858212192153
0.0   0.0   0.0
-0.0007949029728295195   -0.0008254464286451692   -0.00016087246840009524
0.0   0.0   0.0
0.0   0.0   0.0
-0.0007949029728295195   -0.0008254464286451692   -0.00016087246840009524
0.0   0.0   0.0
0.0   0.0   0.0
-0.0007949029728295195   -0.0008254464286451692   -0.00016087246840009524
-0.0014645560896721557   -0.0009494612270776168   -0.00017046059450697868
-0.0013758831684199178   -0.0009289362856760147   -0.00026367195005797857
0.0   0.0   0.0
-0.0007949029728295195   -0.0008254464286451692   -0.00016087246840009524
-0.0013758831684199178   -0.0009289362856760147   -0.00026367195005797857
0.0   0.0   0.0
0.0   0.0   0.0
-0.0008112765137483896   -0.0007632067323967024   -0.00031471834524178575
0.0   0.0   0.0
0.0   0.0   0.0
-0.0008112765137483896   -0.0007632067323967024   -0.00031471834524178575
-0.00037027492032711424   -0.0007325156876434443   -0.00023968362633729556
0.0   0.0   0.0
-0.000355438120804463   -0.0007569870372859056   -0.0002155962195979346
0.0   0.0   0.0
0.0   0.0   0.0
-0.000355438120804463   -0.0007569870372859056   -0.0002155962195979346
0.0   0.0   0.0
0.0   0.0   0.0
-0.000355438120804463   -0.0007569870372859056   -0.0002155962195979346
-0.0007945801714611256   -0.0008009323085242361   -0.00026387527894959894
-0.0008112765137483896   -0.0007632067323967024   -0.00031471834524178575
0.0   0.0   0.0
-0.000355438120804463   -0.0007569870372859056   -0.0002155962195979346
-0.0008112765137483896   -0.0007632067323967024   -0.00031471834524178575
0.0   0.0   0.0
0.0   0.0   0.0
-0.0007945801714611256   -0.0008009323085242361   -0.00026387527894959894
0.0   0.0   0.0
0.0   0.0   0.0
-0.0007945801714611256   -0.0008009323085242361   -0.00026387527894959894
-0.000355438120804463   -0.0007569870372859056   -0.0002155962195979346
0.0   0.0   0.0
-0.00034681715661938215   -0.000766343484658608   -0.00019221701475527454
0.0   0.0   0.0
0.0   0.0   0.0
-0.00034681715661938215   -0.000766343484658608   -0.00019221701475527454
0.0   0.0   0.0
0.0   0.0   0.0
-0.00034681715661938215   -0.000766343484658608   -0.00019221701475527454
-0.0007961160905698312   -0.0008203465751509663   -0.0002131858212192153
-0.0007945801714611256   -0.0008009323085242361   -0.00026387527894959894
0.0   0.0   0.0
-0.00034681715661938215   -0.000766343484658608   -0.00019221701475527454
-0.0007945801714611256   -0.0008009323085242361   -0.00026387527894959894
0.0   0.0   0.0
0.0   0.0   0.0
-0.0007961160905698312   -0.0008203465751509663   -0.0002131858212192153
0.0   0.0   0.0
0.0   0.0   0.0
-0.0007961160905698312   -0.0008203465751509663   -0.0002131858212192153
-0.00034681715661938215   -0.000766343484658608   -0.00019221701475527454
0.0   0.0   0.0
-0.0003388506417403026   -0.000762507203931045   -0.000168129735197149
0.0   0.0   0.0
0.0   0.0   0.0
-0.0003388506417403026   -0.000762507203931045   -0.000168129735197149
0.0   0.0   0.0
0.0   0.0   0.0
-0.0003388506417403026   -0.000762507203931045   -0.000168129735197149
-0.0007949029728295195   -0.0008254464286451692   -0.00016087246840009524
-0.0007961160905698312   -0.0008203465751509663   -0.0002131858212192153
0.0   0.0   0.0
-0.0003388506417403026   -0.000762507203931045   -0.000168129735197149
-0.0007961160905698312   -0.0008203465751509663   -0.0002131858212192153
0.0   0.0   0.0
0.0   0.0   0.0
-0.00037027492032711424   -0.0007325156876434443   -0.00023968362633729556
0.0   0.0   0.0
0.0   0.0   0.0
-0.00037027492032711424   -0.0007325156876434443   -0.00023968362633729556
4.578627773132555e-05   -0.0007365581891371597   -0.0001920754071242735
0.0   0.0   0.0
5.558336039184451e-05   -0.0007491476518938971   -0.00019520501151192574
0.0   0.0   0.0
0.0   0.0   0.0
5.558336039184451e-05   -0.0007491476518938971   -0.00019520501151192574
0.0   0.0   0.0
0.0   0.0   0.0
5.558336039184451e-05   -0.0007491476518938971   -0.00019520501151192574
-0.000355438120804463   -0.0007569870372859056   -0.0002155962195979346
-0.00037027492032711424   -0.0007325156876434443   -0.00023968362633729556
0.0   0.0   0.0
5.558336039184451e-05   -0.0007491476518938971   -0.00019520501151192574
-0.00037027492032711424   -0.0007325156876434443   -0.00023968362633729556
0.0   0.0   0.0
0.0   0.0   0.0
-0.000355438120804463   -0.0007569870372859056   -0.0002155962195979346
0.0   0.0   0.0
0.0   0.0   0.0
-0.000355438120804463   -0.0007569870372859056   -0.0002155962195979346
5.558336039184451e-05   -0.0007491476518938971   -0.00019520501151192574
0.0   0.0   0.0
6.340901371600799e-05   -0.0007480217486930351   -0.0001981002320346929
0.0   0.0   0.0
0.0   0.0   0.0
6.340901371600799e-05   -0.0007480217486930351   -0.0001981002320346929
0.0   0.0   0.0
0.0   0.0   0.0
6.340901371600799e-05   -0.0007480217486930351   -0.0001981002320346929
-0.00034681715661938215   -0.000766343484658608   -0.00019221701475527454
-0.000355438120804463   -0.0007569870372859056   -0.0002155962195979346
0.0   0.0   0.0
6.340901371600799e-05   -0.0007480217486930351   -0.0001981002320346929
-0.000355438120804463   -0.0007569870372859056   -0.0002155962195979346
0.0   0.0   0.0
0.0   0.0   0.0
-0.00034681715661938215   -0.000766343484658608   -0.00019221701475527454
0.0   0.0   0.0
0.0   0.0   0.0
-0.00034681715661938215   -0.000766343484658608   -0.00019221701475527454
6.340901371600799e-05   -0.0007480217486930351   -0.0001981002320346929
0.0   0.0   0.0
7.370445931895178e-05   -0.0007320693823027032   -0.0002011584108103708
0.0   0.0   0.0
0.0   0.0   0.0
7.370445931895178e-05   -0.0007320693823027032   -0.0002011584108103708
0.0   0.0   0.0
0.0   0.0   0.0
7.370445931895178e-05   -0.0007320693823027032   -0.0002011584108103708
-0.0003388506417403026   -0.000762507203931045   -0.000168129735197149
-0.00034681715661938215   -0.000766343484658608   -0.00019221701475527454
0.0   0.0   0.0
7.370445931895178e-05   -0.0007320693823027032   -0.0002011584108103708
-0.00034681715661938215   -0.000766343484658608   -0.00019221701475527454
0.0   0.0   0.0
0.0   0.0   0.0
4.578627773132555e-05   -0.0007365581891371597   -0.0001920754071242735
0.0   0.0   0.0
0.0   0.0   0.0
4.578627773132555e-05   -0.0007365581891371597   -0.0001920754071242735
0.0004980141563257211   -0.0007716076019921518   -0.0001688015574375809
0.0   0.0   0.0
0.0004997776345328907   -0.0007754510501500827   -0.00020057596913512044
0.0   0.0   0.0
0.0   0.0   0.0
0.0004997776345328907   -0.0007754510501500827   -0.00020057596913512044
0.0   0.0   0.0
0.0   0.0   0.0
0.0004997776345328907   -0.0007754510501500827   -0.00020057596913512044
5.558336039184451e-05   -0.0007491476518938971   -0.00019520501151192574
4.578627773132555e-05   -0.0007365581891371597   -0.0001920754071242735
0.0   0.0   0.0
0.0004997776345328907   -0.0007754510501500827   -0.00020057596913512044
4.578627773132555e-05   -0.0007365581891371597   -0.0001920754071242735
0.0   0.0   0.0
0.0   0.0   0.0
5.558336039184451e-05   -0.0007491476518938971   -0.00019520501151192574
0.0   0.0   0.0
0.0   0.0   0.0
5.558336039184451e-05   -0.0007491476518938971   -0.00019520501151192574
0.0004997776345328907   -0.0007754510501500827   -0.00020057596913512044
0.0   0.0   0.0
0.0004983937387066727   -0.0007643841915157762   -0.00023115676665093644
0.0   0.0   0.0
0.0   0.0   0.0
0.0004983937387066727   -0.0007643841915157762   -0.00023115676665093644
0.0   0.0   0.0
0.0   0.0   0.0
0.0004983937387066727   -0.0007643841915157762   -0.00023115676665093644
6.340901371600799e-05   -0.0007480217486930351   -0.0001981002320346929
5.558336039184451e-05   -0.0007491476518938971   -0.00019520501151192574
0.0   0.0   0.0
0.0004983937387066727   -0.0007643841915157762   -0.00023115676665093644
5.558336039184451e-05   -0.0007491476518938971   -0.00019520501151192574
0.0   0.0   0.0
0.0   0.0   0.0
6.340901371600799e-05   -0.0007480217486930351   -0.0001981002320346929
0.0   0.0   0.0
0.0   0.0   0.0
6.340901371600799e-05   -0.0007480217486930351   -0.0001981002320346929
0.0004983937387066727   -0.0007643841915157762   -0.00023115676665093644
0.0   0.0   0.0
0.0005087730979835314   -0.0007351010634997899   -0.00026123364212264074
0.0   0.0   0.0
0.0   0.0   0.0
0.0005087730979835314   -0.0007351010634997899   -0.00026123364212264074
0.0   0.0   0.0
0.0   0.0   0.0
0.0005087730979835314   -0.0007351010634997899   -0.00026123364212264074
7.370445931895178e-05   -0.0007320693823027032   -0.0002011584108103708
6.340901371600799e-05   -0.0007480217486930351   -0.0001981002320346929
0.0   0.0   0.0
0.0005087730979835314   -0.0007351010634997899   -0.00026123364212264074
6.340901371600799e-05   -0.0007480217486930351   -0.0001981002320346929
0.0   0.0   0.0
0.0   0.0   0.0
0.0004980141563257211   -0.0007716076019921518   -0.0001688015574375809
0.0   0.0   0.0
0.0   0.0   0.0
0.0004980141563257211   -0.0007716076019921518   -0.0001688015574375809
0.0011289800047771554   -0.0008608120701882169   -0.00015995672974740587
0.0   0.0   0.0
0.001061434778778434   -0.0008510716393990895   -0.0002322751056498013
0.0   0.0   0.0
0.0   0.0   0.0
0.001061434778778434   -0.0008510716393990895   -0.0002322751056498013
0.0   0.0   0.0
0.0   0.0   0.0
0.001061434778778434   -0.0008510716393990895   -0.0002322751056498013
0.0004997776345328907   -0.0007754510501500827   -0.00020057596913512044
0.0004980141563257211   -0.0007716076019921518   -0.0001688015574375809
0.0   0.0   0.0
0.001061434778778434   -0.0008510716393990895   -0.0002322751056498013
0.0004980141563257211   -0.0007716076019921518   -0.0001688015574375809
0.0   0.0   0.0
0.0   0.0   0.0
0.0004997776345328907   -0.0007754510501500827   -0.00020057596913512044
0.0   0.0   0.0
0.0   0.0   0.0
0.0004997776345328907   -0.0007754510501500827   -0.00020057596913512044
0.001061434778778434   -0.0008510716393990895   -0.0002322751056498013
0.0   0.0   0.0
0.001030628713529318   -0.0008333856878842281   -0.0002935079239500936
0.0   0.0   0.0
0.0   0.0   0.0
0.001030628713529318   -0.0008333856878842281   -0.0002935079239500936
0.0   0.0   0.0
0.0   0.0   0.0
0.001030628713529318   -0.0008333856878842281   -0.0002935079239500936
0.0004983937387066727   -0.0007643841915157762   -0.00023115676665093644
0.0004997776345328907   -0.0007754510501500827   -0.00020057596913512044
0.0   0.0   0.0
0.001030628713529318   -0.0008333856878842281   -0.0002935079239500936
0.0004997776345328907   -0.0007754510501500827   -0.00020057596913512044
0.0   0.0   0.0
0.0   0.0   0.0
0.0004983937387066727   -0.0007643841915157762   -0.00023115676665093644
0.0   0.0   0.0
0.0   0.0   0.0
0.0004983937387066727   -0.0007643841915157762   -0.00023115676665093644
0.001030628713529318   -0.0008333856878842281   -0.0002935079239500936
0.0   0.0   0.0
0.000984238341305027   -0.0007884036717047448   -0.00035847868982902053
0.0   0.0   0.0
0.0   0.0   0.0
0.000984238341305027   -0.0007884036717047448   -0.00035847868982902053
0.0   0.0   0.0
0.0   0.0   0.0
0.000984238341305027   -0.0007884036717047448   -0.00035847868982902053
0.0005087730979835314   -0.0007351010634997899   -0.00026123364212264074
0.0004983937387066727   -0.0007643841915157762   -0.00023115676665093644
0.0   0.0   0.0
0.000984238341305027   -0.0007884036717047448   -0.00035847868982902053
0.0004983937387066727   -0.0007643841915157762   -0.00023115676665093644
0.0   0.0   0.0
-0.0012764379319286558   -0.0008472885273223083   -0.0004282043239545909
-0.002376851886143946   -0.002350929114067123   -0.0005772577030831512
-0.0008112765137483896   -0.0007632067323967024   -0.00031471834524178575
-0.0013350465400416018   -0.0009021978842276129   -0.0003441022612232741
-0.002376851886143946   -0.002350929114067123   -0.0005772577030831512
-0.0015167190591455577   -0.0022755728952000803   -0.000475896526093285
-0.0008112765137483896   -0.0007632067323967024   -0.00031471834524178575
-0.0015173936094020478   -0.002314028120500632   -0.0004290645149357452
-0.0013350465400416018   -0.0009021978842276129   -0.0003441022612232741
-0.0007945801714611256   -0.0008009323085242361   -0.00026387527894959894
-0.0015173936094020478   -0.002314028120500632   -0.0004290645149357452
-0.0008112765137483896   -0.0007632067323967024   -0.00031471834524178575
-0.0013350465400416018   -0.0009021978842276129   -0.0003441022612232741
-0.0015173936094020478   -0.002314028120500632   -0.0004290645149357452
-0.0024465802356702306   -0.0024047066552052346   -0.0005013781245287583
-0.002376851886143946   -0.002350929114067123   -0.0005772577030831512
-0.0013350465400416018   -0.0009021978842276129   -0.0003441022612232741
-0.0015173936094020478   -0.002314028120500632   -0.0004290645149357452
-0.002376851886143946   -0.002350929114067123   -0.0005772577030831512
-0.0008112765137483896   -0.0007632067323967024   -0.00031471834524178575
-0.0013350465400416018   -0.0009021978842276129   -0.0003441022612232741
-0.0024465802356702306   -0.0024047066552052346   -0.0005013781245287583
-0.0007945801714611256   -0.0008009323085242361   -0.00026387527894959894
-0.0013758831684199178   -0.0009289362856760147   -0.00026367195005797857
-0.0024465802356702306   -0.0024047066552052346   -0.0005013781245287583
-0.0015173936094020478   -0.002314028120500632   -0.0004290645149357452
-0.0007945801714611256   -0.0008009323085242361   -0.00026387527894959894
-0.001522168929105754   -0.002337573342195481   -0.00038413365922981607
-0.0013758831684199178   -0.0009289362856760147   -0.00026367195005797857
-0.0007961160905698312   -0.0008203465751509663   -0.0002131858212192153
-0.001522168929105754   -0.002337573342195481   -0.00038413365922981607
-0.0007945801714611256   -0.0008009323085242361   -0.00026387527894959894
-0.0013758831684199178   -0.0009289362856760147   -0.00026367195005797857
-0.001522168929105754   -0.002337573342195481   -0.00038413365922981607
-0.002494555472172834   -0.0024351763084288235   -0.0004271795933803171
-0.0024465802356702306   -0.0024047066552052346   -0.0005013781245287583
-0.0013758831684199178   -0.0009289362856760147   -0.00026367195005797857
-0.001522168929105754   -0.002337573342195481   -0.00038413365922981607
-0.0024465802356702306   -0.0024047066552052346   -0.0005013781245287583
-0.0007945801714611256   -0.0008009323085242361   -0.00026387527894959894
-0.0013758831684199178   -0.0009289362856760147   -0.00026367195005797857
-0.002494555472172834   -0.0024351763084288235   -0.0004271795933803171
-0.0007961160905698312   -0.0008203465751509663   -0.0002131858212192153
-0.0014645560896721557   -0.0009494612270776168   -0.00017046059450697868
-0.002494555472172834   -0.0024351763084288235   -0.0004271795933803171
-0.001522168929105754   -0.002337573342195481   -0.00038413365922981607
-0.0007961160905698312   -0.0008203465751509663   -0.0002131858212192153
-0.0015163883503076963   -0.0023499622202768256   -0.0003421495401661376
-0.0014645560896721557   -0.0009494612270776168   -0.00017046059450697868
-0.0007949029728295195   -0.0008254464286451692   -0.00016087246840009524
-0.0015163883503076963   -0.0023499622202768256   -0.0003421495401661376
-0.0007961160905698312   -0.0008203465751509663   -0.0002131858212192153
-0.0014645560896721557   -0.0009494612270776168   -0.00017046059450697868
-0.0015163883503076963   -0.0023499622202768256   -0.0003421495401661376
-0.002551209095706062   -0.0024531968397700746   -0.0003598341677590969
-0.002494555472172834   -0.0024351763084288235   -0.0004271795933803171
-0.0014645560896721557   -0.0009494612270776168   -0.00017046059450697868
-0.0015163883503076963   -0.0023499622202768256   -0.0003421495401661376
-0.002494555472172834   -0.0024351763084288235   -0.0004271795933803171
-0.0007961160905698312   -0.0008203465751509663   -0.0002131858212192153
-0.0008112765137483896   -0.0007632067323967024   -0.00031471834524178575
-0.0015167190591455577   -0.0022755728952000803   -0.000475896526093285
-0.00037027492032711424   -0.0007325156876434443   -0.00023968362633729556
-0.0007945801714611256   -0.0008009323085242361   -0.00026387527894959894
-0.0015167190591455577   -0.0022755728952000803   -0.000475896526093285
-0.0007056892782567306   -0.0022405004176713015   -0.00040681018500337163
-0.00037027492032711424   -0.0007325156876434443   -0.00023968362633729556
-0.0006984631543167709   -0.0022648712817806035   -0.0003827062250371148
-0.0007945801714611256   -0.0008009323085242361   -0.00026387527894959894
-0.000355438120804463   -0.0007569870372859056   -0.0002155962195979346
-0.0006984631543167709   -0.0022648712817806035   -0.0003827062250371148
-0.00037027492032711424   -0.0007325156876434443   -0.00023968362633729556
-0.0007945801714611256   -0.0008009323085242361   -0.00026387527894959894
-0.0006984631543167709   -0.0022648712817806035   -0.0003827062250371148
-0.0015173936094020478   -0.002314028120500632   -0.0004290645149357452
-0.0015167190591455577   -0.0022755728952000803   -0.000475896526093285
-0.0007945801714611256   -0.0008009323085242361   -0.00026387527894959894
-0.0006984631543167709   -0.0022648712817806035   -0.0003827062250371148
-0.0015167190591455577   -0.0022755728952000803   -0.000475896526093285
-0.00037027492032711424   -0.0007325156876434443   -0.00023968362633729556
-0.0007945801714611256   -0.0008009323085242361   -0.00026387527894959894
-0.0015173936094020478   -0.002314028120500632   -0.0004290645149357452
-0.000355438120804463   -0.0007569870372859056   -0.0002155962195979346
-0.0007961160905698312   -0.0008203465751509663   -0.0002131858212192153
-0.0015173936094020478   -0.002314028120500632   -0.0004290645149357452
-0.0006984631543167709   -0.0022648712817806035   -0.0003827062250371148
-0.000355438120804463   -0.0007569870372859056   -0.0002155962195979346
-0.0006919314684824413   -0.0022767298827092936   -0.0003609042237434854
-0.0007961160905698312   -0.0008203465751509663   -0.0002131858212192153
-0.00034681715661938215   -0.000766343484658608   -0.00019221701475527454
-0.0006919314684824413   -0.0022767298827092936   -0.0003609042237434854
-0.000355438120804463   -0.0007569870372859056   -0.0002155962195979346
-0.0007961160905698312   -0.0008203465751509663   -0.0002131858212192153
-0.0006919314684824413   -0.0022767298827092936   -0.0003609042237434854
-0.001522168929105754   -0.002337573342195481   -0.00038413365922981607
-0.0015173936094020478   -0.002314028120500632   -0.0004290645149357452
-0.0007961160905698312   -0.0008203465751509663   -0.0002131858212192153
-0.0006919314684824413   -0.0022767298827092936   -0.0003609042237434854
-0.0015173936094020478   -0.002314028120500632   -0.0004290645149357452
-0.000355438120804463   -0.0007569870372859056   -0.0002155962195979346
-0.0007961160905698312   -0.0008203465751509663   -0.0002131858212192153
-0.001522168929105754   -0.002337573342195481   -0.00038413365922981607
-0.00034681715661938215   -0.000766343484658608   -0.00019221701475527454
-0.0007949029728295195   -0.0008254464286451692   -0.00016087246840009524
-0.001522168929105754   -0.002337573342195481   -0.00038413365922981607
-0.0006919314684824413   -0.0022767298827092936   -0.0003609042237434854
-0.00034681715661938215   -0.000766343484658608   -0.00019221701475527454
-0.0006827150921752333   -0.002276520337242574   -0.00034198074416410374
-0.0007949029728295195   -0.0008254464286451692   -0.00016087246840009524
-0.0003388506417403026   -0.000762507203931045   -0.000168129735197149
-0.0006827150921752333   -0.002276520337242574   -0.00034198074416410374
-0.00034681715661938215   -0.000766343484658608   -0.00019221701475527454
-0.0007949029728295195   -0.0008254464286451692   -0.00016087246840009524
-0.0006827150921752333   -0.002276520337242574   -0.00034198074416410374
-0.0015163883503076963   -0.0023499622202768256   -0.0003421495401661376
-0.001522168929105754   -0.002337573342195481   -0.00038413365922981607
-0.0007949029728295195   -0.0008254464286451692   -0.00016087246840009524
-0.0006827150921752333   -0.002276520337242574   -0.00034198074416410374
-0.001522168929105754   -0.002337573342195481   -0.00038413365922981607
-0.00034681715661938215   -0.000766343484658608   -0.00019221701475527454
-0.00037027492032711424   -0.0007325156876434443   -0.00023968362633729556
-0.0007056892782567306   -0.0022405004176713015   -0.00040681018500337163
4.578627773132555e-05   -0.0007365581891371597   -0.0001920754071242735
-0.000355438120804463   -0.0007569870372859056   -0.0002155962195979346
-0.0007056892782567306   -0.0022405004176713015   -0.00040681018500337163
7.566341683745463e-05   -0.0022416129221086837   -0.00036338785561321934
4.578627773132555e-05   -0.0007365581891371597   -0.0001920754071242735
8.434744254226662e-05   -0.0022529940071032814   -0.00036158132973482325
-0.000355438120804463   -0.0007569870372859056   -0.0002155962195979346
5.558336039184451e-05   -0.0007491476518938971   -0.00019520501151192574
8.434744254226662e-05   -0.0022529940071032814   -0.00036158132973482325
4.578627773132555e-05   -0.0007365581891371597   -0.0001920754071242735
-0.000355438120804463   -0.0007569870372859056   -0.0002155962195979346
8.434744254226662e-05   -0.0022529940071032814   -0.00036158132973482325
-0.0006984631543167709   -0.0022648712817806035   -0.0003827062250371148
-0.0007056892782567306   -0.0022405004176713015   -0.00040681018500337163
-0.000355438120804463   -0.0007569870372859056   -0.0002155962195979346
8.434744254226662e-05   -0.0022529940071032814   -0.00036158132973482325
-0.0007056892782567306   -0.0022405004176713015   -0.00040681018500337163
4.578627773132555e-05   -0.0007365581891371597   -0.0001920754071242735
-0.000355438120804463   -0.0007569870372859056   -0.0002155962195979346
-0.0006984631543167709   -0.0022648712817806035   -0.0003827062250371148
5.558336039184451e-05   -0.0007491476518938971   -0.00019520501151192574
-0.00034681715661938215   -0.000766343484658608   -0.00019221701475527454
-0.0006984631543167709   -0.0022648712817806035   -0.0003827062250371148
8.434744254226662e-05   -0.0022529940071032814   -0.00036158132973482325
5.558336039184451e-05   -0.0007491476518938971   -0.00019520501151192574
9.055182328367887e-05   -0.0022521521843187086   -0.000362383156795055
-0.00034681715661938215   -0.000766343484658608   -0.00019221701475527454
6.340901371600799e-05   -0.0007480217486930351   -0.0001981002320346929
9.055182328367887e-05   -0.0022521521843187086   -0.000362383156795055
5.558336039184451e-05   -0.0007491476518938971   -0.00019520501151192574
-0.00034681715661938215   -0.000766343484658608   -0.00019221701475527454
9.055182328367887e-05   -0.0022521521843187086   -0.000362383156795055
-0.0006919314684824413   -0.0022767298827092936   -0.0003609042237434854
-0.0006984631543167709   -0.0022648712817806035   -0.0003827062250371148
-0.00034681715661938215   -0.000766343484658608   -0.00019221701475527454
9.055182328367887e-05   -0.0022521521843187086   -0.000362383156795055
-0.0006984631543167709   -0.0022648712817806035   -0.0003827062250371148
5.558336039184451e-05   -0.0007491476518938971   -0.00019520501151192574
-0.00034681715661938215   -0.000766343484658608   -0.00019221701475527454
-0.0006919314684824413   -0.0022767298827092936   -0.0003609042237434854
6.340901371600799e-05   -0.0007480217486930351   -0.0001981002320346929
-0.0003388506417403026   -0.000762507203931045   -0.000168129735197149
-0.0006919314684824413   -0.0022767298827092936   -0.0003609042237434854
9.055182328367887e-05   -0.0022521521843187086   -0.000362383156795055
6.340901371600799e-05   -0.0007480217486930351   -0.0001981002320346929
9.712340305294234e-05   -0.002238720020473091   -0.0003658331465557049
-0.0003388506417403026   -0.000762507203931045   -0.000168129735197149
7.370445931895178e-05   -0.0007320693823027032   -0.0002011584108103708
9.712340305294234e-05   -0.002238720020473091   -0.0003658331465557049
6.340901371600799e-05   -0.0007480217486930351   -0.0001981002320346929
-0.0003388506417403026   -0.000762507203931045   -0.000168129735197149
9.712340305294234e-05   -0.002238720020473091   -0.0003658331465557049
-0.0006827150921752333   -0.002276520337242574   -0.00034198074416410374
-0.0006919314684824413   -0.0022767298827092936   -0.0003609042237434854
-0.0003388506417403026   -0.000762507203931045   -0.000168129735197149
9.712340305294234e-05   -0.002238720020473091   -0.0003658331465557049
-0.0006919314684824413   -0.0022767298827092936   -0.0003609042237434854
6.340901371600799e-05   -0.0007480217486930351   -0.0001981002320346929
4.578627773132555e-05   -0.0007365581891371597   -0.0001920754071242735
7.566341683745463e-05   -0.0022416129221086837   -0.00036338785561321934
0.0004980141563257211   -0.0007716076019921518   -0.0001688015574375809
5.558336039184451e-05   -0.0007491476518938971   -0.00019520501151192574
7.566341683745463e-05   -0.0022416129221086837   -0.00036338785561321934
0.0009043104987574426   -0.0022776265061090597   -0.0003435392384030761
0.0004980141563257211   -0.0007716076019921518   -0.0001688015574375809
0.0009098755173169186   -0.0022771577543566567   -0.0003647452963429361
5.558336039184451e-05   -0.0007491476518938971   -0.00019520501151192574
0.0004997776345328907   -0.0007754510501500827   -0.00020057596913512044
0.0009098755173169186   -0.0022771577543566567   -0.0003647452963429361
0.0004980141563257211   -0.0007716076019921518   -0.0001688015574375809
5.558336039184451e-05   -0.0007491476518938971   -0.00019520501151192574
0.0009098755173169186   -0.0022771577543566567   -0.0003647452963429361
8.434744254226662e-05   -0.0022529940071032814   -0.00036158132973482325
7.566341683745463e-05   -0.0022416129221086837   -0.00036338785561321934
5.558336039184451e-05   -0.0007491476518938971   -0.00019520501151192574
0.0009098755173169186   -0.0022771577543566567   -0.0003647452963429361
7.566341683745463e-05   -0.0022416129221086837   -0.00036338785561321934
0.0004980141563257211   -0.0007716076019921518   -0.0001688015574375809
5.558336039184451e-05   -0.0007491476518938971   -0.00019520501151192574
8.434744254226662e-05   -0.0022529940071032814   -0.00036158132973482325
0.0004997776345328907   -0.0007754510501500827   -0.00020057596913512044
6.340901371600799e-05   -0.0007480217486930351   -0.0001981002320346929
8.434744254226662e-05   -0.0022529940071032814   -0.00036158132973482325
0.0009098755173169186   -0.0022771577543566567   -0.0003647452963429361
0.0004997776345328907   -0.0007754510501500827   -0.00020057596913512044
0.0009069590460263453   -0.0022647380264074423   -0.00038890145559706066
6.340901371600799e-05   -0.0007480217486930351   -0.0001981002320346929
0.0004983937387066727   -0.0007643841915157762   -0.00023115676665093644
0.0009069590460263453   -0.0022647380264074423   -0.00038890145559706066
0.0004997776345328907   -0.0007754510501500827   -0.00020057596913512044
6.340901371600799e-05   -0.0007480217486930351   -0.0001981002320346929
0.0009069590460263453   -0.0022647380264074423   -0.00038890145559706066
9.055182328367887e-05   -0.0022521521843187086   -0.000362383156795055
8.434744254226662e-05   -0.0022529940071032814   -0.00036158132973482325
6.340901371600799e-05   -0.0007480217486930351   -0.0001981002320346929
0.0009069590460263453   -0.0022647380264074423   -0.00038890145559706066
8.434744254226662e-05   -0.0022529940071032814   -0.00036158132973482325
0.0004997776345328907   -0.0007754510501500827   -0.00020057596913512044
6.340901371600799e-05   -0.0007480217486930351   -0.0001981002320346929
9.055182328367887e-05   -0.0022521521843187086   -0.000362383156795055
0.0004983937387066727   -0.0007643841915157762   -0.00023115676665093644
7.370445931895178e-05   -0.0007320693823027032   -0.0002011584108103708
9.055182328367887e-05   -0.0022521521843187086   -0.000362383156795055
0.0009069590460263453   -0.0022647380264074423   -0.00038890145559706066
0.0004983937387066727   -0.0007643841915157762   -0.00023115676665093644
0.0009057549225620628   -0.0022370223743228483   -0.00041510957044362554
7.370445931895178e-05   -0.0007320693823027032   -0.0002011584108103708
0.0005087730979835314   -0.0007351010634997899   -0.00026123364212264074
0.0009057549225620628   -0.0022370223743228483   -0.00041510957044362554
0.0004983937387066727   -0.0007643841915157762   -0.00023115676665093644
7.370445931895178e-05   -0.0007320693823027032   -0.0002011584108103708
0.0009057549225620628   -0.0022370223743228483   -0.00041510957044362554
9.712340305294234e-05   -0.002238720020473091   -0.0003658331465557049
9.055182328367887e-05   -0.0022521521843187086   -0.000362383156795055
7.370445931895178e-05   -0.0007320693823027032   -0.0002011584108103708
0.0009057549225620628   -0.0022370223743228483   -0.00041510957044362554
9.055182328367887e-05   -0.0022521521843187086   -0.000362383156795055
0.0004983937387066727   -0.0007643841915157762   -0.00023115676665093644
0.0004980141563257211   -0.0007716076019921518   -0.0001688015574375809
0.0009043104987574426   -0.0022776265061090597   -0.0003435392384030761
0.0011289800047771554   -0.0008608120701882169   -0.00015995672974740587
0.0004997776345328907   -0.0007754510501500827   -0.00020057596913512044
0.0009043104987574426   -0.0022776265061090597   -0.0003435392384030761
0.0019059225209945507   -0.0023443389253431364   -0.00033901693023588277
0.0011289800047771554   -0.0008608120701882169   -0.00015995672974740587
0.001869051777275562   -0.002337455861311857   -0.0003868987852594693
0.0004997776345328907   -0.0007754510501500827   -0.00020057596913512044
0.001061434778778434   -0.0008510716393990895   -0.0002322751056498013
0.001869051777275562   -0.002337455861311857   -0.0003868987852594693
0.0011289800047771554   -0.0008608120701882169   -0.00015995672974740587
0.0004997776345328907   -0.0007754510501500827   -0.00020057596913512044
0.001869051777275562   -0.002337455861311857   -0.0003868987852594693
0.0009098755173169186   -0.0022771577543566567   -0.0003647452963429361
0.0009043104987574426   -0.0022776265061090597   -0.0003435392384030761
0.0004997776345328907   -0.0007754510501500827   -0.00020057596913512044
0.001869051777275562   -0.002337455861311857   -0.0003868987852594693
0.0009043104987574426   -0.0022776265061090597   -0.0003435392384030761
0.0011289800047771554   -0.0008608120701882169   -0.00015995672974740587
0.0004997776345328907   -0.0007754510501500827   -0.00020057596913512044
0.0009098755173169186   -0.0022771577543566567   -0.0003647452963429361
0.001061434778778434   -0.0008510716393990895   -0.0002322751056498013
0.0004983937387066727   -0.0007643841915157762   -0.00023115676665093644
0.0009098755173169186   -0.0022771577543566567   -0.0003647452963429361
0.001869051777275562   -0.002337455861311857   -0.0003868987852594693
0.001061434778778434   -0.0008510716393990895   -0.0002322751056498013
0.0018359385109417174   -0.002318379468096119   -0.00044097254361705874
0.0004983937387066727   -0.0007643841915157762   -0.00023115676665093644
0.001030628713529318   -0.0008333856878842281   -0.0002935079239500936
0.0018359385109417174   -0.002318379468096119   -0.00044097254361705874
0.001061434778778434   -0.0008510716393990895   -0.0002322751056498013
0.0004983937387066727   -0.0007643841915157762   -0.00023115676665093644
0.0018359385109417174   -0.002318379468096119   -0.00044097254361705874
0.0009069590460263453   -0.0022647380264074423   -0.00038890145559706066
0.0009098755173169186   -0.0022771577543566567   -0.0003647452963429361
0.0004983937387066727   -0.0007643841915157762   -0.00023115676665093644
0.0018359385109417174   -0.002318379468096119   -0.00044097254361705874
0.0009098755173169186   -0.0022771577543566567   -0.0003647452963429361
0.001061434778778434   -0.0008510716393990895   -0.0002322751056498013
0.0004983937387066727   -0.0007643841915157762   -0.00023115676665093644
0.0009069590460263453   -0.0022647380264074423   -0.00038890145559706066
0.001030628713529318   -0.0008333856878842281   -0.0002935079239500936
0.0005087730979835314   -0.0007351010634997899   -0.00026123364212264074
0.0009069590460263453   -0.0022647380264074423   -0.00038890145559706066
0.0018359385109417174   -0.002318379468096119   -0.00044097254361705874
0.001030628713529318   -0.0008333856878842281   -0.0002935079239500936
0.0017855092294318021   -0.0022763592549909424   -0.0004973877088333907
0.0005087730979835314   -0.0007351010634997899   -0.00026123364212264074
0.000984238341305027   -0.0007884036717047448   -0.00035847868982902053
0.0017855092294318021   -0.0022763592549909424   -0.0004973877088333907
0.001030628713529318   -0.0008333856878842281   -0.0002935079239500936
0.0005087730979835314   -0.0007351010634997899   -0.00026123364212264074
0.0017855092294318021   -0.0022763592549909424   -0.0004973877088333907
0.0009057549225620628   -0.0022370223743228483   -0.00041510957044362554
0.0009069590460263453   -0.0022647380264074423   -0.00038890145559706066
0.0005087730979835314   -0.0007351010634997899   -0.00026123364212264074
0.0017855092294318021   -0.0022763592549909424   -0.0004973877088333907
0.0009069590460263453   -0.0022647380264074423   -0.00038890145559706066
0.001030628713529318   -0.0008333856878842281   -0.0002935079239500936
-0.002376851886143946   -0.002350929114067123   -0.0005772577030831512
-0.003247609588507608   -0.004389870092704076   -0.0006585621301063759
-0.0015167190591455577   -0.0022755728952000803   -0.000475896526093285
-0.0024465802356702306   -0.0024047066552052346   -0.0005013781245287583
-0.003247609588507608   -0.004389870092704076   -0.0006585621301063759
-0.0020889862486102554   -0.004332593397066815   -0.0005769117810886582
-0.0015167190591455577   -0.0022755728952000803   -0.000475896526093285
-0.0020922023746423346   -0.004365587298296197   -0.0005407640291503681
-0.0024465802356702306   -0.0024047066552052346   -0.0005013781245287583
-0.0015173936094020478   -0.002314028120500632   -0.0004290645149357452
-0.0020922023746423346   -0.004365587298296197   -0.0005407640291503681
-0.0015167190591455577   -0.0022755728952000803   -0.000475896526093285
-0.0024465802356702306   -0.0024047066552052346   -0.0005013781245287583
-0.0020922023746423346   -0.004365587298296197   -0.0005407640291503681
-0.0033034851587936107   -0.004435039818017455   -0.0006023966921624694
-0.003247609588507608   -0.004389870092704076   -0.0006585621301063759
-0.0024465802356702306   -0.0024047066552052346   -0.0005013781245287583
-0.0020922023746423346   -0.004365587298296197   -0.0005407640291503681
-0.003247609588507608   -0.004389870092704076   -0.0006585621301063759
-0.0015167190591455577   -0.0022755728952000803   -0.000475896526093285
-0.0024465802356702306   -0.0024047066552052346   -0.0005013781245287583
-0.0033034851587936107   -0.004435039818017455   -0.0006023966921624694
-0.0015173936094020478   -0.002314028120500632   -0.0004290645149357452
-0.002494555472172834   -0.0024351763084288235   -0.0004271795933803171
-0.0033034851587936107   -0.004435039818017455   -0.0006023966921624694
-0.0020922023746423346   -0.004365587298296197   -0.0005407640291503681
-0.0015173936094020478   -0.002314028120500632   -0.0004290645149357452
-0.0020961559847620056   -0.0043886596795020185   -0.0005072818538627194
-0.002494555472172834   -0.0024351763084288235   -0.0004271795933803171
-0.001522168929105754   -0.002337573342195481   -0.00038413365922981607
-0.0020961559847620056   -0.0043886596795020185   -0.0005072818538627194
-0.0015173936094020478   -0.002314028120500632   -0.0004290645149357452
-0.002494555472172834   -0.0024351763084288235   -0.0004271795933803171
-0.0020961559847620056   -0.0043886596795020185   -0.0005072818538627194
-0.0033380839162636495   -0.004463490360002165   -0.0005501337910586584
-0.0033034851587936107   -0.004435039818017455   -0.0006023966921624694
-0.002494555472172834   -0.0024351763084288235   -0.0004271795933803171
-0.0020961559847620056   -0.0043886596795020185   -0.0005072818538627194
-0.0033034851587936107   -0.004435039818017455   -0.0006023966921624694
-0.0015173936094020478   -0.002314028120500632   -0.0004290645149357452
-0.002494555472172834   -0.0024351763084288235   -0.0004271795933803171
-0.0033380839162636495   -0.004463490360002165   -0.0005501337910586584
-0.001522168929105754   -0.002337573342195481   -0.00038413365922981607
-0.002551209095706062   -0.0024531968397700746   -0.0003598341677590969
-0.0033380839162636495   -0.004463490360002165   -0.0005501337910586584
-0.0020961559847620056   -0.0043886596795020185   -0.0005072818538627194
-0.001522168929105754   -0.002337573342195481   -0.00038413365922981607
-0.0020907837324247035   -0.004404010113248034   -0.0004758940023881801
-0.002551209095706062   -0.0024531968397700746   -0.0003598341677590969
-0.0015163883503076963   -0.0023499622202768256   -0.0003421495401661376
-0.0020907837324247035   -0.004404010113248034   -0.0004758940023881801
-0.001522168929105754   -0.002337573342195481   -0.00038413365922981607
-0.002551209095706062   -0.0024531968397700746   -0.0003598341677590969
-0.0020907837324247035   -0.004404010113248034   -0.0004758940023881801
-0.0033774492047274392   -0.004484228587468711   -0.0005021396092881238
-0.0033380839162636495   -0.004463490360002165   -0.0005501337910586584
-0.002551209095706062   -0.0024531968397700746   -0.0003598341677590969
-0.0020907837324247035   -0.004404010113248034   -0.0004758940023881801
-0.0033380839162636495   -0.004463490360002165   -0.0005501337910586584
-0.001522168929105754   -0.002337573342195481   -0.00038413365922981607
-0.0015167190591455577   -0.0022755728952000803   -0.000475896526093285
-0.0020889862486102554   -0.004332593397066815   -0.0005769117810886582
-0.0007056892782567306   -0.0022405004176713015   -0.00040681018500337163
-0.0015173936094020478   -0.002314028120500632   -0.0004290645149357452
-0.0020889862486102554   -0.004332593397066815   -0.0005769117810886582
-0.0009984808528521324   -0.004303918890082292   -0.0005202450031376693
-0.0007056892782567306   -0.0022405004176713015   -0.00040681018500337163
-0.0009946259296897604   -0.004324913551309882   -0.0004996835347636394
-0.0015173936094020478   -0.002314028120500632   -0.0004290645149357452
-0.0006984631543167709   -0.0022648712817806035   -0.0003827062250371148
-0.0009946259296897604   -0.004324913551309882   -0.0004996835347636394
-0.0007056892782567306   -0.0022405004176713015   -0.00040681018500337163
-0.0015173936094020478   -0.002314028120500632   -0.0004290645149357452
-0.0009946259296897604   -0.004324913551309882   -0.0004996835347636394
-0.0020922023746423346   -0.004365587298296197   -0.0005407640291503681
-0.0020889862486102554   -0.004332593397066815   -0.0005769117810886582
-0.0015173936094020478   -0.002314028120500632   -0.0004290645149357452
-0.0009946259296897604   -0.004324913551309882   -0.0004996835347636394
-0.0020889862486102554   -0.004332593397066815   -0.0005769117810886582
-0.0007056892782567306   -0.0022405004176713015   -0.00040681018500337163
-0.0015173936094020478   -0.002314028120500632   -0.0004290645149357452
-0.0020922023746423346   -0.004365587298296197   -0.0005407640291503681
-0.0006984631543167709   -0.0022648712817806035   -0.0003827062250371148
-0.001522168929105754   -0.002337573342195481   -0.00038413365922981607
-0.0020922023746423346   -0.004365587298296197   -0.0005407640291503681
-0.0009946259296897604   -0.004324913551309882   -0.0004996835347636394
-0.0006984631543167709   -0.0022648712817806035   -0.0003827062250371148
-0.0009902166082311789   -0.004337289341870974   -0.000481651866937996
-0.001522168929105754   -0.002337573342195481   -0.00038413365922981607
-0.0006919314684824413   -0.0022767298827092936   -0.0003609042237434854
-0.0009902166082311789   -0.004337289341870974   -0.000481651866937996
-0.0006984631543167709   -0.0022648712817806035   -0.0003827062250371148
-0.001522168929105754   -0.002337573342195481   -0.00038413365922981607
-0.0009902166082311789   -0.004337289341870974   -0.000481651866937996
-0.0020961559847620056   -0.0043886596795020185   -0.0005072818538627194
-0.0020922023746423346   -0.004365587298296197   -0.0005407640291503681
-0.001522168929105754   -0.002337573342195481   -0.00038413365922981607
-0.0009902166082311789   -0.004337289341870974   -0.000481651866937996
-0.0020922023746423346   -0.004365587298296197   -0.0005407640291503681
-0.0006984631543167709   -0.0022648712817806035   -0.0003827062250371148
-0.001522168929105754   -0.002337573342195481   -0.00038413365922981607
-0.0020961559847620056   -0.0043886596795020185   -0.0005072818538627194
-0.0006919314684824413   -0.0022767298827092936   -0.0003609042237434854
-0.0015163883503076963   -0.0023499622202768256   -0.0003421495401661376
-0.0020961559847620056   -0.0043886596795020185   -0.0005072818538627194
-0.0009902166082311789   -0.004337289341870974   -0.000481651866937996
-0.0006919314684824413   -0.0022767298827092936   -0.0003609042237434854
-0.0009838151691916506   -0.004341222894868477   -0.0004661463963276927
-0.0015163883503076963   -0.0023499622202768256   -0.0003421495401661376
-0.0006827150921752333   -0.002276520337242574   -0.00034198074416410374
-0.0009838151691916506   -0.004341222894868477   -0.0004661463963276927
-0.0006919314684824413   -0.0022767298827092936   -0.0003609042237434854
-0.0015163883503076963   -0.0023499622202768256   -0.0003421495401661376
-0.0009838151691916506   -0.004341222894868477   -0.0004661463963276927
-0.0020907837324247035   -0.004404010113248034   -0.0004758940023881801
-0.0020961559847620056   -0.0043886596795020185   -0.0005072818538627194
-0.0015163883503076963   -0.0023499622202768256   -0.0003421495401661376
-0.0009838151691916506   -0.004341222894868477   -0.0004661463963276927
-0.0020961559847620056   -0.0043886596795020185   -0.0005072818538627194
-0.0006919314684824413   -0.0022767298827092936   -0.0003609042237434854
-0.0007056892782567306   -0.0022405004176713015   -0.00040681018500337163
-0.0009984808528521324   -0.004303918890082292   -0.0005202450031376693
7.566341683745463e-05   -0.0022416129221086837   -0.00036338785561321934
-0.0006984631543167709   -0.0022648712817806035   -0.0003827062250371148
-0.0009984808528521324   -0.004303918890082292   -0.0005202450031376693
5.941927704414843e-05   -0.004302369781258376   -0.00048538384056372635
7.566341683745463e-05   -0.0022416129221086837   -0.00036338785561321934
6.542173880932699e-05   -0.004311519688733003   -0.00048033388223691015
-0.0006984631543167709   -0.0022648712817806035   -0.0003827062250371148
8.434744254226662e-05   -0.0022529940071032814   -0.00036158132973482325
6.542173880932699e-05   -0.004311519688733003   -0.00048033388223691015
7.566341683745463e-05   -0.0022416129221086837   -0.00036338785561321934
-0.0006984631543167709   -0.0022648712817806035   -0.0003827062250371148
6.542173880932699e-05   -0.004311519688733003   -0.00048033388223691015
-0.0009946259296897604   -0.004324913551309882   -0.0004996835347636394
-0.0009984808528521324   -0.004303918890082292   -0.0005202450031376693
-0.0006984631543167709   -0.0022648712817806035   -0.0003827062250371148
6.542173880932699e-05   -0.004311519688733003   -0.00048033388223691015
-0.0009984808528521324   -0.004303918890082292   -0.0005202450031376693
7.566341683745463e-05   -0.0022416129221086837   -0.00036338785561321934
-0.0006984631543167709   -0.0022648712817806035   -0.0003827062250371148
-0.0009946259296897604   -0.004324913551309882   -0.0004996835347636394
8.434744254226662e-05   -0.0022529940071032814   -0.00036158132973482325
-0.0006919314684824413   -0.0022767298827092936   -0.0003609042237434854
-0.0009946259296897604   -0.004324913551309882   -0.0004996835347636394
6.542173880932699e-05   -0.004311519688733003   -0.00048033388223691015
8.434744254226662e-05   -0.0022529940071032814   -0.00036158132973482325
6.975282513342994e-05   -0.0043120826169922   -0.00047775224293785496
-0.0006919314684824413   -0.0022767298827092936   -0.0003609042237434854
9.055182328367887e-05   -0.0022521521843187086   -0.000362383156795055
6.975282513342994e-05   -0.0043120826169922   -0.00047775224293785496
8.434744254226662e-05   -0.0022529940071032814   -0.00036158132973482325
-0.0006919314684824413   -0.0022767298827092936   -0.0003609042237434854
6.975282513342994e-05   -0.0043120826169922   -0.00047775224293785496
-0.0009902166082311789   -0.004337289341870974   -0.000481651866937996
-0.0009946259296897604   -0.004324913551309882   -0.0004996835347636394
-0.0006919314684824413   -0.0022767298827092936   -0.0003609042237434854
6.975282513342994e-05   -0.0043120826169922   -0.00047775224293785496
-0.0009946259296897604   -0.004324913551309882   -0.0004996835347636394
8.434744254226662e-05   -0.0022529940071032814   -0.00036158132973482325
-0.0006919314684824413   -0.0022767298827092936   -0.0003609042237434854
-0.0009902166082311789   -0.004337289341870974   -0.000481651866937996
9.055182328367887e-05   -0.0022521521843187086   -0.000362383156795055
-0.0006827150921752333   -0.002276520337242574   -0.00034198074416410374
-0.0009902166082311789   -0.004337289341870974   -0.000481651866937996
6.975282513342994e-05   -0.0043120826169922   -0.00047775224293785496
9.055182328367887e-05   -0.0022521521843187086   -0.000362383156795055
7.327566345232561e-05   -0.00430393237837173   -0.00047778377209090024
-0.0006827150921752333   -0.002276520337242574   -0.00034198074416410374
9.712340305294234e-05   -0.002238720020473091   -0.0003658331465557049
7.327566345232561e-05   -0.00430393237837173   -0.00047778377209090024
9.055182328367887e-05   -0.0022521521843187086   -0.000362383156795055
-0.0006827150921752333   -0.002276520337242574   -0.00034198074416410374
7.327566345232561e-05   -0.00430393237837173   -0.00047778377209090024
-0.0009838151691916506   -0.004341222894868477   -0.0004661463963276927
-0.0009902166082311789   -0.004337289341870974   -0.000481651866937996
-0.0006827150921752333   -0.002276520337242574   -0.00034198074416410374
7.327566345232561e-05   -0.00430393237837173   -0.00047778377209090024
-0.0009902166082311789   -0.004337289341870974   -0.000481651866937996
9.055182328367887e-05   -0.0022521521843187086   -0.000362383156795055
7.566341683745463e-05   -0.0022416129221086837   -0.00036338785561321934
5.941927704414843e-05   -0.004302369781258376   -0.00048538384056372635
0.0009043104987574426   -0.0022776265061090597   -0.0003435392384030761
8.434744254226662e-05   -0.0022529940071032814   -0.00036158132973482325
5.941927704414843e-05   -0.004302369781258376   -0.00048538384056372635
0.0011628544557607283   -0.004326321487521945   -0.00047177233649576606
0.0009043104987574426   -0.0022776265061090597   -0.0003435392384030761
0.0011684050455504007   -0.004324566926397752   -0.00048254503231904926
8.434744254226662e-05   -0.0022529940071032814   -0.00036158132973482325
0.0009098755173169186   -0.0022771577543566567   -0.0003647452963429361
0.0011684050455504007   -0.004324566926397752   -0.00048254503231904926
0.0009043104987574426   -0.0022776265061090597   -0.0003435392384030761
8.434744254226662e-05   -0.0022529940071032814   -0.00036158132973482325
0.0011684050455504007   -0.004324566926397752   -0.00048254503231904926
6.542173880932699e-05   -0.004311519688733003   -0.00048033388223691015
5.941927704414843e-05   -0.004302369781258376   -0.00048538384056372635
8.434744254226662e-05   -0.0022529940071032814   -0.00036158132973482325
0.0011684050455504007   -0.004324566926397752   -0.00048254503231904926
5.941927704414843e-05   -0.004302369781258376   -0.00048538384056372635
0.0009043104987574426   -0.0022776265061090597   -0.0003435392384030761
8.434744254226662e-05   -0.0022529940071032814   -0.00036158132973482325
6.542173880932699e-05   -0.004311519688733003   -0.00048033388223691015
0.0009098755173169186   -0.0022771577543566567   -0.0003647452963429361
9.055182328367887e-05   -0.0022521521843187086   -0.000362383156795055
6.542173880932699e-05   -0.004311519688733003   -0.00048033388223691015
0.0011684050455504007   -0.004324566926397752   -0.00048254503231904926
0.0009098755173169186   -0.0022771577543566567   -0.0003647452963429361
0.001166985838364639   -0.004314455212076201   -0.0004956046962431164
9.055182328367887e-05   -0.0022521521843187086   -0.000362383156795055
0.0009069590460263453   -0.0022647380264074423   -0.00038890145559706066
0.001166985838364639   -0.004314455212076201   -0.0004956046962431164
0.0009098755173169186   -0.0022771577543566567   -0.0003647452963429361
9.055182328367887e-05   -0.0022521521843187086   -0.000362383156795055
0.001166985838364639   -0.004314455212076201   -0.0004956046962431164
6.975282513342994e-05   -0.0043120826169922   -0.00047775224293785496
6.542173880932699e-05   -0.004311519688733003   -0.00048033388223691015
9.055182328367887e-05   -0.0022521521843187086   -0.000362383156795055
0.001166985838364639   -0.004314455212076201   -0.0004956046962431164
6.542173880932699e-05   -0.004311519688733003   -0.00048033388223691015
0.0009098755173169186   -0.0022771577543566567   -0.0003647452963429361
9.055182328367887e-05   -0.0022521521843187086   -0.000362383156795055
6.975282513342994e-05   -0.0043120826169922   -0.00047775224293785496
0.0009069590460263453   -0.0022647380264074423   -0.00038890145559706066
9.712340305294234e-05   -0.002238720020473091   -0.0003658331465557049
6.975282513342994e-05   -0.0043120826169922   -0.00047775224293785496
0.001166985838364639   -0.004314455212076201   -0.0004956046962431164
0.0009069590460263453   -0.0022647380264074423   -0.00038890145559706066
0.0011639958648057313   -0.004293866223748154   -0.0005112264251931729
9.712340305294234e-05   -0.002238720020473091   -0.0003658331465557049
0.0009057549225620628   -0.0022370223743228483   -0.00041510957044362554
0.0011639958648057313   -0.004293866223748154   -0.0005112264251931729
0.0009069590460263453   -0.0022647380264074423   -0.00038890145559706066
9.712340305294234e-05   -0.002238720020473091   -0.0003658331465557049
0.0011639958648057313   -0.004293866223748154   -0.0005112264251931729
7.327566345232561e-05   -0.00430393237837173   -0.00047778377209090024
6.975282513342994e-05   -0.0043120826169922   -0.00047775224293785496
9.712340305294234e-05   -0.002238720020473091   -0.0003658331465557049
0.0011639958648057313   -0.004293866223748154   -0.0005112264251931729
6.975282513342994e-05   -0.0043120826169922   -0.00047775224293785496
0.0009069590460263453   -0.0022647380264074423   -0.00038890145559706066
0.0009043104987574426   -0.0022776265061090597   -0.0003435392384030761
0.0011628544557607283   -0.004326321487521945   -0.00047177233649576606
0.0019059225209945507   -0.0023443389253431364   -0.00033901693023588277
0.0009098755173169186   -0.0022771577543566567   -0.0003647452963429361
0.0011628544557607283   -0.004326321487521945   -0.00047177233649576606
0.0024203008577421263   -0.004369460496248957   -0.00047314244837336954
0.0019059225209945507   -0.0023443389253431364   -0.00033901693023588277
0.002401499908638729   -0.004361347677759095   -0.0005016253701633857
0.0009098755173169186   -0.0022771577543566567   -0.0003647452963429361
0.001869051777275562   -0.002337455861311857   -0.0003868987852594693
0.002401499908638729   -0.004361347677759095   -0.0005016253701633857
0.0019059225209945507   -0.0023443389253431364   -0.00033901693023588277
0.0009098755173169186   -0.0022771577543566567   -0.0003647452963429361
0.002401499908638729   -0.004361347677759095   -0.0005016253701633857
0.0011684050455504007   -0.004324566926397752   -0.00048254503231904926
0.0011628544557607283   -0.004326321487521945   -0.00047177233649576606
0.0009098755173169186   -0.0022771577543566567   -0.0003647452963429361
0.002401499908638729   -0.004361347677759095   -0.0005016253701633857
0.0011628544557607283   -0.004326321487521945   -0.00047177233649576606
0.0019059225209945507   -0.0023443389253431364   -0.00033901693023588277
0.0009098755173169186   -0.0022771577543566567   -0.0003647452963429361
0.0011684050455504007   -0.004324566926397752   -0.00048254503231904926
0.001869051777275562   -0.002337455861311857   -0.0003868987852594693
0.0009069590460263453   -0.0022647380264074423   -0.00038890145559706066
0.0011684050455504007   -0.004324566926397752   -0.00048254503231904926
0.002401499908638729   -0.004361347677759095   -0.0005016253701633857
0.001869051777275562   -0.002337455861311857   -0.0003868987852594693
0.0023824157735544606   -0.004345868438099612   -0.0005342334472188063
0.0009069590460263453   -0.0022647380264074423   -0.00038890145559706066
0.0018359385109417174   -0.002318379468096119   -0.00044097254361705874
0.0023824157735544606   -0.004345868438099612   -0.0005342334472188063
0.001869051777275562   -0.002337455861311857   -0.0003868987852594693
0.0009069590460263453   -0.0022647380264074423   -0.00038890145559706066
0.0023824157735544606   -0.004345868438099612   -0.0005342334472188063
0.001166985838364639   -0.004314455212076201   -0.0004956046962431164
0.0011684050455504007   -0.004324566926397752   -0.00048254503231904926
0.0009069590460263453   -0.0022647380264074423   -0.00038890145559706066
0.0023824157735544606   -0.004345868438099612   -0.0005342334472188063
0.0011684050455504007   -0.004324566926397752   -0.00048254503231904926
0.001869051777275562   -0.002337455861311857   -0.0003868987852594693
0.0009069590460263453   -0.0022647380264074423   -0.00038890145559706066
0.001166985838364639   -0.004314455212076201   -0.0004956046962431164
0.0018359385109417174   -0.002318379468096119   -0.00044097254361705874
0.0009057549225620628   -0.0022370223743228483   -0.00041510957044362554
0.001166985838364639   -0.004314455212076201   -0.0004956046962431164
0.0023824157735544606   -0.004345868438099612   -0.0005342334472188063
0.0018359385109417174   -0.002318379468096119   -0.00044097254361705874
0.0023470560905963847   -0.004313882720852282   -0.0005709716128888805
0.0009057549225620628   -0.0022370223743228483   -0.00041510957044362554
0.0017855092294318021   -0.0022763592549909424   -0.0004973877088333907
0.0023470560905963847   -0.004313882720852282   -0.0005709716128888805
0.0018359385109417174   -0.002318379468096119   -0.00044097254361705874
0.0009057549225620628   -0.0022370223743228483   -0.00041510957044362554
0.0023470560905963847   -0.004313882720852282   -0.0005709716128888805
0.0011639958648057313   -0.004293866223748154   -0.0005112264251931729
0.001166985838364639   -0.004314455212076201   -0.0004956046962431164
0.0009057549225620628   -0.0022370223743228483   -0.00041510957044362554
0.0023470560905963847   -0.004313882720852282   -0.0005709716128888805
0.001166985838364639   -0.004314455212076201   -0.0004956046962431164
0.0018359385109417174   -0.002318379468096119   -0.00044097254361705874
-0.003247609588507608   -0.004389870092704076   -0.0006585621301063759
-0.0038683748638120652   -0.006796414252914661   -0.0007038096406173872
-0.0020889862486102554   -0.004332593397066815   -0.0005769117810886582
-0.0033034851587936107   -0.004435039818017455   -0.0006023966921624694
-0.0038683748638120652   -0.006796414252914661   -0.0007038096406173872
-0.002513601022570763   -0.006760263837919778   -0.000637738366185832
-0.0020889862486102554   -0.004332593397066815   -0.0005769117810886582
-0.0025152333834698934   -0.006788446795916617   -0.0006120116155801313
-0.0033034851587936107   -0.004435039818017455   -0.0006023966921624694
-0.0020922023746423346   -0.004365587298296197   -0.0005407640291503681
-0.0025152333834698934   -0.006788446795916617   -0.0006120116155801313
-0.0020889862486102554   -0.004332593397066815   -0.0005769117810886582
-0.0033034851587936107   -0.004435039818017455   -0.0006023966921624694
-0.0025152333834698934   -0.006788446795916617   -0.0006120116155801313
-0.003905220953732017   -0.006834610837560199   -0.0006668684349878409
-0.0038683748638120652   -0.006796414252914661   -0.0007038096406173872
-0.0033034851587936107   -0.004435039818017455   -0.0006023966921624694
-0.0025152333834698934   -0.006788446795916617   -0.0006120116155801313
-0.0038683748638120652   -0.006796414252914661   -0.0007038096406173872
-0.0020889862486102554   -0.004332593397066815   -0.0005769117810886582
-0.0033034851587936107   -0.004435039818017455   -0.0006023966921624694
-0.003905220953732017   -0.006834610837560199   -0.0006668684349878409
-0.0020922023746423346   -0.004365587298296197   -0.0005407640291503681
-0.0033380839162636495   -0.004463490360002165   -0.0005501337910586584
-0.003905220953732017   -0.006834610837560199   -0.0006668684349878409
-0.0025152333834698934   -0.006788446795916617   -0.0006120116155801313
-0.0020922023746423346   -0.004365587298296197   -0.0005407640291503681
-0.002515953058751815   -0.006810908372312527   -0.0005888729786830921
-0.0033380839162636495   -0.004463490360002165   -0.0005501337910586584
-0.0020961559847620056   -0.0043886596795020185   -0.0005072818538627194
-0.002515953058751815   -0.006810908372312527   -0.0005888729786830921
-0.0020922023746423346   -0.004365587298296197   -0.0005407640291503681
-0.0033380839162636495   -0.004463490360002165   -0.0005501337910586584
-0.002515953058751815   -0.006810908372312527   -0.0005888729786830921
-0.003925676221930616   -0.006861778194084169   -0.0006335313995794792
-0.003905220953732017   -0.006834610837560199   -0.0006668684349878409
-0.0033380839162636495   -0.004463490360002165   -0.0005501337910586584
-0.002515953058751815   -0.006810908372312527   -0.0005888729786830921
-0.003905220953732017   -0.006834610837560199   -0.0006668684349878409
-0.0020922023746423346   -0.004365587298296197   -0.0005407640291503681
-0.0033380839162636495   -0.004463490360002165   -0.0005501337910586584
-0.003925676221930616   -0.006861778194084169   -0.0006335313995794792
-0.0020961559847620056   -0.0043886596795020185   -0.0005072818538627194
-0.0033774492047274392   -0.004484228587468711   -0.0005021396092881238
-0.003925676221930616   -0.006861778194084169   -0.0006335313995794792
-0.002515953058751815   -0.006810908372312527   -0.0005888729786830921
-0.0020961559847620056   -0.0043886596795020185   -0.0005072818538627194
-0.002509339512857621   -0.006829524243119411   -0.0005679696371307387
-0.0033774492047274392   -0.004484228587468711   -0.0005021396092881238
-0.0020907837324247035   -0.004404010113248034   -0.0004758940023881801
-0.002509339512857621   -0.006829524243119411   -0.0005679696371307387
-0.0020961559847620056   -0.0043886596795020185   -0.0005072818538627194
-0.0033774492047274392   -0.004484228587468711   -0.0005021396092881238
-0.002509339512857621   -0.006829524243119411   -0.0005679696371307387
-0.003946630730669005   -0.006886373239271145   -0.0006042350140313357
-0.003925676221930616   -0.006861778194084169   -0.0006335313995794792
-0.0033774492047274392   -0.004484228587468711   -0.0005021396092881238
-0.002509339512857621   -0.006829524243119411   -0.0005679696371307387
-0.003925676221930616   -0.006861778194084169   -0.0006335313995794792
-0.0020961559847620056   -0.0043886596795020185   -0.0005072818538627194
-0.0020889862486102554   -0.004332593397066815   -0.0005769117810886582
-0.002513601022570763   -0.006760263837919778   -0.000637738366185832
-0.0009984808528521324   -0.004303918890082292   -0.0005202450031376693
-0.0020922023746423346   -0.004365587298296197   -0.0005407640291503681
-0.002513601022570763   -0.006760263837919778   -0.000637738366185832
-0.0012447005701525734   -0.006741383064015334   -0.0005920315834172594
-0.0009984808528521324   -0.004303918890082292   -0.0005202450031376693
-0.0012409839537688898   -0.006758966763478563   -0.0005748866814492294
-0.0020922023746423346   -0.004365587298296197   -0.0005407640291503681
-0.0009946259296897604   -0.004324913551309882   -0.0004996835347636394
-0.0012409839537688898   -0.006758966763478563   -0.0005748866814492294
-0.0009984808528521324   -0.004303918890082292   -0.0005202450031376693
-0.0020922023746423346   -0.004365587298296197   -0.0005407640291503681
-0.0012409839537688898   -0.006758966763478563   -0.0005748866814492294
-0.0025152333834698934   -0.006788446795916617   -0.0006120116155801313
-0.002513601022570763   -0.006760263837919778   -0.000637738366185832
-0.0020922023746423346   -0.004365587298296197   -0.0005407640291503681
-0.0012409839537688898   -0.006758966763478563   -0.0005748866814492294
-0.002513601022570763   -0.006760263837919778   -0.000637738366185832
-0.0009984808528521324   -0.004303918890082292   -0.0005202450031376693
-0.0020922023746423346   -0.004365587298296197   -0.0005407640291503681
-0.0025152333834698934   -0.006788446795916617   -0.0006120116155801313
-0.0009946259296897604   -0.004324913551309882   -0.0004996835347636394
-0.0020961559847620056   -0.0043886596795020185   -0.0005072818538627194
-0.0025152333834698934   -0.006788446795916617   -0.0006120116155801313
-0.0012409839537688898   -0.006758966763478563   -0.0005748866814492294
-0.0009946259296897604   -0.004324913551309882   -0.0004996835347636394
-0.0012364199919521314   -0.006771743579779114   -0.000560283977754513
-0.0020961559847620056   -0.0043886596795020185   -0.0005072818538627194
-0.0009902166082311789   -0.004337289341870974   -0.000481651866937996
-0.0012364199919521314   -0.006771743579779114   -0.000560283977754513
-0.0009946259296897604   -0.004324913551309882   -0.0004996835347636394
-0.0020961559847620056   -0.0043886596795020185   -0.0005072818538627194
-0.0012364199919521314   -0.006771743579779114   -0.000560283977754513
-0.002515953058751815   -0.006810908372312527   -0.0005888729786830921
-0.0025152333834698934   -0.006788446795916617   -0.0006120116155801313
-0.0020961559847620056   -0.0043886596795020185   -0.0005072818538627194
-0.0012364199919521314   -0.006771743579779114   -0.000560283977754513
-0.0025152333834698934   -0.006788446795916617   -0.0006120116155801313
-0.0009946259296897604   -0.004324913551309882   -0.0004996835347636394
-0.0020961559847620056   -0.0043886596795020185   -0.0005072818538627194
-0.002515953058751815   -0.006810908372312527   -0.0005888729786830921
-0.0009902166082311789   -0.004337289341870974   -0.000481651866937996
-0.0020907837324247035   -0.004404010113248034   -0.0004758940023881801
-0.002515953058751815   -0.006810908372312527   -0.0005888729786830921
-0.0012364199919521314   -0.006771743579779114   -0.000560283977754513
-0.0009902166082311789   -0.004337289341870974   -0.000481651866937996
-0.0012302562537215309   -0.006779798738111078   -0.0005482706873474216
-0.0020907837324247035   -0.004404010113248034   -0.0004758940023881801
-0.0009838151691916506   -0.004341222894868477   -0.0004661463963276927
-0.0012302562537215309   -0.006779798738111078   -0.0005482706873474216
-0.0009902166082311789   -0.004337289341870974   -0.000481651866937996
-0.0020907837324247035   -0.004404010113248034   -0.0004758940023881801
-0.0012302562537215309   -0.006779798738111078   -0.0005482706873474216
-0.002509339512857621   -0.006829524243119411   -0.0005679696371307387
-0.002515953058751815   -0.006810908372312527   -0.0005888729786830921
-0.0020907837324247035   -0.004404010113248034   -0.0004758940023881801
-0.0012302562537215309   -0.006779798738111078   -0.0005482706873474216
-0.002515953058751815   -0.006810908372312527   -0.0005888729786830921
-0.0009902166082311789   -0.004337289341870974   -0.000481651866937996
-0.0009984808528521324   -0.004303918890082292   -0.0005202450031376693
-0.0012447005701525734   -0.006741383064015334   -0.0005920315834172594
5.941927704414843e-05   -0.004302369781258376   -0.00048538384056372635
-0.0009946259296897604   -0.004324913551309882   -0.0004996835347636394
-0.0012447005701525734   -0.006741383064015334   -0.0005920315834172594
-1.0591554194886595e-05   -0.006738013492636072   -0.0005657015338198906
5.941927704414843e-05   -0.004302369781258376   -0.00048538384056372635
-4.753581568534645e-06   -0.006744898446817595   -0.0005572217790217188
-0.0009946259296897604   -0.004324913551309882   -0.0004996835347636394
6.542173880932699e-05   -0.004311519688733003   -0.00048033388223691015
-4.753581568534645e-06   -0.006744898446817595   -0.0005572217790217188
5.941927704414843e-05   -0.004302369781258376   -0.00048538384056372635
-0.0009946259296897604   -0.004324913551309882   -0.0004996835347636394
-4.753581568534645e-06   -0.006744898446817595   -0.0005572217790217188
-0.0012409839537688898   -0.006758966763478563   -0.0005748866814492294
-0.0012447005701525734   -0.006741383064015334   -0.0005920315834172594
-0.0009946259296897604   -0.004324913551309882   -0.0004996835347636394
-4.753581568534645e-06   -0.006744898446817595   -0.0005572217790217188
-0.0012447005701525734   -0.006741383064015334   -0.0005920315834172594
5.941927704414843e-05   -0.004302369781258376   -0.00048538384056372635
-0.0009946259296897604   -0.004324913551309882   -0.0004996835347636394
-0.0012409839537688898   -0.006758966763478563   -0.0005748866814492294
6.542173880932699e-05   -0.004311519688733003   -0.00048033388223691015
-0.0009902166082311789   -0.004337289341870974   -0.000481651866937996
-0.0012409839537688898   -0.006758966763478563   -0.0005748866814492294
-4.753581568534645e-06   -0.006744898446817595   -0.0005572217790217188
6.542173880932699e-05   -0.004311519688733003   -0.00048033388223691015
-2.1062244211968494e-07   -0.006746941654566048   -0.0005512568847661052
-0.0009902166082311789   -0.004337289341870974   -0.000481651866937996
6.975282513342994e-05   -0.0043120826169922   -0.00047775224293785496
-2.1062244211968494e-07   -0.006746941654566048   -0.0005512568847661052
6.542173880932699e-05   -0.004311519688733003   -0.00048033388223691015
-0.0009902166082311789   -0.004337289341870974   -0.000481651866937996
-2.1062244211968494e-07   -0.006746941654566048   -0.0005512568847661052
-0.0012364199919521314   -0.006771743579779114   -0.000560283977754513
-0.0012409839537688898   -0.006758966763478563   -0.0005748866814492294
-0.0009902166082311789   -0.004337289341870974   -0.000481651866937996
-2.1062244211968494e-07   -0.006746941654566048   -0.0005512568847661052
-0.0012409839537688898   -0.006758966763478563   -0.0005748866814492294
6.542173880932699e-05   -0.004311519688733003   -0.00048033388223691015
-0.0009902166082311789   -0.004337289341870974   -0.000481651866937996
-0.0012364199919521314   -0.006771743579779114   -0.000560283977754513
6.975282513342994e-05   -0.0043120826169922   -0.00047775224293785496
-0.0009838151691916506   -0.004341222894868477   -0.0004661463963276927
-0.0012364199919521314   -0.006771743579779114   -0.000560283977754513
-2.1062244211968494e-07   -0.006746941654566048   -0.0005512568847661052
6.975282513342994e-05   -0.0043120826169922   -0.00047775224293785496
3.191551986720968e-06   -0.006744075561748694   -0.0005479140152270913
-0.0009838151691916506   -0.004341222894868477   -0.0004661463963276927
7.327566345232561e-05   -0.00430393237837173   -0.00047778377209090024
3.191551986720968e-06   -0.006744075561748694   -0.0005479140152270913
6.975282513342994e-05   -0.0043120826169922   -0.00047775224293785496
-0.0009838151691916506   -0.004341222894868477   -0.0004661463963276927
3.191551986720968e-06   -0.006744075561748694   -0.0005479140152270913
-0.0012302562537215309   -0.006779798738111078   -0.0005482706873474216
-0.0012364199919521314   -0.006771743579779114   -0.000560283977754513
-0.0009838151691916506   -0.004341222894868477   -0.0004661463963276927
3.191551986720968e-06   -0.006744075561748694   -0.0005479140152270913
-0.0012364199919521314   -0.006771743579779114   -0.000560283977754513
6.975282513342994e-05   -0.0043120826169922   -0.00047775224293785496
5.941927704414843e-05   -0.004302369781258376   -0.00048538384056372635
-1.0591554194886595e-05   -0.006738013492636072   -0.0005657015338198906
0.0011628544557607283   -0.004326321487521945   -0.00047177233649576606
6.542173880932699e-05   -0.004311519688733003   -0.00048033388223691015
-1.0591554194886595e-05   -0.006738013492636072   -0.0005657015338198906
0.0012660351837979803   -0.00674879623627734   -0.0005586929214077528
0.0011628544557607283   -0.004326321487521945   -0.00047177233649576606
0.0012729836119718483   -0.006745561627289228   -0.0005590501423863041
6.542173880932699e-05   -0.004311519688733003   -0.00048033388223691015
0.0011684050455504007   -0.004324566926397752   -0.00048254503231904926
0.0012729836119718483   -0.006745561627289228   -0.0005590501423863041
0.0011628544557607283   -0.004326321487521945   -0.00047177233649576606
6.542173880932699e-05   -0.004311519688733003   -0.00048033388223691015
0.0012729836119718483   -0.006745561627289228   -0.0005590501423863041
-4.753581568534645e-06   -0.006744898446817595   -0.0005572217790217188
-1.0591554194886595e-05   -0.006738013492636072   -0.0005657015338198906
6.542173880932699e-05   -0.004311519688733003   -0.00048033388223691015
0.0012729836119718483   -0.006745561627289228   -0.0005590501423863041
-1.0591554194886595e-05   -0.006738013492636072   -0.0005657015338198906
0.0011628544557607283   -0.004326321487521945   -0.00047177233649576606
6.542173880932699e-05   -0.004311519688733003   -0.00048033388223691015
-4.753581568534645e-06   -0.006744898446817595   -0.0005572217790217188
0.0011684050455504007   -0.004324566926397752   -0.00048254503231904926
6.975282513342994e-05   -0.0043120826169922   -0.00047775224293785496
-4.753581568534645e-06   -0.006744898446817595   -0.0005572217790217188
0.0012729836119718483   -0.006745561627289228   -0.0005590501423863041
0.0011684050455504007   -0.004324566926397752   -0.00048254503231904926
0.0012749728477590028   -0.006737908709909861   -0.0005617831946232482
6.975282513342994e-05   -0.0043120826169922   -0.00047775224293785496
0.001166985838364639   -0.004314455212076201   -0.0004956046962431164
0.0012749728477590028   -0.006737908709909861   -0.0005617831946232482
0.0011684050455504007   -0.004324566926397752   -0.00048254503231904926
6.975282513342994e-05   -0.0043120826169922   -0.00047775224293785496
0.0012749728477590028   -0.006737908709909861   -0.0005617831946232482
-2.1062244211968494e-07   -0.006746941654566048   -0.0005512568847661052
-4.753581568534645e-06   -0.006744898446817595   -0.0005572217790217188
6.975282513342994e-05   -0.0043120826169922   -0.00047775224293785496
0.0012749728477590028   -0.006737908709909861   -0.0005617831946232482
-4.753581568534645e-06   -0.006744898446817595   -0.0005572217790217188
0.0011684050455504007   -0.004324566926397752   -0.00048254503231904926
6.975282513342994e-05   -0.0043120826169922   -0.00047775224293785496
-2.1062244211968494e-07   -0.006746941654566048   -0.0005512568847661052
0.001166985838364639   -0.004314455212076201   -0.0004956046962431164
7.327566345232561e-05   -0.00430393237837173   -0.00047778377209090024
-2.1062244211968494e-07   -0.006746941654566048   -0.0005512568847661052
0.0012749728477590028   -0.006737908709909861   -0.0005617831946232482
0.001166985838364639   -0.004314455212076201   -0.0004956046962431164
0.0012736800212360074   -0.006723973416555898   -0.0005669873814785066
7.327566345232561e-05   -0.00430393237837173   -0.00047778377209090024
0.0011639958648057313   -0.004293866223748154   -0.0005112264251931729
0.0012736800212360074   -0.006723973416555898   -0.0005669873814785066
0.001166985838364639   -0.004314455212076201   -0.0004956046962431164
7.327566345232561e-05   -0.00430393237837173   -0.00047778377209090024
0.0012736800212360074   -0.006723973416555898   -0.0005669873814785066
3.191551986720968e-06   -0.006744075561748694   -0.0005479140152270913
-2.1062244211968494e-07   -0.006746941654566048   -0.0005512568847661052
7.327566345232561e-05   -0.00430393237837173   -0.00047778377209090024
0.0012736800212360074   -0.006723973416555898   -0.0005669873814785066
-2.1062244211968494e-07   -0.006746941654566048   -0.0005512568847661052
0.001166985838364639   -0.004314455212076201   -0.0004956046962431164
0.0011628544557607283   -0.004326321487521945   -0.00047177233649576606
0.0012660351837979803   -0.00674879623627734   -0.0005586929214077528
0.0024203008577421263   -0.004369460496248957   -0.00047314244837336954
0.0011684050455504007   -0.004324566926397752   -0.00048254503231904926
0.0012660351837979803   -0.00674879623627734   -0.0005586929214077528
0.002675601457598407   -0.006768367587519859   -0.0005670349515574949
0.0024203008577421263   -0.004369460496248957   -0.00047314244837336954
0.0026754739372668473   -0.0067582239207847365   -0.0005767677636083671
0.0011684050455504007   -0.004324566926397752   -0.00048254503231904926
0.002401499908638729   -0.004361347677759095   -0.0005016253701633857
0.0026754739372668473   -0.0067582239207847365   -0.0005767677636083671
0.0024203008577421263   -0.004369460496248957   -0.00047314244837336954
0.0011684050455504007   -0.004324566926397752   -0.00048254503231904926
0.0026754739372668473   -0.0067582239207847365   -0.0005767677636083671
0.0012729836119718483   -0.006745561627289228   -0.0005590501423863041
0.0012660351837979803   -0.00674879623627734   -0.0005586929214077528
0.0011684050455504007   -0.004324566926397752   -0.00048254503231904926
0.0026754739372668473   -0.0067582239207847365   -0.0005767677636083671
0.0012660351837979803   -0.00674879623627734   -0.0005586929214077528
0.0024203008577421263   -0.004369460496248957   -0.00047314244837336954
0.0011684050455504007   -0.004324566926397752   -0.00048254503231904926
0.0012729836119718483   -0.006745561627289228   -0.0005590501423863041
0.002401499908638729   -0.004361347677759095   -0.0005016253701633857
0.001166985838364639   -0.004314455212076201   -0.0004956046962431164
0.0012729836119718483   -0.006745561627289228   -0.0005590501423863041
0.0026754739372668473   -0.0067582239207847365   -0.0005767677636083671
0.002401499908638729   -0.004361347677759095   -0.0005016253701633857
0.0026708368040117237   -0.0067458501013386045   -0.000590365087187099
0.001166985838364639   -0.004314455212076201   -0.0004956046962431164
0.0023824157735544606   -0.004345868438099612   -0.0005342334472188063
0.0026708368040117237   -0.0067458501013386045   -0.000590365087187099
0.002401499908638729   -0.004361347677759095   -0.0005016253701633857
0.001166985838364639   -0.004314455212076201   -0.0004956046962431164
0.0026708368040117237   -0.0067458501013386045   -0.000590365087187099
0.0012749728477590028   -0.006737908709909861   -0.0005617831946232482
0.0012729836119718483   -0.006745561627289228   -0.0005590501423863041
0.001166985838364639   -0.004314455212076201   -0.0004956046962431164
0.0026708368040117237   -0.0067458501013386045   -0.000590365087187099
0.0012729836119718483   -0.006745561627289228   -0.0005590501423863041
0.002401499908638729   -0.004361347677759095   -0.0005016253701633857
0.001166985838364639   -0.004314455212076201   -0.0004956046962431164
0.0012749728477590028   -0.006737908709909861   -0.0005617831946232482
0.0023824157735544606   -0.004345868438099612   -0.0005342334472188063
0.0011639958648057313   -0.004293866223748154   -0.0005112264251931729
0.0012749728477590028   -0.006737908709909861   -0.0005617831946232482
0.0026708368040117237   -0.0067458501013386045   -0.000590365087187099
0.0023824157735544606   -0.004345868438099612   -0.0005342334472188063
0.002654780930939106   -0.006722726862976181   -0.0006077986897388289
0.0011639958648057313   -0.004293866223748154   -0.0005112264251931729
0.0023470560905963847   -0.004313882720852282   -0.0005709716128888805
0.002654780930939106   -0.006722726862976181   -0.0006077986897388289
0.0023824157735544606   -0.004345868438099612   -0.0005342334472188063
0.0011639958648057313   -0.004293866223748154   -0.0005112264251931729
0.002654780930939106   -0.006722726862976181   -0.0006077986897388289
0.0012736800212360074   -0.006723973416555898   -0.0005669873814785066
0.0012749728477590028   -0.006737908709909861   -0.0005617831946232482
0.0011639958648057313   -0.004293866223748154   -0.0005112264251931729
0.002654780930939106   -0.006722726862976181   -0.0006077986897388289
0.0012749728477590028   -0.006737908709909861   -0.0005617831946232482
0.0023824157735544606   -0.004345868438099612   -0.0005342334472188063
-0.0038683748638120652   -0.006796414252914661   -0.0007038096406173872
-0.004239732197614231   -0.009405335601814693   -0.0007183154003829633
-0.002513601022570763   -0.006760263837919778   -0.000637738366185832
-0.003905220953732017   -0.006834610837560199   -0.0006668684349878409
-0.004239732197614231   -0.009405335601814693   -0.0007183154003829633
-0.0027904013944783667   -0.009390867172820986   -0.0006661297180574472
-0.002513601022570763   -0.006760263837919778   -0.000637738366185832
-0.0027881067396848505   -0.009414724025368765   -0.0006504526082311843
-0.003905220953732017   -0.006834610837560199   -0.0006668684349878409
-0.0025152333834698934   -0.006788446795916617   -0.0006120116155801313
-0.0027881067396848505   -0.009414724025368765   -0.0006504526082311843
-0.002513601022570763   -0.006760263837919778   -0.000637738366185832
-0.003905220953732017   -0.006834610837560199   -0.0006668684349878409
-0.0027881067396848505   -0.009414724025368765   -0.0006504526082311843
-0.00425607929513124   -0.009437469065981058   -0.000699587194474561
-0.004239732197614231   -0.009405335601814693   -0.0007183154003829633
-0.003905220953732017   -0.006834610837560199   -0.0006668684349878409
-0.0027881067396848505   -0.009414724025368765   -0.0006504526082311843
-0.004239732197614231   -0.009405335601814693   -0.0007183154003829633
-0.002513601022570763   -0.006760263837919778   -0.000637738366185832
-0.003905220953732017   -0.006834610837560199   -0.0006668684349878409
-0.00425607929513124   -0.009437469065981058   -0.000699587194474561
-0.0025152333834698934   -0.006788446795916617   -0.0006120116155801313
-0.003925676221930616   -0.006861778194084169   -0.0006335313995794792
-0.00425607929513124   -0.009437469065981058   -0.000699587194474561
-0.0027881067396848505   -0.009414724025368765   -0.0006504526082311843
-0.0025152333834698934   -0.006788446795916617   -0.0006120116155801313
-0.0027831773548483217   -0.009436870119088935   -0.0006373829757291298
-0.003925676221930616   -0.006861778194084169   -0.0006335313995794792
-0.002515953058751815   -0.006810908372312527   -0.0005888729786830921
-0.0027831773548483217   -0.009436870119088935   -0.0006373829757291298
-0.0025152333834698934   -0.006788446795916617   -0.0006120116155801313
-0.003925676221930616   -0.006861778194084169   -0.0006335313995794792
-0.0027831773548483217   -0.009436870119088935   -0.0006373829757291298
-0.004260312500692941   -0.009463845632179769   -0.0006846078233480248
-0.00425607929513124   -0.009437469065981058   -0.000699587194474561
-0.003925676221930616   -0.006861778194084169   -0.0006335313995794792
-0.0027831773548483217   -0.009436870119088935   -0.0006373829757291298
-0.00425607929513124   -0.009437469065981058   -0.000699587194474561
-0.0025152333834698934   -0.006788446795916617   -0.0006120116155801313
-0.003925676221930616   -0.006861778194084169   -0.0006335313995794792
-0.004260312500692941   -0.009463845632179769   -0.0006846078233480248
-0.002515953058751815   -0.006810908372312527   -0.0005888729786830921
-0.003946630730669005   -0.006886373239271145   -0.0006042350140313357
-0.004260312500692941   -0.009463845632179769   -0.0006846078233480248
-0.0027831773548483217   -0.009436870119088935   -0.0006373829757291298
-0.002515953058751815   -0.006810908372312527   -0.0005888729786830921
-0.0027728313071662893   -0.009459006547535603   -0.0006267263037105146
-0.003946630730669005   -0.006886373239271145   -0.0006042350140313357
-0.002509339512857621   -0.006829524243119411   -0.0005679696371307387
-0.0027728313071662893   -0.009459006547535603   -0.0006267263037105146
-0.002515953058751815   -0.006810908372312527   -0.0005888729786830921
-0.003946630730669005   -0.006886373239271145   -0.0006042350140313357
-0.0027728313071662893   -0.009459006547535603   -0.0006267263037105146
-0.00426064208123432   -0.009492707278755322   -0.0006737125229840547
-0.004260312500692941   -0.009463845632179769   -0.0006846078233480248
-0.003946630730669005   -0.006886373239271145   -0.0006042350140313357
-0.0027728313071662893   -0.009459006547535603   -0.0006267263037105146
-0.004260312500692941   -0.009463845632179769   -0.0006846078233480248
-0.002515953058751815   -0.006810908372312527   -0.0005888729786830921
-0.002513601022570763   -0.006760263837919778   -0.000637738366185832
-0.0027904013944783667   -0.009390867172820986   -0.0006661297180574472
-0.0012447005701525734   -0.006741383064015334   -0.0005920315834172594
-0.0025152333834698934   -0.006788446795916617   -0.0006120116155801313
-0.0027904013944783667   -0.009390867172820986   -0.0006661297180574472
-0.0014443534977004232   -0.009382297774800345   -0.0006306432310716203
-0.0012447005701525734   -0.006741383064015334   -0.0005920315834172594
-0.001438164956027766   -0.00939663758991005   -0.000616783472540155
-0.0025152333834698934   -0.006788446795916617   -0.0006120116155801313
-0.0012409839537688898   -0.006758966763478563   -0.0005748866814492294
-0.001438164956027766   -0.00939663758991005   -0.000616783472540155
-0.0012447005701525734   -0.006741383064015334   -0.0005920315834172594
-0.0025152333834698934   -0.006788446795916617   -0.0006120116155801313
-0.001438164956027766   -0.00939663758991005   -0.000616783472540155
-0.0027881067396848505   -0.009414724025368765   -0.0006504526082311843
-0.0027904013944783667   -0.009390867172820986   -0.0006661297180574472
-0.0025152333834698934   -0.006788446795916617   -0.0006120116155801313
-0.001438164956027766   -0.00939663758991005   -0.000616783472540155
-0.0027904013944783667   -0.009390867172820986   -0.0006661297180574472
-0.0012447005701525734   -0.006741383064015334   -0.0005920315834172594
-0.0025152333834698934   -0.006788446795916617   -0.0006120116155801313
-0.0027881067396848505   -0.009414724025368765   -0.0006504526082311843
-0.0012409839537688898   -0.006758966763478563   -0.0005748866814492294
-0.002515953058751815   -0.006810908372312527   -0.0005888729786830921
-0.0027881067396848505   -0.009414724025368765   -0.0006504526082311843
-0.001438164956027766   -0.00939663758991005   -0.000616783472540155
-0.0012409839537688898   -0.006758966763478563   -0.0005748866814492294
-0.0014308573969851917   -0.009409893422774752   -0.0006055270382967197
-0.002515953058751815   -0.006810908372312527   -0.0005888729786830921
-0.0012364199919521314   -0.006771743579779114   -0.000560283977754513
-0.0014308573969851917   -0.009409893422774752   -0.0006055270382967197
-0.0012409839537688898   -0.006758966763478563   -0.0005748866814492294
-0.002515953058751815   -0.006810908372312527   -0.0005888729786830921
-0.0014308573969851917   -0.009409893422774752   -0.0006055270382967197
-0.0027831773548483217   -0.009436870119088935   -0.0006373829757291298
-0.0027881067396848505   -0.009414724025368765   -0.0006504526082311843
-0.002515953058751815   -0.006810908372312527   -0.0005888729786830921
-0.0014308573969851917   -0.009409893422774752   -0.0006055270382967197
-0.0027881067396848505   -0.009414724025368765   -0.0006504526082311843
-0.0012409839537688898   -0.006758966763478563   -0.0005748866814492294
-0.002515953058751815   -0.006810908372312527   -0.0005888729786830921
-0.0027831773548483217   -0.009436870119088935   -0.0006373829757291298
-0.0012364199919521314   -0.006771743579779114   -0.000560283977754513
-0.002509339512857621   -0.006829524243119411   -0.0005679696371307387
-0.0027831773548483217   -0.009436870119088935   -0.0006373829757291298
-0.0014308573969851917   -0.009409893422774752   -0.0006055270382967197
-0.0012364199919521314   -0.006771743579779114   -0.000560283977754513
-0.0014222924373240475   -0.00942211119818083   -0.0005969425404503718
-0.002509339512857621   -0.006829524243119411   -0.0005679696371307387
-0.0012302562537215309   -0.006779798738111078   -0.0005482706873474216
-0.0014222924373240475   -0.00942211119818083   -0.0005969425404503718
-0.0012364199919521314   -0.006771743579779114   -0.000560283977754513
-0.002509339512857621   -0.006829524243119411   -0.0005679696371307387
-0.0014222924373240475   -0.00942211119818083   -0.0005969425404503718
-0.0027728313071662893   -0.009459006547535603   -0.0006267263037105146
-0.0027831773548483217   -0.009436870119088935   -0.0006373829757291298
-0.002509339512857621   -0.006829524243119411   -0.0005679696371307387
-0.0014222924373240475   -0.00942211119818083   -0.0005969425404503718
-0.0027831773548483217   -0.009436870119088935   -0.0006373829757291298
-0.0012364199919521314   -0.006771743579779114   -0.000560283977754513
-0.0012447005701525734   -0.006741383064015334   -0.0005920315834172594
-0.0014443534977004232   -0.009382297774800345   -0.0006306432310716203
-1.0591554194886595e-05   -0.006738013492636072   -0.0005657015338198906
-0.0012409839537688898   -0.006758966763478563   -0.0005748866814492294
-0.0014443534977004232   -0.009382297774800345   -0.0006306432310716203
-0.00013479690001587586   -0.009377212216847857   -0.0006126049687711784
-1.0591554194886595e-05   -0.006738013492636072   -0.0005657015338198906
-0.0001265736289269553   -0.009381812835453123   -0.0006007152511796506
-0.0012409839537688898   -0.006758966763478563   -0.0005748866814492294
-4.753581568534645e-06   -0.006744898446817595   -0.0005572217790217188
-0.0001265736289269553   -0.009381812835453123   -0.0006007152511796506
-1.0591554194886595e-05   -0.006738013492636072   -0.0005657015338198906
-0.0012409839537688898   -0.006758966763478563   -0.0005748866814492294
-0.0001265736289269553   -0.009381812835453123   -0.0006007152511796506
-0.001438164956027766   -0.00939663758991005   -0.000616783472540155
-0.0014443534977004232   -0.009382297774800345   -0.0006306432310716203
-0.0012409839537688898   -0.006758966763478563   -0.0005748866814492294
-0.0001265736289269553   -0.009381812835453123   -0.0006007152511796506
-0.0014443534977004232   -0.009382297774800345   -0.0006306432310716203
-1.0591554194886595e-05   -0.006738013492636072   -0.0005657015338198906
-0.0012409839537688898   -0.006758966763478563   -0.0005748866814492294
-0.001438164956027766   -0.00939663758991005   -0.000616783472540155
-4.753581568534645e-06   -0.006744898446817595   -0.0005572217790217188
-0.0012364199919521314   -0.006771743579779114   -0.000560283977754513
-0.001438164956027766   -0.00939663758991005   -0.000616783472540155
-0.0001265736289269553   -0.009381812835453123   -0.0006007152511796506
-4.753581568534645e-06   -0.006744898446817595   -0.0005572217790217188
-0.00011930384918317424   -0.009385246253692088   -0.0005914115700153245
-0.0012364199919521314   -0.006771743579779114   -0.000560283977754513
-2.1062244211968494e-07   -0.006746941654566048   -0.0005512568847661052
-0.00011930384918317424   -0.009385246253692088   -0.0005914115700153245
-4.753581568534645e-06   -0.006744898446817595   -0.0005572217790217188
-0.0012364199919521314   -0.006771743579779114   -0.000560283977754513
-0.00011930384918317424   -0.009385246253692088   -0.0005914115700153245
-0.0014308573969851917   -0.009409893422774752   -0.0006055270382967197
-0.001438164956027766   -0.00939663758991005   -0.000616783472540155
-0.0012364199919521314   -0.006771743579779114   -0.000560283977754513
-0.00011930384918317424   -0.009385246253692088   -0.0005914115700153245
-0.001438164956027766   -0.00939663758991005   -0.000616783472540155
-4.753581568534645e-06   -0.006744898446817595   -0.0005572217790217188
-0.0012364199919521314   -0.006771743579779114   -0.000560283977754513
-0.0014308573969851917   -0.009409893422774752   -0.0006055270382967197
-2.1062244211968494e-07   -0.006746941654566048   -0.0005512568847661052
-0.0012302562537215309   -0.006779798738111078   -0.0005482706873474216
-0.0014308573969851917   -0.009409893422774752   -0.0006055270382967197
-0.00011930384918317424   -0.009385246253692088   -0.0005914115700153245
-2.1062244211968494e-07   -0.006746941654566048   -0.0005512568847661052
-0.00011346428051844298   -0.009387490940975275   -0.000584784926054702
-0.0012302562537215309   -0.006779798738111078   -0.0005482706873474216
3.191551986720968e-06   -0.006744075561748694   -0.0005479140152270913
-0.00011346428051844298   -0.009387490940975275   -0.000584784926054702
-2.1062244211968494e-07   -0.006746941654566048   -0.0005512568847661052
-0.0012302562537215309   -0.006779798738111078   -0.0005482706873474216
-0.00011346428051844298   -0.009387490940975275   -0.000584784926054702
-0.0014222924373240475   -0.00942211119818083   -0.0005969425404503718
-0.0014308573969851917   -0.009409893422774752   -0.0006055270382967197
-0.0012302562537215309   -0.006779798738111078   -0.0005482706873474216
-0.00011346428051844298   -0.009387490940975275   -0.000584784926054702
-0.0014308573969851917   -0.009409893422774752   -0.0006055270382967197
-2.1062244211968494e-07   -0.006746941654566048   -0.0005512568847661052
-1.0591554194886595e-05   -0.006738013492636072   -0.0005657015338198906
-0.00013479690001587586   -0.009377212216847857   -0.0006126049687711784
0.0012660351837979803   -0.00674879623627734   -0.0005586929214077528
-4.753581568534645e-06   -0.006744898446817595   -0.0005572217790217188
-0.00013479690001587586   -0.009377212216847857   -0.0006126049687711784
0.0012144704061295229   -0.009374725074112732   -0.0006122254889122606
0.0012660351837979803   -0.00674879623627734   -0.0005586929214077528
0.0012250863625955625   -0.009369856182264194   -0.0006023985693370998
-4.753581568534645e-06   -0.006744898446817595   -0.0005572217790217188
0.0012729836119718483   -0.006745561627289228   -0.0005590501423863041
0.0012250863625955625   -0.009369856182264194   -0.0006023985693370998
0.0012660351837979803   -0.00674879623627734   -0.0005586929214077528
-4.753581568534645e-06   -0.006744898446817595   -0.0005572217790217188
0.0012250863625955625   -0.009369856182264194   -0.0006023985693370998
-0.0001265736289269553   -0.009381812835453123   -0.0006007152511796506
-0.00013479690001587586   -0.009377212216847857   -0.0006126049687711784
-4.753581568534645e-06   -0.006744898446817595   -0.0005572217790217188
0.0012250863625955625   -0.009369856182264194   -0.0006023985693370998
-0.00013479690001587586   -0.009377212216847857   -0.0006126049687711784
0.0012660351837979803   -0.00674879623627734   -0.0005586929214077528
-4.753581568534645e-06   -0.006744898446817595   -0.0005572217790217188
-0.0001265736289269553   -0.009381812835453123   -0.0006007152511796506
0.0012729836119718483   -0.006745561627289228   -0.0005590501423863041
-2.1062244211968494e-07   -0.006746941654566048   -0.0005512568847661052
-0.0001265736289269553   -0.009381812835453123   -0.0006007152511796506
0.0012250863625955625   -0.009369856182264194   -0.0006023985693370998
0.0012729836119718483   -0.006745561627289228   -0.0005590501423863041
0.0012326889939889645   -0.009364401186791573   -0.0005950795048761043
-2.1062244211968494e-07   -0.006746941654566048   -0.0005512568847661052
0.0012749728477590028   -0.006737908709909861   -0.0005617831946232482
0.0012326889939889645   -0.009364401186791573   -0.0005950795048761043
0.0012729836119718483   -0.006745561627289228   -0.0005590501423863041
-2.1062244211968494e-07   -0.006746941654566048   -0.0005512568847661052
0.0012326889939889645   -0.009364401186791573   -0.0005950795048761043
-0.00011930384918317424   -0.009385246253692088   -0.0005914115700153245
-0.0001265736289269553   -0.009381812835453123   -0.0006007152511796506
-2.1062244211968494e-07   -0.006746941654566048   -0.0005512568847661052
0.0012326889939889645   -0.009364401186791573   -0.0005950795048761043
-0.0001265736289269553   -0.009381812835453123   -0.0006007152511796506
0.0012729836119718483   -0.006745561627289228   -0.0005590501423863041
-2.1062244211968494e-07   -0.006746941654566048   -0.0005512568847661052
-0.00011930384918317424   -0.009385246253692088   -0.0005914115700153245
0.0012749728477590028   -0.006737908709909861   -0.0005617831946232482
3.191551986720968e-06   -0.006744075561748694   -0.0005479140152270913
-0.00011930384918317424   -0.009385246253692088   -0.0005914115700153245
0.0012326889939889645   -0.009364401186791573   -0.0005950795048761043
0.0012749728477590028   -0.006737908709909861   -0.0005617831946232482
0.0012352868881476088   -0.009356640263505918   -0.0005902198809211138
3.191551986720968e-06   -0.006744075561748694   -0.0005479140152270913
0.0012736800212360074   -0.006723973416555898   -0.0005669873814785066
0.0012352868881476088   -0.009356640263505918   -0.0005902198809211138
0.0012749728477590028   -0.006737908709909861   -0.0005617831946232482
3.191551986720968e-06   -0.006744075561748694   -0.0005479140152270913
0.0012352868881476088   -0.009356640263505918   -0.0005902198809211138
-0.00011346428051844298   -0.009387490940975275   -0.000584784926054702
-0.00011930384918317424   -0.009385246253692088   -0.0005914115700153245
3.191551986720968e-06   -0.006744075561748694   -0.0005479140152270913
0.0012352868881476088   -0.009356640263505918   -0.0005902198809211138
-0.00011930384918317424   -0.009385246253692088   -0.0005914115700153245
0.0012749728477590028   -0.006737908709909861   -0.0005617831946232482
0.0012660351837979803   -0.00674879623627734   -0.0005586929214077528
0.0012144704061295229   -0.009374725074112732   -0.0006122254889122606
0.002675601457598407   -0.006768367587519859   -0.0005670349515574949
0.0012729836119718483   -0.006745561627289228   -0.0005590501423863041
0.0012144704061295229   -0.009374725074112732   -0.0006122254889122606
0.0026756143004985785   -0.009370926079296876   -0.0006279390884955627
0.002675601457598407   -0.006768367587519859   -0.0005670349515574949
0.002695929136214603   -0.009358528338460046   -0.0006194199332779799
0.0012729836119718483   -0.006745561627289228   -0.0005590501423863041
0.0026754739372668473   -0.0067582239207847365   -0.0005767677636083671
0.002695929136214603   -0.009358528338460046   -0.0006194199332779799
0.002675601457598407   -0.006768367587519859   -0.0005670349515574949
0.0012729836119718483   -0.006745561627289228   -0.0005590501423863041
0.002695929136214603   -0.009358528338460046   -0.0006194199332779799
0.0012250863625955625   -0.009369856182264194   -0.0006023985693370998
0.0012144704061295229   -0.009374725074112732   -0.0006122254889122606
0.0012729836119718483   -0.006745561627289228   -0.0005590501423863041
0.002695929136214603   -0.009358528338460046   -0.0006194199332779799
0.0012144704061295229   -0.009374725074112732   -0.0006122254889122606
0.002675601457598407   -0.006768367587519859   -0.0005670349515574949
0.0012729836119718483   -0.006745561627289228   -0.0005590501423863041
0.0012250863625955625   -0.009369856182264194   -0.0006023985693370998
0.0026754739372668473   -0.0067582239207847365   -0.0005767677636083671
0.0012749728477590028   -0.006737908709909861   -0.0005617831946232482
0.0012250863625955625   -0.009369856182264194   -0.0006023985693370998
0.002695929136214603   -0.009358528338460046   -0.0006194199332779799
0.0026754739372668473   -0.0067582239207847365   -0.0005767677636083671
0.0027074584509463235   -0.009348862026385898   -0.0006147256110193668
0.0012749728477590028   -0.006737908709909861   -0.0005617831946232482
0.0026708368040117237   -0.0067458501013386045   -0.000590365087187099
0.0027074584509463235   -0.009348862026385898   -0.0006147256110193668
0.0026754739372668473   -0.0067582239207847365   -0.0005767677636083671
0.0012749728477590028   -0.006737908709909861   -0.0005617831946232482
0.0027074584509463235   -0.009348862026385898   -0.0006147256110193668
0.0012326889939889645   -0.009364401186791573   -0.0005950795048761043
0.0012250863625955625   -0.009369856182264194   -0.0006023985693370998
0.0012749728477590028   -0.006737908709909861   -0.0005617831946232482
0.0027074584509463235   -0.009348862026385898   -0.0006147256110193668
0.0012250863625955625   -0.009369856182264194   -0.0006023985693370998
0.0026754739372668473   -0.0067582239207847365   -0.0005767677636083671
0.0012749728477590028   -0.006737908709909861   -0.0005617831946232482
0.0012326889939889645   -0.009364401186791573   -0.0005950795048761043
0.0026708368040117237   -0.0067458501013386045   -0.000590365087187099
0.0012736800212360074   -0.006723973416555898   -0.0005669873814785066
0.0012326889939889645   -0.009364401186791573   -0.0005950795048761043
0.0027074584509463235   -0.009348862026385898   -0.0006147256110193668
0.0026708368040117237   -0.0067458501013386045   -0.000590365087187099
0.002711955481924145   -0.009333739750247554   -0.0006139219277869897
0.0012736800212360074   -0.006723973416555898   -0.0005669873814785066
0.002654780930939106   -0.006722726862976181   -0.0006077986897388289
0.002711955481924145   -0.009333739750247554   -0.0006139219277869897
0.0026708368040117237   -0.0067458501013386045   -0.000590365087187099
0.0012736800212360074   -0.006723973416555898   -0.0005669873814785066
0.002711955481924145   -0.009333739750247554   -0.0006139219277869897
0.0012352868881476088   -0.009356640263505918   -0.0005902198809211138
0.0012326889939889645   -0.009364401186791573   -0.0005950795048761043
0.0012736800212360074   -0.006723973416555898   -0.0005669873814785066
0.002711955481924145   -0.009333739750247554   -0.0006139219277869897
0.0012326889939889645   -0.009364401186791573   -0.0005950795048761043
0.0026708368040117237   -0.0067458501013386045   -0.000590365087187099
-0.004239732197614231   -0.009405335601814693   -0.0007183154003829633
-0.004364397535220426   -0.012051222655743666   -0.0007077245105699944
-0.0027904013944783667   -0.009390867172820986   -0.0006661297180574472
-0.00425607929513124   -0.009437469065981058   -0.000699587194474561
-0.004364397535220426   -0.012051222655743666   -0.0007077245105699944
-0.0029212775576613614   -0.01205836595807185   -0.0006695168245712109
-0.0027904013944783667   -0.009390867172820986   -0.0006661297180574472
-0.0029126915240621147   -0.012077873616563865   -0.0006636377868717386
-0.00425607929513124   -0.009437469065981058   -0.000699587194474561
-0.0027881067396848505   -0.009414724025368765   -0.0006504526082311843
-0.0029126915240621147   -0.012077873616563865   -0.0006636377868717386
-0.0027904013944783667   -0.009390867172820986   -0.0006661297180574472
-0.00425607929513124   -0.009437469065981058   -0.000699587194474561
-0.0029126915240621147   -0.012077873616563865   -0.0006636377868717386
-0.004358167683804522   -0.01207737226657307   -0.0007069410765626033
-0.004364397535220426   -0.012051222655743666   -0.0007077245105699944
-0.00425607929513124   -0.009437469065981058   -0.000699587194474561
-0.0029126915240621147   -0.012077873616563865   -0.0006636377868717386
-0.004364397535220426   -0.012051222655743666   -0.0007077245105699944
-0.0027904013944783667   -0.009390867172820986   -0.0006661297180574472
-0.00425607929513124   -0.009437469065981058   -0.000699587194474561
-0.004358167683804522   -0.01207737226657307   -0.0007069410765626033
-0.0027881067396848505   -0.009414724025368765   -0.0006504526082311843
-0.004260312500692941   -0.009463845632179769   -0.0006846078233480248
-0.004358167683804522   -0.01207737226657307   -0.0007069410765626033
-0.0029126915240621147   -0.012077873616563865   -0.0006636377868717386
-0.0027881067396848505   -0.009414724025368765   -0.0006504526082311843
-0.002899771140561798   -0.012099660678395756   -0.0006604104875335529
-0.004260312500692941   -0.009463845632179769   -0.0006846078233480248
-0.0027831773548483217   -0.009436870119088935   -0.0006373829757291298
-0.002899771140561798   -0.012099660678395756   -0.0006604104875335529
-0.0027881067396848505   -0.009414724025368765   -0.0006504526082311843
-0.004260312500692941   -0.009463845632179769   -0.0006846078233480248
-0.002899771140561798   -0.012099660678395756   -0.0006604104875335529
-0.004343884445789604   -0.012102972743668927   -0.0007101161317005747
-0.004358167683804522   -0.01207737226657307   -0.0007069410765626033
-0.004260312500692941   -0.009463845632179769   -0.0006846078233480248
-0.002899771140561798   -0.012099660678395756   -0.0006604104875335529
-0.004358167683804522   -0.01207737226657307   -0.0007069410765626033
-0.0027881067396848505   -0.009414724025368765   -0.0006504526082311843
-0.004260312500692941   -0.009463845632179769   -0.0006846078233480248
-0.004343884445789604   -0.012102972743668927   -0.0007101161317005747
-0.0027831773548483217   -0.009436870119088935   -0.0006373829757291298
-0.00426064208123432   -0.009492707278755322   -0.0006737125229840547
-0.004343884445789604   -0.012102972743668927   -0.0007101161317005747
-0.002899771140561798   -0.012099660678395756   -0.0006604104875335529
-0.0027831773548483217   -0.009436870119088935   -0.0006373829757291298
-0.002883319597509321   -0.012125239499724863   -0.0006597793356298186
-0.00426064208123432   -0.009492707278755322   -0.0006737125229840547
-0.0027728313071662893   -0.009459006547535603   -0.0006267263037105146
-0.002883319597509321   -0.012125239499724863   -0.0006597793356298186
-0.0027831773548483217   -0.009436870119088935   -0.0006373829757291298
-0.00426064208123432   -0.009492707278755322   -0.0006737125229840547
-0.002883319597509321   -0.012125239499724863   -0.0006597793356298186
-0.004321351958916041   -0.012136137698875433   -0.0007174657159966411
-0.004343884445789604   -0.012102972743668927   -0.0007101161317005747
-0.00426064208123432   -0.009492707278755322   -0.0006737125229840547
-0.002883319597509321   -0.012125239499724863   -0.0006597793356298186
-0.004343884445789604   -0.012102972743668927   -0.0007101161317005747
-0.0027831773548483217   -0.009436870119088935   -0.0006373829757291298
-0.0027904013944783667   -0.009390867172820986   -0.0006661297180574472
-0.0029212775576613614   -0.01205836595807185   -0.0006695168245712109
-0.0014443534977004232   -0.009382297774800345   -0.0006306432310716203
-0.0027881067396848505   -0.009414724025368765   -0.0006504526082311843
-0.0029212775576613614   -0.01205836595807185   -0.0006695168245712109
-0.0015986621898054774   -0.012059730003470721   -0.0006441693498431772
-0.0014443534977004232   -0.009382297774800345   -0.0006306432310716203
-0.0015874916364357185   -0.012070820648357444   -0.0006334701738751241
-0.0027881067396848505   -0.009414724025368765   -0.0006504526082311843
-0.001438164956027766   -0.00939663758991005   -0.000616783472540155
-0.0015874916364357185   -0.012070820648357444   -0.0006334701738751241
-0.0014443534977004232   -0.009382297774800345   -0.0006306432310716203
-0.0027881067396848505   -0.009414724025368765   -0.0006504526082311843
-0.0015874916364357185   -0.012070820648357444   -0.0006334701738751241
-0.0029126915240621147   -0.012077873616563865   -0.0006636377868717386
-0.0029212775576613614   -0.01205836595807185   -0.0006695168245712109
-0.0027881067396848505   -0.009414724025368765   -0.0006504526082311843
-0.0015874916364357185   -0.012070820648357444   -0.0006334701738751241
-0.0029212775576613614   -0.01205836595807185   -0.0006695168245712109
-0.0014443534977004232   -0.009382297774800345   -0.0006306432310716203
-0.0027881067396848505   -0.009414724025368765   -0.0006504526082311843
-0.0029126915240621147   -0.012077873616563865   -0.0006636377868717386
-0.001438164956027766   -0.00939663758991005   -0.000616783472540155
-0.0027831773548483217   -0.009436870119088935   -0.0006373829757291298
-0.0029126915240621147   -0.012077873616563865   -0.0006636377868717386
-0.0015874916364357185   -0.012070820648357444   -0.0006334701738751241
-0.001438164956027766   -0.00939663758991005   -0.000616783472540155
-0.0015749936212079683   -0.012084466973412462   -0.0006254279655431771
-0.0027831773548483217   -0.009436870119088935   -0.0006373829757291298
-0.0014308573969851917   -0.009409893422774752   -0.0006055270382967197
-0.0015749936212079683   -0.012084466973412462   -0.0006254279655431771
-0.001438164956027766   -0.00939663758991005   -0.000616783472540155
-0.0027831773548483217   -0.009436870119088935   -0.0006373829757291298
-0.0015749936212079683   -0.012084466973412462   -0.0006254279655431771
-0.002899771140561798   -0.012099660678395756   -0.0006604104875335529
-0.0029126915240621147   -0.012077873616563865   -0.0006636377868717386
-0.0027831773548483217   -0.009436870119088935   -0.0006373829757291298
-0.0015749936212079683   -0.012084466973412462   -0.0006254279655431771
-0.0029126915240621147   -0.012077873616563865   -0.0006636377868717386
-0.001438164956027766   -0.00939663758991005   -0.000616783472540155
-0.0027831773548483217   -0.009436870119088935   -0.0006373829757291298
-0.002899771140561798   -0.012099660678395756   -0.0006604104875335529
-0.0014308573969851917   -0.009409893422774752   -0.0006055270382967197
-0.0027728313071662893   -0.009459006547535603   -0.0006267263037105146
-0.002899771140561798   -0.012099660678395756   -0.0006604104875335529
-0.0015749936212079683   -0.012084466973412462   -0.0006254279655431771
-0.0014308573969851917   -0.009409893422774752   -0.0006055270382967197
-0.001561575586891494   -0.012100711892183664   -0.0006201354986690609
-0.0027728313071662893   -0.009459006547535603   -0.0006267263037105146
-0.0014222924373240475   -0.00942211119818083   -0.0005969425404503718
-0.001561575586891494   -0.012100711892183664   -0.0006201354986690609
-0.0014308573969851917   -0.009409893422774752   -0.0006055270382967197
-0.0027728313071662893   -0.009459006547535603   -0.0006267263037105146
-0.001561575586891494   -0.012100711892183664   -0.0006201354986690609
-0.002883319597509321   -0.012125239499724863   -0.0006597793356298186
-0.002899771140561798   -0.012099660678395756   -0.0006604104875335529
-0.0027728313071662893   -0.009459006547535603   -0.0006267263037105146
-0.001561575586891494   -0.012100711892183664   -0.0006201354986690609
-0.002899771140561798   -0.012099660678395756   -0.0006604104875335529
-0.0014308573969851917   -0.009409893422774752   -0.0006055270382967197
-0.0014443534977004232   -0.009382297774800345   -0.0006306432310716203
-0.0015986621898054774   -0.012059730003470721   -0.0006441693498431772
-0.00013479690001587586   -0.009377212216847857   -0.0006126049687711784
-0.001438164956027766   -0.00939663758991005   -0.000616783472540155
-0.0015986621898054774   -0.012059730003470721   -0.0006441693498431772
-0.0003133015068690903   -0.012052495220815928   -0.0006341760143464442
-0.00013479690001587586   -0.009377212216847857   -0.0006126049687711784
-0.0003002060333350456   -0.012054838397959419   -0.0006188989455916515
-0.001438164956027766   -0.00939663758991005   -0.000616783472540155
-0.0001265736289269553   -0.009381812835453123   -0.0006007152511796506
-0.0003002060333350456   -0.012054838397959419   -0.0006188989455916515
-0.00013479690001587586   -0.009377212216847857   -0.0006126049687711784
-0.001438164956027766   -0.00939663758991005   -0.000616783472540155
-0.0003002060333350456   -0.012054838397959419   -0.0006188989455916515
-0.0015874916364357185   -0.012070820648357444   -0.0006334701738751241
-0.0015986621898054774   -0.012059730003470721   -0.0006441693498431772
-0.001438164956027766   -0.00939663758991005   -0.000616783472540155
-0.0003002060333350456   -0.012054838397959419   -0.0006188989455916515
-0.0015986621898054774   -0.012059730003470721   -0.0006441693498431772
-0.00013479690001587586   -0.009377212216847857   -0.0006126049687711784
-0.001438164956027766   -0.00939663758991005   -0.000616783472540155
-0.0015874916364357185   -0.012070820648357444   -0.0006334701738751241
-0.0001265736289269553   -0.009381812835453123   -0.0006007152511796506
-0.0014308573969851917   -0.009409893422774752   -0.0006055270382967197
-0.0015874916364357185   -0.012070820648357444   -0.0006334701738751241
-0.0003002060333350456   -0.012054838397959419   -0.0006188989455916515
-0.0001265736289269553   -0.009381812835453123   -0.0006007152511796506
-0.00028777565934924403   -0.012059552535322945   -0.0006062655075750474
-0.0014308573969851917   -0.009409893422774752   -0.0006055270382967197
-0.00011930384918317424   -0.009385246253692088   -0.0005914115700153245
-0.00028777565934924403   -0.012059552535322945   -0.0006062655075750474
-0.0001265736289269553   -0.009381812835453123   -0.0006007152511796506
-0.0014308573969851917   -0.009409893422774752   -0.0006055270382967197
-0.00028777565934924403   -0.012059552535322945   -0.0006062655075750474
-0.0015749936212079683   -0.012084466973412462   -0.0006254279655431771
-0.0015874916364357185   -0.012070820648357444   -0.0006334701738751241
-0.0014308573969851917   -0.009409893422774752   -0.0006055270382967197
-0.00028777565934924403   -0.012059552535322945   -0.0006062655075750474
-0.0015874916364357185   -0.012070820648357444   -0.0006334701738751241
-0.0001265736289269553   -0.009381812835453123   -0.0006007152511796506
-0.0014308573969851917   -0.009409893422774752   -0.0006055270382967197
-0.0015749936212079683   -0.012084466973412462   -0.0006254279655431771
-0.00011930384918317424   -0.009385246253692088   -0.0005914115700153245
-0.0014222924373240475   -0.00942211119818083   -0.0005969425404503718
-0.0015749936212079683   -0.012084466973412462   -0.0006254279655431771
-0.00028777565934924403   -0.012059552535322945   -0.0006062655075750474
-0.00011930384918317424   -0.009385246253692088   -0.0005914115700153245
-0.000277078382350853   -0.0120667379737827   -0.0005963650661277533
-0.0014222924373240475   -0.00942211119818083   -0.0005969425404503718
-0.00011346428051844298   -0.009387490940975275   -0.000584784926054702
-0.000277078382350853   -0.0120667379737827   -0.0005963650661277533
-0.00011930384918317424   -0.009385246253692088   -0.0005914115700153245
-0.0014222924373240475   -0.00942211119818083   -0.0005969425404503718
-0.000277078382350853   -0.0120667379737827   -0.0005963650661277533
-0.001561575586891494   -0.012100711892183664   -0.0006201354986690609
-0.0015749936212079683   -0.012084466973412462   -0.0006254279655431771
-0.0014222924373240475   -0.00942211119818083   -0.0005969425404503718
-0.000277078382350853   -0.0120667379737827   -0.0005963650661277533
-0.0015749936212079683   -0.012084466973412462   -0.0006254279655431771
-0.00011930384918317424   -0.009385246253692088   -0.0005914115700153245
-0.00013479690001587586   -0.009377212216847857   -0.0006126049687711784
-0.0003133015068690903   -0.012052495220815928   -0.0006341760143464442
0.0012144704061295229   -0.009374725074112732   -0.0006122254889122606
-0.0001265736289269553   -0.009381812835453123   -0.0006007152511796506
-0.0003133015068690903   -0.012052495220815928   -0.0006341760143464442
0.0010100784920601495   -0.012036517195062347   -0.000640071630386784
0.0012144704061295229   -0.009374725074112732   -0.0006122254889122606
0.0010266605059405273   -0.012030058099011644   -0.0006202761630112318
-0.0001265736289269553   -0.009381812835453123   -0.0006007152511796506
0.0012250863625955625   -0.009369856182264194   -0.0006023985693370998
0.0010266605059405273   -0.012030058099011644   -0.0006202761630112318
0.0012144704061295229   -0.009374725074112732   -0.0006122254889122606
-0.0001265736289269553   -0.009381812835453123   -0.0006007152511796506
0.0010266605059405273   -0.012030058099011644   -0.0006202761630112318
-0.0003002060333350456   -0.012054838397959419   -0.0006188989455916515
-0.0003133015068690903   -0.012052495220815928   -0.0006341760143464442
-0.0001265736289269553   -0.009381812835453123   -0.0006007152511796506
0.0010266605059405273   -0.012030058099011644   -0.0006202761630112318
-0.0003133015068690903   -0.012052495220815928   -0.0006341760143464442
0.0012144704061295229   -0.009374725074112732   -0.0006122254889122606
-0.0001265736289269553   -0.009381812835453123   -0.0006007152511796506
-0.0003002060333350456   -0.012054838397959419   -0.0006188989455916515
0.0012250863625955625   -0.009369856182264194   -0.0006023985693370998
-0.00011930384918317424   -0.009385246253692088   -0.0005914115700153245
-0.0003002060333350456   -0.012054838397959419   -0.0006188989455916515
0.0010266605059405273   -0.012030058099011644   -0.0006202761630112318
0.0012250863625955625   -0.009369856182264194   -0.0006023985693370998
0.0010421357086075804   -0.012026682620713294   -0.0006031129427955571
-0.00011930384918317424   -0.009385246253692088   -0.0005914115700153245
0.0012326889939889645   -0.009364401186791573   -0.0005950795048761043
0.0010421357086075804   -0.012026682620713294   -0.0006031129427955571
0.0012250863625955625   -0.009369856182264194   -0.0006023985693370998
-0.00011930384918317424   -0.009385246253692088   -0.0005914115700153245
0.0010421357086075804   -0.012026682620713294   -0.0006031129427955571
-0.00028777565934924403   -0.012059552535322945   -0.0006062655075750474
-0.0003002060333350456   -0.012054838397959419   -0.0006188989455916515
-0.00011930384918317424   -0.009385246253692088   -0.0005914115700153245
0.0010421357086075804   -0.012026682620713294   -0.0006031129427955571
-0.0003002060333350456   -0.012054838397959419   -0.0006188989455916515
0.0012250863625955625   -0.009369856182264194   -0.0006023985693370998
-0.00011930384918317424   -0.009385246253692088   -0.0005914115700153245
-0.00028777565934924403   -0.012059552535322945   -0.0006062655075750474
0.0012326889939889645   -0.009364401186791573   -0.0005950795048761043
-0.00011346428051844298   -0.009387490940975275   -0.000584784926054702
-0.00028777565934924403   -0.012059552535322945   -0.0006062655075750474
0.0010421357086075804   -0.012026682620713294   -0.0006031129427955571
0.0012326889939889645   -0.009364401186791573   -0.0005950795048761043
0.0010508770350314302   -0.012024850237420117   -0.0005884100516076833
-0.00011346428051844298   -0.009387490940975275   -0.000584784926054702
0.0012352868881476088   -0.009356640263505918   -0.0005902198809211138
0.0010508770350314302   -0.012024850237420117   -0.0005884100516076833
0.0012326889939889645   -0.009364401186791573   -0.0005950795048761043
-0.00011346428051844298   -0.009387490940975275   -0.000584784926054702
0.0010508770350314302   -0.012024850237420117   -0.0005884100516076833
-0.000277078382350853   -0.0120667379737827   -0.0005963650661277533
-0.00028777565934924403   -0.012059552535322945   -0.0006062655075750474
-0.00011346428051844298   -0.009387490940975275   -0.000584784926054702
0.0010508770350314302   -0.012024850237420117   -0.0005884100516076833
-0.00028777565934924403   -0.012059552535322945   -0.0006062655075750474
0.0012326889939889645   -0.009364401186791573   -0.0005950795048761043
0.0012144704061295229   -0.009374725074112732   -0.0006122254889122606
0.0010100784920601495   -0.012036517195062347   -0.000640071630386784
0.0026756143004985785   -0.009370926079296876   -0.0006279390884955627
0.0012250863625955625   -0.009369856182264194   -0.0006023985693370998
0.0010100784920601495   -0.012036517195062347   -0.000640071630386784
0.002425042193075536   -0.01200947837010998   -0.0006628333289515194
0.0026756143004985785   -0.009370926079296876   -0.0006279390884955627
0.002467591592862047   -0.01199499679463848   -0.0006366351014874037
0.0012250863625955625   -0.009369856182264194   -0.0006023985693370998
0.002695929136214603   -0.009358528338460046   -0.0006194199332779799
0.002467591592862047   -0.01199499679463848   -0.0006366351014874037
0.0026756143004985785   -0.009370926079296876   -0.0006279390884955627
0.0012250863625955625   -0.009369856182264194   -0.0006023985693370998
0.002467591592862047   -0.01199499679463848   -0.0006366351014874037
0.0010266605059405273   -0.012030058099011644   -0.0006202761630112318
0.0010100784920601495   -0.012036517195062347   -0.000640071630386784
0.0012250863625955625   -0.009369856182264194   -0.0006023985693370998
0.002467591592862047   -0.01199499679463848   -0.0006366351014874037
0.0010100784920601495   -0.012036517195062347   -0.000640071630386784
0.0026756143004985785   -0.009370926079296876   -0.0006279390884955627
0.0012250863625955625   -0.009369856182264194   -0.0006023985693370998
0.0010266605059405273   -0.012030058099011644   -0.0006202761630112318
0.002695929136214603   -0.009358528338460046   -0.0006194199332779799
0.0012326889939889645   -0.009364401186791573   -0.0005950795048761043
0.0010266605059405273   -0.012030058099011644   -0.0006202761630112318
0.002467591592862047   -0.01199499679463848   -0.0006366351014874037
0.002695929136214603   -0.009358528338460046   -0.0006194199332779799
0.0024972055011800664   -0.01198795192084179   -0.0006142011504857957
0.0012326889939889645   -0.009364401186791573   -0.0005950795048761043
0.0027074584509463235   -0.009348862026385898   -0.0006147256110193668
0.0024972055011800664   -0.01198795192084179   -0.0006142011504857957
0.002695929136214603   -0.009358528338460046   -0.0006194199332779799
0.0012326889939889645   -0.009364401186791573   -0.0005950795048761043
0.0024972055011800664   -0.01198795192084179   -0.0006142011504857957
0.0010421357086075804   -0.012026682620713294   -0.0006031129427955571
0.0010266605059405273   -0.012030058099011644   -0.0006202761630112318
0.0012326889939889645   -0.009364401186791573   -0.0005950795048761043
0.0024972055011800664   -0.01198795192084179   -0.0006142011504857957
0.0010266605059405273   -0.012030058099011644   -0.0006202761630112318
0.002695929136214603   -0.009358528338460046   -0.0006194199332779799
0.0012326889939889645   -0.009364401186791573   -0.0005950795048761043
0.0010421357086075804   -0.012026682620713294   -0.0006031129427955571
0.0027074584509463235   -0.009348862026385898   -0.0006147256110193668
0.0012352868881476088   -0.009356640263505918   -0.0005902198809211138
0.0010421357086075804   -0.012026682620713294   -0.0006031129427955571
0.0024972055011800664   -0.01198795192084179   -0.0006142011504857957
0.0027074584509463235   -0.009348862026385898   -0.0006147256110193668
0.0025239971687886853   -0.011980551353635157   -0.0005956916020075262
0.0012352868881476088   -0.009356640263505918   -0.0005902198809211138
0.002711955481924145   -0.009333739750247554   -0.0006139219277869897
0.0025239971687886853   -0.011980551353635157   -0.0005956916020075262
0.0027074584509463235   -0.009348862026385898   -0.0006147256110193668
0.0012352868881476088   -0.009356640263505918   -0.0005902198809211138
0.0025239971687886853   -0.011980551353635157   -0.0005956916020075262
0.0010508770350314302   -0.012024850237420117   -0.0005884100516076833
0.0010421357086075804   -0.012026682620713294   -0.0006031129427955571
0.0012352868881476088   -0.009356640263505918   -0.0005902198809211138
0.0025239971687886853   -0.011980551353635157   -0.0005956916020075262
0.0010421357086075804   -0.012026682620713294   -0.0006031129427955571
0.0027074584509463235   -0.009348862026385898   -0.0006147256110193668
-0.004364397535220426   -0.012051222655743666   -0.0007077245105699944
-0.004243096512062574   -0.0145688242594577   -0.0006779337913760005
-0.0029212775576613614   -0.01205836595807185   -0.0006695168245712109
-0.004358167683804522   -0.01207737226657307   -0.0007069410765626033
-0.004243096512062574   -0.0145688242594577   -0.0006779337913760005
-0.002907995485771689   -0.014597713185727317   -0.0006552110590183783
-0.0029212775576613614   -0.01205836595807185   -0.0006695168245712109
-0.0028908470173737233   -0.014612174779363319   -0.0006587797773195007
-0.004358167683804522   -0.01207737226657307   -0.0007069410765626033
-0.0029126915240621147   -0.012077873616563865   -0.0006636377868717386
-0.0028908470173737233   -0.014612174779363319   -0.0006587797773195007
-0.0029212775576613614   -0.01205836595807185   -0.0006695168245712109
-0.004358167683804522   -0.01207737226657307   -0.0007069410765626033
-0.0028908470173737233   -0.014612174779363319   -0.0006587797773195007
-0.004212083328525518   -0.01458836723960748   -0.00069493796194176
-0.004243096512062574   -0.0145688242594577   -0.0006779337913760005
-0.004358167683804522   -0.01207737226657307   -0.0007069410765626033
-0.0028908470173737233   -0.014612174779363319   -0.0006587797773195007
-0.004243096512062574   -0.0145688242594577   -0.0006779337913760005
-0.0029212775576613614   -0.01205836595807185   -0.0006695168245712109
-0.004358167683804522   -0.01207737226657307   -0.0007069410765626033
-0.004212083328525518   -0.01458836723960748   -0.00069493796194176
-0.0029126915240621147   -0.012077873616563865   -0.0006636377868717386
-0.004343884445789604   -0.012102972743668927   -0.0007101161317005747
-0.004212083328525518   -0.01458836723960748   -0.00069493796194176
-0.0028908470173737233   -0.014612174779363319   -0.0006587797773195007
-0.0029126915240621147   -0.012077873616563865   -0.0006636377868717386
-0.0028677844285556467   -0.014632980902815002   -0.0006650342996532842
-0.004343884445789604   -0.012102972743668927   -0.0007101161317005747
-0.002899771140561798   -0.012099660678395756   -0.0006604104875335529
-0.0028677844285556467   -0.014632980902815002   -0.0006650342996532842
-0.0029126915240621147   -0.012077873616563865   -0.0006636377868717386
-0.004343884445789604   -0.012102972743668927   -0.0007101161317005747
-0.0028677844285556467   -0.014632980902815002   -0.0006650342996532842
-0.004177013507551993   -0.014612626198767782   -0.0007161603588593427
-0.004212083328525518   -0.01458836723960748   -0.00069493796194176
-0.004343884445789604   -0.012102972743668927   -0.0007101161317005747
-0.0028677844285556467   -0.014632980902815002   -0.0006650342996532842
-0.004212083328525518   -0.01458836723960748   -0.00069493796194176
-0.0029126915240621147   -0.012077873616563865   -0.0006636377868717386
-0.004343884445789604   -0.012102972743668927   -0.0007101161317005747
-0.004177013507551993   -0.014612626198767782   -0.0007161603588593427
-0.002899771140561798   -0.012099660678395756   -0.0006604104875335529
-0.004321351958916041   -0.012136137698875433   -0.0007174657159966411
-0.004177013507551993   -0.014612626198767782   -0.0007161603588593427
-0.0028677844285556467   -0.014632980902815002   -0.0006650342996532842
-0.002899771140561798   -0.012099660678395756   -0.0006604104875335529
-0.0028431085270738156   -0.014661411312739896   -0.0006740429693927005
-0.004321351958916041   -0.012136137698875433   -0.0007174657159966411
-0.002883319597509321   -0.012125239499724863   -0.0006597793356298186
-0.0028431085270738156   -0.014661411312739896   -0.0006740429693927005
-0.002899771140561798   -0.012099660678395756   -0.0006604104875335529
-0.004321351958916041   -0.012136137698875433   -0.0007174657159966411
-0.0028431085270738156   -0.014661411312739896   -0.0006740429693927005
-0.004129497124162792   -0.014649693286538186   -0.0007416955679046431
-0.004177013507551993   -0.014612626198767782   -0.0007161603588593427
-0.004321351958916041   -0.012136137698875433   -0.0007174657159966411
-0.0028431085270738156   -0.014661411312739896   -0.0006740429693927005
-0.004177013507551993   -0.014612626198767782   -0.0007161603588593427
-0.002899771140561798   -0.012099660678395756   -0.0006604104875335529
-0.0029212775576613614   -0.01205836595807185   -0.0006695168245712109
-0.002907995485771689   -0.014597713185727317   -0.0006552110590183783
-0.0015986621898054774   -0.012059730003470721   -0.0006441693498431772
-0.0029126915240621147   -0.012077873616563865   -0.0006636377868717386
-0.002907995485771689   -0.014597713185727317   -0.0006552110590183783
-0.0017094263821381167   -0.01460887222200716   -0.0006407346989997316
-0.0015986621898054774   -0.012059730003470721   -0.0006441693498431772
-0.0016908387606341052   -0.014616296005743044   -0.000632931276607303
-0.0029126915240621147   -0.012077873616563865   -0.0006636377868717386
-0.0015874916364357185   -0.012070820648357444   -0.0006334701738751241
-0.0016908387606341052   -0.014616296005743044   -0.000632931276607303
-0.0015986621898054774   -0.012059730003470721   -0.0006441693498431772
-0.0029126915240621147   -0.012077873616563865   -0.0006636377868717386
-0.0016908387606341052   -0.014616296005743044   -0.000632931276607303
-0.0028908470173737233   -0.014612174779363319   -0.0006587797773195007
-0.002907995485771689   -0.014597713185727317   -0.0006552110590183783
-0.0029126915240621147   -0.012077873616563865   -0.0006636377868717386
-0.0016908387606341052   -0.014616296005743044   -0.000632931276607303
-0.002907995485771689   -0.014597713185727317   -0.0006552110590183783
-0.0015986621898054774   -0.012059730003470721   -0.0006441693498431772
-0.0029126915240621147   -0.012077873616563865   -0.0006636377868717386
-0.0028908470173737233   -0.014612174779363319   -0.0006587797773195007
-0.0015874916364357185   -0.012070820648357444   -0.0006334701738751241
-0.002899771140561798   -0.012099660678395756   -0.0006604104875335529
-0.0028908470173737233   -0.014612174779363319   -0.0006587797773195007
-0.0016908387606341052   -0.014616296005743044   -0.000632931276607303
-0.0015874916364357185   -0.012070820648357444   -0.0006334701738751241
-0.0016708774355940483   -0.014629801976687366   -0.0006277788835148646
-0.002899771140561798   -0.012099660678395756   -0.0006604104875335529
-0.0015749936212079683   -0.012084466973412462   -0.0006254279655431771
-0.0016708774355940483   -0.014629801976687366   -0.0006277788835148646
-0.0015874916364357185   -0.012070820648357444   -0.0006334701738751241
-0.002899771140561798   -0.012099660678395756   -0.0006604104875335529
-0.0016708774355940483   -0.014629801976687366   -0.0006277788835148646
-0.0028677844285556467   -0.014632980902815002   -0.0006650342996532842
-0.0028908470173737233   -0.014612174779363319   -0.0006587797773195007
-0.002899771140561798   -0.012099660678395756   -0.0006604104875335529
-0.0016708774355940483   -0.014629801976687366   -0.0006277788835148646
-0.0028908470173737233   -0.014612174779363319   -0.0006587797773195007
-0.0015874916364357185   -0.012070820648357444   -0.0006334701738751241
-0.002899771140561798   -0.012099660678395756   -0.0006604104875335529
-0.0028677844285556467   -0.014632980902815002   -0.0006650342996532842
-0.0015749936212079683   -0.012084466973412462   -0.0006254279655431771
-0.002883319597509321   -0.012125239499724863   -0.0006597793356298186
-0.0028677844285556467   -0.014632980902815002   -0.0006650342996532842
-0.0016708774355940483   -0.014629801976687366   -0.0006277788835148646
-0.0015749936212079683   -0.012084466973412462   -0.0006254279655431771
-0.0016503613372242762   -0.01464955194180116   -0.0006254140833263315
-0.002883319597509321   -0.012125239499724863   -0.0006597793356298186
-0.001561575586891494   -0.012100711892183664   -0.0006201354986690609
-0.0016503613372242762   -0.01464955194180116   -0.0006254140833263315
-0.0015749936212079683   -0.012084466973412462   -0.0006254279655431771
-0.002883319597509321   -0.012125239499724863   -0.0006597793356298186
-0.0016503613372242762   -0.01464955194180116   -0.0006254140833263315
-0.0028431085270738156   -0.014661411312739896   -0.0006740429693927005
-0.0028677844285556467   -0.014632980902815002   -0.0006650342996532842
-0.002883319597509321   -0.012125239499724863   -0.0006597793356298186
-0.0016503613372242762   -0.01464955194180116   -0.0006254140833263315
-0.0028677844285556467   -0.014632980902815002   -0.0006650342996532842
-0.0015749936212079683   -0.012084466973412462   -0.0006254279655431771
-0.0015986621898054774   -0.012059730003470721   -0.0006441693498431772
-0.0017094263821381167   -0.01460887222200716   -0.0006407346989997316
-0.0003133015068690903   -0.012052495220815928   -0.0006341760143464442
-0.0015874916364357185   -0.012070820648357444   -0.0006334701738751241
-0.0017094263821381167   -0.01460887222200716   -0.0006407346989997316
-0.0005468621166444067   -0.014599768672315017   -0.000638809888218746
-0.0003133015068690903   -0.012052495220815928   -0.0006341760143464442
-0.000526317913192401   -0.014599700508421368   -0.000620024366893418
-0.0015874916364357185   -0.012070820648357444   -0.0006334701738751241
-0.0003002060333350456   -0.012054838397959419   -0.0006188989455916515
-0.000526317913192401   -0.014599700508421368   -0.000620024366893418
-0.0003133015068690903   -0.012052495220815928   -0.0006341760143464442
-0.0015874916364357185   -0.012070820648357444   -0.0006334701738751241
-0.000526317913192401   -0.014599700508421368   -0.000620024366893418
-0.0016908387606341052   -0.014616296005743044   -0.000632931276607303
-0.0017094263821381167   -0.01460887222200716   -0.0006407346989997316
-0.0015874916364357185   -0.012070820648357444   -0.0006334701738751241
-0.000526317913192401   -0.014599700508421368   -0.000620024366893418
-0.0017094263821381167   -0.01460887222200716   -0.0006407346989997316
-0.0003133015068690903   -0.012052495220815928   -0.0006341760143464442
-0.0015874916364357185   -0.012070820648357444   -0.0006334701738751241
-0.0016908387606341052   -0.014616296005743044   -0.000632931276607303
-0.0003002060333350456   -0.012054838397959419   -0.0006188989455916515
-0.0015749936212079683   -0.012084466973412462   -0.0006254279655431771
-0.0016908387606341052   -0.014616296005743044   -0.000632931276607303
-0.000526317913192401   -0.014599700508421368   -0.000620024366893418
-0.0003002060333350456   -0.012054838397959419   -0.0006188989455916515
-0.0005062892162782148   -0.014605295446119678   -0.0006039011019231159
-0.0015749936212079683   -0.012084466973412462   -0.0006254279655431771
-0.00028777565934924403   -0.012059552535322945   -0.0006062655075750474
-0.0005062892162782148   -0.014605295446119678   -0.0006039011019231159
-0.0003002060333350456   -0.012054838397959419   -0.0006188989455916515
-0.0015749936212079683   -0.012084466973412462   -0.0006254279655431771
-0.0005062892162782148   -0.014605295446119678   -0.0006039011019231159
-0.0016708774355940483   -0.014629801976687366   -0.0006277788835148646
-0.0016908387606341052   -0.014616296005743044   -0.000632931276607303
-0.0015749936212079683   -0.012084466973412462   -0.0006254279655431771
-0.0005062892162782148   -0.014605295446119678   -0.0006039011019231159
-0.0016908387606341052   -0.014616296005743044   -0.000632931276607303
-0.0003002060333350456   -0.012054838397959419   -0.0006188989455916515
-0.0015749936212079683   -0.012084466973412462   -0.0006254279655431771
-0.0016708774355940483   -0.014629801976687366   -0.0006277788835148646
-0.00028777565934924403   -0.012059552535322945   -0.0006062655075750474
-0.001561575586891494   -0.012100711892183664   -0.0006201354986690609
-0.0016708774355940483   -0.014629801976687366   -0.0006277788835148646
-0.0005062892162782148   -0.014605295446119678   -0.0006039011019231159
-0.00028777565934924403   -0.012059552535322945   -0.0006062655075750474
-0.0004883521856453594   -0.01461699529898723   -0.0005905305273038988
-0.001561575586891494   -0.012100711892183664   -0.0006201354986690609
-0.000277078382350853   -0.0120667379737827   -0.0005963650661277533
-0.0004883521856453594   -0.01461699529898723   -0.0005905305273038988
-0.00028777565934924403   -0.012059552535322945   -0.0006062655075750474
-0.001561575586891494   -0.012100711892183664   -0.0006201354986690609
-0.0004883521856453594   -0.01461699529898723   -0.0005905305273038988
-0.0016503613372242762   -0.01464955194180116   -0.0006254140833263315
-0.0016708774355940483   -0.014629801976687366   -0.0006277788835148646
-0.001561575586891494   -0.012100711892183664   -0.0006201354986690609
-0.0004883521856453594   -0.01461699529898723   -0.0005905305273038988
-0.0016708774355940483   -0.014629801976687366   -0.0006277788835148646
-0.00028777565934924403   -0.012059552535322945   -0.0006062655075750474
-0.0003133015068690903   -0.012052495220815928   -0.0006341760143464442
-0.0005468621166444067   -0.014599768672315017   -0.000638809888218746
0.0010100784920601495   -0.012036517195062347   -0.000640071630386784
-0.0003002060333350456   -0.012054838397959419   -0.0006188989455916515
-0.0005468621166444067   -0.014599768672315017   -0.000638809888218746
0.0006545140164915283   -0.01457088218503407   -0.0006504130147357462
0.0010100784920601495   -0.012036517195062347   -0.000640071630386784
0.000679659515079863   -0.014562813437229026   -0.0006207246083363992
-0.0003002060333350456   -0.012054838397959419   -0.0006188989455916515
0.0010266605059405273   -0.012030058099011644   -0.0006202761630112318
0.000679659515079863   -0.014562813437229026   -0.0006207246083363992
0.0010100784920601495   -0.012036517195062347   -0.000640071630386784
-0.0003002060333350456   -0.012054838397959419   -0.0006188989455916515
0.000679659515079863   -0.014562813437229026   -0.0006207246083363992
-0.000526317913192401   -0.014599700508421368   -0.000620024366893418
-0.0005468621166444067   -0.014599768672315017   -0.000638809888218746
-0.0003002060333350456   -0.012054838397959419   -0.0006188989455916515
0.000679659515079863   -0.014562813437229026   -0.0006207246083363992
-0.0005468621166444067   -0.014599768672315017   -0.000638809888218746
0.0010100784920601495   -0.012036517195062347   -0.000640071630386784
-0.0003002060333350456   -0.012054838397959419   -0.0006188989455916515
-0.000526317913192401   -0.014599700508421368   -0.000620024366893418
0.0010266605059405273   -0.012030058099011644   -0.0006202761630112318
-0.00028777565934924403   -0.012059552535322945   -0.0006062655075750474
-0.000526317913192401   -0.014599700508421368   -0.000620024366893418
0.000679659515079863   -0.014562813437229026   -0.0006207246083363992
0.0010266605059405273   -0.012030058099011644   -0.0006202761630112318
0.0007055351102688155   -0.014561226444555412   -0.0005938625391710317
-0.00028777565934924403   -0.012059552535322945   -0.0006062655075750474
0.0010421357086075804   -0.012026682620713294   -0.0006031129427955571
0.0007055351102688155   -0.014561226444555412   -0.0005938625391710317
0.0010266605059405273   -0.012030058099011644   -0.0006202761630112318
-0.00028777565934924403   -0.012059552535322945   -0.0006062655075750474
0.0007055351102688155   -0.014561226444555412   -0.0005938625391710317
-0.0005062892162782148   -0.014605295446119678   -0.0006039011019231159
-0.000526317913192401   -0.014599700508421368   -0.000620024366893418
-0.00028777565934924403   -0.012059552535322945   -0.0006062655075750474
0.0007055351102688155   -0.014561226444555412   -0.0005938625391710317
-0.000526317913192401   -0.014599700508421368   -0.000620024366893418
0.0010266605059405273   -0.012030058099011644   -0.0006202761630112318
-0.00028777565934924403   -0.012059552535322945   -0.0006062655075750474
-0.0005062892162782148   -0.014605295446119678   -0.0006039011019231159
0.0010421357086075804   -0.012026682620713294   -0.0006031129427955571
-0.000277078382350853   -0.0120667379737827   -0.0005963650661277533
-0.0005062892162782148   -0.014605295446119678   -0.0006039011019231159
0.0007055351102688155   -0.014561226444555412   -0.0005938625391710317
0.0010421357086075804   -0.012026682620713294   -0.0006031129427955571
0.0007229033760522035   -0.014564944503264746   -0.0005694520695925785
-0.000277078382350853   -0.0120667379737827   -0.0005963650661277533
0.0010508770350314302   -0.012024850237420117   -0.0005884100516076833
0.0007229033760522035   -0.014564944503264746   -0.0005694520695925785
0.0010421357086075804   -0.012026682620713294   -0.0006031129427955571
-0.000277078382350853   -0.0120667379737827   -0.0005963650661277533
0.0007229033760522035   -0.014564944503264746   -0.0005694520695925785
-0.0004883521856453594   -0.01461699529898723   -0.0005905305273038988
-0.0005062892162782148   -0.014605295446119678   -0.0006039011019231159
-0.000277078382350853   -0.0120667379737827   -0.0005963650661277533
0.0007229033760522035   -0.014564944503264746   -0.0005694520695925785
-0.0005062892162782148   -0.014605295446119678   -0.0006039011019231159
0.0010421357086075804   -0.012026682620713294   -0.0006031129427955571
0.0010100784920601495   -0.012036517195062347   -0.000640071630386784
0.0006545140164915283   -0.01457088218503407   -0.0006504130147357462
0.002425042193075536   -0.01200947837010998   -0.0006628333289515194
0.0010266605059405273   -0.012030058099011644   -0.0006202761630112318
0.0006545140164915283   -0.01457088218503407   -0.0006504130147357462
0.0019297008850809138   -0.014521142723573187   -0.0006795048387888208
0.002425042193075536   -0.01200947837010998   -0.0006628333289515194
0.001996703700740301   -0.014504723898411386   -0.0006361667102604068
0.0010266605059405273   -0.012030058099011644   -0.0006202761630112318
0.002467591592862047   -0.01199499679463848   -0.0006366351014874037
0.001996703700740301   -0.014504723898411386   -0.0006361667102604068
0.002425042193075536   -0.01200947837010998   -0.0006628333289515194
0.0010266605059405273   -0.012030058099011644   -0.0006202761630112318
0.001996703700740301   -0.014504723898411386   -0.0006361667102604068
0.000679659515079863   -0.014562813437229026   -0.0006207246083363992
0.0006545140164915283   -0.01457088218503407   -0.0006504130147357462
0.0010266605059405273   -0.012030058099011644   -0.0006202761630112318
0.001996703700740301   -0.014504723898411386   -0.0006361667102604068
0.0006545140164915283   -0.01457088218503407   -0.0006504130147357462
0.002425042193075536   -0.01200947837010998   -0.0006628333289515194
0.0010266605059405273   -0.012030058099011644   -0.0006202761630112318
0.000679659515079863   -0.014562813437229026   -0.0006207246083363992
0.002467591592862047   -0.01199499679463848   -0.0006366351014874037
0.0010421357086075804   -0.012026682620713294   -0.0006031129427955571
0.000679659515079863   -0.014562813437229026   -0.0006207246083363992
0.001996703700740301   -0.014504723898411386   -0.0006361667102604068
0.002467591592862047   -0.01199499679463848   -0.0006366351014874037
0.002046522481426777   -0.014500130589104033   -0.0005966010175287353
0.0010421357086075804   -0.012026682620713294   -0.0006031129427955571
0.0024972055011800664   -0.01198795192084179   -0.0006142011504857957
0.002046522481426777   -0.014500130589104033   -0.0005966010175287353
0.002467591592862047   -0.01199499679463848   -0.0006366351014874037
0.0010421357086075804   -0.012026682620713294   -0.0006031129427955571
0.002046522481426777   -0.014500130589104033   -0.0005966010175287353
0.0007055351102688155   -0.014561226444555412   -0.0005938625391710317
0.000679659515079863   -0.014562813437229026   -0.0006207246083363992
0.0010421357086075804   -0.012026682620713294   -0.0006031129427955571
0.002046522481426777   -0.014500130589104033   -0.0005966010175287353
0.000679659515079863   -0.014562813437229026   -0.0006207246083363992
0.002467591592862047   -0.01199499679463848   -0.0006366351014874037
0.0010421357086075804   -0.012026682620713294   -0.0006031129427955571
0.0007055351102688155   -0.014561226444555412   -0.0005938625391710317
0.0024972055011800664   -0.01198795192084179   -0.0006142011504857957
0.0010508770350314302   -0.012024850237420117   -0.0005884100516076833
0.0007055351102688155   -0.014561226444555412   -0.0005938625391710317
0.002046522481426777   -0.014500130589104033   -0.0005966010175287353
0.0024972055011800664   -0.01198795192084179   -0.0006142011504857957
0.0020973995978495765   -0.014500163349995331   -0.0005609897883447684
0.0010508770350314302   -0.012024850237420117   -0.0005884100516076833
0.0025239971687886853   -0.011980551353635157   -0.0005956916020075262
0.0020973995978495765   -0.014500163349995331   -0.0005609897883447684
0.0024972055011800664   -0.01198795192084179   -0.0006142011504857957
0.0010508770350314302   -0.012024850237420117   -0.0005884100516076833
0.0020973995978495765   -0.014500163349995331   -0.0005609897883447684
0.0007229033760522035   -0.014564944503264746   -0.0005694520695925785
0.0007055351102688155   -0.014561226444555412   -0.0005938625391710317
0.0010508770350314302   -0.012024850237420117   -0.0005884100516076833
0.0020973995978495765   -0.014500163349995331   -0.0005609897883447684
0.0007055351102688155   -0.014561226444555412   -0.0005938625391710317
0.0024972055011800664   -0.01198795192084179   -0.0006142011504857957
-0.004243096512062574   -0.0145688242594577   -0.0006779337913760005
-0.0038737540331267575   -0.01678953083094847   -0.0006331690022735744
-0.002907995485771689   -0.014597713185727317   -0.0006552110590183783
-0.004212083328525518   -0.01458836723960748   -0.00069493796194176
-0.0038737540331267575   -0.01678953083094847   -0.0006331690022735744
-0.002751852629900596   -0.016841065174783384   -0.0006297101805025614
-0.002907995485771689   -0.014597713185727317   -0.0006552110590183783
-0.002724307033021633   -0.016848480373001018   -0.0006419798449257585
-0.004212083328525518   -0.01458836723960748   -0.00069493796194176
-0.0028908470173737233   -0.014612174779363319   -0.0006587797773195007
-0.002724307033021633   -0.016848480373001018   -0.0006419798449257585
-0.002907995485771689   -0.014597713185727317   -0.0006552110590183783
-0.004212083328525518   -0.01458836723960748   -0.00069493796194176
-0.002724307033021633   -0.016848480373001018   -0.0006419798449257585
-0.003815944348288696   -0.016800486874833702   -0.0006677194731249571
-0.0038737540331267575   -0.01678953083094847   -0.0006331690022735744
-0.004212083328525518   -0.01458836723960748   -0.00069493796194176
-0.002724307033021633   -0.016848480373001018   -0.0006419798449257585
-0.0038737540331267575   -0.01678953083094847   -0.0006331690022735744
-0.002907995485771689   -0.014597713185727317   -0.0006552110590183783
-0.004212083328525518   -0.01458836723960748   -0.00069493796194176
-0.003815944348288696   -0.016800486874833702   -0.0006677194731249571
-0.0028908470173737233   -0.014612174779363319   -0.0006587797773195007
-0.004177013507551993   -0.014612626198767782   -0.0007161603588593427
-0.003815944348288696   -0.016800486874833702   -0.0006677194731249571
-0.002724307033021633   -0.016848480373001018   -0.0006419798449257585
-0.0028908470173737233   -0.014612174779363319   -0.0006587797773195007
-0.0026896906579647077   -0.016866440158725012   -0.0006569437248762625
-0.004177013507551993   -0.014612626198767782   -0.0007161603588593427
-0.0028677844285556467   -0.014632980902815002   -0.0006650342996532842
-0.0026896906579647077   -0.016866440158725012   -0.0006569437248762625
-0.0028908470173737233   -0.014612174779363319   -0.0006587797773195007
-0.004177013507551993   -0.014612626198767782   -0.0007161603588593427
-0.0026896906579647077   -0.016866440158725012   -0.0006569437248762625
-0.0037585095164132413   -0.016821572517084982   -0.0007066540507891634
-0.003815944348288696   -0.016800486874833702   -0.0006677194731249571
-0.004177013507551993   -0.014612626198767782   -0.0007161603588593427
-0.0026896906579647077   -0.016866440158725012   -0.0006569437248762625
-0.003815944348288696   -0.016800486874833702   -0.0006677194731249571
-0.0028908470173737233   -0.014612174779363319   -0.0006587797773195007
-0.004177013507551993   -0.014612626198767782   -0.0007161603588593427
-0.0037585095164132413   -0.016821572517084982   -0.0007066540507891634
-0.0028677844285556467   -0.014632980902815002   -0.0006650342996532842
-0.004129497124162792   -0.014649693286538186   -0.0007416955679046431
-0.0037585095164132413   -0.016821572517084982   -0.0007066540507891634
-0.0026896906579647077   -0.016866440158725012   -0.0006569437248762625
-0.0028677844285556467   -0.014632980902815002   -0.0006650342996532842
-0.002655578758028315   -0.016895968563960372   -0.0006745758388461992
-0.004129497124162792   -0.014649693286538186   -0.0007416955679046431
-0.0028431085270738156   -0.014661411312739896   -0.0006740429693927005
-0.002655578758028315   -0.016895968563960372   -0.0006745758388461992
-0.0028677844285556467   -0.014632980902815002   -0.0006650342996532842
-0.004129497124162792   -0.014649693286538186   -0.0007416955679046431
-0.002655578758028315   -0.016895968563960372   -0.0006745758388461992
-0.003685004162352152   -0.016860893094778853   -0.000749909994550616
-0.0037585095164132413   -0.016821572517084982   -0.0007066540507891634
-0.004129497124162792   -0.014649693286538186   -0.0007416955679046431
-0.002655578758028315   -0.016895968563960372   -0.0006745758388461992
-0.0037585095164132413   -0.016821572517084982   -0.0007066540507891634
-0.0028677844285556467   -0.014632980902815002   -0.0006650342996532842
-0.002907995485771689   -0.014597713185727317   -0.0006552110590183783
-0.002751852629900596   -0.016841065174783384   -0.0006297101805025614
-0.0017094263821381167   -0.01460887222200716   -0.0006407346989997316
-0.0028908470173737233   -0.014612174779363319   -0.0006587797773195007
-0.002751852629900596   -0.016841065174783384   -0.0006297101805025614
-0.0017776140282197209   -0.016864768722072595   -0.0006284709256305983
-0.0017094263821381167   -0.01460887222200716   -0.0006407346989997316
-0.0017494342628971554   -0.016867132809225374   -0.0006228731673156521
-0.0028908470173737233   -0.014612174779363319   -0.0006587797773195007
-0.0016908387606341052   -0.014616296005743044   -0.000632931276607303
-0.0017494342628971554   -0.016867132809225374   -0.0006228731673156521
-0.0017094263821381167   -0.01460887222200716   -0.0006407346989997316
-0.0028908470173737233   -0.014612174779363319   -0.0006587797773195007
-0.0017494342628971554   -0.016867132809225374   -0.0006228731673156521
-0.002724307033021633   -0.016848480373001018   -0.0006419798449257585
-0.002751852629900596   -0.016841065174783384   -0.0006297101805025614
-0.0028908470173737233   -0.014612174779363319   -0.0006587797773195007
-0.0017494342628971554   -0.016867132809225374   -0.0006228731673156521
-0.002751852629900596   -0.016841065174783384   -0.0006297101805025614
-0.0017094263821381167   -0.01460887222200716   -0.0006407346989997316
-0.0028908470173737233   -0.014612174779363319   -0.0006587797773195007
-0.002724307033021633   -0.016848480373001018   -0.0006419798449257585
-0.0016908387606341052   -0.014616296005743044   -0.000632931276607303
-0.0028677844285556467   -0.014632980902815002   -0.0006650342996532842
-0.002724307033021633   -0.016848480373001018   -0.0006419798449257585
-0.0017494342628971554   -0.016867132809225374   -0.0006228731673156521
-0.0016908387606341052   -0.014616296005743044   -0.000632931276607303
-0.0017203173772062184   -0.016878930701396927   -0.0006198893972899696
-0.0028677844285556467   -0.014632980902815002   -0.0006650342996532842
-0.0016708774355940483   -0.014629801976687366   -0.0006277788835148646
-0.0017203173772062184   -0.016878930701396927   -0.0006198893972899696
-0.0016908387606341052   -0.014616296005743044   -0.000632931276607303
-0.0028677844285556467   -0.014632980902815002   -0.0006650342996532842
-0.0017203173772062184   -0.016878930701396927   -0.0006198893972899696
-0.0026896906579647077   -0.016866440158725012   -0.0006569437248762625
-0.002724307033021633   -0.016848480373001018   -0.0006419798449257585
-0.0028677844285556467   -0.014632980902815002   -0.0006650342996532842
-0.0017203173772062184   -0.016878930701396927   -0.0006198893972899696
-0.002724307033021633   -0.016848480373001018   -0.0006419798449257585
-0.0016908387606341052   -0.014616296005743044   -0.000632931276607303
-0.0028677844285556467   -0.014632980902815002   -0.0006650342996532842
-0.0026896906579647077   -0.016866440158725012   -0.0006569437248762625
-0.0016708774355940483   -0.014629801976687366   -0.0006277788835148646
-0.0028431085270738156   -0.014661411312739896   -0.0006740429693927005
-0.0026896906579647077   -0.016866440158725012   -0.0006569437248762625
-0.0017203173772062184   -0.016878930701396927   -0.0006198893972899696
-0.0016708774355940483   -0.014629801976687366   -0.0006277788835148646
-0.0016912310171543642   -0.016900677449127467   -0.0006194992528092737
-0.0028431085270738156   -0.014661411312739896   -0.0006740429693927005
-0.0016503613372242762   -0.01464955194180116   -0.0006254140833263315
-0.0016912310171543642   -0.016900677449127467   -0.0006194992528092737
-0.0016708774355940483   -0.014629801976687366   -0.0006277788835148646
-0.0028431085270738156   -0.014661411312739896   -0.0006740429693927005
-0.0016912310171543642   -0.016900677449127467   -0.0006194992528092737
-0.002655578758028315   -0.016895968563960372   -0.0006745758388461992
-0.0026896906579647077   -0.016866440158725012   -0.0006569437248762625
-0.0028431085270738156   -0.014661411312739896   -0.0006740429693927005
-0.0016912310171543642   -0.016900677449127467   -0.0006194992528092737
-0.0026896906579647077   -0.016866440158725012   -0.0006569437248762625
-0.0016708774355940483   -0.014629801976687366   -0.0006277788835148646
-0.0017094263821381167   -0.01460887222200716   -0.0006407346989997316
-0.0017776140282197209   -0.016864768722072595   -0.0006284709256305983
-0.0005468621166444067   -0.014599768672315017   -0.000638809888218746
-0.0016908387606341052   -0.014616296005743044   -0.000632931276607303
-0.0017776140282197209   -0.016864768722072595   -0.0006284709256305983
-0.0008354234260191327   -0.016859604280764325   -0.0006358035151714776
-0.0005468621166444067   -0.014599768672315017   -0.000638809888218746
-0.0008045653527546036   -0.016856262940168478   -0.0006129563877366874
-0.0016908387606341052   -0.014616296005743044   -0.000632931276607303
-0.000526317913192401   -0.014599700508421368   -0.000620024366893418
-0.0008045653527546036   -0.016856262940168478   -0.0006129563877366874
-0.0005468621166444067   -0.014599768672315017   -0.000638809888218746
-0.0016908387606341052   -0.014616296005743044   -0.000632931276607303
-0.0008045653527546036   -0.016856262940168478   -0.0006129563877366874
-0.0017494342628971554   -0.016867132809225374   -0.0006228731673156521
-0.0017776140282197209   -0.016864768722072595   -0.0006284709256305983
-0.0016908387606341052   -0.014616296005743044   -0.000632931276607303
-0.0008045653527546036   -0.016856262940168478   -0.0006129563877366874
-0.0017776140282197209   -0.016864768722072595   -0.0006284709256305983
-0.0005468621166444067   -0.014599768672315017   -0.000638809888218746
-0.0016908387606341052   -0.014616296005743044   -0.000632931276607303
-0.0017494342628971554   -0.016867132809225374   -0.0006228731673156521
-0.000526317913192401   -0.014599700508421368   -0.000620024366893418
-0.0016708774355940483   -0.014629801976687366   -0.0006277788835148646
-0.0017494342628971554   -0.016867132809225374   -0.0006228731673156521
-0.0008045653527546036   -0.016856262940168478   -0.0006129563877366874
-0.000526317913192401   -0.014599700508421368   -0.000620024366893418
-0.000774569951703799   -0.016861500985429614   -0.0005928975269847317
-0.0016708774355940483   -0.014629801976687366   -0.0006277788835148646
-0.0005062892162782148   -0.014605295446119678   -0.0006039011019231159
-0.000774569951703799   -0.016861500985429614   -0.0005928975269847317
-0.000526317913192401   -0.014599700508421368   -0.000620024366893418
-0.0016708774355940483   -0.014629801976687366   -0.0006277788835148646
-0.000774569951703799   -0.016861500985429614   -0.0005928975269847317
-0.0017203173772062184   -0.016878930701396927   -0.0006198893972899696
-0.0017494342628971554   -0.016867132809225374   -0.0006228731673156521
-0.0016708774355940483   -0.014629801976687366   -0.0006277788835148646
-0.000774569951703799   -0.016861500985429614   -0.0005928975269847317
-0.0017494342628971554   -0.016867132809225374   -0.0006228731673156521
-0.000526317913192401   -0.014599700508421368   -0.000620024366893418
-0.0016708774355940483   -0.014629801976687366   -0.0006277788835148646
-0.0017203173772062184   -0.016878930701396927   -0.0006198893972899696
-0.0005062892162782148   -0.014605295446119678   -0.0006039011019231159
-0.0016503613372242762   -0.01464955194180116   -0.0006254140833263315
-0.0017203173772062184   -0.016878930701396927   -0.0006198893972899696
-0.000774569951703799   -0.016861500985429614   -0.0005928975269847317
-0.0005062892162782148   -0.014605295446119678   -0.0006039011019231159
-0.0007474263722757091   -0.01687647727738346   -0.0005753923979439943
-0.0016503613372242762   -0.01464955194180116   -0.0006254140833263315
-0.0004883521856453594   -0.01461699529898723   -0.0005905305273038988
-0.0007474263722757091   -0.01687647727738346   -0.0005753923979439943
-0.0005062892162782148   -0.014605295446119678   -0.0006039011019231159
-0.0016503613372242762   -0.01464955194180116   -0.0006254140833263315
-0.0007474263722757091   -0.01687647727738346   -0.0005753923979439943
-0.0016912310171543642   -0.016900677449127467   -0.0006194992528092737
-0.0017203173772062184   -0.016878930701396927   -0.0006198893972899696
-0.0016503613372242762   -0.01464955194180116   -0.0006254140833263315
-0.0007474263722757091   -0.01687647727738346   -0.0005753923979439943
-0.0017203173772062184   -0.016878930701396927   -0.0006198893972899696
-0.0005062892162782148   -0.014605295446119678   -0.0006039011019231159
-0.0005468621166444067   -0.014599768672315017   -0.000638809888218746
-0.0008354234260191327   -0.016859604280764325   -0.0006358035151714776
0.0006545140164915283   -0.01457088218503407   -0.0006504130147357462
-0.000526317913192401   -0.014599700508421368   -0.000620024366893418
-0.0008354234260191327   -0.016859604280764325   -0.0006358035151714776
0.00014884400591759926   -0.0168245218792581   -0.0006531832466498528
0.0006545140164915283   -0.01457088218503407   -0.0006504130147357462
0.0001864725829341377   -0.016813994365171232   -0.000613120349010878
-0.000526317913192401   -0.014599700508421368   -0.000620024366893418
0.000679659515079863   -0.014562813437229026   -0.0006207246083363992
0.0001864725829341377   -0.016813994365171232   -0.000613120349010878
0.0006545140164915283   -0.01457088218503407   -0.0006504130147357462
-0.000526317913192401   -0.014599700508421368   -0.000620024366893418
0.0001864725829341377   -0.016813994365171232   -0.000613120349010878
-0.0008045653527546036   -0.016856262940168478   -0.0006129563877366874
-0.0008354234260191327   -0.016859604280764325   -0.0006358035151714776
-0.000526317913192401   -0.014599700508421368   -0.000620024366893418
0.0001864725829341377   -0.016813994365171232   -0.000613120349010878
-0.0008354234260191327   -0.016859604280764325   -0.0006358035151714776
0.0006545140164915283   -0.01457088218503407   -0.0006504130147357462
-0.000526317913192401   -0.014599700508421368   -0.000620024366893418
-0.0008045653527546036   -0.016856262940168478   -0.0006129563877366874
0.000679659515079863   -0.014562813437229026   -0.0006207246083363992
-0.0005062892162782148   -0.014605295446119678   -0.0006039011019231159
-0.0008045653527546036   -0.016856262940168478   -0.0006129563877366874
0.0001864725829341377   -0.016813994365171232   -0.000613120349010878
0.000679659515079863   -0.014562813437229026   -0.0006207246083363992
0.0002262751868199713   -0.016813052653131214   -0.0005765797833021477
-0.0005062892162782148   -0.014605295446119678   -0.0006039011019231159
0.0007055351102688155   -0.014561226444555412   -0.0005938625391710317
0.0002262751868199713   -0.016813052653131214   -0.0005765797833021477
0.000679659515079863   -0.014562813437229026   -0.0006207246083363992
-0.0005062892162782148   -0.014605295446119678   -0.0006039011019231159
0.0002262751868199713   -0.016813052653131214   -0.0005765797833021477
-0.000774569951703799   -0.016861500985429614   -0.0005928975269847317
-0.0008045653527546036   -0.016856262940168478   -0.0006129563877366874
-0.0005062892162782148   -0.014605295446119678   -0.0006039011019231159
0.0002262751868199713   -0.016813052653131214   -0.0005765797833021477
-0.0008045653527546036   -0.016856262940168478   -0.0006129563877366874
0.000679659515079863   -0.014562813437229026   -0.0006207246083363992
-0.0005062892162782148   -0.014605295446119678   -0.0006039011019231159
-0.000774569951703799   -0.016861500985429614   -0.0005928975269847317
0.0007055351102688155   -0.014561226444555412   -0.0005938625391710317
-0.0004883521856453594   -0.01461699529898723   -0.0005905305273038988
-0.000774569951703799   -0.016861500985429614   -0.0005928975269847317
0.0002262751868199713   -0.016813052653131214   -0.0005765797833021477
0.0007055351102688155   -0.014561226444555412   -0.0005938625391710317
0.00025538180438183143   -0.01682123909821241   -0.0005424588446906741
-0.0004883521856453594   -0.01461699529898723   -0.0005905305273038988
0.0007229033760522035   -0.014564944503264746   -0.0005694520695925785
0.00025538180438183143   -0.01682123909821241   -0.0005424588446906741
0.0007055351102688155   -0.014561226444555412   -0.0005938625391710317
-0.0004883521856453594   -0.01461699529898723   -0.0005905305273038988
0.00025538180438183143   -0.01682123909821241   -0.0005424588446906741
-0.0007474263722757091   -0.01687647727738346   -0.0005753923979439943
-0.000774569951703799   -0.016861500985429614   -0.0005928975269847317
-0.0004883521856453594   -0.01461699529898723   -0.0005905305273038988
0.00025538180438183143   -0.01682123909821241   -0.0005424588446906741
-0.000774569951703799   -0.016861500985429614   -0.0005928975269847317
0.0007055351102688155   -0.014561226444555412   -0.0005938625391710317
0.0006545140164915283   -0.01457088218503407   -0.0006504130147357462
0.00014884400591759926   -0.0168245218792581   -0.0006531832466498528
0.0019297008850809138   -0.014521142723573187   -0.0006795048387888208
0.000679659515079863   -0.014562813437229026   -0.0006207246083363992
0.00014884400591759926   -0.0168245218792581   -0.0006531832466498528
0.0011942278705151682   -0.016756258148640363   -0.0006896299178292694
0.0019297008850809138   -0.014521142723573187   -0.0006795048387888208
0.001290698649343419   -0.016736173718654292   -0.0006282479613687936
0.000679659515079863   -0.014562813437229026   -0.0006207246083363992
0.001996703700740301   -0.014504723898411386   -0.0006361667102604068
0.001290698649343419   -0.016736173718654292   -0.0006282479613687936
0.0019297008850809138   -0.014521142723573187   -0.0006795048387888208
0.000679659515079863   -0.014562813437229026   -0.0006207246083363992
0.001290698649343419   -0.016736173718654292   -0.0006282479613687936
0.0001864725829341377   -0.016813994365171232   -0.000613120349010878
0.00014884400591759926   -0.0168245218792581   -0.0006531832466498528
0.000679659515079863   -0.014562813437229026   -0.0006207246083363992
0.001290698649343419   -0.016736173718654292   -0.0006282479613687936
0.00014884400591759926   -0.0168245218792581   -0.0006531832466498528
0.0019297008850809138   -0.014521142723573187   -0.0006795048387888208
0.000679659515079863   -0.014562813437229026   -0.0006207246083363992
0.0001864725829341377   -0.016813994365171232   -0.000613120349010878
0.001996703700740301   -0.014504723898411386   -0.0006361667102604068
0.0007055351102688155   -0.014561226444555412   -0.0005938625391710317
0.0001864725829341377   -0.016813994365171232   -0.000613120349010878
0.001290698649343419   -0.016736173718654292   -0.0006282479613687936
0.001996703700740301   -0.014504723898411386   -0.0006361667102604068
0.0013647503812356208   -0.016732691426413277   -0.0005712388555984771
0.0007055351102688155   -0.014561226444555412   -0.0005938625391710317
0.002046522481426777   -0.014500130589104033   -0.0005966010175287353
0.0013647503812356208   -0.016732691426413277   -0.0005712388555984771
0.001996703700740301   -0.014504723898411386   -0.0006361667102604068
0.0007055351102688155   -0.014561226444555412   -0.0005938625391710317
0.0013647503812356208   -0.016732691426413277   -0.0005712388555984771
0.0002262751868199713   -0.016813052653131214   -0.0005765797833021477
0.0001864725829341377   -0.016813994365171232   -0.000613120349010878
0.0007055351102688155   -0.014561226444555412   -0.0005938625391710317
0.0013647503812356208   -0.016732691426413277   -0.0005712388555984771
0.0001864725829341377   -0.016813994365171232   -0.000613120349010878
0.001996703700740301   -0.014504723898411386   -0.0006361667102604068
0.0007055351102688155   -0.014561226444555412   -0.0005938625391710317
0.0002262751868199713   -0.016813052653131214   -0.0005765797833021477
0.002046522481426777   -0.014500130589104033   -0.0005966010175287353
0.0007229033760522035   -0.014564944503264746   -0.0005694520695925785
0.0002262751868199713   -0.016813052653131214   -0.0005765797833021477
0.0013647503812356208   -0.016732691426413277   -0.0005712388555984771
0.002046522481426777   -0.014500130589104033   -0.0005966010175287353
0.0014419720725552569   -0.016738833130927912   -0.0005190593767035834
0.0007229033760522035   -0.014564944503264746   -0.0005694520695925785
0.0020973995978495765   -0.014500163349995331   -0.0005609897883447684
0.0014419720725552569   -0.016738833130927912   -0.0005190593767035834
0.002046522481426777   -0.014500130589104033   -0.0005966010175287353
0.0007229033760522035   -0.014564944503264746   -0.0005694520695925785
0.0014419720725552569   -0.016738833130927912   -0.0005190593767035834
0.00025538180438183143   -0.01682123909821241   -0.0005424588446906741
0.0002262751868199713   -0.016813052653131214   -0.0005765797833021477
0.0007229033760522035   -0.014564944503264746   -0.0005694520695925785
0.0014419720725552569   -0.016738833130927912   -0.0005190593767035834
0.0002262751868199713   -0.016813052653131214   -0.0005765797833021477
0.002046522481426777   -0.014500130589104033   -0.0005966010175287353
-0.0038737540331267575   -0.01678953083094847   -0.0006331690022735744
-0.003254797084556825   -0.01852948577963168   -0.0005752931139529906
-0.002751852629900596   -0.016841065174783384   -0.0006297101805025614
-0.003815944348288696   -0.016800486874833702   -0.0006677194731249571
-0.003254797084556825   -0.01852948577963168   -0.0005752931139529906
-0.0024551727893308913   -0.0186051423636146   -0.0005978479594438114
-0.002751852629900596   -0.016841065174783384   -0.0006297101805025614
-0.0024161489223176046   -0.018601468772248074   -0.0006166948177764952
-0.003815944348288696   -0.016800486874833702   -0.0006677194731249571
-0.002724307033021633   -0.016848480373001018   -0.0006419798449257585
-0.0024161489223176046   -0.018601468772248074   -0.0006166948177764952
-0.002751852629900596   -0.016841065174783384   -0.0006297101805025614
-0.003815944348288696   -0.016800486874833702   -0.0006677194731249571
-0.0024161489223176046   -0.018601468772248074   -0.0006166948177764952
-0.0031697043862403055   -0.01852750236633889   -0.0006260666812135926
-0.003254797084556825   -0.01852948577963168   -0.0005752931139529906
-0.003815944348288696   -0.016800486874833702   -0.0006677194731249571
-0.0024161489223176046   -0.018601468772248074   -0.0006166948177764952
-0.003254797084556825   -0.01852948577963168   -0.0005752931139529906
-0.002751852629900596   -0.016841065174783384   -0.0006297101805025614
-0.003815944348288696   -0.016800486874833702   -0.0006677194731249571
-0.0031697043862403055   -0.01852750236633889   -0.0006260666812135926
-0.002724307033021633   -0.016848480373001018   -0.0006419798449257585
-0.0037585095164132413   -0.016821572517084982   -0.0007066540507891634
-0.0031697043862403055   -0.01852750236633889   -0.0006260666812135926
-0.0024161489223176046   -0.018601468772248074   -0.0006166948177764952
-0.002724307033021633   -0.016848480373001018   -0.0006419798449257585
-0.002370096881021233   -0.018612750745788685   -0.0006382654870388375
-0.0037585095164132413   -0.016821572517084982   -0.0007066540507891634
-0.0026896906579647077   -0.016866440158725012   -0.0006569437248762625
-0.002370096881021233   -0.018612750745788685   -0.0006382654870388375
-0.002724307033021633   -0.016848480373001018   -0.0006419798449257585
-0.0037585095164132413   -0.016821572517084982   -0.0007066540507891634
-0.002370096881021233   -0.018612750745788685   -0.0006382654870388375
-0.003091425117257656   -0.018541378057708786   -0.0006806877566323999
-0.0031697043862403055   -0.01852750236633889   -0.0006260666812135926
-0.0037585095164132413   -0.016821572517084982   -0.0007066540507891634
-0.002370096881021233   -0.018612750745788685   -0.0006382654870388375
-0.0031697043862403055   -0.01852750236633889   -0.0006260666812135926
-0.002724307033021633   -0.016848480373001018   -0.0006419798449257585
-0.0037585095164132413   -0.016821572517084982   -0.0007066540507891634
-0.003091425117257656   -0.018541378057708786   -0.0006806877566323999
-0.0026896906579647077   -0.016866440158725012   -0.0006569437248762625
-0.003685004162352152   -0.016860893094778853   -0.000749909994550616
-0.003091425117257656   -0.018541378057708786   -0.0006806877566323999
-0.002370096881021233   -0.018612750745788685   -0.0006382654870388375
-0.0026896906579647077   -0.016866440158725012   -0.0006569437248762625
-0.0023283271386460155   -0.01863926868256976   -0.0006623889517365048
-0.003685004162352152   -0.016860893094778853   -0.000749909994550616
-0.002655578758028315   -0.016895968563960372   -0.0006745758388461992
-0.0023283271386460155   -0.01863926868256976   -0.0006623889517365048
-0.0026896906579647077   -0.016866440158725012   -0.0006569437248762625
-0.003685004162352152   -0.016860893094778853   -0.000749909994550616
-0.0023283271386460155   -0.01863926868256976   -0.0006623889517365048
-0.0029958421432853695   -0.018577919059420595   -0.0007389473695303492
-0.003091425117257656   -0.018541378057708786   -0.0006806877566323999
-0.003685004162352152   -0.016860893094778853   -0.000749909994550616
-0.0023283271386460155   -0.01863926868256976   -0.0006623889517365048
-0.003091425117257656   -0.018541378057708786   -0.0006806877566323999
-0.0026896906579647077   -0.016866440158725012   -0.0006569437248762625
-0.002751852629900596   -0.016841065174783384   -0.0006297101805025614
-0.0024551727893308913   -0.0186051423636146   -0.0005978479594438114
-0.0017776140282197209   -0.016864768722072595   -0.0006284709256305983
-0.002724307033021633   -0.016848480373001018   -0.0006419798449257585
-0.0024551727893308913   -0.0186051423636146   -0.0005978479594438114
-0.001798450733639949   -0.018653131446776192   -0.0006155354559547805
-0.0017776140282197209   -0.016864768722072595   -0.0006284709256305983
-0.0017585514466209784   -0.018647015646843432   -0.0006097964212453165
-0.002724307033021633   -0.016848480373001018   -0.0006419798449257585
-0.0017494342628971554   -0.016867132809225374   -0.0006228731673156521
-0.0017585514466209784   -0.018647015646843432   -0.0006097964212453165
-0.0017776140282197209   -0.016864768722072595   -0.0006284709256305983
-0.002724307033021633   -0.016848480373001018   -0.0006419798449257585
-0.0017585514466209784   -0.018647015646843432   -0.0006097964212453165
-0.0024161489223176046   -0.018601468772248074   -0.0006166948177764952
-0.0024551727893308913   -0.0186051423636146   -0.0005978479594438114
-0.002724307033021633   -0.016848480373001018   -0.0006419798449257585
-0.0017585514466209784   -0.018647015646843432   -0.0006097964212453165
-0.0024551727893308913   -0.0186051423636146   -0.0005978479594438114
-0.0017776140282197209   -0.016864768722072595   -0.0006284709256305983
-0.002724307033021633   -0.016848480373001018   -0.0006419798449257585
-0.0024161489223176046   -0.018601468772248074   -0.0006166948177764952
-0.0017494342628971554   -0.016867132809225374   -0.0006228731673156521
-0.0026896906579647077   -0.016866440158725012   -0.0006569437248762625
-0.0024161489223176046   -0.018601468772248074   -0.0006166948177764952
-0.0017585514466209784   -0.018647015646843432   -0.0006097964212453165
-0.0017494342628971554   -0.016867132809225374   -0.0006228731673156521
-0.0017191247911542743   -0.018653857013526818   -0.0006067134791412785
-0.0026896906579647077   -0.016866440158725012   -0.0006569437248762625
-0.0017203173772062184   -0.016878930701396927   -0.0006198893972899696
-0.0017191247911542743   -0.018653857013526818   -0.0006067134791412785
-0.0017494342628971554   -0.016867132809225374   -0.0006228731673156521
-0.0026896906579647077   -0.016866440158725012   -0.0006569437248762625
-0.0017191247911542743   -0.018653857013526818   -0.0006067134791412785
-0.002370096881021233   -0.018612750745788685   -0.0006382654870388375
-0.0024161489223176046   -0.018601468772248074   -0.0006166948177764952
-0.0026896906579647077   -0.016866440158725012   -0.0006569437248762625
-0.0017191247911542743   -0.018653857013526818   -0.0006067134791412785
-0.0024161489223176046   -0.018601468772248074   -0.0006166948177764952
-0.0017494342628971554   -0.016867132809225374   -0.0006228731673156521
-0.0026896906579647077   -0.016866440158725012   -0.0006569437248762625
-0.002370096881021233   -0.018612750745788685   -0.0006382654870388375
-0.0017203173772062184   -0.016878930701396927   -0.0006198893972899696
-0.002655578758028315   -0.016895968563960372   -0.0006745758388461992
-0.002370096881021233   -0.018612750745788685   -0.0006382654870388375
-0.0017191247911542743   -0.018653857013526818   -0.0006067134791412785
-0.0017203173772062184   -0.016878930701396927   -0.0006198893972899696
-0.0016827528780798847   -0.018674048715166935   -0.0006068273912643998
-0.002655578758028315   -0.016895968563960372   -0.0006745758388461992
-0.0016912310171543642   -0.016900677449127467   -0.0006194992528092737
-0.0016827528780798847   -0.018674048715166935   -0.0006068273912643998
-0.0017203173772062184   -0.016878930701396927   -0.0006198893972899696
-0.002655578758028315   -0.016895968563960372   -0.0006745758388461992
-0.0016827528780798847   -0.018674048715166935   -0.0006068273912643998
-0.0023283271386460155   -0.01863926868256976   -0.0006623889517365048
-0.002370096881021233   -0.018612750745788685   -0.0006382654870388375
-0.002655578758028315   -0.016895968563960372   -0.0006745758388461992
-0.0016827528780798847   -0.018674048715166935   -0.0006068273912643998
-0.002370096881021233   -0.018612750745788685   -0.0006382654870388375
-0.0017203173772062184   -0.016878930701396927   -0.0006198893972899696
-0.0017776140282197209   -0.016864768722072595   -0.0006284709256305983
-0.001798450733639949   -0.018653131446776192   -0.0006155354559547805
-0.0008354234260191327   -0.016859604280764325   -0.0006358035151714776
-0.0017494342628971554   -0.016867132809225374   -0.0006228731673156521
-0.001798450733639949   -0.018653131446776192   -0.0006155354559547805
-0.001169094618802456   -0.01867671730012402   -0.0006367934984046232
-0.0008354234260191327   -0.016859604280764325   -0.0006358035151714776
-0.0011241519489746258   -0.018667678615208565   -0.0006078052596140894
-0.0017494342628971554   -0.016867132809225374   -0.0006228731673156521
-0.0008045653527546036   -0.016856262940168478   -0.0006129563877366874
-0.0011241519489746258   -0.018667678615208565   -0.0006078052596140894
-0.0008354234260191327   -0.016859604280764325   -0.0006358035151714776
-0.0017494342628971554   -0.016867132809225374   -0.0006228731673156521
-0.0011241519489746258   -0.018667678615208565   -0.0006078052596140894
-0.0017585514466209784   -0.018647015646843432   -0.0006097964212453165
-0.001798450733639949   -0.018653131446776192   -0.0006155354559547805
-0.0017494342628971554   -0.016867132809225374   -0.0006228731673156521
-0.0011241519489746258   -0.018667678615208565   -0.0006078052596140894
-0.001798450733639949   -0.018653131446776192   -0.0006155354559547805
-0.0008354234260191327   -0.016859604280764325   -0.0006358035151714776
-0.0017494342628971554   -0.016867132809225374   -0.0006228731673156521
-0.0017585514466209784   -0.018647015646843432   -0.0006097964212453165
-0.0008045653527546036   -0.016856262940168478   -0.0006129563877366874
-0.0017203173772062184   -0.016878930701396927   -0.0006198893972899696
-0.0017585514466209784   -0.018647015646843432   -0.0006097964212453165
-0.0011241519489746258   -0.018667678615208565   -0.0006078052596140894
-0.0008045653527546036   -0.016856262940168478   -0.0006129563877366874
-0.0010812374821871898   -0.018670122727255455   -0.0005812030754769066
-0.0017203173772062184   -0.016878930701396927   -0.0006198893972899696
-0.000774569951703799   -0.016861500985429614   -0.0005928975269847317
-0.0010812374821871898   -0.018670122727255455   -0.0005812030754769066
-0.0008045653527546036   -0.016856262940168478   -0.0006129563877366874
-0.0017203173772062184   -0.016878930701396927   -0.0006198893972899696
-0.0010812374821871898   -0.018670122727255455   -0.0005812030754769066
-0.0017191247911542743   -0.018653857013526818   -0.0006067134791412785
-0.0017585514466209784   -0.018647015646843432   -0.0006097964212453165
-0.0017203173772062184   -0.016878930701396927   -0.0006198893972899696
-0.0010812374821871898   -0.018670122727255455   -0.0005812030754769066
-0.0017585514466209784   -0.018647015646843432   -0.0006097964212453165
-0.0008045653527546036   -0.016856262940168478   -0.0006129563877366874
-0.0017203173772062184   -0.016878930701396927   -0.0006198893972899696
-0.0017191247911542743   -0.018653857013526818   -0.0006067134791412785
-0.000774569951703799   -0.016861500985429614   -0.0005928975269847317
-0.0016912310171543642   -0.016900677449127467   -0.0006194992528092737
-0.0017191247911542743   -0.018653857013526818   -0.0006067134791412785
-0.0010812374821871898   -0.018670122727255455   -0.0005812030754769066
-0.000774569951703799   -0.016861500985429614   -0.0005928975269847317
-0.0010454047435759595   -0.01868612295172374   -0.0005583896552617601
-0.0016912310171543642   -0.016900677449127467   -0.0006194992528092737
-0.0007474263722757091   -0.01687647727738346   -0.0005753923979439943
-0.0010454047435759595   -0.01868612295172374   -0.0005583896552617601
-0.000774569951703799   -0.016861500985429614   -0.0005928975269847317
-0.0016912310171543642   -0.016900677449127467   -0.0006194992528092737
-0.0010454047435759595   -0.01868612295172374   -0.0005583896552617601
-0.0016827528780798847   -0.018674048715166935   -0.0006068273912643998
-0.0017191247911542743   -0.018653857013526818   -0.0006067134791412785
-0.0016912310171543642   -0.016900677449127467   -0.0006194992528092737
-0.0010454047435759595   -0.01868612295172374   -0.0005583896552617601
-0.0017191247911542743   -0.018653857013526818   -0.0006067134791412785
-0.000774569951703799   -0.016861500985429614   -0.0005928975269847317
-0.0008354234260191327   -0.016859604280764325   -0.0006358035151714776
-0.001169094618802456   -0.01867671730012402   -0.0006367934984046232
0.00014884400591759926   -0.0168245218792581   -0.0006531832466498528
-0.0008045653527546036   -0.016856262940168478   -0.0006129563877366874
-0.001169094618802456   -0.01867671730012402   -0.0006367934984046232
-0.000502379262540068   -0.018667270785101536   -0.0006621376473609742
0.00014884400591759926   -0.0168245218792581   -0.0006531832466498528
-0.00044467112395119024   -0.018653042044714317   -0.0006108184035908462
-0.0008045653527546036   -0.016856262940168478   -0.0006129563877366874
0.0001864725829341377   -0.016813994365171232   -0.000613120349010878
-0.00044467112395119024   -0.018653042044714317   -0.0006108184035908462
0.00014884400591759926   -0.0168245218792581   -0.0006531832466498528
-0.0008045653527546036   -0.016856262940168478   -0.0006129563877366874
-0.00044467112395119024   -0.018653042044714317   -0.0006108184035908462
-0.0011241519489746258   -0.018667678615208565   -0.0006078052596140894
-0.001169094618802456   -0.01867671730012402   -0.0006367934984046232
-0.0008045653527546036   -0.016856262940168478   -0.0006129563877366874
-0.00044467112395119024   -0.018653042044714317   -0.0006108184035908462
-0.001169094618802456   -0.01867671730012402   -0.0006367934984046232
0.00014884400591759926   -0.0168245218792581   -0.0006531832466498528
-0.0008045653527546036   -0.016856262940168478   -0.0006129563877366874
-0.0011241519489746258   -0.018667678615208565   -0.0006078052596140894
0.0001864725829341377   -0.016813994365171232   -0.000613120349010878
-0.000774569951703799   -0.016861500985429614   -0.0005928975269847317
-0.0011241519489746258   -0.018667678615208565   -0.0006078052596140894
-0.00044467112395119024   -0.018653042044714317   -0.0006108184035908462
0.0001864725829341377   -0.016813994365171232   -0.000613120349010878
-0.00038533741518392606   -0.018650730791285753   -0.0005620288529144955
-0.000774569951703799   -0.016861500985429614   -0.0005928975269847317
0.0002262751868199713   -0.016813052653131214   -0.0005765797833021477
-0.00038533741518392606   -0.018650730791285753   -0.0005620288529144955
0.0001864725829341377   -0.016813994365171232   -0.000613120349010878
-0.000774569951703799   -0.016861500985429614   -0.0005928975269847317
-0.00038533741518392606   -0.018650730791285753   -0.0005620288529144955
-0.0010812374821871898   -0.018670122727255455   -0.0005812030754769066
-0.0011241519489746258   -0.018667678615208565   -0.0006078052596140894
-0.000774569951703799   -0.016861500985429614   -0.0005928975269847317
-0.00038533741518392606   -0.018650730791285753   -0.0005620288529144955
-0.0011241519489746258   -0.018667678615208565   -0.0006078052596140894
0.0001864725829341377   -0.016813994365171232   -0.000613120349010878
-0.000774569951703799   -0.016861500985429614   -0.0005928975269847317
-0.0010812374821871898   -0.018670122727255455   -0.0005812030754769066
0.0002262751868199713   -0.016813052653131214   -0.0005765797833021477
-0.0007474263722757091   -0.01687647727738346   -0.0005753923979439943
-0.0010812374821871898   -0.018670122727255455   -0.0005812030754769066
-0.00038533741518392606   -0.018650730791285753   -0.0005620288529144955
0.0002262751868199713   -0.016813052653131214   -0.0005765797833021477
-0.0003415899853392213   -0.018662756489840452   -0.0005175471466712445
-0.0007474263722757091   -0.01687647727738346   -0.0005753923979439943
0.00025538180438183143   -0.01682123909821241   -0.0005424588446906741
-0.0003415899853392213   -0.018662756489840452   -0.0005175471466712445
0.0002262751868199713   -0.016813052653131214   -0.0005765797833021477
-0.0007474263722757091   -0.01687647727738346   -0.0005753923979439943
-0.0003415899853392213   -0.018662756489840452   -0.0005175471466712445
-0.0010454047435759595   -0.01868612295172374   -0.0005583896552617601
-0.0010812374821871898   -0.018670122727255455   -0.0005812030754769066
-0.0007474263722757091   -0.01687647727738346   -0.0005753923979439943
-0.0003415899853392213   -0.018662756489840452   -0.0005175471466712445
-0.0010812374821871898   -0.018670122727255455   -0.0005812030754769066
0.0002262751868199713   -0.016813052653131214   -0.0005765797833021477
0.00014884400591759926   -0.0168245218792581   -0.0006531832466498528
-0.000502379262540068   -0.018667270785101536   -0.0006621376473609742
0.0011942278705151682   -0.016756258148640363   -0.0006896299178292694
0.0001864725829341377   -0.016813994365171232   -0.000613120349010878
-0.000502379262540068   -0.018667270785101536   -0.0006621376473609742
0.00021019333075080162   -0.018602153069126822   -0.0007130235761754998
0.0011942278705151682   -0.016756258148640363   -0.0006896299178292694
0.0003472371762400572   -0.01857152590847704   -0.0006292543677061567
0.0001864725829341377   -0.016813994365171232   -0.000613120349010878
0.001290698649343419   -0.016736173718654292   -0.0006282479613687936
0.0003472371762400572   -0.01857152590847704   -0.0006292543677061567
0.0011942278705151682   -0.016756258148640363   -0.0006896299178292694
0.0001864725829341377   -0.016813994365171232   -0.000613120349010878
0.0003472371762400572   -0.01857152590847704   -0.0006292543677061567
-0.00044467112395119024   -0.018653042044714317   -0.0006108184035908462
-0.000502379262540068   -0.018667270785101536   -0.0006621376473609742
0.0001864725829341377   -0.016813994365171232   -0.000613120349010878
0.0003472371762400572   -0.01857152590847704   -0.0006292543677061567
-0.000502379262540068   -0.018667270785101536   -0.0006621376473609742
0.0011942278705151682   -0.016756258148640363   -0.0006896299178292694
0.0001864725829341377   -0.016813994365171232   -0.000613120349010878
-0.00044467112395119024   -0.018653042044714317   -0.0006108184035908462
0.001290698649343419   -0.016736173718654292   -0.0006282479613687936
0.0002262751868199713   -0.016813052653131214   -0.0005765797833021477
-0.00044467112395119024   -0.018653042044714317   -0.0006108184035908462
0.0003472371762400572   -0.01857152590847704   -0.0006292543677061567
0.001290698649343419   -0.016736173718654292   -0.0006282479613687936
0.0004547946999733522   -0.018565487659384573   -0.0005503864873350297
0.0002262751868199713   -0.016813052653131214   -0.0005765797833021477
0.0013647503812356208   -0.016732691426413277   -0.0005712388555984771
0.0004547946999733522   -0.018565487659384573   -0.0005503864873350297
0.001290698649343419   -0.016736173718654292   -0.0006282479613687936
0.0002262751868199713   -0.016813052653131214   -0.0005765797833021477
0.0004547946999733522   -0.018565487659384573   -0.0005503864873350297
-0.00038533741518392606   -0.018650730791285753   -0.0005620288529144955
-0.00044467112395119024   -0.018653042044714317   -0.0006108184035908462
0.0002262751868199713   -0.016813052653131214   -0.0005765797833021477
0.0004547946999733522   -0.018565487659384573   -0.0005503864873350297
-0.00044467112395119024   -0.018653042044714317   -0.0006108184035908462
0.001290698649343419   -0.016736173718654292   -0.0006282479613687936
0.0002262751868199713   -0.016813052653131214   -0.0005765797833021477
-0.00038533741518392606   -0.018650730791285753   -0.0005620288529144955
0.0013647503812356208   -0.016732691426413277   -0.0005712388555984771
0.00025538180438183143   -0.01682123909821241   -0.0005424588446906741
-0.00038533741518392606   -0.018650730791285753   -0.0005620288529144955
0.0004547946999733522   -0.018565487659384573   -0.0005503864873350297
0.0013647503812356208   -0.016732691426413277   -0.0005712388555984771
0.0005672128039625378   -0.018571387566661136   -0.0004781005446969847
0.00025538180438183143   -0.01682123909821241   -0.0005424588446906741
0.0014419720725552569   -0.016738833130927912   -0.0005190593767035834
0.0005672128039625378   -0.018571387566661136   -0.0004781005446969847
0.0013647503812356208   -0.016732691426413277   -0.0005712388555984771
0.00025538180438183143   -0.01682123909821241   -0.0005424588446906741
0.0005672128039625378   -0.018571387566661136   -0.0004781005446969847
-0.0003415899853392213   -0.018662756489840452   -0.0005175471466712445
-0.00038533741518392606   -0.018650730791285753   -0.0005620288529144955
0.00025538180438183143   -0.01682123909821241   -0.0005424588446906741
0.0005672128039625378   -0.018571387566661136   -0.0004781005446969847
-0.00038533741518392606   -0.018650730791285753   -0.0005620288529144955
0.0013647503812356208   -0.016732691426413277   -0.0005712388555984771
-0.003254797084556825   -0.01852948577963168   -0.0005752931139529906
-0.0024099858852727925   -0.019568323638045768   -0.0005070123057797736
-0.0024551727893308913   -0.0186051423636146   -0.0005978479594438114
-0.0031697043862403055   -0.01852750236633889   -0.0006260666812135926
-0.0024099858852727925   -0.019568323638045768   -0.0005070123057797736
-0.0020322402200171623   -0.019663495240323802   -0.0005634848639224039
-0.0024551727893308913   -0.0186051423636146   -0.0005978479594438114
-0.00198345481109666   -0.019645211138186573   -0.000583723153703062
-0.0031697043862403055   -0.01852750236633889   -0.0006260666812135926
-0.0024161489223176046   -0.018601468772248074   -0.0006166948177764952
-0.00198345481109666   -0.019645211138186573   -0.000583723153703062
-0.0024551727893308913   -0.0186051423636146   -0.0005978479594438114
-0.0031697043862403055   -0.01852750236633889   -0.0006260666812135926
-0.00198345481109666   -0.019645211138186573   -0.000583723153703062
-0.002304583105570914   -0.019547655209136733   -0.0005677985425809367
-0.0024099858852727925   -0.019568323638045768   -0.0005070123057797736
-0.0031697043862403055   -0.01852750236633889   -0.0006260666812135926
-0.00198345481109666   -0.019645211138186573   -0.000583723153703062
-0.0024099858852727925   -0.019568323638045768   -0.0005070123057797736
-0.0024551727893308913   -0.0186051423636146   -0.0005978479594438114
-0.0031697043862403055   -0.01852750236633889   -0.0006260666812135926
-0.002304583105570914   -0.019547655209136733   -0.0005677985425809367
-0.0024161489223176046   -0.018601468772248074   -0.0006166948177764952
-0.003091425117257656   -0.018541378057708786   -0.0006806877566323999
-0.002304583105570914   -0.019547655209136733   -0.0005677985425809367
-0.00198345481109666   -0.019645211138186573   -0.000583723153703062
-0.0024161489223176046   -0.018601468772248074   -0.0006166948177764952
-0.001929165287691817   -0.01964680824435212   -0.0006041786095798669
-0.003091425117257656   -0.018541378057708786   -0.0006806877566323999
-0.002370096881021233   -0.018612750745788685   -0.0006382654870388375
-0.001929165287691817   -0.01964680824435212   -0.0006041786095798669
-0.0024161489223176046   -0.018601468772248074   -0.0006166948177764952
-0.003091425117257656   -0.018541378057708786   -0.0006806877566323999
-0.001929165287691817   -0.01964680824435212   -0.0006041786095798669
-0.0022137046074082304   -0.019550203079927914   -0.0006284118109777444
-0.002304583105570914   -0.019547655209136733   -0.0005677985425809367
-0.003091425117257656   -0.018541378057708786   -0.0006806877566323999
-0.001929165287691817   -0.01964680824435212   -0.0006041786095798669
-0.002304583105570914   -0.019547655209136733   -0.0005677985425809367
-0.0024161489223176046   -0.018601468772248074   -0.0006166948177764952
-0.003091425117257656   -0.018541378057708786   -0.0006806877566323999
-0.0022137046074082304   -0.019550203079927914   -0.0006284118109777444
-0.002370096881021233   -0.018612750745788685   -0.0006382654870388375
-0.0029958421432853695   -0.018577919059420595   -0.0007389473695303492
-0.0022137046074082304   -0.019550203079927914   -0.0006284118109777444
-0.001929165287691817   -0.01964680824435212   -0.0006041786095798669
-0.002370096881021233   -0.018612750745788685   -0.0006382654870388375
-0.0018788733436627134   -0.01966841134024667   -0.0006249352460862018
-0.0029958421432853695   -0.018577919059420595   -0.0007389473695303492
-0.0023283271386460155   -0.01863926868256976   -0.0006623889517365048
-0.0018788733436627134   -0.01966841134024667   -0.0006249352460862018
-0.002370096881021233   -0.018612750745788685   -0.0006382654870388375
-0.0029958421432853695   -0.018577919059420595   -0.0007389473695303492
-0.0018788733436627134   -0.01966841134024667   -0.0006249352460862018
-0.002105708872103827   -0.019577375016947257   -0.0006903112378348088
-0.0022137046074082304   -0.019550203079927914   -0.0006284118109777444
-0.0029958421432853695   -0.018577919059420595   -0.0007389473695303492
-0.0018788733436627134   -0.01966841134024667   -0.0006249352460862018
-0.0022137046074082304   -0.019550203079927914   -0.0006284118109777444
-0.002370096881021233   -0.018612750745788685   -0.0006382654870388375
-0.0024551727893308913   -0.0186051423636146   -0.0005978479594438114
-0.0020322402200171623   -0.019663495240323802   -0.0005634848639224039
-0.001798450733639949   -0.018653131446776192   -0.0006155354559547805
-0.0024161489223176046   -0.018601468772248074   -0.0006166948177764952
-0.0020322402200171623   -0.019663495240323802   -0.0005634848639224039
-0.001752876198834745   -0.01975648032736819   -0.0006132189503956622
-0.001798450733639949   -0.018653131446776192   -0.0006155354559547805
-0.0017016544831801616   -0.019737585868735686   -0.0005997705443889375
-0.0024161489223176046   -0.018601468772248074   -0.0006166948177764952
-0.0017585514466209784   -0.018647015646843432   -0.0006097964212453165
-0.0017016544831801616   -0.019737585868735686   -0.0005997705443889375
-0.001798450733639949   -0.018653131446776192   -0.0006155354559547805
-0.0024161489223176046   -0.018601468772248074   -0.0006166948177764952
-0.0017016544831801616   -0.019737585868735686   -0.0005997705443889375
-0.00198345481109666   -0.019645211138186573   -0.000583723153703062
-0.0020322402200171623   -0.019663495240323802   -0.0005634848639224039
-0.0024161489223176046   -0.018601468772248074   -0.0006166948177764952
-0.0017016544831801616   -0.019737585868735686   -0.0005997705443889375
-0.0020322402200171623   -0.019663495240323802   -0.0005634848639224039
-0.001798450733639949   -0.018653131446776192   -0.0006155354559547805
-0.0024161489223176046   -0.018601468772248074   -0.0006166948177764952
-0.00198345481109666   -0.019645211138186573   -0.000583723153703062
-0.0017585514466209784   -0.018647015646843432   -0.0006097964212453165
-0.002370096881021233   -0.018612750745788685   -0.0006382654870388375
-0.00198345481109666   -0.019645211138186573   -0.000583723153703062
-0.0017016544831801616   -0.019737585868735686   -0.0005997705443889375
-0.0017585514466209784   -0.018647015646843432   -0.0006097964212453165
-0.00165201433660642   -0.01973776336818261   -0.0005861725523308501
-0.002370096881021233   -0.018612750745788685   -0.0006382654870388375
-0.0017191247911542743   -0.018653857013526818   -0.0006067134791412785
-0.00165201433660642   -0.01973776336818261   -0.0005861725523308501
-0.0017585514466209784   -0.018647015646843432   -0.0006097964212453165
-0.002370096881021233   -0.018612750745788685   -0.0006382654870388375
-0.00165201433660642   -0.01973776336818261   -0.0005861725523308501
-0.001929165287691817   -0.01964680824435212   -0.0006041786095798669
-0.00198345481109666   -0.019645211138186573   -0.000583723153703062
-0.002370096881021233   -0.018612750745788685   -0.0006382654870388375
-0.00165201433660642   -0.01973776336818261   -0.0005861725523308501
-0.00198345481109666   -0.019645211138186573   -0.000583723153703062
-0.0017585514466209784   -0.018647015646843432   -0.0006097964212453165
-0.002370096881021233   -0.018612750745788685   -0.0006382654870388375
-0.001929165287691817   -0.01964680824435212   -0.0006041786095798669
-0.0017191247911542743   -0.018653857013526818   -0.0006067134791412785
-0.0023283271386460155   -0.01863926868256976   -0.0006623889517365048
-0.001929165287691817   -0.01964680824435212   -0.0006041786095798669
-0.00165201433660642   -0.01973776336818261   -0.0005861725523308501
-0.0017191247911542743   -0.018653857013526818   -0.0006067134791412785
-0.0016003529148017326   -0.019756646761611187   -0.0005731547777365058
-0.0023283271386460155   -0.01863926868256976   -0.0006623889517365048
-0.0016827528780798847   -0.018674048715166935   -0.0006068273912643998
-0.0016003529148017326   -0.019756646761611187   -0.0005731547777365058
-0.0017191247911542743   -0.018653857013526818   -0.0006067134791412785
-0.0023283271386460155   -0.01863926868256976   -0.0006623889517365048
-0.0016003529148017326   -0.019756646761611187   -0.0005731547777365058
-0.0018788733436627134   -0.01966841134024667   -0.0006249352460862018
-0.001929165287691817   -0.01964680824435212   -0.0006041786095798669
-0.0023283271386460155   -0.01863926868256976   -0.0006623889517365048
-0.0016003529148017326   -0.019756646761611187   -0.0005731547777365058
-0.001929165287691817   -0.01964680824435212   -0.0006041786095798669
-0.0017191247911542743   -0.018653857013526818   -0.0006067134791412785
-0.001798450733639949   -0.018653131446776192   -0.0006155354559547805
-0.001752876198834745   -0.01975648032736819   -0.0006132189503956622
-0.001169094618802456   -0.01867671730012402   -0.0006367934984046232
-0.0017585514466209784   -0.018647015646843432   -0.0006097964212453165
-0.001752876198834745   -0.01975648032736819   -0.0006132189503956622
-0.0014967842016197985   -0.01986601117676562   -0.0006683510982879771
-0.001169094618802456   -0.01867671730012402   -0.0006367934984046232
-0.0014341545563408685   -0.019849334963833107   -0.0006193805930639342
-0.0017585514466209784   -0.018647015646843432   -0.0006097964212453165
-0.0011241519489746258   -0.018667678615208565   -0.0006078052596140894
-0.0014341545563408685   -0.019849334963833107   -0.0006193805930639342
-0.001169094618802456   -0.01867671730012402   -0.0006367934984046232
-0.0017585514466209784   -0.018647015646843432   -0.0006097964212453165
-0.0014341545563408685   -0.019849334963833107   -0.0006193805930639342
-0.0017016544831801616   -0.019737585868735686   -0.0005997705443889375
-0.001752876198834745   -0.01975648032736819   -0.0006132189503956622
-0.0017585514466209784   -0.018647015646843432   -0.0006097964212453165
-0.0014341545563408685   -0.019849334963833107   -0.0006193805930639342
-0.001752876198834745   -0.01975648032736819   -0.0006132189503956622
-0.001169094618802456   -0.01867671730012402   -0.0006367934984046232
-0.0017585514466209784   -0.018647015646843432   -0.0006097964212453165
-0.0017016544831801616   -0.019737585868735686   -0.0005997705443889375
-0.0011241519489746258   -0.018667678615208565   -0.0006078052596140894
-0.0017191247911542743   -0.018653857013526818   -0.0006067134791412785
-0.0017016544831801616   -0.019737585868735686   -0.0005997705443889375
-0.0014341545563408685   -0.019849334963833107   -0.0006193805930639342
-0.0011241519489746258   -0.018667678615208565   -0.0006078052596140894
-0.0013759413303192987   -0.019848743496571314   -0.0005704672070585637
-0.0017191247911542743   -0.018653857013526818   -0.0006067134791412785
-0.0010812374821871898   -0.018670122727255455   -0.0005812030754769066
-0.0013759413303192987   -0.019848743496571314   -0.0005704672070585637
-0.0011241519489746258   -0.018667678615208565   -0.0006078052596140894
-0.0017191247911542743   -0.018653857013526818   -0.0006067134791412785
-0.0013759413303192987   -0.019848743496571314   -0.0005704672070585637
-0.00165201433660642   -0.01973776336818261   -0.0005861725523308501
-0.0017016544831801616   -0.019737585868735686   -0.0005997705443889375
-0.0017191247911542743   -0.018653857013526818   -0.0006067134791412785
-0.0013759413303192987   -0.019848743496571314   -0.0005704672070585637
-0.0017016544831801616   -0.019737585868735686   -0.0005997705443889375
-0.0011241519489746258   -0.018667678615208565   -0.0006078052596140894
-0.0017191247911542743   -0.018653857013526818   -0.0006067134791412785
-0.00165201433660642   -0.01973776336818261   -0.0005861725523308501
-0.0010812374821871898   -0.018670122727255455   -0.0005812030754769066
-0.0016827528780798847   -0.018674048715166935   -0.0006068273912643998
-0.00165201433660642   -0.01973776336818261   -0.0005861725523308501
-0.0013759413303192987   -0.019848743496571314   -0.0005704672070585637
-0.0010812374821871898   -0.018670122727255455   -0.0005812030754769066
-0.0013136766158897265   -0.019863446982343425   -0.0005216288561530239
-0.0016827528780798847   -0.018674048715166935   -0.0006068273912643998
-0.0010454047435759595   -0.01868612295172374   -0.0005583896552617601
-0.0013136766158897265   -0.019863446982343425   -0.0005216288561530239
-0.0010812374821871898   -0.018670122727255455   -0.0005812030754769066
-0.0016827528780798847   -0.018674048715166935   -0.0006068273912643998
-0.0013136766158897265   -0.019863446982343425   -0.0005216288561530239
-0.0016003529148017326   -0.019756646761611187   -0.0005731547777365058
-0.00165201433660642   -0.01973776336818261   -0.0005861725523308501
-0.0016827528780798847   -0.018674048715166935   -0.0006068273912643998
-0.0013136766158897265   -0.019863446982343425   -0.0005216288561530239
-0.00165201433660642   -0.01973776336818261   -0.0005861725523308501
-0.0010812374821871898   -0.018670122727255455   -0.0005812030754769066
-0.001169094618802456   -0.01867671730012402   -0.0006367934984046232
-0.0014967842016197985   -0.01986601117676562   -0.0006683510982879771
-0.000502379262540068   -0.018667270785101536   -0.0006621376473609742
-0.0011241519489746258   -0.018667678615208565   -0.0006078052596140894
-0.0014967842016197985   -0.01986601117676562   -0.0006683510982879771
-0.0012447381969492633   -0.02   -0.0007121115494352769
-0.000502379262540068   -0.018667270785101536   -0.0006621376473609742
-0.0011655680091446044   -0.02   -0.0006366253295086611
-0.0011241519489746258   -0.018667678615208565   -0.0006078052596140894
-0.00044467112395119024   -0.018653042044714317   -0.0006108184035908462
-0.0011655680091446044   -0.02   -0.0006366253295086611
-0.000502379262540068   -0.018667270785101536   -0.0006621376473609742
-0.0011241519489746258   -0.018667678615208565   -0.0006078052596140894
-0.0011655680091446044   -0.02   -0.0006366253295086611
-0.0014341545563408685   -0.019849334963833107   -0.0006193805930639342
-0.0014967842016197985   -0.01986601117676562   -0.0006683510982879771
-0.0011241519489746258   -0.018667678615208565   -0.0006078052596140894
-0.0011655680091446044   -0.02   -0.0006366253295086611
-0.0014967842016197985   -0.01986601117676562   -0.0006683510982879771
-0.000502379262540068   -0.018667270785101536   -0.0006621376473609742
-0.0011241519489746258   -0.018667678615208565   -0.0006078052596140894
-0.0014341545563408685   -0.019849334963833107   -0.0006193805930639342
-0.00044467112395119024   -0.018653042044714317   -0.0006108184035908462
-0.0010812374821871898   -0.018670122727255455   -0.0005812030754769066
-0.0014341545563408685   -0.019849334963833107   -0.0006193805930639342
-0.0011655680091446044   -0.02   -0.0006366253295086611
-0.00044467112395119024   -0.018653042044714317   -0.0006108184035908462
-0.001085698788076272   -0.02   -0.0005602548731828857
-0.0010812374821871898   -0.018670122727255455   -0.0005812030754769066
-0.00038533741518392606   -0.018650730791285753   -0.0005620288529144955
-0.001085698788076272   -0.02   -0.0005602548731828857
-0.00044467112395119024   -0.018653042044714317   -0.0006108184035908462
-0.0010812374821871898   -0.018670122727255455   -0.0005812030754769066
-0.001085698788076272   -0.02   -0.0005602548731828857
-0.0013759413303192987   -0.019848743496571314   -0.0005704672070585637
-0.0014341545563408685   -0.019849334963833107   -0.0006193805930639342
-0.0010812374821871898   -0.018670122727255455   -0.0005812030754769066
-0.001085698788076272   -0.02   -0.0005602548731828857
-0.0014341545563408685   -0.019849334963833107   -0.0006193805930639342
-0.00044467112395119024   -0.018653042044714317   -0.0006108184035908462
-0.0010812374821871898   -0.018670122727255455   -0.0005812030754769066
-0.0013759413303192987   -0.019848743496571314   -0.0005704672070585637
-0.00038533741518392606   -0.018650730791285753   -0.0005620288529144955
-0.0010454047435759595   -0.01868612295172374   -0.0005583896552617601
-0.0013759413303192987   -0.019848743496571314   -0.0005704672070585637
-0.001085698788076272   -0.02   -0.0005602548731828857
-0.00038533741518392606   -0.018650730791285753   -0.0005620288529144955
-0.0010080295134870646   -0.02   -0.00048492183520963445
-0.0010454047435759595   -0.01868612295172374   -0.0005583896552617601
-0.0003415899853392213   -0.018662756489840452   -0.0005175471466712445
-0.0010080295134870646   -0.02   -0.00048492183520963445
-0.00038533741518392606   -0.018650730791285753   -0.0005620288529144955
-0.0010454047435759595   -0.01868612295172374   -0.0005583896552617601
-0.0010080295134870646   -0.02   -0.00048492183520963445
-0.0013136766158897265   -0.019863446982343425   -0.0005216288561530239
-0.0013759413303192987   -0.019848743496571314   -0.0005704672070585637
-0.0010454047435759595   -0.01868612295172374   -0.0005583896552617601
-0.0010080295134870646   -0.02   -0.00048492183520963445
-0.0013759413303192987   -0.019848743496571314   -0.0005704672070585637
-0.00038533741518392606   -0.018650730791285753   -0.0005620288529144955
-0.000502379262540068   -0.018667270785101536   -0.0006621376473609742
-0.0012447381969492633   -0.02   -0.0007121115494352769
0.00021019333075080162   -0.018602153069126822   -0.0007130235761754998
-0.00044467112395119024   -0.018653042044714317   -0.0006108184035908462
-0.0012447381969492633   -0.02   -0.0007121115494352769
-0.001058381927109702   -0.02   -0.0007650996020081845
0.00021019333075080162   -0.018602153069126822   -0.0007130235761754998
-0.0008902462753697754   -0.02   -0.0006553101861515034
-0.00044467112395119024   -0.018653042044714317   -0.0006108184035908462
0.0003472371762400572   -0.01857152590847704   -0.0006292543677061567
-0.0008902462753697754   -0.02   -0.0006553101861515034
0.00021019333075080162   -0.018602153069126822   -0.0007130235761754998
-0.00044467112395119024   -0.018653042044714317   -0.0006108184035908462
-0.0008902462753697754   -0.02   -0.0006553101861515034
-0.0011655680091446044   -0.02   -0.0006366253295086611
-0.0012447381969492633   -0.02   -0.0007121115494352769
-0.00044467112395119024   -0.018653042044714317   -0.0006108184035908462
-0.0008902462753697754   -0.02   -0.0006553101861515034
-0.0012447381969492633   -0.02   -0.0007121115494352769
0.00021019333075080162   -0.018602153069126822   -0.0007130235761754998
-0.00044467112395119024   -0.018653042044714317   -0.0006108184035908462
-0.0011655680091446044   -0.02   -0.0006366253295086611
0.0003472371762400572   -0.01857152590847704   -0.0006292543677061567
-0.00038533741518392606   -0.018650730791285753   -0.0005620288529144955
-0.0011655680091446044   -0.02   -0.0006366253295086611
-0.0008902462753697754   -0.02   -0.0006553101861515034
0.0003472371762400572   -0.01857152590847704   -0.0006292543677061567
-0.0007561869307560706   -0.02   -0.000550315898069946
-0.00038533741518392606   -0.018650730791285753   -0.0005620288529144955
0.0004547946999733522   -0.018565487659384573   -0.0005503864873350297
-0.0007561869307560706   -0.02   -0.000550315898069946
0.0003472371762400572   -0.01857152590847704   -0.0006292543677061567
-0.00038533741518392606   -0.018650730791285753   -0.0005620288529144955
-0.0007561869307560706   -0.02   -0.000550315898069946
-0.001085698788076272   -0.02   -0.0005602548731828857
-0.0011655680091446044   -0.02   -0.0006366253295086611
-0.00038533741518392606   -0.018650730791285753   -0.0005620288529144955
-0.0007561869307560706   -0.02   -0.000550315898069946
-0.0011655680091446044   -0.02   -0.0006366253295086611
0.0003472371762400572   -0.01857152590847704   -0.0006292543677061567
-0.00038533741518392606   -0.018650730791285753   -0.0005620288529144955
-0.001085698788076272   -0.02   -0.0005602548731828857
0.0004547946999733522   -0.018565487659384573   -0.0005503864873350297
-0.0003415899853392213   -0.018662756489840452   -0.0005175471466712445
-0.001085698788076272   -0.02   -0.0005602548731828857
-0.0007561869307560706   -0.02   -0.000550315898069946
0.0004547946999733522   -0.018565487659384573   -0.0005503864873350297
-0.0005906884386502932   -0.02   -0.0004412913943777047
-0.0003415899853392213   -0.018662756489840452   -0.0005175471466712445
0.0005672128039625378   -0.018571387566661136   -0.0004781005446969847
-0.0005906884386502932   -0.02   -0.0004412913943777047
0.0004547946999733522   -0.018565487659384573   -0.0005503864873350297
-0.0003415899853392213   -0.018662756489840452   -0.0005175471466712445
-0.0005906884386502932   -0.02   -0.0004412913943777047
-0.0010080295134870646   -0.02   -0.00048492183520963445
-0.001085698788076272   -0.02   -0.0005602548731828857
-0.0003415899853392213   -0.018662756489840452   -0.0005175471466712445
-0.0005906884386502932   -0.02   -0.0004412913943777047
-0.001085698788076272   -0.02   -0.0005602548731828857
0.0004547946999733522   -0.018565487659384573   -0.0005503864873350297
-0.0024099858852727925   -0.019568323638045768   -0.0005070123057797736
-0.0014754827319776414   -0.019643467039548723   -0.0004344504349096315
-0.0020322402200171623   -0.019663495240323802   -0.0005634848639224039
-0.002304583105570914   -0.019547655209136733   -0.0005677985425809367
-0.0014754827319776414   -0.019643467039548723   -0.0004344504349096315
-0.001549582394149513   -0.01971782108831403   -0.0005072340737432453
-0.0020322402200171623   -0.019663495240323802   -0.0005634848639224039
-0.0015124918312695989   -0.01969273500925899   -0.0005344959214753706
-0.002304583105570914   -0.019547655209136733   -0.0005677985425809367
-0.00198345481109666   -0.019645211138186573   -0.000583723153703062
-0.0015124918312695989   -0.01969273500925899   -0.0005344959214753706
-0.0020322402200171623   -0.019663495240323802   -0.0005634848639224039
-0.002304583105570914   -0.019547655209136733   -0.0005677985425809367
-0.0015124918312695989   -0.01969273500925899   -0.0005344959214753706
-0.0013794545468860655   -0.01961117557943629   -0.0004983901198508018
-0.0014754827319776414   -0.019643467039548723   -0.0004344504349096315
-0.002304583105570914   -0.019547655209136733   -0.0005677985425809367
-0.0015124918312695989   -0.01969273500925899   -0.0005344959214753706
-0.0014754827319776414   -0.019643467039548723   -0.0004344504349096315
-0.0020322402200171623   -0.019663495240323802   -0.0005634848639224039
-0.002304583105570914   -0.019547655209136733   -0.0005677985425809367
-0.0013794545468860655   -0.01961117557943629   -0.0004983901198508018
-0.00198345481109666   -0.019645211138186573   -0.000583723153703062
-0.0022137046074082304   -0.019550203079927914   -0.0006284118109777444
-0.0013794545468860655   -0.01961117557943629   -0.0004983901198508018
-0.0015124918312695989   -0.01969273500925899   -0.0005344959214753706
-0.00198345481109666   -0.019645211138186573   -0.000583723153703062
-0.001468823714077619   -0.019684176558721914   -0.0005597598935968091
-0.0022137046074082304   -0.019550203079927914   -0.0006284118109777444
-0.001929165287691817   -0.01964680824435212   -0.0006041786095798669
-0.001468823714077619   -0.019684176558721914   -0.0005597598935968091
-0.00198345481109666   -0.019645211138186573   -0.000583723153703062
-0.0022137046074082304   -0.019550203079927914   -0.0006284118109777444
-0.001468823714077619   -0.019684176558721914   -0.0005597598935968091
-0.0012995793367858181   -0.0196020311947796   -0.0005598568497042579
-0.0013794545468860655   -0.01961117557943629   -0.0004983901198508018
-0.0022137046074082304   -0.019550203079927914   -0.0006284118109777444
-0.001468823714077619   -0.019684176558721914   -0.0005597598935968091
-0.0013794545468860655   -0.01961117557943629   -0.0004983901198508018
-0.00198345481109666   -0.019645211138186573   -0.000583723153703062
-0.0022137046074082304   -0.019550203079927914   -0.0006284118109777444
-0.0012995793367858181   -0.0196020311947796   -0.0005598568497042579
-0.001929165287691817   -0.01964680824435212   -0.0006041786095798669
-0.002105708872103827   -0.019577375016947257   -0.0006903112378348088
-0.0012995793367858181   -0.0196020311947796   -0.0005598568497042579
-0.001468823714077619   -0.019684176558721914   -0.0005597598935968091
-0.001929165287691817   -0.01964680824435212   -0.0006041786095798669
-0.0014315128395731007   -0.01969230134603686   -0.0005829056895413135
-0.002105708872103827   -0.019577375016947257   -0.0006903112378348088
-0.0018788733436627134   -0.01966841134024667   -0.0006249352460862018
-0.0014315128395731007   -0.01969230134603686   -0.0005829056895413135
-0.001929165287691817   -0.01964680824435212   -0.0006041786095798669
-0.002105708872103827   -0.019577375016947257   -0.0006903112378348088
-0.0014315128395731007   -0.01969230134603686   -0.0005829056895413135
-0.0012088386291195655   -0.019612132160859743   -0.0006186018619854888
-0.0012995793367858181   -0.0196020311947796   -0.0005598568497042579
-0.002105708872103827   -0.019577375016947257   -0.0006903112378348088
-0.0014315128395731007   -0.01969230134603686   -0.0005829056895413135
-0.0012995793367858181   -0.0196020311947796   -0.0005598568497042579
-0.001929165287691817   -0.01964680824435212   -0.0006041786095798669
-0.0020322402200171623   -0.019663495240323802   -0.0005634848639224039
-0.001549582394149513   -0.01971782108831403   -0.0005072340737432453
-0.001752876198834745   -0.01975648032736819   -0.0006132189503956622
-0.00198345481109666   -0.019645211138186573   -0.000583723153703062
-0.001549582394149513   -0.01971782108831403   -0.0005072340737432453
-0.001656273757805524   -0.019762629882471263   -0.0005652534531762633
-0.001752876198834745   -0.01975648032736819   -0.0006132189503956622
-0.0016235507586108474   -0.0197401797190651   -0.0005658032977607502
-0.00198345481109666   -0.019645211138186573   -0.000583723153703062
-0.0017016544831801616   -0.019737585868735686   -0.0005997705443889375
-0.0016235507586108474   -0.0197401797190651   -0.0005658032977607502
-0.001752876198834745   -0.01975648032736819   -0.0006132189503956622
-0.00198345481109666   -0.019645211138186573   -0.000583723153703062
-0.0016235507586108474   -0.0197401797190651   -0.0005658032977607502
-0.0015124918312695989   -0.01969273500925899   -0.0005344959214753706
-0.001549582394149513   -0.01971782108831403   -0.0005072340737432453
-0.00198345481109666   -0.019645211138186573   -0.000583723153703062
-0.0016235507586108474   -0.0197401797190651   -0.0005658032977607502
-0.001549582394149513   -0.01971782108831403   -0.0005072340737432453
-0.001752876198834745   -0.01975648032736819   -0.0006132189503956622
-0.00198345481109666   -0.019645211138186573   -0.000583723153703062
-0.0015124918312695989   -0.01969273500925899   -0.0005344959214753706
-0.0017016544831801616   -0.019737585868735686   -0.0005997705443889375
-0.001929165287691817   -0.01964680824435212   -0.0006041786095798669
-0.0015124918312695989   -0.01969273500925899   -0.0005344959214753706
-0.0016235507586108474   -0.0197401797190651   -0.0005658032977607502
-0.0017016544831801616   -0.019737585868735686   -0.0005997705443889375
-0.0015871706328008702   -0.019732690506276594   -0.0005637644631062931
-0.001929165287691817   -0.01964680824435212   -0.0006041786095798669
-0.00165201433660642   -0.01973776336818261   -0.0005861725523308501
-0.0015871706328008702   -0.019732690506276594   -0.0005637644631062931
-0.0017016544831801616   -0.019737585868735686   -0.0005997705443889375
-0.001929165287691817   -0.01964680824435212   -0.0006041786095798669
-0.0015871706328008702   -0.019732690506276594   -0.0005637644631062931
-0.001468823714077619   -0.019684176558721914   -0.0005597598935968091
-0.0015124918312695989   -0.01969273500925899   -0.0005344959214753706
-0.001929165287691817   -0.01964680824435212   -0.0006041786095798669
-0.0015871706328008702   -0.019732690506276594   -0.0005637644631062931
-0.0015124918312695989   -0.01969273500925899   -0.0005344959214753706
-0.0017016544831801616   -0.019737585868735686   -0.0005997705443889375
-0.001929165287691817   -0.01964680824435212   -0.0006041786095798669
-0.001468823714077619   -0.019684176558721914   -0.0005597598935968091
-0.00165201433660642   -0.01973776336818261   -0.0005861725523308501
-0.0018788733436627134   -0.01966841134024667   -0.0006249352460862018
-0.001468823714077619   -0.019684176558721914   -0.0005597598935968091
-0.0015871706328008702   -0.019732690506276594   -0.0005637644631062931
-0.00165201433660642   -0.01973776336818261   -0.0005861725523308501
-0.0015502315301512304   -0.019739538240402085   -0.0005596916649354788
-0.0018788733436627134   -0.01966841134024667   -0.0006249352460862018
-0.0016003529148017326   -0.019756646761611187   -0.0005731547777365058
-0.0015502315301512304   -0.019739538240402085   -0.0005596916649354788
-0.00165201433660642   -0.01973776336818261   -0.0005861725523308501
-0.0018788733436627134   -0.01966841134024667   -0.0006249352460862018
-0.0015502315301512304   -0.019739538240402085   -0.0005596916649354788
-0.0014315128395731007   -0.01969230134603686   -0.0005829056895413135
-0.001468823714077619   -0.019684176558721914   -0.0005597598935968091
-0.0018788733436627134   -0.01966841134024667   -0.0006249352460862018
-0.0015502315301512304   -0.019739538240402085   -0.0005596916649354788
-0.001468823714077619   -0.019684176558721914   -0.0005597598935968091
-0.00165201433660642   -0.01973776336818261   -0.0005861725523308501
-0.001752876198834745   -0.01975648032736819   -0.0006132189503956622
-0.001656273757805524   -0.019762629882471263   -0.0005652534531762633
-0.0014967842016197985   -0.01986601117676562   -0.0006683510982879771
-0.0017016544831801616   -0.019737585868735686   -0.0005997705443889375
-0.001656273757805524   -0.019762629882471263   -0.0005652534531762633
-0.0017714810909432858   -0.01977967223106723   -0.0006225443503870224
-0.0014967842016197985   -0.01986601117676562   -0.0006683510982879771
-0.0017375769960637814   -0.019758118326303892   -0.0005973931058975943
-0.0017016544831801616   -0.019737585868735686   -0.0005997705443889375
-0.0014341545563408685   -0.019849334963833107   -0.0006193805930639342
-0.0017375769960637814   -0.019758118326303892   -0.0005973931058975943
-0.0014967842016197985   -0.01986601117676562   -0.0006683510982879771
-0.0017016544831801616   -0.019737585868735686   -0.0005997705443889375
-0.0017375769960637814   -0.019758118326303892   -0.0005973931058975943
-0.0016235507586108474   -0.0197401797190651   -0.0005658032977607502
-0.001656273757805524   -0.019762629882471263   -0.0005652534531762633
-0.0017016544831801616   -0.019737585868735686   -0.0005997705443889375
-0.0017375769960637814   -0.019758118326303892   -0.0005973931058975943
-0.001656273757805524   -0.019762629882471263   -0.0005652534531762633
-0.0014967842016197985   -0.01986601117676562   -0.0006683510982879771
-0.0017016544831801616   -0.019737585868735686   -0.0005997705443889375
-0.0016235507586108474   -0.0197401797190651   -0.0005658032977607502
-0.0014341545563408685   -0.019849334963833107   -0.0006193805930639342
-0.00165201433660642   -0.01973776336818261   -0.0005861725523308501
-0.0016235507586108474   -0.0197401797190651   -0.0005658032977607502
-0.0017375769960637814   -0.019758118326303892   -0.0005973931058975943
-0.0014341545563408685   -0.019849334963833107   -0.0006193805930639342
-0.0016970344908096807   -0.01975175463096516   -0.0005690849109346467
-0.00165201433660642   -0.01973776336818261   -0.0005861725523308501
-0.0013759413303192987   -0.019848743496571314   -0.0005704672070585637
-0.0016970344908096807   -0.01975175463096516   -0.0005690849109346467
-0.0014341545563408685   -0.019849334963833107   -0.0006193805930639342
-0.00165201433660642   -0.01973776336818261   -0.0005861725523308501
-0.0016970344908096807   -0.01975175463096516   -0.0005690849109346467
-0.0015871706328008702   -0.019732690506276594   -0.0005637644631062931
-0.0016235507586108474   -0.0197401797190651   -0.0005658032977607502
-0.00165201433660642   -0.01973776336818261   -0.0005861725523308501
-0.0016970344908096807   -0.01975175463096516   -0.0005690849109346467
-0.0016235507586108474   -0.0197401797190651   -0.0005658032977607502
-0.0014341545563408685   -0.019849334963833107   -0.0006193805930639342
-0.00165201433660642   -0.01973776336818261   -0.0005861725523308501
-0.0015871706328008702   -0.019732690506276594   -0.0005637644631062931
-0.0013759413303192987   -0.019848743496571314   -0.0005704672070585637
-0.0016003529148017326   -0.019756646761611187   -0.0005731547777365058
-0.0015871706328008702   -0.019732690506276594   -0.0005637644631062931
-0.0016970344908096807   -0.01975175463096516   -0.0005690849109346467
-0.0013759413303192987   -0.019848743496571314   -0.0005704672070585637
-0.0016554181299554963   -0.019758342419068778   -0.0005390079881873714
-0.0016003529148017326   -0.019756646761611187   -0.0005731547777365058
-0.0013136766158897265   -0.019863446982343425   -0.0005216288561530239
-0.0016554181299554963   -0.019758342419068778   -0.0005390079881873714
-0.0013759413303192987   -0.019848743496571314   -0.0005704672070585637
-0.0016003529148017326   -0.019756646761611187   -0.0005731547777365058
-0.0016554181299554963   -0.019758342419068778   -0.0005390079881873714
-0.0015502315301512304   -0.019739538240402085   -0.0005596916649354788
-0.0015871706328008702   -0.019732690506276594   -0.0005637644631062931
-0.0016003529148017326   -0.019756646761611187   -0.0005731547777365058
-0.0016554181299554963   -0.019758342419068778   -0.0005390079881873714
-0.0015871706328008702   -0.019732690506276594   -0.0005637644631062931
-0.0013759413303192987   -0.019848743496571314   -0.0005704672070585637
-0.0014967842016197985   -0.01986601117676562   -0.0006683510982879771
-0.0017714810909432858   -0.01977967223106723   -0.0006225443503870224
-0.0012447381969492633   -0.02   -0.0007121115494352769
-0.0014341545563408685   -0.019849334963833107   -0.0006193805930639342
-0.0017714810909432858   -0.01977967223106723   -0.0006225443503870224
-0.0019388781187034989   -0.019756202276554134   -0.000677463665881305
-0.0012447381969492633   -0.02   -0.0007121115494352769
-0.0018946496297658655   -0.01973558238795933   -0.0006277306685031537
-0.0014341545563408685   -0.019849334963833107   -0.0006193805930639342
-0.0011655680091446044   -0.02   -0.0006366253295086611
-0.0018946496297658655   -0.01973558238795933   -0.0006277306685031537
-0.0012447381969492633   -0.02   -0.0007121115494352769
-0.0014341545563408685   -0.019849334963833107   -0.0006193805930639342
-0.0018946496297658655   -0.01973558238795933   -0.0006277306685031537
-0.0017375769960637814   -0.019758118326303892   -0.0005973931058975943
-0.0017714810909432858   -0.01977967223106723   -0.0006225443503870224
-0.0014341545563408685   -0.019849334963833107   -0.0006193805930639342
-0.0018946496297658655   -0.01973558238795933   -0.0006277306685031537
-0.0017714810909432858   -0.01977967223106723   -0.0006225443503870224
-0.0012447381969492633   -0.02   -0.0007121115494352769
-0.0014341545563408685   -0.019849334963833107   -0.0006193805930639342
-0.0017375769960637814   -0.019758118326303892   -0.0005973931058975943
-0.0011655680091446044   -0.02   -0.0006366253295086611
-0.0013759413303192987   -0.019848743496571314   -0.0005704672070585637
-0.0017375769960637814   -0.019758118326303892   -0.0005973931058975943
-0.0018946496297658655   -0.01973558238795933   -0.0006277306685031537
-0.0011655680091446044   -0.02   -0.0006366253295086611
-0.0018359936406176912   -0.01973126463590151   -0.0005744365492018631
-0.0013759413303192987   -0.019848743496571314   -0.0005704672070585637
-0.001085698788076272   -0.02   -0.0005602548731828857
-0.0018359936406176912   -0.01973126463590151   -0.0005744365492018631
-0.0011655680091446044   -0.02   -0.0006366253295086611
-0.0013759413303192987   -0.019848743496571314   -0.0005704672070585637
-0.0018359936406176912   -0.01973126463590151   -0.0005744365492018631
-0.0016970344908096807   -0.01975175463096516   -0.0005690849109346467
-0.0017375769960637814   -0.019758118326303892   -0.0005973931058975943
-0.0013759413303192987   -0.019848743496571314   -0.0005704672070585637
-0.0018359936406176912   -0.01973126463590151   -0.0005744365492018631
-0.0017375769960637814   -0.019758118326303892   -0.0005973931058975943
-0.0011655680091446044   -0.02   -0.0006366253295086611
-0.0013759413303192987   -0.019848743496571314   -0.0005704672070585637
-0.0016970344908096807   -0.01975175463096516   -0.0005690849109346467
-0.001085698788076272   -0.02   -0.0005602548731828857
-0.0013136766158897265   -0.019863446982343425   -0.0005216288561530239
-0.0016970344908096807   -0.01975175463096516   -0.0005690849109346467
-0.0018359936406176912   -0.01973126463590151   -0.0005744365492018631
-0.001085698788076272   -0.02   -0.0005602548731828857
-0.0017812777432992582   -0.019740210994827066   -0.0005191860648975129
-0.0013136766158897265   -0.019863446982343425   -0.0005216288561530239
-0.0010080295134870646   -0.02   -0.00048492183520963445
-0.0017812777432992582   -0.019740210994827066   -0.0005191860648975129
-0.001085698788076272   -0.02   -0.0005602548731828857
-0.0013136766158897265   -0.019863446982343425   -0.0005216288561530239
-0.0017812777432992582   -0.019740210994827066   -0.0005191860648975129
-0.0016554181299554963   -0.019758342419068778   -0.0005390079881873714
-0.0016970344908096807   -0.01975175463096516   -0.0005690849109346467
-0.0013136766158897265   -0.019863446982343425   -0.0005216288561530239
-0.0017812777432992582   -0.019740210994827066   -0.0005191860648975129
-0.0016970344908096807   -0.01975175463096516   -0.0005690849109346467
-0.001085698788076272   -0.02   -0.0005602548731828857
-0.0012447381969492633   -0.02   -0.0007121115494352769
-0.0019388781187034989   -0.019756202276554134   -0.000677463665881305
-0.001058381927109702   -0.02   -0.0007650996020081845
-0.0011655680091446044   -0.02   -0.0006366253295086611
-0.0019388781187034989   -0.019756202276554134   -0.000677463665881305
-0.002270898985029699   -0.01966012043255032   -0.0007366267090028737
-0.001058381927109702   -0.02   -0.0007650996020081845
-0.0021501540538576506   -0.019642276201450055   -0.000655098091397931
-0.0011655680091446044   -0.02   -0.0006366253295086611
-0.0008902462753697754   -0.02   -0.0006553101861515034
-0.0021501540538576506   -0.019642276201450055   -0.000655098091397931
-0.001058381927109702   -0.02   -0.0007650996020081845
-0.0011655680091446044   -0.02   -0.0006366253295086611
-0.0021501540538576506   -0.019642276201450055   -0.000655098091397931
-0.0018946496297658655   -0.01973558238795933   -0.0006277306685031537
-0.0019388781187034989   -0.019756202276554134   -0.000677463665881305
-0.0011655680091446044   -0.02   -0.0006366253295086611
-0.0021501540538576506   -0.019642276201450055   -0.000655098091397931
-0.0019388781187034989   -0.019756202276554134   -0.000677463665881305
-0.001058381927109702   -0.02   -0.0007650996020081845
-0.0011655680091446044   -0.02   -0.0006366253295086611
-0.0018946496297658655   -0.01973558238795933   -0.0006277306685031537
-0.0008902462753697754   -0.02   -0.0006553101861515034
-0.001085698788076272   -0.02   -0.0005602548731828857
-0.0018946496297658655   -0.01973558238795933   -0.0006277306685031537
-0.0021501540538576506   -0.019642276201450055   -0.000655098091397931
-0.0008902462753697754   -0.02   -0.0006553101861515034
-0.002039864159202425   -0.01964013893735405   -0.0005683727554128982
-0.001085698788076272   -0.02   -0.0005602548731828857
-0.0007561869307560706   -0.02   -0.000550315898069946
-0.002039864159202425   -0.01964013893735405   -0.0005683727554128982
-0.0008902462753697754   -0.02   -0.0006553101861515034
-0.001085698788076272   -0.02   -0.0005602548731828857
-0.002039864159202425   -0.01964013893735405   -0.0005683727554128982
-0.0018359936406176912   -0.01973126463590151   -0.0005744365492018631
-0.0018946496297658655   -0.01973558238795933   -0.0006277306685031537
-0.001085698788076272   -0.02   -0.0005602548731828857
-0.002039864159202425   -0.01964013893735405   -0.0005683727554128982
-0.0018946496297658655   -0.01973558238795933   -0.0006277306685031537
-0.0008902462753697754   -0.02   -0.0006553101861515034
-0.001085698788076272   -0.02   -0.0005602548731828857
-0.0018359936406176912   -0.01973126463590151   -0.0005744365492018631
-0.0007561869307560706   -0.02   -0.000550315898069946
-0.0010080295134870646   -0.02   -0.00048492183520963445
-0.0018359936406176912   -0.01973126463590151   -0.0005744365492018631
-0.002039864159202425   -0.01964013893735405   -0.0005683727554128982
-0.0007561869307560706   -0.02   -0.000550315898069946
-0.0019004590032018127   -0.019663431474939163   -0.00047792671231096167
-0.0010080295134870646   -0.02   -0.00048492183520963445
-0.0005906884386502932   -0.02   -0.0004412913943777047
-0.0019004590032018127   -0.019663431474939163   -0.00047792671231096167
-0.0007561869307560706   -0.02   -0.000550315898069946
-0.0010080295134870646   -0.02   -0.00048492183520963445
-0.0019004590032018127   -0.019663431474939163   -0.00047792671231096167
-0.0017812777432992582   -0.019740210994827066   -0.0005191860648975129
-0.0018359936406176912   -0.01973126463590151   -0.0005744365492018631
-0.0010080295134870646   -0.02   -0.00048492183520963445
-0.0019004590032018127   -0.019663431474939163   -0.00047792671231096167
-0.0018359936406176912   -0.01973126463590151   -0.0005744365492018631
-0.0007561869307560706   -0.02   -0.000550315898069946
-0.0014754827319776414   -0.019643467039548723   -0.0004344504349096315
-0.0006461475956782564   -0.018937653937325355   -0.0003740973842093032
-0.001549582394149513   -0.01971782108831403   -0.0005072340737432453
-0.0013794545468860655   -0.01961117557943629   -0.0004983901198508018
-0.0006461475956782564   -0.018937653937325355   -0.0003740973842093032
-0.001131679783146753   -0.018994566822548336   -0.00045162206127804275
-0.001549582394149513   -0.01971782108831403   -0.0005072340737432453
-0.001105186271514813   -0.01896415640844982   -0.00047612032718630275
-0.0013794545468860655   -0.01961117557943629   -0.0004983901198508018
-0.0015124918312695989   -0.01969273500925899   -0.0005344959214753706
-0.001105186271514813   -0.01896415640844982   -0.00047612032718630275
-0.001549582394149513   -0.01971782108831403   -0.0005072340737432453
-0.0013794545468860655   -0.01961117557943629   -0.0004983901198508018
-0.001105186271514813   -0.01896415640844982   -0.00047612032718630275
-0.0005688501603937558   -0.018899875689204503   -0.00042988577788671405
-0.0006461475956782564   -0.018937653937325355   -0.0003740973842093032
-0.0013794545468860655   -0.01961117557943629   -0.0004983901198508018
-0.001105186271514813   -0.01896415640844982   -0.00047612032718630275
-0.0006461475956782564   -0.018937653937325355   -0.0003740973842093032
-0.001549582394149513   -0.01971782108831403   -0.0005072340737432453
-0.0013794545468860655   -0.01961117557943629   -0.0004983901198508018
-0.0005688501603937558   -0.018899875689204503   -0.00042988577788671405
-0.0015124918312695989   -0.01969273500925899   -0.0005344959214753706
-0.0012995793367858181   -0.0196020311947796   -0.0005598568497042579
-0.0005688501603937558   -0.018899875689204503   -0.00042988577788671405
-0.001105186271514813   -0.01896415640844982   -0.00047612032718630275
-0.0015124918312695989   -0.01969273500925899   -0.0005344959214753706
-0.0010751646796129499   -0.018948029066763378   -0.000498515025054333
-0.0012995793367858181   -0.0196020311947796   -0.0005598568497042579
-0.001468823714077619   -0.019684176558721914   -0.0005597598935968091
-0.0010751646796129499   -0.018948029066763378   -0.000498515025054333
-0.0015124918312695989   -0.01969273500925899   -0.0005344959214753706
-0.0012995793367858181   -0.0196020311947796   -0.0005598568497042579
-0.0010751646796129499   -0.018948029066763378   -0.000498515025054333
-0.0005080068979017918   -0.018882706963345913   -0.00048256244122423946
-0.0005688501603937558   -0.018899875689204503   -0.00042988577788671405
-0.0012995793367858181   -0.0196020311947796   -0.0005598568497042579
-0.0010751646796129499   -0.018948029066763378   -0.000498515025054333
-0.0005688501603937558   -0.018899875689204503   -0.00042988577788671405
-0.0015124918312695989   -0.01969273500925899   -0.0005344959214753706
-0.0012995793367858181   -0.0196020311947796   -0.0005598568497042579
-0.0005080068979017918   -0.018882706963345913   -0.00048256244122423946
-0.001468823714077619   -0.019684176558721914   -0.0005597598935968091
-0.0012088386291195655   -0.019612132160859743   -0.0006186018619854888
-0.0005080068979017918   -0.018882706963345913   -0.00048256244122423946
-0.0010751646796129499   -0.018948029066763378   -0.000498515025054333
-0.001468823714077619   -0.019684176558721914   -0.0005597598935968091
-0.0010522041132964676   -0.018945725106325376   -0.000518879971309724
-0.0012088386291195655   -0.019612132160859743   -0.0006186018619854888
-0.0014315128395731007   -0.01969230134603686   -0.0005829056895413135
-0.0010522041132964676   -0.018945725106325376   -0.000518879971309724
-0.001468823714077619   -0.019684176558721914   -0.0005597598935968091
-0.0012088386291195655   -0.019612132160859743   -0.0006186018619854888
-0.0010522041132964676   -0.018945725106325376   -0.000518879971309724
-0.0004411172662375501   -0.018881055101912285   -0.0005320042227071278
-0.0005080068979017918   -0.018882706963345913   -0.00048256244122423946
-0.0012088386291195655   -0.019612132160859743   -0.0006186018619854888
-0.0010522041132964676   -0.018945725106325376   -0.000518879971309724
-0.0005080068979017918   -0.018882706963345913   -0.00048256244122423946
-0.001468823714077619   -0.019684176558721914   -0.0005597598935968091
-0.001549582394149513   -0.01971782108831403   -0.0005072340737432453
-0.001131679783146753   -0.018994566822548336   -0.00045162206127804275
-0.001656273757805524   -0.019762629882471263   -0.0005652534531762633
-0.0015124918312695989   -0.01969273500925899   -0.0005344959214753706
-0.001131679783146753   -0.018994566822548336   -0.00045162206127804275
-0.0016141869147105606   -0.019014356896010418   -0.0005145419415173303
-0.001656273757805524   -0.019762629882471263   -0.0005652534531762633
-0.0015920346572186115   -0.01898785331159148   -0.0005157155635596804
-0.0015124918312695989   -0.01969273500925899   -0.0005344959214753706
-0.0016235507586108474   -0.0197401797190651   -0.0005658032977607502
-0.0015920346572186115   -0.01898785331159148   -0.0005157155635596804
-0.001656273757805524   -0.019762629882471263   -0.0005652534531762633
-0.0015124918312695989   -0.01969273500925899   -0.0005344959214753706
-0.0015920346572186115   -0.01898785331159148   -0.0005157155635596804
-0.001105186271514813   -0.01896415640844982   -0.00047612032718630275
-0.001131679783146753   -0.018994566822548336   -0.00045162206127804275
-0.0015124918312695989   -0.01969273500925899   -0.0005344959214753706
-0.0015920346572186115   -0.01898785331159148   -0.0005157155635596804
-0.001131679783146753   -0.018994566822548336   -0.00045162206127804275
-0.001656273757805524   -0.019762629882471263   -0.0005652534531762633
-0.0015124918312695989   -0.01969273500925899   -0.0005344959214753706
-0.001105186271514813   -0.01896415640844982   -0.00047612032718630275
-0.0016235507586108474   -0.0197401797190651   -0.0005658032977607502
-0.001468823714077619   -0.019684176558721914   -0.0005597598935968091
-0.001105186271514813   -0.01896415640844982   -0.00047612032718630275
-0.0015920346572186115   -0.01898785331159148   -0.0005157155635596804
-0.0016235507586108474   -0.0197401797190651   -0.0005658032977607502
-0.0015691013058663386   -0.018974215660473328   -0.0005149381758626138
-0.001468823714077619   -0.019684176558721914   -0.0005597598935968091
-0.0015871706328008702   -0.019732690506276594   -0.0005637644631062931
-0.0015691013058663386   -0.018974215660473328   -0.0005149381758626138
-0.0016235507586108474   -0.0197401797190651   -0.0005658032977607502
-0.001468823714077619   -0.019684176558721914   -0.0005597598935968091
-0.0015691013058663386   -0.018974215660473328   -0.0005149381758626138
-0.0010751646796129499   -0.018948029066763378   -0.000498515025054333
-0.001105186271514813   -0.01896415640844982   -0.00047612032718630275
-0.001468823714077619   -0.019684176558721914   -0.0005597598935968091
-0.0015691013058663386   -0.018974215660473328   -0.0005149381758626138
-0.001105186271514813   -0.01896415640844982   -0.00047612032718630275
-0.0016235507586108474   -0.0197401797190651   -0.0005658032977607502
-0.001468823714077619   -0.019684176558721914   -0.0005597598935968091
-0.0010751646796129499   -0.018948029066763378   -0.000498515025054333
-0.0015871706328008702   -0.019732690506276594   -0.0005637644631062931
-0.0014315128395731007   -0.01969230134603686   -0.0005829056895413135
-0.0010751646796129499   -0.018948029066763378   -0.000498515025054333
-0.0015691013058663386   -0.018974215660473328   -0.0005149381758626138
-0.0015871706328008702   -0.019732690506276594   -0.0005637644631062931
-0.0015470113283658994   -0.018972873171723657   -0.0005122045751895924
-0.0014315128395731007   -0.01969230134603686   -0.0005829056895413135
-0.0015502315301512304   -0.019739538240402085   -0.0005596916649354788
-0.0015470113283658994   -0.018972873171723657   -0.0005122045751895924
-0.0015871706328008702   -0.019732690506276594   -0.0005637644631062931
-0.0014315128395731007   -0.01969230134603686   -0.0005829056895413135
-0.0015470113283658994   -0.018972873171723657   -0.0005122045751895924
-0.0010522041132964676   -0.018945725106325376   -0.000518879971309724
-0.0010751646796129499   -0.018948029066763378   -0.000498515025054333
-0.0014315128395731007   -0.01969230134603686   -0.0005829056895413135
-0.0015470113283658994   -0.018972873171723657   -0.0005122045751895924
-0.0010751646796129499   -0.018948029066763378   -0.000498515025054333
-0.0015871706328008702   -0.019732690506276594   -0.0005637644631062931
-0.001656273757805524   -0.019762629882471263   -0.0005652534531762633
-0.0016141869147105606   -0.019014356896010418   -0.0005145419415173303
-0.0017714810909432858   -0.01977967223106723   -0.0006225443503870224
-0.0016235507586108474   -0.0197401797190651   -0.0005658032977607502
-0.0016141869147105606   -0.019014356896010418   -0.0005145419415173303
-0.002093837523797023   -0.018996136242657155   -0.0005735075486919378
-0.0017714810909432858   -0.01977967223106723   -0.0006225443503870224
-0.002071861524896554   -0.018972527476569093   -0.0005522872763171549
-0.0016235507586108474   -0.0197401797190651   -0.0005658032977607502
-0.0017375769960637814   -0.019758118326303892   -0.0005973931058975943
-0.002071861524896554   -0.018972527476569093   -0.0005522872763171549
-0.0017714810909432858   -0.01977967223106723   -0.0006225443503870224
-0.0016235507586108474   -0.0197401797190651   -0.0005658032977607502
-0.002071861524896554   -0.018972527476569093   -0.0005522872763171549
-0.0015920346572186115   -0.01898785331159148   -0.0005157155635596804
-0.0016141869147105606   -0.019014356896010418   -0.0005145419415173303
-0.0016235507586108474   -0.0197401797190651   -0.0005658032977607502
-0.002071861524896554   -0.018972527476569093   -0.0005522872763171549
-0.0016141869147105606   -0.019014356896010418   -0.0005145419415173303
-0.0017714810909432858   -0.01977967223106723   -0.0006225443503870224
-0.0016235507586108474   -0.0197401797190651   -0.0005658032977607502
-0.0015920346572186115   -0.01898785331159148   -0.0005157155635596804
-0.0017375769960637814   -0.019758118326303892   -0.0005973931058975943
-0.0015871706328008702   -0.019732690506276594   -0.0005637644631062931
-0.0015920346572186115   -0.01898785331159148   -0.0005157155635596804
-0.002071861524896554   -0.018972527476569093   -0.0005522872763171549
-0.0017375769960637814   -0.019758118326303892   -0.0005973931058975943
-0.002047203888868472   -0.018961583792558558   -0.000529150821423874
-0.0015871706328008702   -0.019732690506276594   -0.0005637644631062931
-0.0016970344908096807   -0.01975175463096516   -0.0005690849109346467
-0.002047203888868472   -0.018961583792558558   -0.000529150821423874
-0.0017375769960637814   -0.019758118326303892   -0.0005973931058975943
-0.0015871706328008702   -0.019732690506276594   -0.0005637644631062931
-0.002047203888868472   -0.018961583792558558   -0.000529150821423874
-0.0015691013058663386   -0.018974215660473328   -0.0005149381758626138
-0.0015920346572186115   -0.01898785331159148   -0.0005157155635596804
-0.0015871706328008702   -0.019732690506276594   -0.0005637644631062931
-0.002047203888868472   -0.018961583792558558   -0.000529150821423874
-0.0015920346572186115   -0.01898785331159148   -0.0005157155635596804
-0.0017375769960637814   -0.019758118326303892   -0.0005973931058975943
-0.0015871706328008702   -0.019732690506276594   -0.0005637644631062931
-0.0015691013058663386   -0.018974215660473328   -0.0005149381758626138
-0.0016970344908096807   -0.01975175463096516   -0.0005690849109346467
-0.0015502315301512304   -0.019739538240402085   -0.0005596916649354788
-0.0015691013058663386   -0.018974215660473328   -0.0005149381758626138
-0.002047203888868472   -0.018961583792558558   -0.000529150821423874
-0.0016970344908096807   -0.01975175463096516   -0.0005690849109346467
-0.002022509008608681   -0.018962158060378393   -0.000503865806765517
-0.0015502315301512304   -0.019739538240402085   -0.0005596916649354788
-0.0016554181299554963   -0.019758342419068778   -0.0005390079881873714
-0.002022509008608681   -0.018962158060378393   -0.000503865806765517
-0.0016970344908096807   -0.01975175463096516   -0.0005690849109346467
-0.0015502315301512304   -0.019739538240402085   -0.0005596916649354788
-0.002022509008608681   -0.018962158060378393   -0.000503865806765517
-0.0015470113283658994   -0.018972873171723657   -0.0005122045751895924
-0.0015691013058663386   -0.018974215660473328   -0.0005149381758626138
-0.0015502315301512304   -0.019739538240402085   -0.0005596916649354788
-0.002022509008608681   -0.018962158060378393   -0.000503865806765517
-0.0015691013058663386   -0.018974215660473328   -0.0005149381758626138
-0.0016970344908096807   -0.01975175463096516   -0.0005690849109346467
-0.0017714810909432858   -0.01977967223106723   -0.0006225443503870224
-0.002093837523797023   -0.018996136242657155   -0.0005735075486919378
-0.0019388781187034989   -0.019756202276554134   -0.000677463665881305
-0.0017375769960637814   -0.019758118326303892   -0.0005973931058975943
-0.002093837523797023   -0.018996136242657155   -0.0005735075486919378
-0.0026194988025067634   -0.01893760414675562   -0.0006279230579670002
-0.0019388781187034989   -0.019756202276554134   -0.000677463665881305
-0.002592416262794643   -0.018916844423274293   -0.000584738564354701
-0.0017375769960637814   -0.019758118326303892   -0.0005973931058975943
-0.0018946496297658655   -0.01973558238795933   -0.0006277306685031537
-0.002592416262794643   -0.018916844423274293   -0.000584738564354701
-0.0019388781187034989   -0.019756202276554134   -0.000677463665881305
-0.0017375769960637814   -0.019758118326303892   -0.0005973931058975943
-0.002592416262794643   -0.018916844423274293   -0.000584738564354701
-0.002071861524896554   -0.018972527476569093   -0.0005522872763171549
-0.002093837523797023   -0.018996136242657155   -0.0005735075486919378
-0.0017375769960637814   -0.019758118326303892   -0.0005973931058975943
-0.002592416262794643   -0.018916844423274293   -0.000584738564354701
-0.002093837523797023   -0.018996136242657155   -0.0005735075486919378
-0.0019388781187034989   -0.019756202276554134   -0.000677463665881305
-0.0017375769960637814   -0.019758118326303892   -0.0005973931058975943
-0.002071861524896554   -0.018972527476569093   -0.0005522872763171549
-0.0018946496297658655   -0.01973558238795933   -0.0006277306685031537
-0.0016970344908096807   -0.01975175463096516   -0.0005690849109346467
-0.002071861524896554   -0.018972527476569093   -0.0005522872763171549
-0.002592416262794643   -0.018916844423274293   -0.000584738564354701
-0.0018946496297658655   -0.01973558238795933   -0.0006277306685031537
-0.002554850486337811   -0.018908584423878487   -0.00053979677053866
-0.0016970344908096807   -0.01975175463096516   -0.0005690849109346467
-0.0018359936406176912   -0.01973126463590151   -0.0005744365492018631
-0.002554850486337811   -0.018908584423878487   -0.00053979677053866
-0.0018946496297658655   -0.01973558238795933   -0.0006277306685031537
-0.0016970344908096807   -0.01975175463096516   -0.0005690849109346467
-0.002554850486337811   -0.018908584423878487   -0.00053979677053866
-0.002047203888868472   -0.018961583792558558   -0.000529150821423874
-0.002071861524896554   -0.018972527476569093   -0.0005522872763171549
-0.0016970344908096807   -0.01975175463096516   -0.0005690849109346467
-0.002554850486337811   -0.018908584423878487   -0.00053979677053866
-0.002071861524896554   -0.018972527476569093   -0.0005522872763171549
-0.0018946496297658655   -0.01973558238795933   -0.0006277306685031537
-0.0016970344908096807   -0.01975175463096516   -0.0005690849109346467
-0.002047203888868472   -0.018961583792558558   -0.000529150821423874
-0.0018359936406176912   -0.01973126463590151   -0.0005744365492018631
-0.0016554181299554963   -0.019758342419068778   -0.0005390079881873714
-0.002047203888868472   -0.018961583792558558   -0.000529150821423874
-0.002554850486337811   -0.018908584423878487   -0.00053979677053866
-0.0018359936406176912   -0.01973126463590151   -0.0005744365492018631
-0.002522362339772062   -0.018912822017676377   -0.0004918936855298855
-0.0016554181299554963   -0.019758342419068778   -0.0005390079881873714
-0.0017812777432992582   -0.019740210994827066   -0.0005191860648975129
-0.002522362339772062   -0.018912822017676377   -0.0004918936855298855
-0.0018359936406176912   -0.01973126463590151   -0.0005744365492018631
-0.0016554181299554963   -0.019758342419068778   -0.0005390079881873714
-0.002522362339772062   -0.018912822017676377   -0.0004918936855298855
-0.002022509008608681   -0.018962158060378393   -0.000503865806765517
-0.002047203888868472   -0.018961583792558558   -0.000529150821423874
-0.0016554181299554963   -0.019758342419068778   -0.0005390079881873714
-0.002522362339772062   -0.018912822017676377   -0.0004918936855298855
-0.002047203888868472   -0.018961583792558558   -0.000529150821423874
-0.0018359936406176912   -0.01973126463590151   -0.0005744365492018631
-0.0019388781187034989   -0.019756202276554134   -0.000677463665881305
-0.0026194988025067634   -0.01893760414675562   -0.0006279230579670002
-0.002270898985029699   -0.01966012043255032   -0.0007366267090028737
-0.0018946496297658655   -0.01973558238795933   -0.0006277306685031537
-0.0026194988025067634   -0.01893760414675562   -0.0006279230579670002
-0.003296152364876422   -0.01884240970468417   -0.0006809201962788618
-0.002270898985029699   -0.01966012043255032   -0.0007366267090028737
-0.003206316584647464   -0.01881957750160862   -0.0006126572152491592
-0.0018946496297658655   -0.01973558238795933   -0.0006277306685031537
-0.0021501540538576506   -0.019642276201450055   -0.000655098091397931
-0.003206316584647464   -0.01881957750160862   -0.0006126572152491592
-0.002270898985029699   -0.01966012043255032   -0.0007366267090028737
-0.0018946496297658655   -0.01973558238795933   -0.0006277306685031537
-0.003206316584647464   -0.01881957750160862   -0.0006126572152491592
-0.002592416262794643   -0.018916844423274293   -0.000584738564354701
-0.0026194988025067634   -0.01893760414675562   -0.0006279230579670002
-0.0018946496297658655   -0.01973558238795933   -0.0006277306685031537
-0.003206316584647464   -0.01881957750160862   -0.0006126572152491592
-0.0026194988025067634   -0.01893760414675562   -0.0006279230579670002
-0.002270898985029699   -0.01966012043255032   -0.0007366267090028737
-0.0018946496297658655   -0.01973558238795933   -0.0006277306685031537
-0.002592416262794643   -0.018916844423274293   -0.000584738564354701
-0.0021501540538576506   -0.019642276201450055   -0.000655098091397931
-0.0018359936406176912   -0.01973126463590151   -0.0005744365492018631
-0.002592416262794643   -0.018916844423274293   -0.000584738564354701
-0.003206316584647464   -0.01881957750160862   -0.0006126572152491592
-0.0021501540538576506   -0.019642276201450055   -0.000655098091397931
-0.0031263285246554387   -0.018811937387174335   -0.0005406687354351824
-0.0018359936406176912   -0.01973126463590151   -0.0005744365492018631
-0.002039864159202425   -0.01964013893735405   -0.0005683727554128982
-0.0031263285246554387   -0.018811937387174335   -0.0005406687354351824
-0.0021501540538576506   -0.019642276201450055   -0.000655098091397931
-0.0018359936406176912   -0.01973126463590151   -0.0005744365492018631
-0.0031263285246554387   -0.018811937387174335   -0.0005406687354351824
-0.002554850486337811   -0.018908584423878487   -0.00053979677053866
-0.002592416262794643   -0.018916844423274293   -0.000584738564354701
-0.0018359936406176912   -0.01973126463590151   -0.0005744365492018631
-0.0031263285246554387   -0.018811937387174335   -0.0005406687354351824
-0.002592416262794643   -0.018916844423274293   -0.000584738564354701
-0.0021501540538576506   -0.019642276201450055   -0.000655098091397931
-0.0018359936406176912   -0.01973126463590151   -0.0005744365492018631
-0.002554850486337811   -0.018908584423878487   -0.00053979677053866
-0.002039864159202425   -0.01964013893735405   -0.0005683727554128982
-0.0017812777432992582   -0.019740210994827066   -0.0005191860648975129
-0.002554850486337811   -0.018908584423878487   -0.00053979677053866
-0.0031263285246554387   -0.018811937387174335   -0.0005406687354351824
-0.002039864159202425   -0.01964013893735405   -0.0005683727554128982
-0.0030227289439546984   -0.018823605712898366   -0.0004656176482099425
-0.0017812777432992582   -0.019740210994827066   -0.0005191860648975129
-0.0019004590032018127   -0.019663431474939163   -0.00047792671231096167
-0.0030227289439546984   -0.018823605712898366   -0.0004656176482099425
-0.002039864159202425   -0.01964013893735405   -0.0005683727554128982
-0.0017812777432992582   -0.019740210994827066   -0.0005191860648975129
-0.0030227289439546984   -0.018823605712898366   -0.0004656176482099425
-0.002522362339772062   -0.018912822017676377   -0.0004918936855298855
-0.002554850486337811   -0.018908584423878487   -0.00053979677053866
-0.0017812777432992582   -0.019740210994827066   -0.0005191860648975129
-0.0030227289439546984   -0.018823605712898366   -0.0004656176482099425
-0.002554850486337811   -0.018908584423878487   -0.00053979677053866
-0.002039864159202425   -0.01964013893735405   -0.0005683727554128982
-0.0006461475956782564   -0.018937653937325355   -0.0003740973842093032
3.45894874791891e-05   -0.01760981635909696   -0.0003083448057857529
-0.001131679783146753   -0.018994566822548336   -0.00045162206127804275
-0.0005688501603937558   -0.018899875689204503   -0.00042988577788671405
3.45894874791891e-05   -0.01760981635909696   -0.0003083448057857529
-0.0007959067012030985   -0.017652190059020766   -0.0003846518732556628
-0.001131679783146753   -0.018994566822548336   -0.00045162206127804275
-0.0007816435116614406   -0.017620274574980794   -0.000404321303854274
-0.0005688501603937558   -0.018899875689204503   -0.00042988577788671405
-0.001105186271514813   -0.01896415640844982   -0.00047612032718630275
-0.0007816435116614406   -0.017620274574980794   -0.000404321303854274
-0.001131679783146753   -0.018994566822548336   -0.00045162206127804275
-0.0005688501603937558   -0.018899875689204503   -0.00042988577788671405
-0.0007816435116614406   -0.017620274574980794   -0.000404321303854274
8.945397993871629e-05   -0.017571310032902993   -0.00035334735127646853
3.45894874791891e-05   -0.01760981635909696   -0.0003083448057857529
-0.0005688501603937558   -0.018899875689204503   -0.00042988577788671405
-0.0007816435116614406   -0.017620274574980794   -0.000404321303854274
3.45894874791891e-05   -0.01760981635909696   -0.0003083448057857529
-0.001131679783146753   -0.018994566822548336   -0.00045162206127804275
-0.0005688501603937558   -0.018899875689204503   -0.00042988577788671405
8.945397993871629e-05   -0.017571310032902993   -0.00035334735127646853
-0.001105186271514813   -0.01896415640844982   -0.00047612032718630275
-0.0005080068979017918   -0.018882706963345913   -0.00048256244122423946
8.945397993871629e-05   -0.017571310032902993   -0.00035334735127646853
-0.0007816435116614406   -0.017620274574980794   -0.000404321303854274
-0.001105186271514813   -0.01896415640844982   -0.00047612032718630275
-0.0007652485765157791   -0.01760015191210054   -0.00042181008469519026
-0.0005080068979017918   -0.018882706963345913   -0.00048256244122423946
-0.0010751646796129499   -0.018948029066763378   -0.000498515025054333
-0.0007652485765157791   -0.01760015191210054   -0.00042181008469519026
-0.001105186271514813   -0.01896415640844982   -0.00047612032718630275
-0.0005080068979017918   -0.018882706963345913   -0.00048256244122423946
-0.0007652485765157791   -0.01760015191210054   -0.00042181008469519026
0.0001299074554672578   -0.017549899837939975   -0.00039529686257661837
8.945397993871629e-05   -0.017571310032902993   -0.00035334735127646853
-0.0005080068979017918   -0.018882706963345913   -0.00048256244122423946
-0.0007652485765157791   -0.01760015191210054   -0.00042181008469519026
8.945397993871629e-05   -0.017571310032902993   -0.00035334735127646853
-0.001105186271514813   -0.01896415640844982   -0.00047612032718630275
-0.0005080068979017918   -0.018882706963345913   -0.00048256244122423946
0.0001299074554672578   -0.017549899837939975   -0.00039529686257661837
-0.0010751646796129499   -0.018948029066763378   -0.000498515025054333
-0.0004411172662375501   -0.018881055101912285   -0.0005320042227071278
0.0001299074554672578   -0.017549899837939975   -0.00039529686257661837
-0.0007652485765157791   -0.01760015191210054   -0.00042181008469519026
-0.0010751646796129499   -0.018948029066763378   -0.000498515025054333
-0.0007554281542982961   -0.017591201419228403   -0.0004373345697680692
-0.0004411172662375501   -0.018881055101912285   -0.0005320042227071278
-0.0010522041132964676   -0.018945725106325376   -0.000518879971309724
-0.0007554281542982961   -0.017591201419228403   -0.0004373345697680692
-0.0010751646796129499   -0.018948029066763378   -0.000498515025054333
-0.0004411172662375501   -0.018881055101912285   -0.0005320042227071278
-0.0007554281542982961   -0.017591201419228403   -0.0004373345697680692
0.00017363225423505476   -0.01754061510279119   -0.0004341853034317526
0.0001299074554672578   -0.017549899837939975   -0.00039529686257661837
-0.0004411172662375501   -0.018881055101912285   -0.0005320042227071278
-0.0007554281542982961   -0.017591201419228403   -0.0004373345697680692
0.0001299074554672578   -0.017549899837939975   -0.00039529686257661837
-0.0010751646796129499   -0.018948029066763378   -0.000498515025054333
-0.001131679783146753   -0.018994566822548336   -0.00045162206127804275
-0.0007959067012030985   -0.017652190059020766   -0.0003846518732556628
-0.0016141869147105606   -0.019014356896010418   -0.0005145419415173303
-0.001105186271514813   -0.01896415640844982   -0.00047612032718630275
-0.0007959067012030985   -0.017652190059020766   -0.0003846518732556628
-0.0016022770933864163   -0.017660368344256463   -0.0004470718346410859
-0.0016141869147105606   -0.019014356896010418   -0.0005145419415173303
-0.0015919040806825142   -0.017633079619881923   -0.0004474488522236191
-0.001105186271514813   -0.01896415640844982   -0.00047612032718630275
-0.0015920346572186115   -0.01898785331159148   -0.0005157155635596804
-0.0015919040806825142   -0.017633079619881923   -0.0004474488522236191
-0.0016141869147105606   -0.019014356896010418   -0.0005145419415173303
-0.001105186271514813   -0.01896415640844982   -0.00047612032718630275
-0.0015919040806825142   -0.017633079619881923   -0.0004474488522236191
-0.0007816435116614406   -0.017620274574980794   -0.000404321303854274
-0.0007959067012030985   -0.017652190059020766   -0.0003846518732556628
-0.001105186271514813   -0.01896415640844982   -0.00047612032718630275
-0.0015919040806825142   -0.017633079619881923   -0.0004474488522236191
-0.0007959067012030985   -0.017652190059020766   -0.0003846518732556628
-0.0016141869147105606   -0.019014356896010418   -0.0005145419415173303
-0.001105186271514813   -0.01896415640844982   -0.00047612032718630275
-0.0007816435116614406   -0.017620274574980794   -0.000404321303854274
-0.0015920346572186115   -0.01898785331159148   -0.0005157155635596804
-0.0010751646796129499   -0.018948029066763378   -0.000498515025054333
-0.0007816435116614406   -0.017620274574980794   -0.000404321303854274
-0.0015919040806825142   -0.017633079619881923   -0.0004474488522236191
-0.0015920346572186115   -0.01898785331159148   -0.0005157155635596804
-0.0015812173571920429   -0.01761633491265423   -0.00044573035236898715
-0.0010751646796129499   -0.018948029066763378   -0.000498515025054333
-0.0015691013058663386   -0.018974215660473328   -0.0005149381758626138
-0.0015812173571920429   -0.01761633491265423   -0.00044573035236898715
-0.0015920346572186115   -0.01898785331159148   -0.0005157155635596804
-0.0010751646796129499   -0.018948029066763378   -0.000498515025054333
-0.0015812173571920429   -0.01761633491265423   -0.00044573035236898715
-0.0007652485765157791   -0.01760015191210054   -0.00042181008469519026
-0.0007816435116614406   -0.017620274574980794   -0.000404321303854274
-0.0010751646796129499   -0.018948029066763378   -0.000498515025054333
-0.0015812173571920429   -0.01761633491265423   -0.00044573035236898715
-0.0007816435116614406   -0.017620274574980794   -0.000404321303854274
-0.0015920346572186115   -0.01898785331159148   -0.0005157155635596804
-0.0010751646796129499   -0.018948029066763378   -0.000498515025054333
-0.0007652485765157791   -0.01760015191210054   -0.00042181008469519026
-0.0015691013058663386   -0.018974215660473328   -0.0005149381758626138
-0.0010522041132964676   -0.018945725106325376   -0.000518879971309724
-0.0007652485765157791   -0.01760015191210054   -0.00042181008469519026
-0.0015812173571920429   -0.01761633491265423   -0.00044573035236898715
-0.0015691013058663386   -0.018974215660473328   -0.0005149381758626138
-0.0015718780615409339   -0.01760997814501879   -0.00044206556727456413
-0.0010522041132964676   -0.018945725106325376   -0.000518879971309724
-0.0015470113283658994   -0.018972873171723657   -0.0005122045751895924
-0.0015718780615409339   -0.01760997814501879   -0.00044206556727456413
-0.0015691013058663386   -0.018974215660473328   -0.0005149381758626138
-0.0010522041132964676   -0.018945725106325376   -0.000518879971309724
-0.0015718780615409339   -0.01760997814501879   -0.00044206556727456413
-0.0007554281542982961   -0.017591201419228403   -0.0004373345697680692
-0.0007652485765157791   -0.01760015191210054   -0.00042181008469519026
-0.0010522041132964676   -0.018945725106325376   -0.000518879971309724
-0.0015718780615409339   -0.01760997814501879   -0.00044206556727456413
-0.0007652485765157791   -0.01760015191210054   -0.00042181008469519026
-0.0015691013058663386   -0.018974215660473328   -0.0005149381758626138
-0.0016141869147105606   -0.019014356896010418   -0.0005145419415173303
-0.0016022770933864163   -0.017660368344256463   -0.0004470718346410859
-0.002093837523797023   -0.018996136242657155   -0.0005735075486919378
-0.0015920346572186115   -0.01898785331159148   -0.0005157155635596804
-0.0016022770933864163   -0.017660368344256463   -0.0004470718346410859
-0.0023965984219020665   -0.01763439606981125   -0.0005033703792418937
-0.002093837523797023   -0.018996136242657155   -0.0005735075486919378
-0.0023869524801999856   -0.017610889271974194   -0.0004849122383129594
-0.0015920346572186115   -0.01898785331159148   -0.0005157155635596804
-0.002071861524896554   -0.018972527476569093   -0.0005522872763171549
-0.0023869524801999856   -0.017610889271974194   -0.0004849122383129594
-0.002093837523797023   -0.018996136242657155   -0.0005735075486919378
-0.0015920346572186115   -0.01898785331159148   -0.0005157155635596804
-0.0023869524801999856   -0.017610889271974194   -0.0004849122383129594
-0.0015919040806825142   -0.017633079619881923   -0.0004474488522236191
-0.0016022770933864163   -0.017660368344256463   -0.0004470718346410859
-0.0015920346572186115   -0.01898785331159148   -0.0005157155635596804
-0.0023869524801999856   -0.017610889271974194   -0.0004849122383129594
-0.0016022770933864163   -0.017660368344256463   -0.0004470718346410859
-0.002093837523797023   -0.018996136242657155   -0.0005735075486919378
-0.0015920346572186115   -0.01898785331159148   -0.0005157155635596804
-0.0015919040806825142   -0.017633079619881923   -0.0004474488522236191
-0.002071861524896554   -0.018972527476569093   -0.0005522872763171549
-0.0015691013058663386   -0.018974215660473328   -0.0005149381758626138
-0.0015919040806825142   -0.017633079619881923   -0.0004474488522236191
-0.0023869524801999856   -0.017610889271974194   -0.0004849122383129594
-0.002071861524896554   -0.018972527476569093   -0.0005522872763171549
-0.0023752849634010903   -0.01759781373131142   -0.00046440943974249344
-0.0015691013058663386   -0.018974215660473328   -0.0005149381758626138
-0.002047203888868472   -0.018961583792558558   -0.000529150821423874
-0.0023752849634010903   -0.01759781373131142   -0.00046440943974249344
-0.002071861524896554   -0.018972527476569093   -0.0005522872763171549
-0.0015691013058663386   -0.018974215660473328   -0.0005149381758626138
-0.0023752849634010903   -0.01759781373131142   -0.00046440943974249344
-0.0015812173571920429   -0.01761633491265423   -0.00044573035236898715
-0.0015919040806825142   -0.017633079619881923   -0.0004474488522236191
-0.0015691013058663386   -0.018974215660473328   -0.0005149381758626138
-0.0023752849634010903   -0.01759781373131142   -0.00046440943974249344
-0.0015919040806825142   -0.017633079619881923   -0.0004474488522236191
-0.002071861524896554   -0.018972527476569093   -0.0005522872763171549
-0.0015691013058663386   -0.018974215660473328   -0.0005149381758626138
-0.0015812173571920429   -0.01761633491265423   -0.00044573035236898715
-0.002047203888868472   -0.018961583792558558   -0.000529150821423874
-0.0015470113283658994   -0.018972873171723657   -0.0005122045751895924
-0.0015812173571920429   -0.01761633491265423   -0.00044573035236898715
-0.0023752849634010903   -0.01759781373131142   -0.00046440943974249344
-0.002047203888868472   -0.018961583792558558   -0.000529150821423874
-0.0023639776329384306   -0.017594718678361317   -0.0004419236335233987
-0.0015470113283658994   -0.018972873171723657   -0.0005122045751895924
-0.002022509008608681   -0.018962158060378393   -0.000503865806765517
-0.0023639776329384306   -0.017594718678361317   -0.0004419236335233987
-0.002047203888868472   -0.018961583792558558   -0.000529150821423874
-0.0015470113283658994   -0.018972873171723657   -0.0005122045751895924
-0.0023639776329384306   -0.017594718678361317   -0.0004419236335233987
-0.0015718780615409339   -0.01760997814501879   -0.00044206556727456413
-0.0015812173571920429   -0.01761633491265423   -0.00044573035236898715
-0.0015470113283658994   -0.018972873171723657   -0.0005122045751895924
-0.0023639776329384306   -0.017594718678361317   -0.0004419236335233987
-0.0015812173571920429   -0.01761633491265423   -0.00044573035236898715
-0.002047203888868472   -0.018961583792558558   -0.000529150821423874
-0.002093837523797023   -0.018996136242657155   -0.0005735075486919378
-0.0023965984219020665   -0.01763439606981125   -0.0005033703792418937
-0.0026194988025067634   -0.01893760414675562   -0.0006279230579670002
-0.002071861524896554   -0.018972527476569093   -0.0005522872763171549
-0.0023965984219020665   -0.01763439606981125   -0.0005033703792418937
-0.003228178991824311   -0.017575106861968486   -0.0005534442667671106
-0.0026194988025067634   -0.01893760414675562   -0.0006279230579670002
-0.0032153960098605557   -0.017555150882173836   -0.0005160977295545536
-0.002071861524896554   -0.018972527476569093   -0.0005522872763171549
-0.002592416262794643   -0.018916844423274293   -0.000584738564354701
-0.0032153960098605557   -0.017555150882173836   -0.0005160977295545536
-0.0026194988025067634   -0.01893760414675562   -0.0006279230579670002
-0.002071861524896554   -0.018972527476569093   -0.0005522872763171549
-0.0032153960098605557   -0.017555150882173836   -0.0005160977295545536
-0.0023869524801999856   -0.017610889271974194   -0.0004849122383129594
-0.0023965984219020665   -0.01763439606981125   -0.0005033703792418937
-0.002071861524896554   -0.018972527476569093   -0.0005522872763171549
-0.0032153960098605557   -0.017555150882173836   -0.0005160977295545536
-0.0023965984219020665   -0.01763439606981125   -0.0005033703792418937
-0.0026194988025067634   -0.01893760414675562   -0.0006279230579670002
-0.002071861524896554   -0.018972527476569093   -0.0005522872763171549
-0.0023869524801999856   -0.017610889271974194   -0.0004849122383129594
-0.002592416262794643   -0.018916844423274293   -0.000584738564354701
-0.002047203888868472   -0.018961583792558558   -0.000529150821423874
-0.0023869524801999856   -0.017610889271974194   -0.0004849122383129594
-0.0032153960098605557   -0.017555150882173836   -0.0005160977295545536
-0.002592416262794643   -0.018916844423274293   -0.000584738564354701
-0.0031936226081954095   -0.017545400956180145   -0.00047702933137118425
-0.002047203888868472   -0.018961583792558558   -0.000529150821423874
-0.002554850486337811   -0.018908584423878487   -0.00053979677053866
-0.0031936226081954095   -0.017545400956180145   -0.00047702933137118425
-0.002592416262794643   -0.018916844423274293   -0.000584738564354701
-0.002047203888868472   -0.018961583792558558   -0.000529150821423874
-0.0031936226081954095   -0.017545400956180145   -0.00047702933137118425
-0.0023752849634010903   -0.01759781373131142   -0.00046440943974249344
-0.0023869524801999856   -0.017610889271974194   -0.0004849122383129594
-0.002047203888868472   -0.018961583792558558   -0.000529150821423874
-0.0031936226081954095   -0.017545400956180145   -0.00047702933137118425
-0.0023869524801999856   -0.017610889271974194   -0.0004849122383129594
-0.002592416262794643   -0.018916844423274293   -0.000584738564354701
-0.002047203888868472   -0.018961583792558558   -0.000529150821423874
-0.0023752849634010903   -0.01759781373131142   -0.00046440943974249344
-0.002554850486337811   -0.018908584423878487   -0.00053979677053866
-0.002022509008608681   -0.018962158060378393   -0.000503865806765517
-0.0023752849634010903   -0.01759781373131142   -0.00046440943974249344
-0.0031936226081954095   -0.017545400956180145   -0.00047702933137118425
-0.002554850486337811   -0.018908584423878487   -0.00053979677053866
-0.0031761517925295896   -0.01754641458513995   -0.0004356841258888678
-0.002022509008608681   -0.018962158060378393   -0.000503865806765517
-0.002522362339772062   -0.018912822017676377   -0.0004918936855298855
-0.0031761517925295896   -0.01754641458513995   -0.0004356841258888678
-0.002554850486337811   -0.018908584423878487   -0.00053979677053866
-0.002022509008608681   -0.018962158060378393   -0.000503865806765517
-0.0031761517925295896   -0.01754641458513995   -0.0004356841258888678
-0.0023639776329384306   -0.017594718678361317   -0.0004419236335233987
-0.0023752849634010903   -0.01759781373131142   -0.00046440943974249344
-0.002022509008608681   -0.018962158060378393   -0.000503865806765517
-0.0031761517925295896   -0.01754641458513995   -0.0004356841258888678
-0.0023752849634010903   -0.01759781373131142   -0.00046440943974249344
-0.002554850486337811   -0.018908584423878487   -0.00053979677053866
-0.0026194988025067634   -0.01893760414675562   -0.0006279230579670002
-0.003228178991824311   -0.017575106861968486   -0.0005534442667671106
-0.003296152364876422   -0.01884240970468417   -0.0006809201962788618
-0.002592416262794643   -0.018916844423274293   -0.000584738564354701
-0.003228178991824311   -0.017575106861968486   -0.0005534442667671106
-0.004197567561965505   -0.017489150467389195   -0.0006006696257600553
-0.003296152364876422   -0.01884240970468417   -0.0006809201962788618
-0.0041302745465216   -0.01746809154269534   -0.0005420875624917809
-0.002592416262794643   -0.018916844423274293   -0.000584738564354701
-0.003206316584647464   -0.01881957750160862   -0.0006126572152491592
-0.0041302745465216   -0.01746809154269534   -0.0005420875624917809
-0.003296152364876422   -0.01884240970468417   -0.0006809201962788618
-0.002592416262794643   -0.018916844423274293   -0.000584738564354701
-0.0041302745465216   -0.01746809154269534   -0.0005420875624917809
-0.0032153960098605557   -0.017555150882173836   -0.0005160977295545536
-0.003228178991824311   -0.017575106861968486   -0.0005534442667671106
-0.002592416262794643   -0.018916844423274293   -0.000584738564354701
-0.0041302745465216   -0.01746809154269534   -0.0005420875624917809
-0.003228178991824311   -0.017575106861968486   -0.0005534442667671106
-0.003296152364876422   -0.01884240970468417   -0.0006809201962788618
-0.002592416262794643   -0.018916844423274293   -0.000584738564354701
-0.0032153960098605557   -0.017555150882173836   -0.0005160977295545536
-0.003206316584647464   -0.01881957750160862   -0.0006126572152491592
-0.002554850486337811   -0.018908584423878487   -0.00053979677053866
-0.0032153960098605557   -0.017555150882173836   -0.0005160977295545536
-0.0041302745465216   -0.01746809154269534   -0.0005420875624917809
-0.003206316584647464   -0.01881957750160862   -0.0006126572152491592
-0.004072214905734219   -0.017459246195833614   -0.00048064118192312725
-0.002554850486337811   -0.018908584423878487   -0.00053979677053866
-0.0031263285246554387   -0.018811937387174335   -0.0005406687354351824
-0.004072214905734219   -0.017459246195833614   -0.00048064118192312725
-0.003206316584647464   -0.01881957750160862   -0.0006126572152491592
-0.002554850486337811   -0.018908584423878487   -0.00053979677053866
-0.004072214905734219   -0.017459246195833614   -0.00048064118192312725
-0.0031936226081954095   -0.017545400956180145   -0.00047702933137118425
-0.0032153960098605557   -0.017555150882173836   -0.0005160977295545536
-0.002554850486337811   -0.018908584423878487   -0.00053979677053866
-0.004072214905734219   -0.017459246195833614   -0.00048064118192312725
-0.0032153960098605557   -0.017555150882173836   -0.0005160977295545536
-0.003206316584647464   -0.01881957750160862   -0.0006126572152491592
-0.002554850486337811   -0.018908584423878487   -0.00053979677053866
-0.0031936226081954095   -0.017545400956180145   -0.00047702933137118425
-0.0031263285246554387   -0.018811937387174335   -0.0005406687354351824
-0.002522362339772062   -0.018912822017676377   -0.0004918936855298855
-0.0031936226081954095   -0.017545400956180145   -0.00047702933137118425
-0.004072214905734219   -0.017459246195833614   -0.00048064118192312725
-0.0031263285246554387   -0.018811937387174335   -0.0005406687354351824
-0.003994141117691816   -0.017466766799142306   -0.00041671723407927494
-0.002522362339772062   -0.018912822017676377   -0.0004918936855298855
-0.0030227289439546984   -0.018823605712898366   -0.0004656176482099425
-0.003994141117691816   -0.017466766799142306   -0.00041671723407927494
-0.0031263285246554387   -0.018811937387174335   -0.0005406687354351824
-0.002522362339772062   -0.018912822017676377   -0.0004918936855298855
-0.003994141117691816   -0.017466766799142306   -0.00041671723407927494
-0.0031761517925295896   -0.01754641458513995   -0.0004356841258888678
-0.0031936226081954095   -0.017545400956180145   -0.00047702933137118425
-0.002522362339772062   -0.018912822017676377   -0.0004918936855298855
-0.003994141117691816   -0.017466766799142306   -0.00041671723407927494
-0.0031936226081954095   -0.017545400956180145   -0.00047702933137118425
-0.0031263285246554387   -0.018811937387174335   -0.0005406687354351824
3.45894874791891e-05   -0.01760981635909696   -0.0003083448057857529
0.0005590700859823878   -0.01578711569958285   -0.00023458173196324857
-0.0007959067012030985   -0.017652190059020766   -0.0003846518732556628
8.945397993871629e-05   -0.017571310032902993   -0.00035334735127646853
0.0005590700859823878   -0.01578711569958285   -0.00023458173196324857
-0.0005496842669571026   -0.01581568959653419   -0.00030750749903135074
-0.0007959067012030985   -0.017652190059020766   -0.0003846518732556628
-0.0005464095769074682   -0.015783935543371375   -0.00032139708632014836
8.945397993871629e-05   -0.017571310032902993   -0.00035334735127646853
-0.0007816435116614406   -0.017620274574980794   -0.000404321303854274
-0.0005464095769074682   -0.015783935543371375   -0.00032139708632014836
-0.0007959067012030985   -0.017652190059020766   -0.0003846518732556628
8.945397993871629e-05   -0.017571310032902993   -0.00035334735127646853
-0.0005464095769074682   -0.015783935543371375   -0.00032139708632014836
0.000592620785795694   -0.01574946293114028   -0.00026842329079273093
0.0005590700859823878   -0.01578711569958285   -0.00023458173196324857
8.945397993871629e-05   -0.017571310032902993   -0.00035334735127646853
-0.0005464095769074682   -0.015783935543371375   -0.00032139708632014836
0.0005590700859823878   -0.01578711569958285   -0.00023458173196324857
-0.0007959067012030985   -0.017652190059020766   -0.0003846518732556628
8.945397993871629e-05   -0.017571310032902993   -0.00035334735127646853
0.000592620785795694   -0.01574946293114028   -0.00026842329079273093
-0.0007816435116614406   -0.017620274574980794   -0.000404321303854274
0.0001299074554672578   -0.017549899837939975   -0.00039529686257661837
0.000592620785795694   -0.01574946293114028   -0.00026842329079273093
-0.0005464095769074682   -0.015783935543371375   -0.00032139708632014836
-0.0007816435116614406   -0.017620274574980794   -0.000404321303854274
-0.0005421950380278465   -0.0157616092568099   -0.00033326671187582985
0.0001299074554672578   -0.017549899837939975   -0.00039529686257661837
-0.0007652485765157791   -0.01760015191210054   -0.00042181008469519026
-0.0005421950380278465   -0.0157616092568099   -0.00033326671187582985
-0.0007816435116614406   -0.017620274574980794   -0.000404321303854274
0.0001299074554672578   -0.017549899837939975   -0.00039529686257661837
-0.0005421950380278465   -0.0157616092568099   -0.00033326671187582985
0.0006143292519652211   -0.015725591854845976   -0.00029940404362906983
0.000592620785795694   -0.01574946293114028   -0.00026842329079273093
0.0001299074554672578   -0.017549899837939975   -0.00039529686257661837
-0.0005421950380278465   -0.0157616092568099   -0.00033326671187582985
0.000592620785795694   -0.01574946293114028   -0.00026842329079273093
-0.0007816435116614406   -0.017620274574980794   -0.000404321303854274
0.0001299074554672578   -0.017549899837939975   -0.00039529686257661837
0.0006143292519652211   -0.015725591854845976   -0.00029940404362906983
-0.0007652485765157791   -0.01760015191210054   -0.00042181008469519026
0.00017363225423505476   -0.01754061510279119   -0.0004341853034317526
0.0006143292519652211   -0.015725591854845976   -0.00029940404362906983
-0.0005421950380278465   -0.0157616092568099   -0.00033326671187582985
-0.0007652485765157791   -0.01760015191210054   -0.00042181008469519026
-0.0005436507682996533   -0.01574795743828339   -0.00034326266661558087
0.00017363225423505476   -0.01754061510279119   -0.0004341853034317526
-0.0007554281542982961   -0.017591201419228403   -0.0004373345697680692
-0.0005436507682996533   -0.01574795743828339   -0.00034326266661558087
-0.0007652485765157791   -0.01760015191210054   -0.00042181008469519026
0.00017363225423505476   -0.01754061510279119   -0.0004341853034317526
-0.0005436507682996533   -0.01574795743828339   -0.00034326266661558087
0.0006370142951978536   -0.015710640369005043   -0.0003275897809741125
0.0006143292519652211   -0.015725591854845976   -0.00029940404362906983
0.00017363225423505476   -0.01754061510279119   -0.0004341853034317526
-0.0005436507682996533   -0.01574795743828339   -0.00034326266661558087
0.0006143292519652211   -0.015725591854845976   -0.00029940404362906983
-0.0007652485765157791   -0.01760015191210054   -0.00042181008469519026
-0.0007959067012030985   -0.017652190059020766   -0.0003846518732556628
-0.0005496842669571026   -0.01581568959653419   -0.00030750749903135074
-0.0016022770933864163   -0.017660368344256463   -0.0004470718346410859
-0.0007816435116614406   -0.017620274574980794   -0.000404321303854274
-0.0005496842669571026   -0.01581568959653419   -0.00030750749903135074
-0.0016190394403364547   -0.01581613595313243   -0.00036707484605894475
-0.0016022770933864163   -0.017660368344256463   -0.0004470718346410859
-0.0016190261001308498   -0.015789458327050032   -0.0003657476752301379
-0.0007816435116614406   -0.017620274574980794   -0.000404321303854274
-0.0015919040806825142   -0.017633079619881923   -0.0004474488522236191
-0.0016190261001308498   -0.015789458327050032   -0.0003657476752301379
-0.0016022770933864163   -0.017660368344256463   -0.0004470718346410859
-0.0007816435116614406   -0.017620274574980794   -0.000404321303854274
-0.0016190261001308498   -0.015789458327050032   -0.0003657476752301379
-0.0005464095769074682   -0.015783935543371375   -0.00032139708632014836
-0.0005496842669571026   -0.01581568959653419   -0.00030750749903135074
-0.0007816435116614406   -0.017620274574980794   -0.000404321303854274
-0.0016190261001308498   -0.015789458327050032   -0.0003657476752301379
-0.0005496842669571026   -0.01581568959653419   -0.00030750749903135074
-0.0016022770933864163   -0.017660368344256463   -0.0004470718346410859
-0.0007816435116614406   -0.017620274574980794   -0.000404321303854274
-0.0005464095769074682   -0.015783935543371375   -0.00032139708632014836
-0.0015919040806825142   -0.017633079619881923   -0.0004474488522236191
-0.0007652485765157791   -0.01760015191210054   -0.00042181008469519026
-0.0005464095769074682   -0.015783935543371375   -0.00032139708632014836
-0.0016190261001308498   -0.015789458327050032   -0.0003657476752301379
-0.0015919040806825142   -0.017633079619881923   -0.0004474488522236191
-0.0016189313007000771   -0.015771081559698412   -0.0003624015724595575
-0.0007652485765157791   -0.01760015191210054   -0.00042181008469519026
-0.0015812173571920429   -0.01761633491265423   -0.00044573035236898715
-0.0016189313007000771   -0.015771081559698412   -0.0003624015724595575
-0.0015919040806825142   -0.017633079619881923   -0.0004474488522236191
-0.0007652485765157791   -0.01760015191210054   -0.00042181008469519026
-0.0016189313007000771   -0.015771081559698412   -0.0003624015724595575
-0.0005421950380278465   -0.0157616092568099   -0.00033326671187582985
-0.0005464095769074682   -0.015783935543371375   -0.00032139708632014836
-0.0007652485765157791   -0.01760015191210054   -0.00042181008469519026
-0.0016189313007000771   -0.015771081559698412   -0.0003624015724595575
-0.0005464095769074682   -0.015783935543371375   -0.00032139708632014836
-0.0015919040806825142   -0.017633079619881923   -0.0004474488522236191
-0.0007652485765157791   -0.01760015191210054   -0.00042181008469519026
-0.0005421950380278465   -0.0157616092568099   -0.00033326671187582985
-0.0015812173571920429   -0.01761633491265423   -0.00044573035236898715
-0.0007554281542982961   -0.017591201419228403   -0.0004373345697680692
-0.0005421950380278465   -0.0157616092568099   -0.00033326671187582985
-0.0016189313007000771   -0.015771081559698412   -0.0003624015724595575
-0.0015812173571920429   -0.01761633491265423   -0.00044573035236898715
-0.0016202486402109005   -0.015761023200165338   -0.0003571501935432206
-0.0007554281542982961   -0.017591201419228403   -0.0004373345697680692
-0.0015718780615409339   -0.01760997814501879   -0.00044206556727456413
-0.0016202486402109005   -0.015761023200165338   -0.0003571501935432206
-0.0015812173571920429   -0.01761633491265423   -0.00044573035236898715
-0.0007554281542982961   -0.017591201419228403   -0.0004373345697680692
-0.0016202486402109005   -0.015761023200165338   -0.0003571501935432206
-0.0005436507682996533   -0.01574795743828339   -0.00034326266661558087
-0.0005421950380278465   -0.0157616092568099   -0.00033326671187582985
-0.0007554281542982961   -0.017591201419228403   -0.0004373345697680692
-0.0016202486402109005   -0.015761023200165338   -0.0003571501935432206
-0.0005421950380278465   -0.0157616092568099   -0.00033326671187582985
-0.0015812173571920429   -0.01761633491265423   -0.00044573035236898715
-0.0016022770933864163   -0.017660368344256463   -0.0004470718346410859
-0.0016190394403364547   -0.01581613595313243   -0.00036707484605894475
-0.0023965984219020665   -0.01763439606981125   -0.0005033703792418937
-0.0015919040806825142   -0.017633079619881923   -0.0004474488522236191
-0.0016190394403364547   -0.01581613595313243   -0.00036707484605894475
-0.0026708163027320308   -0.01578928622434822   -0.0004190728788785151
-0.0023965984219020665   -0.01763439606981125   -0.0005033703792418937
-0.0026716149794073474   -0.015767010982223082   -0.00040272021416560535
-0.0015919040806825142   -0.017633079619881923   -0.0004474488522236191
-0.0023869524801999856   -0.017610889271974194   -0.0004849122383129594
-0.0026716149794073474   -0.015767010982223082   -0.00040272021416560535
-0.0023965984219020665   -0.01763439606981125   -0.0005033703792418937
-0.0015919040806825142   -0.017633079619881923   -0.0004474488522236191
-0.0026716149794073474   -0.015767010982223082   -0.00040272021416560535
-0.0016190261001308498   -0.015789458327050032   -0.0003657476752301379
-0.0016190394403364547   -0.01581613595313243   -0.00036707484605894475
-0.0015919040806825142   -0.017633079619881923   -0.0004474488522236191
-0.0026716149794073474   -0.015767010982223082   -0.00040272021416560535
-0.0016190394403364547   -0.01581613595313243   -0.00036707484605894475
-0.0023965984219020665   -0.01763439606981125   -0.0005033703792418937
-0.0015919040806825142   -0.017633079619881923   -0.0004474488522236191
-0.0016190261001308498   -0.015789458327050032   -0.0003657476752301379
-0.0023869524801999856   -0.017610889271974194   -0.0004849122383129594
-0.0015812173571920429   -0.01761633491265423   -0.00044573035236898715
-0.0016190261001308498   -0.015789458327050032   -0.0003657476752301379
-0.0026716149794073474   -0.015767010982223082   -0.00040272021416560535
-0.0023869524801999856   -0.017610889271974194   -0.0004849122383129594
-0.0026706370355091117   -0.01575296400995599   -0.00038439250945966434
-0.0015812173571920429   -0.01761633491265423   -0.00044573035236898715
-0.0023752849634010903   -0.01759781373131142   -0.00046440943974249344
-0.0026706370355091117   -0.01575296400995599   -0.00038439250945966434
-0.0023869524801999856   -0.017610889271974194   -0.0004849122383129594
-0.0015812173571920429   -0.01761633491265423   -0.00044573035236898715
-0.0026706370355091117   -0.01575296400995599   -0.00038439250945966434
-0.0016189313007000771   -0.015771081559698412   -0.0003624015724595575
-0.0016190261001308498   -0.015789458327050032   -0.0003657476752301379
-0.0015812173571920429   -0.01761633491265423   -0.00044573035236898715
-0.0026706370355091117   -0.01575296400995599   -0.00038439250945966434
-0.0016190261001308498   -0.015789458327050032   -0.0003657476752301379
-0.0023869524801999856   -0.017610889271974194   -0.0004849122383129594
-0.0015812173571920429   -0.01761633491265423   -0.00044573035236898715
-0.0016189313007000771   -0.015771081559698412   -0.0003624015724595575
-0.0023752849634010903   -0.01759781373131142   -0.00046440943974249344
-0.0015718780615409339   -0.01760997814501879   -0.00044206556727456413
-0.0016189313007000771   -0.015771081559698412   -0.0003624015724595575
-0.0026706370355091117   -0.01575296400995599   -0.00038439250945966434
-0.0023752849634010903   -0.01759781373131142   -0.00046440943974249344
-0.002670000516646404   -0.015747009770280207   -0.0003641450530091005
-0.0015718780615409339   -0.01760997814501879   -0.00044206556727456413
-0.0023639776329384306   -0.017594718678361317   -0.0004419236335233987
-0.002670000516646404   -0.015747009770280207   -0.0003641450530091005
-0.0023752849634010903   -0.01759781373131142   -0.00046440943974249344
-0.0015718780615409339   -0.01760997814501879   -0.00044206556727456413
-0.002670000516646404   -0.015747009770280207   -0.0003641450530091005
-0.0016202486402109005   -0.015761023200165338   -0.0003571501935432206
-0.0016189313007000771   -0.015771081559698412   -0.0003624015724595575
-0.0015718780615409339   -0.01760997814501879   -0.00044206556727456413
-0.002670000516646404   -0.015747009770280207   -0.0003641450530091005
-0.0016189313007000771   -0.015771081559698412   -0.0003624015724595575
-0.0023752849634010903   -0.01759781373131142   -0.00046440943974249344
-0.0023965984219020665   -0.01763439606981125   -0.0005033703792418937
-0.0026708163027320308   -0.01578928622434822   -0.0004190728788785151
-0.003228178991824311   -0.017575106861968486   -0.0005534442667671106
-0.0023869524801999856   -0.017610889271974194   -0.0004849122383129594
-0.0026708163027320308   -0.01578928622434822   -0.0004190728788785151
-0.003754992065150996   -0.015736085838891165   -0.00046368499247988887
-0.003228178991824311   -0.017575106861968486   -0.0005534442667671106
-0.0037534724182316597   -0.015717976417449642   -0.0004321154893308757
-0.0023869524801999856   -0.017610889271974194   -0.0004849122383129594
-0.0032153960098605557   -0.017555150882173836   -0.0005160977295545536
-0.0037534724182316597   -0.015717976417449642   -0.0004321154893308757
-0.003228178991824311   -0.017575106861968486   -0.0005534442667671106
-0.0023869524801999856   -0.017610889271974194   -0.0004849122383129594
-0.0037534724182316597   -0.015717976417449642   -0.0004321154893308757
-0.0026716149794073474   -0.015767010982223082   -0.00040272021416560535
-0.0026708163027320308   -0.01578928622434822   -0.0004190728788785151
-0.0023869524801999856   -0.017610889271974194   -0.0004849122383129594
-0.0037534724182316597   -0.015717976417449642   -0.0004321154893308757
-0.0026708163027320308   -0.01578928622434822   -0.0004190728788785151
-0.003228178991824311   -0.017575106861968486   -0.0005534442667671106
-0.0023869524801999856   -0.017610889271974194   -0.0004849122383129594
-0.0026716149794073474   -0.015767010982223082   -0.00040272021416560535
-0.0032153960098605557   -0.017555150882173836   -0.0005160977295545536
-0.0023752849634010903   -0.01759781373131142   -0.00046440943974249344
-0.0026716149794073474   -0.015767010982223082   -0.00040272021416560535
-0.0037534724182316597   -0.015717976417449642   -0.0004321154893308757
-0.0032153960098605557   -0.017555150882173836   -0.0005160977295545536
-0.003744058615023784   -0.015707857980995825   -0.0003988717975760323
-0.0023752849634010903   -0.01759781373131142   -0.00046440943974249344
-0.0031936226081954095   -0.017545400956180145   -0.00047702933137118425
-0.003744058615023784   -0.015707857980995825   -0.0003988717975760323
-0.0032153960098605557   -0.017555150882173836   -0.0005160977295545536
-0.0023752849634010903   -0.01759781373131142   -0.00046440943974249344
-0.003744058615023784   -0.015707857980995825   -0.0003988717975760323
-0.0026706370355091117   -0.01575296400995599   -0.00038439250945966434
-0.0026716149794073474   -0.015767010982223082   -0.00040272021416560535
-0.0023752849634010903   -0.01759781373131142   -0.00046440943974249344
-0.003744058615023784   -0.015707857980995825   -0.0003988717975760323
-0.0026716149794073474   -0.015767010982223082   -0.00040272021416560535
-0.0032153960098605557   -0.017555150882173836   -0.0005160977295545536
-0.0023752849634010903   -0.01759781373131142   -0.00046440943974249344
-0.0026706370355091117   -0.01575296400995599   -0.00038439250945966434
-0.0031936226081954095   -0.017545400956180145   -0.00047702933137118425
-0.0023639776329384306   -0.017594718678361317   -0.0004419236335233987
-0.0026706370355091117   -0.01575296400995599   -0.00038439250945966434
-0.003744058615023784   -0.015707857980995825   -0.0003988717975760323
-0.0031936226081954095   -0.017545400956180145   -0.00047702933137118425
-0.0037378419804860357   -0.015706521758572907   -0.0003635490569505863
-0.0023639776329384306   -0.017594718678361317   -0.0004419236335233987
-0.0031761517925295896   -0.01754641458513995   -0.0004356841258888678
-0.0037378419804860357   -0.015706521758572907   -0.0003635490569505863
-0.0031936226081954095   -0.017545400956180145   -0.00047702933137118425
-0.0023639776329384306   -0.017594718678361317   -0.0004419236335233987
-0.0037378419804860357   -0.015706521758572907   -0.0003635490569505863
-0.002670000516646404   -0.015747009770280207   -0.0003641450530091005
-0.0026706370355091117   -0.01575296400995599   -0.00038439250945966434
-0.0023639776329384306   -0.017594718678361317   -0.0004419236335233987
-0.0037378419804860357   -0.015706521758572907   -0.0003635490569505863
-0.0026706370355091117   -0.01575296400995599   -0.00038439250945966434
-0.0031936226081954095   -0.017545400956180145   -0.00047702933137118425
-0.003228178991824311   -0.017575106861968486   -0.0005534442667671106
-0.003754992065150996   -0.015736085838891165   -0.00046368499247988887
-0.004197567561965505   -0.017489150467389195   -0.0006006696257600553
-0.0032153960098605557   -0.017555150882173836   -0.0005160977295545536
-0.003754992065150996   -0.015736085838891165   -0.00046368499247988887
-0.004966145545055086   -0.015662150253998593   -0.0005042132856199729
-0.004197567561965505   -0.017489150467389195   -0.0006006696257600553
-0.004919188267758448   -0.01564422913346436   -0.0004557389460757866
-0.0032153960098605557   -0.017555150882173836   -0.0005160977295545536
-0.0041302745465216   -0.01746809154269534   -0.0005420875624917809
-0.004919188267758448   -0.01564422913346436   -0.0004557389460757866
-0.004197567561965505   -0.017489150467389195   -0.0006006696257600553
-0.0032153960098605557   -0.017555150882173836   -0.0005160977295545536
-0.004919188267758448   -0.01564422913346436   -0.0004557389460757866
-0.0037534724182316597   -0.015717976417449642   -0.0004321154893308757
-0.003754992065150996   -0.015736085838891165   -0.00046368499247988887
-0.0032153960098605557   -0.017555150882173836   -0.0005160977295545536
-0.004919188267758448   -0.01564422913346436   -0.0004557389460757866
-0.003754992065150996   -0.015736085838891165   -0.00046368499247988887
-0.004197567561965505   -0.017489150467389195   -0.0006006696257600553
-0.0032153960098605557   -0.017555150882173836   -0.0005160977295545536
-0.0037534724182316597   -0.015717976417449642   -0.0004321154893308757
-0.0041302745465216   -0.01746809154269534   -0.0005420875624917809
-0.0031936226081954095   -0.017545400956180145   -0.00047702933137118425
-0.0037534724182316597   -0.015717976417449642   -0.0004321154893308757
-0.004919188267758448   -0.01564422913346436   -0.0004557389460757866
-0.0041302745465216   -0.01746809154269534   -0.0005420875624917809
-0.00487924934258686   -0.0156355532193623   -0.0004044300156103251
-0.0031936226081954095   -0.017545400956180145   -0.00047702933137118425
-0.004072214905734219   -0.017459246195833614   -0.00048064118192312725
-0.00487924934258686   -0.0156355532193623   -0.0004044300156103251
-0.0041302745465216   -0.01746809154269534   -0.0005420875624917809
-0.0031936226081954095   -0.017545400956180145   -0.00047702933137118425
-0.00487924934258686   -0.0156355532193623   -0.0004044300156103251
-0.003744058615023784   -0.015707857980995825   -0.0003988717975760323
-0.0037534724182316597   -0.015717976417449642   -0.0004321154893308757
-0.0031936226081954095   -0.017545400956180145   -0.00047702933137118425
-0.00487924934258686   -0.0156355532193623   -0.0004044300156103251
-0.0037534724182316597   -0.015717976417449642   -0.0004321154893308757
-0.0041302745465216   -0.01746809154269534   -0.0005420875624917809
-0.0031936226081954095   -0.017545400956180145   -0.00047702933137118425
-0.003744058615023784   -0.015707857980995825   -0.0003988717975760323
-0.004072214905734219   -0.017459246195833614   -0.00048064118192312725
-0.0031761517925295896   -0.01754641458513995   -0.0004356841258888678
-0.003744058615023784   -0.015707857980995825   -0.0003988717975760323
-0.00487924934258686   -0.0156355532193623   -0.0004044300156103251
-0.004072214905734219   -0.017459246195833614   -0.00048064118192312725
-0.004821913864701265   -0.01564072509024744   -0.0003506847690996233
-0.0031761517925295896   -0.01754641458513995   -0.0004356841258888678
-0.003994141117691816   -0.017466766799142306   -0.00041671723407927494
-0.004821913864701265   -0.01564072509024744   -0.0003506847690996233
-0.004072214905734219   -0.017459246195833614   -0.00048064118192312725
-0.0031761517925295896   -0.01754641458513995   -0.0004356841258888678
-0.004821913864701265   -0.01564072509024744   -0.0003506847690996233
-0.0037378419804860357   -0.015706521758572907   -0.0003635490569505863
-0.003744058615023784   -0.015707857980995825   -0.0003988717975760323
-0.0031761517925295896   -0.01754641458513995   -0.0004356841258888678
-0.004821913864701265   -0.01564072509024744   -0.0003506847690996233
-0.003744058615023784   -0.015707857980995825   -0.0003988717975760323
-0.004072214905734219   -0.017459246195833614   -0.00048064118192312725
0.0005590700859823878   -0.01578711569958285   -0.00023458173196324857
0.0009277296188741763   -0.013577197292207119   -0.0001566178610753302
-0.0005496842669571026   -0.01581568959653419   -0.00030750749903135074
0.000592620785795694   -0.01574946293114028   -0.00026842329079273093
0.0009277296188741763   -0.013577197292207119   -0.0001566178610753302
-0.0003962543173114088   -0.013591872386947092   -0.00022517350930091062
-0.0005496842669571026   -0.01581568959653419   -0.00030750749903135074
-0.000401910226675886   -0.01356093324645758   -0.0002329445604040484
0.000592620785795694   -0.01574946293114028   -0.00026842329079273093
-0.0005464095769074682   -0.015783935543371375   -0.00032139708632014836
-0.000401910226675886   -0.01356093324645758   -0.0002329445604040484
-0.0005496842669571026   -0.01581568959653419   -0.00030750749903135074
0.000592620785795694   -0.01574946293114028   -0.00026842329079273093
-0.000401910226675886   -0.01356093324645758   -0.0002329445604040484
0.0009421512214488187   -0.013540912970342435   -0.00017934047217929187
0.0009277296188741763   -0.013577197292207119   -0.0001566178610753302
0.000592620785795694   -0.01574946293114028   -0.00026842329079273093
-0.000401910226675886   -0.01356093324645758   -0.0002329445604040484
0.0009277296188741763   -0.013577197292207119   -0.0001566178610753302
-0.0005496842669571026   -0.01581568959653419   -0.00030750749903135074
0.000592620785795694   -0.01574946293114028   -0.00026842329079273093
0.0009421512214488187   -0.013540912970342435   -0.00017934047217929187
-0.0005464095769074682   -0.015783935543371375   -0.00032139708632014836
0.0006143292519652211   -0.015725591854845976   -0.00029940404362906983
0.0009421512214488187   -0.013540912970342435   -0.00017934047217929187
-0.000401910226675886   -0.01356093324645758   -0.0002329445604040484
-0.0005464095769074682   -0.015783935543371375   -0.00032139708632014836
-0.00040778484450518796   -0.013537092623998687   -0.00023888417973372944
0.0006143292519652211   -0.015725591854845976   -0.00029940404362906983
-0.0005421950380278465   -0.0157616092568099   -0.00033326671187582985
-0.00040778484450518796   -0.013537092623998687   -0.00023888417973372944
-0.0005464095769074682   -0.015783935543371375   -0.00032139708632014836
0.0006143292519652211   -0.015725591854845976   -0.00029940404362906983
-0.00040778484450518796   -0.013537092623998687   -0.00023888417973372944
0.000947378364712726   -0.013515269202630294   -0.00019935425926982125
0.0009421512214488187   -0.013540912970342435   -0.00017934047217929187
0.0006143292519652211   -0.015725591854845976   -0.00029940404362906983
-0.00040778484450518796   -0.013537092623998687   -0.00023888417973372944
0.0009421512214488187   -0.013540912970342435   -0.00017934047217929187
-0.0005464095769074682   -0.015783935543371375   -0.00032139708632014836
0.0006143292519652211   -0.015725591854845976   -0.00029940404362906983
0.000947378364712726   -0.013515269202630294   -0.00019935425926982125
-0.0005421950380278465   -0.0157616092568099   -0.00033326671187582985
0.0006370142951978536   -0.015710640369005043   -0.0003275897809741125
0.000947378364712726   -0.013515269202630294   -0.00019935425926982125
-0.00040778484450518796   -0.013537092623998687   -0.00023888417973372944
-0.0005421950380278465   -0.0157616092568099   -0.00033326671187582985
-0.00041830932488469885   -0.01351955490577852   -0.00024305272370744857
0.0006370142951978536   -0.015710640369005043   -0.0003275897809741125
-0.0005436507682996533   -0.01574795743828339   -0.00034326266661558087
-0.00041830932488469885   -0.01351955490577852   -0.00024305272370744857
-0.0005421950380278465   -0.0157616092568099   -0.00033326671187582985
0.0006370142951978536   -0.015710640369005043   -0.0003275897809741125
-0.00041830932488469885   -0.01351955490577852   -0.00024305272370744857
0.0009512676052192358   -0.013495466537592172   -0.00021679095663770502
0.000947378364712726   -0.013515269202630294   -0.00019935425926982125
0.0006370142951978536   -0.015710640369005043   -0.0003275897809741125
-0.00041830932488469885   -0.01351955490577852   -0.00024305272370744857
0.000947378364712726   -0.013515269202630294   -0.00019935425926982125
-0.0005421950380278465   -0.0157616092568099   -0.00033326671187582985
-0.0005496842669571026   -0.01581568959653419   -0.00030750749903135074
-0.0003962543173114088   -0.013591872386947092   -0.00022517350930091062
-0.0016190394403364547   -0.01581613595313243   -0.00036707484605894475
-0.0005464095769074682   -0.015783935543371375   -0.00032139708632014836
-0.0003962543173114088   -0.013591872386947092   -0.00022517350930091062
-0.0016670327388706564   -0.013585161171546971   -0.0002809393410491877
-0.0016190394403364547   -0.01581613595313243   -0.00036707484605894475
-0.0016752510607172492   -0.013559567886872619   -0.00027753655563519144
-0.0005464095769074682   -0.015783935543371375   -0.00032139708632014836
-0.0016190261001308498   -0.015789458327050032   -0.0003657476752301379
-0.0016752510607172492   -0.013559567886872619   -0.00027753655563519144
-0.0016190394403364547   -0.01581613595313243   -0.00036707484605894475
-0.0005464095769074682   -0.015783935543371375   -0.00032139708632014836
-0.0016752510607172492   -0.013559567886872619   -0.00027753655563519144
-0.000401910226675886   -0.01356093324645758   -0.0002329445604040484
-0.0003962543173114088   -0.013591872386947092   -0.00022517350930091062
-0.0005464095769074682   -0.015783935543371375   -0.00032139708632014836
-0.0016752510607172492   -0.013559567886872619   -0.00027753655563519144
-0.0003962543173114088   -0.013591872386947092   -0.00022517350930091062
-0.0016190394403364547   -0.01581613595313243   -0.00036707484605894475
-0.0005464095769074682   -0.015783935543371375   -0.00032139708632014836
-0.000401910226675886   -0.01356093324645758   -0.0002329445604040484
-0.0016190261001308498   -0.015789458327050032   -0.0003657476752301379
-0.0005421950380278465   -0.0157616092568099   -0.00033326671187582985
-0.000401910226675886   -0.01356093324645758   -0.0002329445604040484
-0.0016752510607172492   -0.013559567886872619   -0.00027753655563519144
-0.0016190261001308498   -0.015789458327050032   -0.0003657476752301379
-0.0016835857559015118   -0.013540052520570323   -0.00027224178052204207
-0.0005421950380278465   -0.0157616092568099   -0.00033326671187582985
-0.0016189313007000771   -0.015771081559698412   -0.0003624015724595575
-0.0016835857559015118   -0.013540052520570323   -0.00027224178052204207
-0.0016190261001308498   -0.015789458327050032   -0.0003657476752301379
-0.0005421950380278465   -0.0157616092568099   -0.00033326671187582985
-0.0016835857559015118   -0.013540052520570323   -0.00027224178052204207
-0.00040778484450518796   -0.013537092623998687   -0.00023888417973372944
-0.000401910226675886   -0.01356093324645758   -0.0002329445604040484
-0.0005421950380278465   -0.0157616092568099   -0.00033326671187582985
-0.0016835857559015118   -0.013540052520570323   -0.00027224178052204207
-0.000401910226675886   -0.01356093324645758   -0.0002329445604040484
-0.0016190261001308498   -0.015789458327050032   -0.0003657476752301379
-0.0005421950380278465   -0.0157616092568099   -0.00033326671187582985
-0.00040778484450518796   -0.013537092623998687   -0.00023888417973372944
-0.0016189313007000771   -0.015771081559698412   -0.0003624015724595575
-0.0005436507682996533   -0.01574795743828339   -0.00034326266661558087
-0.00040778484450518796   -0.013537092623998687   -0.00023888417973372944
-0.0016835857559015118   -0.013540052520570323   -0.00027224178052204207
-0.0016189313007000771   -0.015771081559698412   -0.0003624015724595575
-0.00169327182106018   -0.013526714873874045   -0.00026515453856888505
-0.0005436507682996533   -0.01574795743828339   -0.00034326266661558087
-0.0016202486402109005   -0.015761023200165338   -0.0003571501935432206
-0.00169327182106018   -0.013526714873874045   -0.00026515453856888505
-0.0016189313007000771   -0.015771081559698412   -0.0003624015724595575
-0.0005436507682996533   -0.01574795743828339   -0.00034326266661558087
-0.00169327182106018   -0.013526714873874045   -0.00026515453856888505
-0.00041830932488469885   -0.01351955490577852   -0.00024305272370744857
-0.00040778484450518796   -0.013537092623998687   -0.00023888417973372944
-0.0005436507682996533   -0.01574795743828339   -0.00034326266661558087
-0.00169327182106018   -0.013526714873874045   -0.00026515453856888505
-0.00040778484450518796   -0.013537092623998687   -0.00023888417973372944
-0.0016189313007000771   -0.015771081559698412   -0.0003624015724595575
-0.0016190394403364547   -0.01581613595313243   -0.00036707484605894475
-0.0016670327388706564   -0.013585161171546971   -0.0002809393410491877
-0.0026708163027320308   -0.01578928622434822   -0.0004190728788785151
-0.0016190261001308498   -0.015789458327050032   -0.0003657476752301379
-0.0016670327388706564   -0.013585161171546971   -0.0002809393410491877
-0.002916708634607401   -0.013558571459129143   -0.00032833760221900453
-0.0026708163027320308   -0.01578928622434822   -0.0004190728788785151
-0.002925657343535292   -0.01353778124857123   -0.00031383164908174076
-0.0016190261001308498   -0.015789458327050032   -0.0003657476752301379
-0.0026716149794073474   -0.015767010982223082   -0.00040272021416560535
-0.002925657343535292   -0.01353778124857123   -0.00031383164908174076
-0.0026708163027320308   -0.01578928622434822   -0.0004190728788785151
-0.0016190261001308498   -0.015789458327050032   -0.0003657476752301379
-0.002925657343535292   -0.01353778124857123   -0.00031383164908174076
-0.0016752510607172492   -0.013559567886872619   -0.00027753655563519144
-0.0016670327388706564   -0.013585161171546971   -0.0002809393410491877
-0.0016190261001308498   -0.015789458327050032   -0.0003657476752301379
-0.002925657343535292   -0.01353778124857123   -0.00031383164908174076
-0.0016670327388706564   -0.013585161171546971   -0.0002809393410491877
-0.0026708163027320308   -0.01578928622434822   -0.0004190728788785151
-0.0016190261001308498   -0.015789458327050032   -0.0003657476752301379
-0.0016752510607172492   -0.013559567886872619   -0.00027753655563519144
-0.0026716149794073474   -0.015767010982223082   -0.00040272021416560535
-0.0016189313007000771   -0.015771081559698412   -0.0003624015724595575
-0.0016752510607172492   -0.013559567886872619   -0.00027753655563519144
-0.002925657343535292   -0.01353778124857123   -0.00031383164908174076
-0.0026716149794073474   -0.015767010982223082   -0.00040272021416560535
-0.002933013795031998   -0.01352301213116077   -0.00029747112983722994
-0.0016189313007000771   -0.015771081559698412   -0.0003624015724595575
-0.0026706370355091117   -0.01575296400995599   -0.00038439250945966434
-0.002933013795031998   -0.01352301213116077   -0.00029747112983722994
-0.0026716149794073474   -0.015767010982223082   -0.00040272021416560535
-0.0016189313007000771   -0.015771081559698412   -0.0003624015724595575
-0.002933013795031998   -0.01352301213116077   -0.00029747112983722994
-0.0016835857559015118   -0.013540052520570323   -0.00027224178052204207
-0.0016752510607172492   -0.013559567886872619   -0.00027753655563519144
-0.0016189313007000771   -0.015771081559698412   -0.0003624015724595575
-0.002933013795031998   -0.01352301213116077   -0.00029747112983722994
-0.0016752510607172492   -0.013559567886872619   -0.00027753655563519144
-0.0026716149794073474   -0.015767010982223082   -0.00040272021416560535
-0.0016189313007000771   -0.015771081559698412   -0.0003624015724595575
-0.0016835857559015118   -0.013540052520570323   -0.00027224178052204207
-0.0026706370355091117   -0.01575296400995599   -0.00038439250945966434
-0.0016202486402109005   -0.015761023200165338   -0.0003571501935432206
-0.0016835857559015118   -0.013540052520570323   -0.00027224178052204207
-0.002933013795031998   -0.01352301213116077   -0.00029747112983722994
-0.0026706370355091117   -0.01575296400995599   -0.00038439250945966434
-0.0029406030161477697   -0.013514235969612738   -0.00027930800889606593
-0.0016202486402109005   -0.015761023200165338   -0.0003571501935432206
-0.002670000516646404   -0.015747009770280207   -0.0003641450530091005
-0.0029406030161477697   -0.013514235969612738   -0.00027930800889606593
-0.0026706370355091117   -0.01575296400995599   -0.00038439250945966434
-0.0016202486402109005   -0.015761023200165338   -0.0003571501935432206
-0.0029406030161477697   -0.013514235969612738   -0.00027930800889606593
-0.00169327182106018   -0.013526714873874045   -0.00026515453856888505
-0.0016835857559015118   -0.013540052520570323   -0.00027224178052204207
-0.0016202486402109005   -0.015761023200165338   -0.0003571501935432206
-0.0029406030161477697   -0.013514235969612738   -0.00027930800889606593
-0.0016835857559015118   -0.013540052520570323   -0.00027224178052204207
-0.0026706370355091117   -0.01575296400995599   -0.00038439250945966434
-0.0026708163027320308   -0.01578928622434822   -0.0004190728788785151
-0.002916708634607401   -0.013558571459129143   -0.00032833760221900453
-0.003754992065150996   -0.015736085838891165   -0.00046368499247988887
-0.0026716149794073474   -0.015767010982223082   -0.00040272021416560535
-0.002916708634607401   -0.013558571459129143   -0.00032833760221900453
-0.004196062686893098   -0.013512601202359687   -0.0003676189891769072
-0.003754992065150996   -0.015736085838891165   -0.00046368499247988887
-0.004203319625755998   -0.013496464890071828   -0.00034185073047149594
-0.0026716149794073474   -0.015767010982223082   -0.00040272021416560535
-0.0037534724182316597   -0.015717976417449642   -0.0004321154893308757
-0.004203319625755998   -0.013496464890071828   -0.00034185073047149594
-0.003754992065150996   -0.015736085838891165   -0.00046368499247988887
-0.0026716149794073474   -0.015767010982223082   -0.00040272021416560535
-0.004203319625755998   -0.013496464890071828   -0.00034185073047149594
-0.002925657343535292   -0.01353778124857123   -0.00031383164908174076
-0.002916708634607401   -0.013558571459129143   -0.00032833760221900453
-0.0026716149794073474   -0.015767010982223082   -0.00040272021416560535
-0.004203319625755998   -0.013496464890071828   -0.00034185073047149594
-0.002916708634607401   -0.013558571459129143   -0.00032833760221900453
-0.003754992065150996   -0.015736085838891165   -0.00046368499247988887
-0.0026716149794073474   -0.015767010982223082   -0.00040272021416560535
-0.002925657343535292   -0.01353778124857123   -0.00031383164908174076
-0.0037534724182316597   -0.015717976417449642   -0.0004321154893308757
-0.0026706370355091117   -0.01575296400995599   -0.00038439250945966434
-0.002925657343535292   -0.01353778124857123   -0.00031383164908174076
-0.004203319625755998   -0.013496464890071828   -0.00034185073047149594
-0.0037534724182316597   -0.015717976417449642   -0.0004321154893308757
-0.00420375169171388   -0.013486042546604234   -0.0003144831722768015
-0.0026706370355091117   -0.01575296400995599   -0.00038439250945966434
-0.003744058615023784   -0.015707857980995825   -0.0003988717975760323
-0.00420375169171388   -0.013486042546604234   -0.0003144831722768015
-0.0037534724182316597   -0.015717976417449642   -0.0004321154893308757
-0.0026706370355091117   -0.01575296400995599   -0.00038439250945966434
-0.00420375169171388   -0.013486042546604234   -0.0003144831722768015
-0.002933013795031998   -0.01352301213116077   -0.00029747112983722994
-0.002925657343535292   -0.01353778124857123   -0.00031383164908174076
-0.0026706370355091117   -0.01575296400995599   -0.00038439250945966434
-0.00420375169171388   -0.013486042546604234   -0.0003144831722768015
-0.002925657343535292   -0.01353778124857123   -0.00031383164908174076
-0.0037534724182316597   -0.015717976417449642   -0.0004321154893308757
-0.0026706370355091117   -0.01575296400995599   -0.00038439250945966434
-0.002933013795031998   -0.01352301213116077   -0.00029747112983722994
-0.003744058615023784   -0.015707857980995825   -0.0003988717975760323
-0.002670000516646404   -0.015747009770280207   -0.0003641450530091005
-0.002933013795031998   -0.01352301213116077   -0.00029747112983722994
-0.00420375169171388   -0.013486042546604234   -0.0003144831722768015
-0.003744058615023784   -0.015707857980995825   -0.0003988717975760323
-0.004206238604255653   -0.01348216549465811   -0.00028517335390404653
-0.002670000516646404   -0.015747009770280207   -0.0003641450530091005
-0.0037378419804860357   -0.015706521758572907   -0.0003635490569505863
-0.004206238604255653   -0.01348216549465811   -0.00028517335390404653
-0.003744058615023784   -0.015707857980995825   -0.0003988717975760323
-0.002670000516646404   -0.015747009770280207   -0.0003641450530091005
-0.004206238604255653   -0.01348216549465811   -0.00028517335390404653
-0.0029406030161477697   -0.013514235969612738   -0.00027930800889606593
-0.002933013795031998   -0.01352301213116077   -0.00029747112983722994
-0.002670000516646404   -0.015747009770280207   -0.0003641450530091005
-0.004206238604255653   -0.01348216549465811   -0.00028517335390404653
-0.002933013795031998   -0.01352301213116077   -0.00029747112983722994
-0.003744058615023784   -0.015707857980995825   -0.0003988717975760323
-0.003754992065150996   -0.015736085838891165   -0.00046368499247988887
-0.004196062686893098   -0.013512601202359687   -0.0003676189891769072
-0.004966145545055086   -0.015662150253998593   -0.0005042132856199729
-0.0037534724182316597   -0.015717976417449642   -0.0004321154893308757
-0.004196062686893098   -0.013512601202359687   -0.0003676189891769072
-0.005592020742752813   -0.013451709739449234   -0.0004012074079281285
-0.004966145545055086   -0.015662150253998593   -0.0005042132856199729
-0.005563543844058144   -0.013436963025502067   -0.00036334593803829293
-0.0037534724182316597   -0.015717976417449642   -0.0004321154893308757
-0.004919188267758448   -0.01564422913346436   -0.0004557389460757866
-0.005563543844058144   -0.013436963025502067   -0.00036334593803829293
-0.004966145545055086   -0.015662150253998593   -0.0005042132856199729
-0.0037534724182316597   -0.015717976417449642   -0.0004321154893308757
-0.005563543844058144   -0.013436963025502067   -0.00036334593803829293
-0.004203319625755998   -0.013496464890071828   -0.00034185073047149594
-0.004196062686893098   -0.013512601202359687   -0.0003676189891769072
-0.0037534724182316597   -0.015717976417449642   -0.0004321154893308757
-0.005563543844058144   -0.013436963025502067   -0.00036334593803829293
-0.004196062686893098   -0.013512601202359687   -0.0003676189891769072
-0.004966145545055086   -0.015662150253998593   -0.0005042132856199729
-0.0037534724182316597   -0.015717976417449642   -0.0004321154893308757
-0.004203319625755998   -0.013496464890071828   -0.00034185073047149594
-0.004919188267758448   -0.01564422913346436   -0.0004557389460757866
-0.003744058615023784   -0.015707857980995825   -0.0003988717975760323
-0.004203319625755998   -0.013496464890071828   -0.00034185073047149594
-0.005563543844058144   -0.013436963025502067   -0.00036334593803829293
-0.004919188267758448   -0.01564422913346436   -0.0004557389460757866
-0.005539642365694085   -0.013428392450876457   -0.00032268002097955224
-0.003744058615023784   -0.015707857980995825   -0.0003988717975760323
-0.00487924934258686   -0.0156355532193623   -0.0004044300156103251
-0.005539642365694085   -0.013428392450876457   -0.00032268002097955224
-0.004919188267758448   -0.01564422913346436   -0.0004557389460757866
-0.003744058615023784   -0.015707857980995825   -0.0003988717975760323
-0.005539642365694085   -0.013428392450876457   -0.00032268002097955224
-0.00420375169171388   -0.013486042546604234   -0.0003144831722768015
-0.004203319625755998   -0.013496464890071828   -0.00034185073047149594
-0.003744058615023784   -0.015707857980995825   -0.0003988717975760323
-0.005539642365694085   -0.013428392450876457   -0.00032268002097955224
-0.004203319625755998   -0.013496464890071828   -0.00034185073047149594
-0.004919188267758448   -0.01564422913346436   -0.0004557389460757866
-0.003744058615023784   -0.015707857980995825   -0.0003988717975760323
-0.00420375169171388   -0.013486042546604234   -0.0003144831722768015
-0.00487924934258686   -0.0156355532193623   -0.0004044300156103251
-0.0037378419804860357   -0.015706521758572907   -0.0003635490569505863
-0.00420375169171388   -0.013486042546604234   -0.0003144831722768015
-0.005539642365694085   -0.013428392450876457   -0.00032268002097955224
-0.00487924934258686   -0.0156355532193623   -0.0004044300156103251
-0.005500834963745638   -0.013430848931474167   -0.0002795629644806561
-0.0037378419804860357   -0.015706521758572907   -0.0003635490569505863
-0.004821913864701265   -0.01564072509024744   -0.0003506847690996233
-0.005500834963745638   -0.013430848931474167   -0.0002795629644806561
-0.00487924934258686   -0.0156355532193623   -0.0004044300156103251
-0.0037378419804860357   -0.015706521758572907   -0.0003635490569505863
-0.005500834963745638   -0.013430848931474167   -0.0002795629644806561
-0.004206238604255653   -0.01348216549465811   -0.00028517335390404653
-0.00420375169171388   -0.013486042546604234   -0.0003144831722768015
-0.0037378419804860357   -0.015706521758572907   -0.0003635490569505863
-0.005500834963745638   -0.013430848931474167   -0.0002795629644806561
-0.00420375169171388   -0.013486042546604234   -0.0003144831722768015
-0.00487924934258686   -0.0156355532193623   -0.0004044300156103251
0.0009277296188741763   -0.013577197292207119   -0.0001566178610753302
0.0011402983429810547   -0.011081287730527184   -8.083485146734449e-05
-0.0003962543173114088   -0.013591872386947092   -0.00022517350930091062
0.0009421512214488187   -0.013540912970342435   -0.00017934047217929187
0.0011402983429810547   -0.011081287730527184   -8.083485146734449e-05
-0.0003376289717825286   -0.011081999900557724   -0.0001441774681555316
-0.0003962543173114088   -0.013591872386947092   -0.00022517350930091062
-0.0003500902882146498   -0.011052172305774296   -0.00014565197580875878
0.0009421512214488187   -0.013540912970342435   -0.00017934047217929187
-0.000401910226675886   -0.01356093324645758   -0.0002329445604040484
-0.0003500902882146498   -0.011052172305774296   -0.00014565197580875878
-0.0003962543173114088   -0.013591872386947092   -0.00022517350930091062
0.0009421512214488187   -0.013540912970342435   -0.00017934047217929187
-0.0003500902882146498   -0.011052172305774296   -0.00014565197580875878
0.0011378084497106933   -0.011046625098191837   -9.238690397744949e-05
0.0011402983429810547   -0.011081287730527184   -8.083485146734449e-05
0.0009421512214488187   -0.013540912970342435   -0.00017934047217929187
-0.0003500902882146498   -0.011052172305774296   -0.00014565197580875878
0.0011402983429810547   -0.011081287730527184   -8.083485146734449e-05
-0.0003962543173114088   -0.013591872386947092   -0.00022517350930091062
0.0009421512214488187   -0.013540912970342435   -0.00017934047217929187
0.0011378084497106933   -0.011046625098191837   -9.238690397744949e-05
-0.000401910226675886   -0.01356093324645758   -0.0002329445604040484
0.000947378364712726   -0.013515269202630294   -0.00019935425926982125
0.0011378084497106933   -0.011046625098191837   -9.238690397744949e-05
-0.0003500902882146498   -0.011052172305774296   -0.00014565197580875878
-0.000401910226675886   -0.01356093324645758   -0.0002329445604040484
-0.0003639511606468619   -0.01102703638921889   -0.00014547464675455053
0.000947378364712726   -0.013515269202630294   -0.00019935425926982125
-0.00040778484450518796   -0.013537092623998687   -0.00023888417973372944
-0.0003639511606468619   -0.01102703638921889   -0.00014547464675455053
-0.000401910226675886   -0.01356093324645758   -0.0002329445604040484
0.000947378364712726   -0.013515269202630294   -0.00019935425926982125
-0.0003639511606468619   -0.01102703638921889   -0.00014547464675455053
0.001128653350679647   -0.011019456916728843   -0.0001012911538923189
0.0011378084497106933   -0.011046625098191837   -9.238690397744949e-05
0.000947378364712726   -0.013515269202630294   -0.00019935425926982125
-0.0003639511606468619   -0.01102703638921889   -0.00014547464675455053
0.0011378084497106933   -0.011046625098191837   -9.238690397744949e-05
-0.000401910226675886   -0.01356093324645758   -0.0002329445604040484
0.000947378364712726   -0.013515269202630294   -0.00019935425926982125
0.001128653350679647   -0.011019456916728843   -0.0001012911538923189
-0.00040778484450518796   -0.013537092623998687   -0.00023888417973372944
0.0009512676052192358   -0.013495466537592172   -0.00021679095663770502
0.001128653350679647   -0.011019456916728843   -0.0001012911538923189
-0.0003639511606468619   -0.01102703638921889   -0.00014547464675455053
-0.00040778484450518796   -0.013537092623998687   -0.00023888417973372944
-0.0003814237581867752   -0.011005897482530287   -0.00014358035634193033
0.0009512676052192358   -0.013495466537592172   -0.00021679095663770502
-0.00041830932488469885   -0.01351955490577852   -0.00024305272370744857
-0.0003814237581867752   -0.011005897482530287   -0.00014358035634193033
-0.00040778484450518796   -0.013537092623998687   -0.00023888417973372944
0.0009512676052192358   -0.013495466537592172   -0.00021679095663770502
-0.0003814237581867752   -0.011005897482530287   -0.00014358035634193033
0.0011156099268225886   -0.010995031970597565   -0.0001077327942890144
0.001128653350679647   -0.011019456916728843   -0.0001012911538923189
0.0009512676052192358   -0.013495466537592172   -0.00021679095663770502
-0.0003814237581867752   -0.011005897482530287   -0.00014358035634193033
0.001128653350679647   -0.011019456916728843   -0.0001012911538923189
-0.00040778484450518796   -0.013537092623998687   -0.00023888417973372944
-0.0003962543173114088   -0.013591872386947092   -0.00022517350930091062
-0.0003376289717825286   -0.011081999900557724   -0.0001441774681555316
-0.0016670327388706564   -0.013585161171546971   -0.0002809393410491877
-0.000401910226675886   -0.01356093324645758   -0.0002329445604040484
-0.0003376289717825286   -0.011081999900557724   -0.0001441774681555316
-0.0017481438759661843   -0.011068858912737319   -0.00019567276270360956
-0.0016670327388706564   -0.013585161171546971   -0.0002809393410491877
-0.0017623706858461664   -0.011044425187658793   -0.00018998237615109627
-0.000401910226675886   -0.01356093324645758   -0.0002329445604040484
-0.0016752510607172492   -0.013559567886872619   -0.00027753655563519144
-0.0017623706858461664   -0.011044425187658793   -0.00018998237615109627
-0.0016670327388706564   -0.013585161171546971   -0.0002809393410491877
-0.000401910226675886   -0.01356093324645758   -0.0002329445604040484
-0.0017623706858461664   -0.011044425187658793   -0.00018998237615109627
-0.0003500902882146498   -0.011052172305774296   -0.00014565197580875878
-0.0003376289717825286   -0.011081999900557724   -0.0001441774681555316
-0.000401910226675886   -0.01356093324645758   -0.0002329445604040484
-0.0017623706858461664   -0.011044425187658793   -0.00018998237615109627
-0.0003376289717825286   -0.011081999900557724   -0.0001441774681555316
-0.0016670327388706564   -0.013585161171546971   -0.0002809393410491877
-0.000401910226675886   -0.01356093324645758   -0.0002329445604040484
-0.0003500902882146498   -0.011052172305774296   -0.00014565197580875878
-0.0016752510607172492   -0.013559567886872619   -0.00027753655563519144
-0.00040778484450518796   -0.013537092623998687   -0.00023888417973372944
-0.0003500902882146498   -0.011052172305774296   -0.00014565197580875878
-0.0017623706858461664   -0.011044425187658793   -0.00018998237615109627
-0.0016752510607172492   -0.013559567886872619   -0.00027753655563519144
-0.001776901966230662   -0.011023808874326864   -0.00018256429850513133
-0.00040778484450518796   -0.013537092623998687   -0.00023888417973372944
-0.0016835857559015118   -0.013540052520570323   -0.00027224178052204207
-0.001776901966230662   -0.011023808874326864   -0.00018256429850513133
-0.0016752510607172492   -0.013559567886872619   -0.00027753655563519144
-0.00040778484450518796   -0.013537092623998687   -0.00023888417973372944
-0.001776901966230662   -0.011023808874326864   -0.00018256429850513133
-0.0003639511606468619   -0.01102703638921889   -0.00014547464675455053
-0.0003500902882146498   -0.011052172305774296   -0.00014565197580875878
-0.00040778484450518796   -0.013537092623998687   -0.00023888417973372944
-0.001776901966230662   -0.011023808874326864   -0.00018256429850513133
-0.0003500902882146498   -0.011052172305774296   -0.00014565197580875878
-0.0016752510607172492   -0.013559567886872619   -0.00027753655563519144
-0.00040778484450518796   -0.013537092623998687   -0.00023888417973372944
-0.0003639511606468619   -0.01102703638921889   -0.00014547464675455053
-0.0016835857559015118   -0.013540052520570323   -0.00027224178052204207
-0.00041830932488469885   -0.01351955490577852   -0.00024305272370744857
-0.0003639511606468619   -0.01102703638921889   -0.00014547464675455053
-0.001776901966230662   -0.011023808874326864   -0.00018256429850513133
-0.0016835857559015118   -0.013540052520570323   -0.00027224178052204207
-0.001792706607305424   -0.011007225405640048   -0.00017350760931666675
-0.00041830932488469885   -0.01351955490577852   -0.00024305272370744857
-0.00169327182106018   -0.013526714873874045   -0.00026515453856888505
-0.001792706607305424   -0.011007225405640048   -0.00017350760931666675
-0.0016835857559015118   -0.013540052520570323   -0.00027224178052204207
-0.00041830932488469885   -0.01351955490577852   -0.00024305272370744857
-0.001792706607305424   -0.011007225405640048   -0.00017350760931666675
-0.0003814237581867752   -0.011005897482530287   -0.00014358035634193033
-0.0003639511606468619   -0.01102703638921889   -0.00014547464675455053
-0.00041830932488469885   -0.01351955490577852   -0.00024305272370744857
-0.001792706607305424   -0.011007225405640048   -0.00017350760931666675
-0.0003639511606468619   -0.01102703638921889   -0.00014547464675455053
-0.0016835857559015118   -0.013540052520570323   -0.00027224178052204207
-0.0016670327388706564   -0.013585161171546971   -0.0002809393410491877
-0.0017481438759661843   -0.011068858912737319   -0.00019567276270360956
-0.002916708634607401   -0.013558571459129143   -0.00032833760221900453
-0.0016752510607172492   -0.013559567886872619   -0.00027753655563519144
-0.0017481438759661843   -0.011068858912737319   -0.00019567276270360956
-0.0031348508429287093   -0.011043628985900835   -0.00023867983848031897
-0.002916708634607401   -0.013558571459129143   -0.00032833760221900453
-0.0031495914936254124   -0.011024115230697   -0.00022586160915512
-0.0016752510607172492   -0.013559567886872619   -0.00027753655563519144
-0.002925657343535292   -0.01353778124857123   -0.00031383164908174076
-0.0031495914936254124   -0.011024115230697   -0.00022586160915512
-0.002916708634607401   -0.013558571459129143   -0.00032833760221900453
-0.0016752510607172492   -0.013559567886872619   -0.00027753655563519144
-0.0031495914936254124   -0.011024115230697   -0.00022586160915512
-0.0017623706858461664   -0.011044425187658793   -0.00018998237615109627
-0.0017481438759661843   -0.011068858912737319   -0.00019567276270360956
-0.0016752510607172492   -0.013559567886872619   -0.00027753655563519144
-0.0031495914936254124   -0.011024115230697   -0.00022586160915512
-0.0017481438759661843   -0.011068858912737319   -0.00019567276270360956
-0.002916708634607401   -0.013558571459129143   -0.00032833760221900453
-0.0016752510607172492   -0.013559567886872619   -0.00027753655563519144
-0.0017623706858461664   -0.011044425187658793   -0.00018998237615109627
-0.002925657343535292   -0.01353778124857123   -0.00031383164908174076
-0.0016835857559015118   -0.013540052520570323   -0.00027224178052204207
-0.0017623706858461664   -0.011044425187658793   -0.00018998237615109627
-0.0031495914936254124   -0.011024115230697   -0.00022586160915512
-0.002925657343535292   -0.01353778124857123   -0.00031383164908174076
-0.0031629194078128236   -0.011008392139661274   -0.0002113585355008134
-0.0016835857559015118   -0.013540052520570323   -0.00027224178052204207
-0.002933013795031998   -0.01352301213116077   -0.00029747112983722994
-0.0031629194078128236   -0.011008392139661274   -0.0002113585355008134
-0.002925657343535292   -0.01353778124857123   -0.00031383164908174076
-0.0016835857559015118   -0.013540052520570323   -0.00027224178052204207
-0.0031629194078128236   -0.011008392139661274   -0.0002113585355008134
-0.001776901966230662   -0.011023808874326864   -0.00018256429850513133
-0.0017623706858461664   -0.011044425187658793   -0.00018998237615109627
-0.0016835857559015118   -0.013540052520570323   -0.00027224178052204207
-0.0031629194078128236   -0.011008392139661274   -0.0002113585355008134
-0.0017623706858461664   -0.011044425187658793   -0.00018998237615109627
-0.002925657343535292   -0.01353778124857123   -0.00031383164908174076
-0.0016835857559015118   -0.013540052520570323   -0.00027224178052204207
-0.001776901966230662   -0.011023808874326864   -0.00018256429850513133
-0.002933013795031998   -0.01352301213116077   -0.00029747112983722994
-0.00169327182106018   -0.013526714873874045   -0.00026515453856888505
-0.001776901966230662   -0.011023808874326864   -0.00018256429850513133
-0.0031629194078128236   -0.011008392139661274   -0.0002113585355008134
-0.002933013795031998   -0.01352301213116077   -0.00029747112983722994
-0.003176379751807527   -0.010996480288684548   -0.00019523178500330165
-0.00169327182106018   -0.013526714873874045   -0.00026515453856888505
-0.0029406030161477697   -0.013514235969612738   -0.00027930800889606593
-0.003176379751807527   -0.010996480288684548   -0.00019523178500330165
-0.002933013795031998   -0.01352301213116077   -0.00029747112983722994
-0.00169327182106018   -0.013526714873874045   -0.00026515453856888505
-0.003176379751807527   -0.010996480288684548   -0.00019523178500330165
-0.001792706607305424   -0.011007225405640048   -0.00017350760931666675
-0.001776901966230662   -0.011023808874326864   -0.00018256429850513133
-0.00169327182106018   -0.013526714873874045   -0.00026515453856888505
-0.003176379751807527   -0.010996480288684548   -0.00019523178500330165
-0.001776901966230662   -0.011023808874326864   -0.00018256429850513133
-0.002933013795031998   -0.01352301213116077   -0.00029747112983722994
-0.002916708634607401   -0.013558571459129143   -0.00032833760221900453
-0.0031348508429287093   -0.011043628985900835   -0.00023867983848031897
-0.004196062686893098   -0.013512601202359687   -0.0003676189891769072
-0.002925657343535292   -0.01353778124857123   -0.00031383164908174076
-0.0031348508429287093   -0.011043628985900835   -0.00023867983848031897
-0.0045492191261802305   -0.011005787857179027   -0.0002733463591946659
-0.004196062686893098   -0.013512601202359687   -0.0003676189891769072
-0.004562818763290375   -0.010991211685464016   -0.0002533414243188588
-0.002925657343535292   -0.01353778124857123   -0.00031383164908174076
-0.004203319625755998   -0.013496464890071828   -0.00034185073047149594
-0.004562818763290375   -0.010991211685464016   -0.0002533414243188588
-0.004196062686893098   -0.013512601202359687   -0.0003676189891769072
-0.002925657343535292   -0.01353778124857123   -0.00031383164908174076
-0.004562818763290375   -0.010991211685464016   -0.0002533414243188588
-0.0031495914936254124   -0.011024115230697   -0.00022586160915512
-0.0031348508429287093   -0.011043628985900835   -0.00023867983848031897
-0.002925657343535292   -0.01353778124857123   -0.00031383164908174076
-0.004562818763290375   -0.010991211685464016   -0.0002533414243188588
-0.0031348508429287093   -0.011043628985900835   -0.00023867983848031897
-0.004196062686893098   -0.013512601202359687   -0.0003676189891769072
-0.002925657343535292   -0.01353778124857123   -0.00031383164908174076
-0.0031495914936254124   -0.011024115230697   -0.00022586160915512
-0.004203319625755998   -0.013496464890071828   -0.00034185073047149594
-0.002933013795031998   -0.01352301213116077   -0.00029747112983722994
-0.0031495914936254124   -0.011024115230697   -0.00022586160915512
-0.004562818763290375   -0.010991211685464016   -0.0002533414243188588
-0.004203319625755998   -0.013496464890071828   -0.00034185073047149594
-0.004570726894232558   -0.010980012015583846   -0.00023187211914789106
-0.002933013795031998   -0.01352301213116077   -0.00029747112983722994
-0.00420375169171388   -0.013486042546604234   -0.0003144831722768015
-0.004570726894232558   -0.010980012015583846   -0.00023187211914789106
-0.004203319625755998   -0.013496464890071828   -0.00034185073047149594
-0.002933013795031998   -0.01352301213116077   -0.00029747112983722994
-0.004570726894232558   -0.010980012015583846   -0.00023187211914789106
-0.0031629194078128236   -0.011008392139661274   -0.0002113585355008134
-0.0031495914936254124   -0.011024115230697   -0.00022586160915512
-0.002933013795031998   -0.01352301213116077   -0.00029747112983722994
-0.004570726894232558   -0.010980012015583846   -0.00023187211914789106
-0.0031495914936254124   -0.011024115230697   -0.00022586160915512
-0.004203319625755998   -0.013496464890071828   -0.00034185073047149594
-0.002933013795031998   -0.01352301213116077   -0.00029747112983722994
-0.0031629194078128236   -0.011008392139661274   -0.0002113585355008134
-0.00420375169171388   -0.013486042546604234   -0.0003144831722768015
-0.0029406030161477697   -0.013514235969612738   -0.00027930800889606593
-0.0031629194078128236   -0.011008392139661274   -0.0002113585355008134
-0.004570726894232558   -0.010980012015583846   -0.00023187211914789106
-0.00420375169171388   -0.013486042546604234   -0.0003144831722768015
-0.004579584433525754   -0.01097297045773373   -0.00020863897101170277
-0.0029406030161477697   -0.013514235969612738   -0.00027930800889606593
-0.004206238604255653   -0.01348216549465811   -0.00028517335390404653
-0.004579584433525754   -0.01097297045773373   -0.00020863897101170277
-0.00420375169171388   -0.013486042546604234   -0.0003144831722768015
-0.0029406030161477697   -0.013514235969612738   -0.00027930800889606593
-0.004579584433525754   -0.01097297045773373   -0.00020863897101170277
-0.003176379751807527   -0.010996480288684548   -0.00019523178500330165
-0.0031629194078128236   -0.011008392139661274   -0.0002113585355008134
-0.0029406030161477697   -0.013514235969612738   -0.00027930800889606593
-0.004579584433525754   -0.01097297045773373   -0.00020863897101170277
-0.0031629194078128236   -0.011008392139661274   -0.0002113585355008134
-0.00420375169171388   -0.013486042546604234   -0.0003144831722768015
-0.004196062686893098   -0.013512601202359687   -0.0003676189891769072
-0.0045492191261802305   -0.011005787857179027   -0.0002733463591946659
-0.005592020742752813   -0.013451709739449234   -0.0004012074079281285
-0.004203319625755998   -0.013496464890071828   -0.00034185073047149594
-0.0045492191261802305   -0.011005787857179027   -0.0002733463591946659
-0.006068769204351988   -0.010958668223049079   -0.0003006100685502406
-0.005592020742752813   -0.013451709739449234   -0.0004012074079281285
-0.006056631780547647   -0.010946566465431185   -0.0002736117754636711
-0.004203319625755998   -0.013496464890071828   -0.00034185073047149594
-0.005563543844058144   -0.013436963025502067   -0.00036334593803829293
-0.006056631780547647   -0.010946566465431185   -0.0002736117754636711
-0.005592020742752813   -0.013451709739449234   -0.0004012074079281285
-0.004203319625755998   -0.013496464890071828   -0.00034185073047149594
-0.006056631780547647   -0.010946566465431185   -0.0002736117754636711
-0.004562818763290375   -0.010991211685464016   -0.0002533414243188588
-0.0045492191261802305   -0.011005787857179027   -0.0002733463591946659
-0.004203319625755998   -0.013496464890071828   -0.00034185073047149594
-0.006056631780547647   -0.010946566465431185   -0.0002736117754636711
-0.0045492191261802305   -0.011005787857179027   -0.0002733463591946659
-0.005592020742752813   -0.013451709739449234   -0.0004012074079281285
-0.004203319625755998   -0.013496464890071828   -0.00034185073047149594
-0.004562818763290375   -0.010991211685464016   -0.0002533414243188588
-0.005563543844058144   -0.013436963025502067   -0.00036334593803829293
-0.00420375169171388   -0.013486042546604234   -0.0003144831722768015
-0.004562818763290375   -0.010991211685464016   -0.0002533414243188588
-0.006056631780547647   -0.010946566465431185   -0.0002736117754636711
-0.005563543844058144   -0.013436963025502067   -0.00036334593803829293
-0.006046717263729438   -0.010937504399712366   -0.0002439252564948287
-0.00420375169171388   -0.013486042546604234   -0.0003144831722768015
-0.005539642365694085   -0.013428392450876457   -0.00032268002097955224
-0.006046717263729438   -0.010937504399712366   -0.0002439252564948287
-0.005563543844058144   -0.013436963025502067   -0.00036334593803829293
-0.00420375169171388   -0.013486042546604234   -0.0003144831722768015
-0.006046717263729438   -0.010937504399712366   -0.0002439252564948287
-0.004570726894232558   -0.010980012015583846   -0.00023187211914789106
-0.004562818763290375   -0.010991211685464016   -0.0002533414243188588
-0.00420375169171388   -0.013486042546604234   -0.0003144831722768015
-0.006046717263729438   -0.010937504399712366   -0.0002439252564948287
-0.004562818763290375   -0.010991211685464016   -0.0002533414243188588
-0.005563543844058144   -0.013436963025502067   -0.00036334593803829293
-0.00420375169171388   -0.013486042546604234   -0.0003144831722768015
-0.004570726894232558   -0.010980012015583846   -0.00023187211914789106
-0.005539642365694085   -0.013428392450876457   -0.00032268002097955224
-0.004206238604255653   -0.01348216549465811   -0.00028517335390404653
-0.004570726894232558   -0.010980012015583846   -0.00023187211914789106
-0.006046717263729438   -0.010937504399712366   -0.0002439252564948287
-0.005539642365694085   -0.013428392450876457   -0.00032268002097955224
-0.00602455995723185   -0.010936391163365684   -0.000211854975567308
-0.004206238604255653   -0.01348216549465811   -0.00028517335390404653
-0.005500834963745638   -0.013430848931474167   -0.0002795629644806561
-0.00602455995723185   -0.010936391163365684   -0.000211854975567308
-0.005539642365694085   -0.013428392450876457   -0.00032268002097955224
-0.004206238604255653   -0.01348216549465811   -0.00028517335390404653
-0.00602455995723185   -0.010936391163365684   -0.000211854975567308
-0.004579584433525754   -0.01097297045773373   -0.00020863897101170277
-0.004570726894232558   -0.010980012015583846   -0.00023187211914789106
-0.004206238604255653   -0.01348216549465811   -0.00028517335390404653
-0.00602455995723185   -0.010936391163365684   -0.000211854975567308
-0.004570726894232558   -0.010980012015583846   -0.00023187211914789106
-0.005539642365694085   -0.013428392450876457   -0.00032268002097955224
0.0011402983429810547   -0.011081287730527184   -8.083485146734449e-05
0.0011944489268975668   -0.008398110800986668   -1.4680411741573059e-05
-0.0003376289717825286   -0.011081999900557724   -0.0001441774681555316
0.0011378084497106933   -0.011046625098191837   -9.238690397744949e-05
0.0011944489268975668   -0.008398110800986668   -1.4680411741573059e-05
-0.00037502674057853663   -0.00838524416486486   -7.116469974894599e-05
-0.0003376289717825286   -0.011081999900557724   -0.0001441774681555316
-0.0003924845365451807   -0.008356856312143572   -6.623847540087017e-05
0.0011378084497106933   -0.011046625098191837   -9.238690397744949e-05
-0.0003500902882146498   -0.011052172305774296   -0.00014565197580875878
-0.0003924845365451807   -0.008356856312143572   -6.623847540087017e-05
-0.0003376289717825286   -0.011081999900557724   -0.0001441774681555316
0.0011378084497106933   -0.011046625098191837   -9.238690397744949e-05
-0.0003924845365451807   -0.008356856312143572   -6.623847540087017e-05
0.0011768977527855772   -0.008365205235669677   -1.4711190418597447e-05
0.0011944489268975668   -0.008398110800986668   -1.4680411741573059e-05
0.0011378084497106933   -0.011046625098191837   -9.238690397744949e-05
-0.0003924845365451807   -0.008356856312143572   -6.623847540087017e-05
0.0011944489268975668   -0.008398110800986668   -1.4680411741573059e-05
-0.0003376289717825286   -0.011081999900557724   -0.0001441774681555316
0.0011378084497106933   -0.011046625098191837   -9.238690397744949e-05
0.0011768977527855772   -0.008365205235669677   -1.4711190418597447e-05
-0.0003500902882146498   -0.011052172305774296   -0.00014565197580875878
0.001128653350679647   -0.011019456916728843   -0.0001012911538923189
0.0011768977527855772   -0.008365205235669677   -1.4711190418597447e-05
-0.0003924845365451807   -0.008356856312143572   -6.623847540087017e-05
-0.0003500902882146498   -0.011052172305774296   -0.00014565197580875878
-0.0004125472994567387   -0.008330448858486864   -5.9789784655876264e-05
0.001128653350679647   -0.011019456916728843   -0.0001012911538923189
-0.0003639511606468619   -0.01102703638921889   -0.00014547464675455053
-0.0004125472994567387   -0.008330448858486864   -5.9789784655876264e-05
-0.0003500902882146498   -0.011052172305774296   -0.00014565197580875878
0.001128653350679647   -0.011019456916728843   -0.0001012911538923189
-0.0004125472994567387   -0.008330448858486864   -5.9789784655876264e-05
0.0011545958281807473   -0.008336385301733062   -1.1647868965328811e-05
0.0011768977527855772   -0.008365205235669677   -1.4711190418597447e-05
0.001128653350679647   -0.011019456916728843   -0.0001012911538923189
-0.0004125472994567387   -0.008330448858486864   -5.9789784655876264e-05
0.0011768977527855772   -0.008365205235669677   -1.4711190418597447e-05
-0.0003500902882146498   -0.011052172305774296   -0.00014565197580875878
0.001128653350679647   -0.011019456916728843   -0.0001012911538923189
0.0011545958281807473   -0.008336385301733062   -1.1647868965328811e-05
-0.0003639511606468619   -0.01102703638921889   -0.00014547464675455053
0.0011156099268225886   -0.010995031970597565   -0.0001077327942890144
0.0011545958281807473   -0.008336385301733062   -1.1647868965328811e-05
-0.0004125472994567387   -0.008330448858486864   -5.9789784655876264e-05
-0.0003639511606468619   -0.01102703638921889   -0.00014547464675455053
-0.000435253334614368   -0.008305640627192848   -5.14402535476025e-05
0.0011156099268225886   -0.010995031970597565   -0.0001077327942890144
-0.0003814237581867752   -0.011005897482530287   -0.00014358035634193033
-0.000435253334614368   -0.008305640627192848   -5.14402535476025e-05
-0.0003639511606468619   -0.01102703638921889   -0.00014547464675455053
0.0011156099268225886   -0.010995031970597565   -0.0001077327942890144
-0.000435253334614368   -0.008305640627192848   -5.14402535476025e-05
0.0011249977405714904   -0.008306532287337739   -5.625274823780853e-06
0.0011545958281807473   -0.008336385301733062   -1.1647868965328811e-05
0.0011156099268225886   -0.010995031970597565   -0.0001077327942890144
-0.000435253334614368   -0.008305640627192848   -5.14402535476025e-05
0.0011545958281807473   -0.008336385301733062   -1.1647868965328811e-05
-0.0003639511606468619   -0.01102703638921889   -0.00014547464675455053
-0.0003376289717825286   -0.011081999900557724   -0.0001441774681555316
-0.00037502674057853663   -0.00838524416486486   -7.116469974894599e-05
-0.0017481438759661843   -0.011068858912737319   -0.00019567276270360956
-0.0003500902882146498   -0.011052172305774296   -0.00014565197580875878
-0.00037502674057853663   -0.00838524416486486   -7.116469974894599e-05
-0.0018619235159141319   -0.00836928232726779   -0.0001181568448582238
-0.0017481438759661843   -0.011068858912737319   -0.00019567276270360956
-0.0018799806660532432   -0.008345899478626144   -0.00010998316172499603
-0.0003500902882146498   -0.011052172305774296   -0.00014565197580875878
-0.0017623706858461664   -0.011044425187658793   -0.00018998237615109627
-0.0018799806660532432   -0.008345899478626144   -0.00010998316172499603
-0.0017481438759661843   -0.011068858912737319   -0.00019567276270360956
-0.0003500902882146498   -0.011052172305774296   -0.00014565197580875878
-0.0018799806660532432   -0.008345899478626144   -0.00010998316172499603
-0.0003924845365451807   -0.008356856312143572   -6.623847540087017e-05
-0.00037502674057853663   -0.00838524416486486   -7.116469974894599e-05
-0.0003500902882146498   -0.011052172305774296   -0.00014565197580875878
-0.0018799806660532432   -0.008345899478626144   -0.00010998316172499603
-0.00037502674057853663   -0.00838524416486486   -7.116469974894599e-05
-0.0017481438759661843   -0.011068858912737319   -0.00019567276270360956
-0.0003500902882146498   -0.011052172305774296   -0.00014565197580875878
-0.0003924845365451807   -0.008356856312143572   -6.623847540087017e-05
-0.0017623706858461664   -0.011044425187658793   -0.00018998237615109627
-0.0003639511606468619   -0.01102703638921889   -0.00014547464675455053
-0.0003924845365451807   -0.008356856312143572   -6.623847540087017e-05
-0.0018799806660532432   -0.008345899478626144   -0.00010998316172499603
-0.0017623706858461664   -0.011044425187658793   -0.00018998237615109627
-0.0018984716494194408   -0.0083240452484451   -0.00010034530843009139
-0.0003639511606468619   -0.01102703638921889   -0.00014547464675455053
-0.001776901966230662   -0.011023808874326864   -0.00018256429850513133
-0.0018984716494194408   -0.0083240452484451   -0.00010034530843009139
-0.0017623706858461664   -0.011044425187658793   -0.00018998237615109627
-0.0003639511606468619   -0.01102703638921889   -0.00014547464675455053
-0.0018984716494194408   -0.0083240452484451   -0.00010034530843009139
-0.0004125472994567387   -0.008330448858486864   -5.9789784655876264e-05
-0.0003924845365451807   -0.008356856312143572   -6.623847540087017e-05
-0.0003639511606468619   -0.01102703638921889   -0.00014547464675455053
-0.0018984716494194408   -0.0083240452484451   -0.00010034530843009139
-0.0003924845365451807   -0.008356856312143572   -6.623847540087017e-05
-0.0017623706858461664   -0.011044425187658793   -0.00018998237615109627
-0.0003639511606468619   -0.01102703638921889   -0.00014547464675455053
-0.0004125472994567387   -0.008330448858486864   -5.9789784655876264e-05
-0.001776901966230662   -0.011023808874326864   -0.00018256429850513133
-0.0003814237581867752   -0.011005897482530287   -0.00014358035634193033
-0.0004125472994567387   -0.008330448858486864   -5.9789784655876264e-05
-0.0018984716494194408   -0.0083240452484451   -0.00010034530843009139
-0.001776901966230662   -0.011023808874326864   -0.00018256429850513133
-0.0019181840862323133   -0.008304098897137374   -8.923776153831816e-05
-0.0003814237581867752   -0.011005897482530287   -0.00014358035634193033
-0.001792706607305424   -0.011007225405640048   -0.00017350760931666675
-0.0019181840862323133   -0.008304098897137374   -8.923776153831816e-05
-0.001776901966230662   -0.011023808874326864   -0.00018256429850513133
-0.0003814237581867752   -0.011005897482530287   -0.00014358035634193033
-0.0019181840862323133   -0.008304098897137374   -8.923776153831816e-05
-0.000435253334614368   -0.008305640627192848   -5.14402535476025e-05
-0.0004125472994567387   -0.008330448858486864   -5.9789784655876264e-05
-0.0003814237581867752   -0.011005897482530287   -0.00014358035634193033
-0.0019181840862323133   -0.008304098897137374   -8.923776153831816e-05
-0.0004125472994567387   -0.008330448858486864   -5.9789784655876264e-05
-0.001776901966230662   -0.011023808874326864   -0.00018256429850513133
-0.0017481438759661843   -0.011068858912737319   -0.00019567276270360956
-0.0018619235159141319   -0.00836928232726779   -0.0001181568448582238
-0.0031348508429287093   -0.011043628985900835   -0.00023867983848031897
-0.0017623706858461664   -0.011044425187658793   -0.00018998237615109627
-0.0018619235159141319   -0.00836928232726779   -0.0001181568448582238
-0.003324128111936639   -0.008349698958879373   -0.00015758320898040634
-0.0031348508429287093   -0.011043628985900835   -0.00023867983848031897
-0.003342151639316593   -0.00833090123992082   -0.00014620257300048406
-0.0017623706858461664   -0.011044425187658793   -0.00018998237615109627
-0.0031495914936254124   -0.011024115230697   -0.00022586160915512
-0.003342151639316593   -0.00833090123992082   -0.00014620257300048406
-0.0031348508429287093   -0.011043628985900835   -0.00023867983848031897
-0.0017623706858461664   -0.011044425187658793   -0.00018998237615109627
-0.003342151639316593   -0.00833090123992082   -0.00014620257300048406
-0.0018799806660532432   -0.008345899478626144   -0.00010998316172499603
-0.0018619235159141319   -0.00836928232726779   -0.0001181568448582238
-0.0017623706858461664   -0.011044425187658793   -0.00018998237615109627
-0.003342151639316593   -0.00833090123992082   -0.00014620257300048406
-0.0018619235159141319   -0.00836928232726779   -0.0001181568448582238
-0.0031348508429287093   -0.011043628985900835   -0.00023867983848031897
-0.0017623706858461664   -0.011044425187658793   -0.00018998237615109627
-0.0018799806660532432   -0.008345899478626144   -0.00010998316172499603
-0.0031495914936254124   -0.011024115230697   -0.00022586160915512
-0.001776901966230662   -0.011023808874326864   -0.00018256429850513133
-0.0018799806660532432   -0.008345899478626144   -0.00010998316172499603
-0.003342151639316593   -0.00833090123992082   -0.00014620257300048406
-0.0031495914936254124   -0.011024115230697   -0.00022586160915512
-0.0033589814556659347   -0.008313701565697936   -0.00013340720000340928
-0.001776901966230662   -0.011023808874326864   -0.00018256429850513133
-0.0031629194078128236   -0.011008392139661274   -0.0002113585355008134
-0.0033589814556659347   -0.008313701565697936   -0.00013340720000340928
-0.0031495914936254124   -0.011024115230697   -0.00022586160915512
-0.001776901966230662   -0.011023808874326864   -0.00018256429850513133
-0.0033589814556659347   -0.008313701565697936   -0.00013340720000340928
-0.0018984716494194408   -0.0083240452484451   -0.00010034530843009139
-0.0018799806660532432   -0.008345899478626144   -0.00010998316172499603
-0.001776901966230662   -0.011023808874326864   -0.00018256429850513133
-0.0033589814556659347   -0.008313701565697936   -0.00013340720000340928
-0.0018799806660532432   -0.008345899478626144   -0.00010998316172499603
-0.0031495914936254124   -0.011024115230697   -0.00022586160915512
-0.001776901966230662   -0.011023808874326864   -0.00018256429850513133
-0.0018984716494194408   -0.0083240452484451   -0.00010034530843009139
-0.0031629194078128236   -0.011008392139661274   -0.0002113585355008134
-0.001792706607305424   -0.011007225405640048   -0.00017350760931666675
-0.0018984716494194408   -0.0083240452484451   -0.00010034530843009139
-0.0033589814556659347   -0.008313701565697936   -0.00013340720000340928
-0.0031629194078128236   -0.011008392139661274   -0.0002113585355008134
-0.0033758723806829424   -0.008298141295318221   -0.0001192640962001668
-0.001792706607305424   -0.011007225405640048   -0.00017350760931666675
-0.003176379751807527   -0.010996480288684548   -0.00019523178500330165
-0.0033758723806829424   -0.008298141295318221   -0.0001192640962001668
-0.0031629194078128236   -0.011008392139661274   -0.0002113585355008134
-0.001792706607305424   -0.011007225405640048   -0.00017350760931666675
-0.0033758723806829424   -0.008298141295318221   -0.0001192640962001668
-0.0019181840862323133   -0.008304098897137374   -8.923776153831816e-05
-0.0018984716494194408   -0.0083240452484451   -0.00010034530843009139
-0.001792706607305424   -0.011007225405640048   -0.00017350760931666675
-0.0033758723806829424   -0.008298141295318221   -0.0001192640962001668
-0.0018984716494194408   -0.0083240452484451   -0.00010034530843009139
-0.0031629194078128236   -0.011008392139661274   -0.0002113585355008134
-0.0031348508429287093   -0.011043628985900835   -0.00023867983848031897
-0.003324128111936639   -0.008349698958879373   -0.00015758320898040634
-0.0045492191261802305   -0.011005787857179027   -0.0002733463591946659
-0.0031495914936254124   -0.011024115230697   -0.00022586160915512
-0.003324128111936639   -0.008349698958879373   -0.00015758320898040634
-0.004813045411649907   -0.00832293756800393   -0.00018909940964961783
-0.0045492191261802305   -0.011005787857179027   -0.0002733463591946659
-0.004830266232803814   -0.008308957343251986   -0.00017455204229494868
-0.0031495914936254124   -0.011024115230697   -0.00022586160915512
-0.004562818763290375   -0.010991211685464016   -0.0002533414243188588
-0.004830266232803814   -0.008308957343251986   -0.00017455204229494868
-0.0045492191261802305   -0.011005787857179027   -0.0002733463591946659
-0.0031495914936254124   -0.011024115230697   -0.00022586160915512
-0.004830266232803814   -0.008308957343251986   -0.00017455204229494868
-0.003342151639316593   -0.00833090123992082   -0.00014620257300048406
-0.003324128111936639   -0.008349698958879373   -0.00015758320898040634
-0.0031495914936254124   -0.011024115230697   -0.00022586160915512
-0.004830266232803814   -0.008308957343251986   -0.00017455204229494868
-0.003324128111936639   -0.008349698958879373   -0.00015758320898040634
-0.0045492191261802305   -0.011005787857179027   -0.0002733463591946659
-0.0031495914936254124   -0.011024115230697   -0.00022586160915512
-0.003342151639316593   -0.00833090123992082   -0.00014620257300048406
-0.004562818763290375   -0.010991211685464016   -0.0002533414243188588
-0.0031629194078128236   -0.011008392139661274   -0.0002113585355008134
-0.003342151639316593   -0.00833090123992082   -0.00014620257300048406
-0.004830266232803814   -0.008308957343251986   -0.00017455204229494868
-0.004562818763290375   -0.010991211685464016   -0.0002533414243188588
-0.004843094369456428   -0.008296070036865527   -0.0001588089802231252
-0.0031629194078128236   -0.011008392139661274   -0.0002113585355008134
-0.004570726894232558   -0.010980012015583846   -0.00023187211914789106
-0.004843094369456428   -0.008296070036865527   -0.0001588089802231252
-0.004562818763290375   -0.010991211685464016   -0.0002533414243188588
-0.0031629194078128236   -0.011008392139661274   -0.0002113585355008134
-0.004843094369456428   -0.008296070036865527   -0.0001588089802231252
-0.0033589814556659347   -0.008313701565697936   -0.00013340720000340928
-0.003342151639316593   -0.00833090123992082   -0.00014620257300048406
-0.0031629194078128236   -0.011008392139661274   -0.0002113585355008134
-0.004843094369456428   -0.008296070036865527   -0.0001588089802231252
-0.003342151639316593   -0.00833090123992082   -0.00014620257300048406
-0.004562818763290375   -0.010991211685464016   -0.0002533414243188588
-0.0031629194078128236   -0.011008392139661274   -0.0002113585355008134
-0.0033589814556659347   -0.008313701565697936   -0.00013340720000340928
-0.004570726894232558   -0.010980012015583846   -0.00023187211914789106
-0.003176379751807527   -0.010996480288684548   -0.00019523178500330165
-0.0033589814556659347   -0.008313701565697936   -0.00013340720000340928
-0.004843094369456428   -0.008296070036865527   -0.0001588089802231252
-0.004570726894232558   -0.010980012015583846   -0.00023187211914789106
-0.0048558765340238185   -0.008284931176904166   -0.00014157093266833678
-0.003176379751807527   -0.010996480288684548   -0.00019523178500330165
-0.004579584433525754   -0.01097297045773373   -0.00020863897101170277
-0.0048558765340238185   -0.008284931176904166   -0.00014157093266833678
-0.004570726894232558   -0.010980012015583846   -0.00023187211914789106
-0.003176379751807527   -0.010996480288684548   -0.00019523178500330165
-0.0048558765340238185   -0.008284931176904166   -0.00014157093266833678
-0.0033758723806829424   -0.008298141295318221   -0.0001192640962001668
-0.0033589814556659347   -0.008313701565697936   -0.00013340720000340928
-0.003176379751807527   -0.010996480288684548   -0.00019523178500330165
-0.0048558765340238185   -0.008284931176904166   -0.00014157093266833678
-0.0033589814556659347   -0.008313701565697936   -0.00013340720000340928
-0.004570726894232558   -0.010980012015583846   -0.00023187211914789106
-0.0045492191261802305   -0.011005787857179027   -0.0002733463591946659
-0.004813045411649907   -0.00832293756800393   -0.00018909940964961783
-0.006068769204351988   -0.010958668223049079   -0.0003006100685502406
-0.004562818763290375   -0.010991211685464016   -0.0002533414243188588
-0.004813045411649907   -0.00832293756800393   -0.00018909940964961783
-0.006393308985980202   -0.008290822361670782   -0.00021181893446833063
-0.006068769204351988   -0.010958668223049079   -0.0003006100685502406
-0.006394631255409473   -0.008280040340801192   -0.0001953323049608158
-0.004562818763290375   -0.010991211685464016   -0.0002533414243188588
-0.006056631780547647   -0.010946566465431185   -0.0002736117754636711
-0.006394631255409473   -0.008280040340801192   -0.0001953323049608158
-0.006068769204351988   -0.010958668223049079   -0.0003006100685502406
-0.004562818763290375   -0.010991211685464016   -0.0002533414243188588
-0.006394631255409473   -0.008280040340801192   -0.0001953323049608158
-0.004830266232803814   -0.008308957343251986   -0.00017455204229494868
-0.004813045411649907   -0.00832293756800393   -0.00018909940964961783
-0.004562818763290375   -0.010991211685464016   -0.0002533414243188588
-0.006394631255409473   -0.008280040340801192   -0.0001953323049608158
-0.004813045411649907   -0.00832293756800393   -0.00018909940964961783
-0.006068769204351988   -0.010958668223049079   -0.0003006100685502406
-0.004562818763290375   -0.010991211685464016   -0.0002533414243188588
-0.004830266232803814   -0.008308957343251986   -0.00017455204229494868
-0.006056631780547647   -0.010946566465431185   -0.0002736117754636711
-0.004570726894232558   -0.010980012015583846   -0.00023187211914789106
-0.004830266232803814   -0.008308957343251986   -0.00017455204229494868
-0.006394631255409473   -0.008280040340801192   -0.0001953323049608158
-0.006056631780547647   -0.010946566465431185   -0.0002736117754636711
-0.006396208763032512   -0.008269373727739287   -0.00017645451175475862
-0.004570726894232558   -0.010980012015583846   -0.00023187211914789106
-0.006046717263729438   -0.010937504399712366   -0.0002439252564948287
-0.006396208763032512   -0.008269373727739287   -0.00017645451175475862
-0.006056631780547647   -0.010946566465431185   -0.0002736117754636711
-0.004570726894232558   -0.010980012015583846   -0.00023187211914789106
-0.006396208763032512   -0.008269373727739287   -0.00017645451175475862
-0.004843094369456428   -0.008296070036865527   -0.0001588089802231252
-0.004830266232803814   -0.008308957343251986   -0.00017455204229494868
-0.004570726894232558   -0.010980012015583846   -0.00023187211914789106
-0.006396208763032512   -0.008269373727739287   -0.00017645451175475862
-0.004830266232803814   -0.008308957343251986   -0.00017455204229494868
-0.006056631780547647   -0.010946566465431185   -0.0002736117754636711
-0.004570726894232558   -0.010980012015583846   -0.00023187211914789106
-0.004843094369456428   -0.008296070036865527   -0.0001588089802231252
-0.006046717263729438   -0.010937504399712366   -0.0002439252564948287
-0.004579584433525754   -0.01097297045773373   -0.00020863897101170277
-0.004843094369456428   -0.008296070036865527   -0.0001588089802231252
-0.006396208763032512   -0.008269373727739287   -0.00017645451175475862
-0.006046717263729438   -0.010937504399712366   -0.0002439252564948287
-0.00638854393279661   -0.008263453801035558   -0.00015545993950214678
-0.004579584433525754   -0.01097297045773373   -0.00020863897101170277
-0.00602455995723185   -0.010936391163365684   -0.000211854975567308
-0.00638854393279661   -0.008263453801035558   -0.00015545993950214678
-0.006046717263729438   -0.010937504399712366   -0.0002439252564948287
-0.004579584433525754   -0.01097297045773373   -0.00020863897101170277
-0.00638854393279661   -0.008263453801035558   -0.00015545993950214678
-0.0048558765340238185   -0.008284931176904166   -0.00014157093266833678
-0.004843094369456428   -0.008296070036865527   -0.0001588089802231252
-0.004579584433525754   -0.01097297045773373   -0.00020863897101170277
-0.00638854393279661   -0.008263453801035558   -0.00015545993950214678
-0.004843094369456428   -0.008296070036865527   -0.0001588089802231252
-0.006046717263729438   -0.010937504399712366   -0.0002439252564948287
0.0011944489268975668   -0.008398110800986668   -1.4680411741573059e-05
0.001081258410598222   -0.005621493173534959   3.112446746715108e-05
-0.00037502674057853663   -0.00838524416486486   -7.116469974894599e-05
0.0011768977527855772   -0.008365205235669677   -1.4711190418597447e-05
0.001081258410598222   -0.005621493173534959   3.112446746715108e-05
-0.0005073954934752153   -0.005596253350364935   -1.2776515673826243e-05
-0.00037502674057853663   -0.00838524416486486   -7.116469974894599e-05
-0.0005286892892793614   -0.0055708082744677975   -1.8354192733136594e-06
0.0011768977527855772   -0.008365205235669677   -1.4711190418597447e-05
-0.0003924845365451807   -0.008356856312143572   -6.623847540087017e-05
-0.0005286892892793614   -0.0055708082744677975   -1.8354192733136594e-06
-0.00037502674057853663   -0.00838524416486486   -7.116469974894599e-05
0.0011768977527855772   -0.008365205235669677   -1.4711190418597447e-05
-0.0005286892892793614   -0.0055708082744677975   -1.8354192733136594e-06
0.0010484131410367816   -0.005590340366163672   4.4150135314510596e-05
0.001081258410598222   -0.005621493173534959   3.112446746715108e-05
0.0011768977527855772   -0.008365205235669677   -1.4711190418597447e-05
-0.0005286892892793614   -0.0055708082744677975   -1.8354192733136594e-06
0.001081258410598222   -0.005621493173534959   3.112446746715108e-05
-0.00037502674057853663   -0.00838524416486486   -7.116469974894599e-05
0.0011768977527855772   -0.008365205235669677   -1.4711190418597447e-05
0.0010484131410367816   -0.005590340366163672   4.4150135314510596e-05
-0.0003924845365451807   -0.008356856312143572   -6.623847540087017e-05
0.0011545958281807473   -0.008336385301733062   -1.1647868965328811e-05
0.0010484131410367816   -0.005590340366163672   4.4150135314510596e-05
-0.0005286892892793614   -0.0055708082744677975   -1.8354192733136594e-06
-0.0003924845365451807   -0.008356856312143572   -6.623847540087017e-05
-0.0005537142081794371   -0.0055441030333568085   1.1143431469848107e-05
0.0011545958281807473   -0.008336385301733062   -1.1647868965328811e-05
-0.0004125472994567387   -0.008330448858486864   -5.9789784655876264e-05
-0.0005537142081794371   -0.0055441030333568085   1.1143431469848107e-05
-0.0003924845365451807   -0.008356856312143572   -6.623847540087017e-05
0.0011545958281807473   -0.008336385301733062   -1.1647868965328811e-05
-0.0005537142081794371   -0.0055441030333568085   1.1143431469848107e-05
0.0010111365976544187   -0.005559763214802742   6.339556514745093e-05
0.0010484131410367816   -0.005590340366163672   4.4150135314510596e-05
0.0011545958281807473   -0.008336385301733062   -1.1647868965328811e-05
-0.0005537142081794371   -0.0055441030333568085   1.1143431469848107e-05
0.0010484131410367816   -0.005590340366163672   4.4150135314510596e-05
-0.0003924845365451807   -0.008356856312143572   -6.623847540087017e-05
0.0011545958281807473   -0.008336385301733062   -1.1647868965328811e-05
0.0010111365976544187   -0.005559763214802742   6.339556514745093e-05
-0.0004125472994567387   -0.008330448858486864   -5.9789784655876264e-05
0.0011249977405714904   -0.008306532287337739   -5.625274823780853e-06
0.0010111365976544187   -0.005559763214802742   6.339556514745093e-05
-0.0005537142081794371   -0.0055441030333568085   1.1143431469848107e-05
-0.0004125472994567387   -0.008330448858486864   -5.9789784655876264e-05
-0.0005797351095892284   -0.005515883151921544   2.6151192163832194e-05
0.0011249977405714904   -0.008306532287337739   -5.625274823780853e-06
-0.000435253334614368   -0.008305640627192848   -5.14402535476025e-05
-0.0005797351095892284   -0.005515883151921544   2.6151192163832194e-05
-0.0004125472994567387   -0.008330448858486864   -5.9789784655876264e-05
0.0011249977405714904   -0.008306532287337739   -5.625274823780853e-06
-0.0005797351095892284   -0.005515883151921544   2.6151192163832194e-05
0.0009655316413689479   -0.005522060861308599   8.466577606919322e-05
0.0010111365976544187   -0.005559763214802742   6.339556514745093e-05
0.0011249977405714904   -0.008306532287337739   -5.625274823780853e-06
-0.0005797351095892284   -0.005515883151921544   2.6151192163832194e-05
0.0010111365976544187   -0.005559763214802742   6.339556514745093e-05
-0.0004125472994567387   -0.008330448858486864   -5.9789784655876264e-05
-0.00037502674057853663   -0.00838524416486486   -7.116469974894599e-05
-0.0005073954934752153   -0.005596253350364935   -1.2776515673826243e-05
-0.0018619235159141319   -0.00836928232726779   -0.0001181568448582238
-0.0003924845365451807   -0.008356856312143572   -6.623847540087017e-05
-0.0005073954934752153   -0.005596253350364935   -1.2776515673826243e-05
-0.0020013496931765877   -0.005589672539530573   -5.465703016088627e-05
-0.0018619235159141319   -0.00836928232726779   -0.0001181568448582238
-0.0020208245956977963   -0.0055677964418103095   -4.4189371704873105e-05
-0.0003924845365451807   -0.008356856312143572   -6.623847540087017e-05
-0.0018799806660532432   -0.008345899478626144   -0.00010998316172499603
-0.0020208245956977963   -0.0055677964418103095   -4.4189371704873105e-05
-0.0018619235159141319   -0.00836928232726779   -0.0001181568448582238
-0.0003924845365451807   -0.008356856312143572   -6.623847540087017e-05
-0.0020208245956977963   -0.0055677964418103095   -4.4189371704873105e-05
-0.0005286892892793614   -0.0055708082744677975   -1.8354192733136594e-06
-0.0005073954934752153   -0.005596253350364935   -1.2776515673826243e-05
-0.0003924845365451807   -0.008356856312143572   -6.623847540087017e-05
-0.0020208245956977963   -0.0055677964418103095   -4.4189371704873105e-05
-0.0005073954934752153   -0.005596253350364935   -1.2776515673826243e-05
-0.0018619235159141319   -0.00836928232726779   -0.0001181568448582238
-0.0003924845365451807   -0.008356856312143572   -6.623847540087017e-05
-0.0005286892892793614   -0.0055708082744677975   -1.8354192733136594e-06
-0.0018799806660532432   -0.008345899478626144   -0.00010998316172499603
-0.0004125472994567387   -0.008330448858486864   -5.9789784655876264e-05
-0.0005286892892793614   -0.0055708082744677975   -1.8354192733136594e-06
-0.0020208245956977963   -0.0055677964418103095   -4.4189371704873105e-05
-0.0018799806660532432   -0.008345899478626144   -0.00010998316172499603
-0.0020410270046600284   -0.005545099452082312   -3.262822138863784e-05
-0.0004125472994567387   -0.008330448858486864   -5.9789784655876264e-05
-0.0018984716494194408   -0.0083240452484451   -0.00010034530843009139
-0.0020410270046600284   -0.005545099452082312   -3.262822138863784e-05
-0.0018799806660532432   -0.008345899478626144   -0.00010998316172499603
-0.0004125472994567387   -0.008330448858486864   -5.9789784655876264e-05
-0.0020410270046600284   -0.005545099452082312   -3.262822138863784e-05
-0.0005537142081794371   -0.0055441030333568085   1.1143431469848107e-05
-0.0005286892892793614   -0.0055708082744677975   -1.8354192733136594e-06
-0.0004125472994567387   -0.008330448858486864   -5.9789784655876264e-05
-0.0020410270046600284   -0.005545099452082312   -3.262822138863784e-05
-0.0005286892892793614   -0.0055708082744677975   -1.8354192733136594e-06
-0.0018799806660532432   -0.008345899478626144   -0.00010998316172499603
-0.0004125472994567387   -0.008330448858486864   -5.9789784655876264e-05
-0.0005537142081794371   -0.0055441030333568085   1.1143431469848107e-05
-0.0018984716494194408   -0.0083240452484451   -0.00010034530843009139
-0.000435253334614368   -0.008305640627192848   -5.14402535476025e-05
-0.0005537142081794371   -0.0055441030333568085   1.1143431469848107e-05
-0.0020410270046600284   -0.005545099452082312   -3.262822138863784e-05
-0.0018984716494194408   -0.0083240452484451   -0.00010034530843009139
-0.0020621161354897576   -0.005522066620327948   -1.9767636008073876e-05
-0.000435253334614368   -0.008305640627192848   -5.14402535476025e-05
-0.0019181840862323133   -0.008304098897137374   -8.923776153831816e-05
-0.0020621161354897576   -0.005522066620327948   -1.9767636008073876e-05
-0.0018984716494194408   -0.0083240452484451   -0.00010034530843009139
-0.000435253334614368   -0.008305640627192848   -5.14402535476025e-05
-0.0020621161354897576   -0.005522066620327948   -1.9767636008073876e-05
-0.0005797351095892284   -0.005515883151921544   2.6151192163832194e-05
-0.0005537142081794371   -0.0055441030333568085   1.1143431469848107e-05
-0.000435253334614368   -0.008305640627192848   -5.14402535476025e-05
-0.0020621161354897576   -0.005522066620327948   -1.9767636008073876e-05
-0.0005537142081794371   -0.0055441030333568085   1.1143431469848107e-05
-0.0018984716494194408   -0.0083240452484451   -0.00010034530843009139
-0.0018619235159141319   -0.00836928232726779   -0.0001181568448582238
-0.0020013496931765877   -0.005589672539530573   -5.465703016088627e-05
-0.003324128111936639   -0.008349698958879373   -0.00015758320898040634
-0.0018799806660532432   -0.008345899478626144   -0.00010998316172499603
-0.0020013496931765877   -0.005589672539530573   -5.465703016088627e-05
-0.003478516157001353   -0.005587773579227799   -9.224141834696087e-05
-0.003324128111936639   -0.008349698958879373   -0.00015758320898040634
-0.003497245485478627   -0.005568831582813789   -8.200928996633197e-05
-0.0018799806660532432   -0.008345899478626144   -0.00010998316172499603
-0.003342151639316593   -0.00833090123992082   -0.00014620257300048406
-0.003497245485478627   -0.005568831582813789   -8.200928996633197e-05
-0.003324128111936639   -0.008349698958879373   -0.00015758320898040634
-0.0018799806660532432   -0.008345899478626144   -0.00010998316172499603
-0.003497245485478627   -0.005568831582813789   -8.200928996633197e-05
-0.0020208245956977963   -0.0055677964418103095   -4.4189371704873105e-05
-0.0020013496931765877   -0.005589672539530573   -5.465703016088627e-05
-0.0018799806660532432   -0.008345899478626144   -0.00010998316172499603
-0.003497245485478627   -0.005568831582813789   -8.200928996633197e-05
-0.0020013496931765877   -0.005589672539530573   -5.465703016088627e-05
-0.003324128111936639   -0.008349698958879373   -0.00015758320898040634
-0.0018799806660532432   -0.008345899478626144   -0.00010998316172499603
-0.0020208245956977963   -0.0055677964418103095   -4.4189371704873105e-05
-0.003342151639316593   -0.00833090123992082   -0.00014620257300048406
-0.0018984716494194408   -0.0083240452484451   -0.00010034530843009139
-0.0020208245956977963   -0.0055677964418103095   -4.4189371704873105e-05
-0.003497245485478627   -0.005568831582813789   -8.200928996633197e-05
-0.003342151639316593   -0.00833090123992082   -0.00014620257300048406
-0.0035150937126986726   -0.005549641997568129   -7.081171952454003e-05
-0.0018984716494194408   -0.0083240452484451   -0.00010034530843009139
-0.0033589814556659347   -0.008313701565697936   -0.00013340720000340928
-0.0035150937126986726   -0.005549641997568129   -7.081171952454003e-05
-0.003342151639316593   -0.00833090123992082   -0.00014620257300048406
-0.0018984716494194408   -0.0083240452484451   -0.00010034530843009139
-0.0035150937126986726   -0.005549641997568129   -7.081171952454003e-05
-0.0020410270046600284   -0.005545099452082312   -3.262822138863784e-05
-0.0020208245956977963   -0.0055677964418103095   -4.4189371704873105e-05
-0.0018984716494194408   -0.0083240452484451   -0.00010034530843009139
-0.0035150937126986726   -0.005549641997568129   -7.081171952454003e-05
-0.0020208245956977963   -0.0055677964418103095   -4.4189371704873105e-05
-0.003342151639316593   -0.00833090123992082   -0.00014620257300048406
-0.0018984716494194408   -0.0083240452484451   -0.00010034530843009139
-0.0020410270046600284   -0.005545099452082312   -3.262822138863784e-05
-0.0033589814556659347   -0.008313701565697936   -0.00013340720000340928
-0.0019181840862323133   -0.008304098897137374   -8.923776153831816e-05
-0.0020410270046600284   -0.005545099452082312   -3.262822138863784e-05
-0.0035150937126986726   -0.005549641997568129   -7.081171952454003e-05
-0.0033589814556659347   -0.008313701565697936   -0.00013340720000340928
-0.0035327685696130953   -0.005530080563480644   -5.869477021345397e-05
-0.0019181840862323133   -0.008304098897137374   -8.923776153831816e-05
-0.0033758723806829424   -0.008298141295318221   -0.0001192640962001668
-0.0035327685696130953   -0.005530080563480644   -5.869477021345397e-05
-0.0033589814556659347   -0.008313701565697936   -0.00013340720000340928
-0.0019181840862323133   -0.008304098897137374   -8.923776153831816e-05
-0.0035327685696130953   -0.005530080563480644   -5.869477021345397e-05
-0.0020621161354897576   -0.005522066620327948   -1.9767636008073876e-05
-0.0020410270046600284   -0.005545099452082312   -3.262822138863784e-05
-0.0019181840862323133   -0.008304098897137374   -8.923776153831816e-05
-0.0035327685696130953   -0.005530080563480644   -5.869477021345397e-05
-0.0020410270046600284   -0.005545099452082312   -3.262822138863784e-05
-0.0033589814556659347   -0.008313701565697936   -0.00013340720000340928
-0.003324128111936639   -0.008349698958879373   -0.00015758320898040634
-0.003478516157001353   -0.005587773579227799   -9.224141834696087e-05
-0.004813045411649907   -0.00832293756800393   -0.00018909940964961783
-0.003342151639316593   -0.00833090123992082   -0.00014620257300048406
-0.003478516157001353   -0.005587773579227799   -9.224141834696087e-05
-0.004987192971898186   -0.005578847396118614   -0.0001232713671681001
-0.004813045411649907   -0.00832293756800393   -0.00018909940964961783
-0.005005044050534543   -0.005563798540758557   -0.00011335759022487064
-0.003342151639316593   -0.00833090123992082   -0.00014620257300048406
-0.004830266232803814   -0.008308957343251986   -0.00017455204229494868
-0.005005044050534543   -0.005563798540758557   -0.00011335759022487064
-0.004813045411649907   -0.00832293756800393   -0.00018909940964961783
-0.003342151639316593   -0.00833090123992082   -0.00014620257300048406
-0.005005044050534543   -0.005563798540758557   -0.00011335759022487064
-0.003497245485478627   -0.005568831582813789   -8.200928996633197e-05
-0.003478516157001353   -0.005587773579227799   -9.224141834696087e-05
-0.003342151639316593   -0.00833090123992082   -0.00014620257300048406
-0.005005044050534543   -0.005563798540758557   -0.00011335759022487064
-0.003478516157001353   -0.005587773579227799   -9.224141834696087e-05
-0.004813045411649907   -0.00832293756800393   -0.00018909940964961783
-0.003342151639316593   -0.00833090123992082   -0.00014620257300048406
-0.003497245485478627   -0.005568831582813789   -8.200928996633197e-05
-0.004830266232803814   -0.008308957343251986   -0.00017455204229494868
-0.0033589814556659347   -0.008313701565697936   -0.00013340720000340928
-0.003497245485478627   -0.005568831582813789   -8.200928996633197e-05
-0.005005044050534543   -0.005563798540758557   -0.00011335759022487064
-0.004830266232803814   -0.008308957343251986   -0.00017455204229494868
-0.005020046646924021   -0.005547957966349025   -0.00010273117494885072
-0.0033589814556659347   -0.008313701565697936   -0.00013340720000340928
-0.004843094369456428   -0.008296070036865527   -0.0001588089802231252
-0.005020046646924021   -0.005547957966349025   -0.00010273117494885072
-0.004830266232803814   -0.008308957343251986   -0.00017455204229494868
-0.0033589814556659347   -0.008313701565697936   -0.00013340720000340928
-0.005020046646924021   -0.005547957966349025   -0.00010273117494885072
-0.0035150937126986726   -0.005549641997568129   -7.081171952454003e-05
-0.003497245485478627   -0.005568831582813789   -8.200928996633197e-05
-0.0033589814556659347   -0.008313701565697936   -0.00013340720000340928
-0.005020046646924021   -0.005547957966349025   -0.00010273117494885072
-0.003497245485478627   -0.005568831582813789   -8.200928996633197e-05
-0.004830266232803814   -0.008308957343251986   -0.00017455204229494868
-0.0033589814556659347   -0.008313701565697936   -0.00013340720000340928
-0.0035150937126986726   -0.005549641997568129   -7.081171952454003e-05
-0.004843094369456428   -0.008296070036865527   -0.0001588089802231252
-0.0033758723806829424   -0.008298141295318221   -0.0001192640962001668
-0.0035150937126986726   -0.005549641997568129   -7.081171952454003e-05
-0.005020046646924021   -0.005547957966349025   -0.00010273117494885072
-0.004843094369456428   -0.008296070036865527   -0.0001588089802231252
-0.005034219282742228   -0.005531782633333159   -9.110750711887702e-05
-0.0033758723806829424   -0.008298141295318221   -0.0001192640962001668
-0.0048558765340238185   -0.008284931176904166   -0.00014157093266833678
-0.005034219282742228   -0.005531782633333159   -9.110750711887702e-05
-0.004843094369456428   -0.008296070036865527   -0.0001588089802231252
-0.0033758723806829424   -0.008298141295318221   -0.0001192640962001668
-0.005034219282742228   -0.005531782633333159   -9.110750711887702e-05
-0.0035327685696130953   -0.005530080563480644   -5.869477021345397e-05
-0.0035150937126986726   -0.005549641997568129   -7.081171952454003e-05
-0.0033758723806829424   -0.008298141295318221   -0.0001192640962001668
-0.005034219282742228   -0.005531782633333159   -9.110750711887702e-05
-0.0035150937126986726   -0.005549641997568129   -7.081171952454003e-05
-0.004843094369456428   -0.008296070036865527   -0.0001588089802231252
-0.004813045411649907   -0.00832293756800393   -0.00018909940964961783
-0.004987192971898186   -0.005578847396118614   -0.0001232713671681001
-0.006393308985980202   -0.008290822361670782   -0.00021181893446833063
-0.004830266232803814   -0.008308957343251986   -0.00017455204229494868
-0.004987192971898186   -0.005578847396118614   -0.0001232713671681001
-0.006570168073921938   -0.005563789256521415   -0.0001453546130064896
-0.006393308985980202   -0.008290822361670782   -0.00021181893446833063
-0.006580608890008663   -0.0055515394077199935   -0.0001375260852952056
-0.004830266232803814   -0.008308957343251986   -0.00017455204229494868
-0.006394631255409473   -0.008280040340801192   -0.0001953323049608158
-0.006580608890008663   -0.0055515394077199935   -0.0001375260852952056
-0.006393308985980202   -0.008290822361670782   -0.00021181893446833063
-0.004830266232803814   -0.008308957343251986   -0.00017455204229494868
-0.006580608890008663   -0.0055515394077199935   -0.0001375260852952056
-0.005005044050534543   -0.005563798540758557   -0.00011335759022487064
-0.004987192971898186   -0.005578847396118614   -0.0001232713671681001
-0.004830266232803814   -0.008308957343251986   -0.00017455204229494868
-0.006580608890008663   -0.0055515394077199935   -0.0001375260852952056
-0.004987192971898186   -0.005578847396118614   -0.0001232713671681001
-0.006393308985980202   -0.008290822361670782   -0.00021181893446833063
-0.004830266232803814   -0.008308957343251986   -0.00017455204229494868
-0.005005044050534543   -0.005563798540758557   -0.00011335759022487064
-0.006394631255409473   -0.008280040340801192   -0.0001953323049608158
-0.004843094369456428   -0.008296070036865527   -0.0001588089802231252
-0.005005044050534543   -0.005563798540758557   -0.00011335759022487064
-0.006580608890008663   -0.0055515394077199935   -0.0001375260852952056
-0.006394631255409473   -0.008280040340801192   -0.0001953323049608158
-0.006590156249948373   -0.005537518003742127   -0.00012800450000292494
-0.004843094369456428   -0.008296070036865527   -0.0001588089802231252
-0.006396208763032512   -0.008269373727739287   -0.00017645451175475862
-0.006590156249948373   -0.005537518003742127   -0.00012800450000292494
-0.006394631255409473   -0.008280040340801192   -0.0001953323049608158
-0.004843094369456428   -0.008296070036865527   -0.0001588089802231252
-0.006590156249948373   -0.005537518003742127   -0.00012800450000292494
-0.005020046646924021   -0.005547957966349025   -0.00010273117494885072
-0.005005044050534543   -0.005563798540758557   -0.00011335759022487064
-0.004843094369456428   -0.008296070036865527   -0.0001588089802231252
-0.006590156249948373   -0.005537518003742127   -0.00012800450000292494
-0.005005044050534543   -0.005563798540758557   -0.00011335759022487064
-0.006394631255409473   -0.008280040340801192   -0.0001953323049608158
-0.004843094369456428   -0.008296070036865527   -0.0001588089802231252
-0.005020046646924021   -0.005547957966349025   -0.00010273117494885072
-0.006396208763032512   -0.008269373727739287   -0.00017645451175475862
-0.0048558765340238185   -0.008284931176904166   -0.00014157093266833678
-0.005020046646924021   -0.005547957966349025   -0.00010273117494885072
-0.006590156249948373   -0.005537518003742127   -0.00012800450000292494
-0.006396208763032512   -0.008269373727739287   -0.00017645451175475862
-0.006594049722412658   -0.005525129432487557   -0.00011718233661412169
-0.0048558765340238185   -0.008284931176904166   -0.00014157093266833678
-0.00638854393279661   -0.008263453801035558   -0.00015545993950214678
-0.006594049722412658   -0.005525129432487557   -0.00011718233661412169
-0.006396208763032512   -0.008269373727739287   -0.00017645451175475862
-0.0048558765340238185   -0.008284931176904166   -0.00014157093266833678
-0.006594049722412658   -0.005525129432487557   -0.00011718233661412169
-0.005034219282742228   -0.005531782633333159   -9.110750711887702e-05
-0.005020046646924021   -0.005547957966349025   -0.00010273117494885072
-0.0048558765340238185   -0.008284931176904166   -0.00014157093266833678
-0.006594049722412658   -0.005525129432487557   -0.00011718233661412169
-0.005020046646924021   -0.005547957966349025   -0.00010273117494885072
-0.006396208763032512   -0.008269373727739287   -0.00017645451175475862
0.001081258410598222   -0.005621493173534959   3.112446746715108e-05
0.0007643583846280123   -0.0028360766264913305   3.4239234441894516e-05
-0.0005073954934752153   -0.005596253350364935   -1.2776515673826243e-05
0.0010484131410367816   -0.005590340366163672   4.4150135314510596e-05
0.0007643583846280123   -0.0028360766264913305   3.4239234441894516e-05
-0.0007252955351509677   -0.002801418749410331   2.0891321273409362e-05
-0.0005073954934752153   -0.005596253350364935   -1.2776515673826243e-05
-0.0007467599198500258   -0.0027896347797659337   3.65270773697033e-05
0.0010484131410367816   -0.005590340366163672   4.4150135314510596e-05
-0.0005286892892793614   -0.0055708082744677975   -1.8354192733136594e-06
-0.0007467599198500258   -0.0027896347797659337   3.65270773697033e-05
-0.0005073954934752153   -0.005596253350364935   -1.2776515673826243e-05
0.0010484131410367816   -0.005590340366163672   4.4150135314510596e-05
-0.0007467599198500258   -0.0027896347797659337   3.65270773697033e-05
0.0006971377667759054   -0.002802497824590538   7.252496059397964e-05
0.0007643583846280123   -0.0028360766264913305   3.4239234441894516e-05
0.0010484131410367816   -0.005590340366163672   4.4150135314510596e-05
-0.0007467599198500258   -0.0027896347797659337   3.65270773697033e-05
0.0007643583846280123   -0.0028360766264913305   3.4239234441894516e-05
-0.0005073954934752153   -0.005596253350364935   -1.2776515673826243e-05
0.0010484131410367816   -0.005590340366163672   4.4150135314510596e-05
0.0006971377667759054   -0.002802497824590538   7.252496059397964e-05
-0.0005286892892793614   -0.0055708082744677975   -1.8354192733136594e-06
0.0010111365976544187   -0.005559763214802742   6.339556514745093e-05
0.0006971377667759054   -0.002802497824590538   7.252496059397964e-05
-0.0007467599198500258   -0.0027896347797659337   3.65270773697033e-05
-0.0005286892892793614   -0.0055708082744677975   -1.8354192733136594e-06
-0.0007754569600394857   -0.0027669988559471427   5.565372200066107e-05
0.0010111365976544187   -0.005559763214802742   6.339556514745093e-05
-0.0005537142081794371   -0.0055441030333568085   1.1143431469848107e-05
-0.0007754569600394857   -0.0027669988559471427   5.565372200066107e-05
-0.0005286892892793614   -0.0055708082744677975   -1.8354192733136594e-06
0.0010111365976544187   -0.005559763214802742   6.339556514745093e-05
-0.0007754569600394857   -0.0027669988559471427   5.565372200066107e-05
0.0006579925894884887   -0.0027758112618743707   0.00010082471550701157
0.0006971377667759054   -0.002802497824590538   7.252496059397964e-05
0.0010111365976544187   -0.005559763214802742   6.339556514745093e-05
-0.0007754569600394857   -0.0027669988559471427   5.565372200066107e-05
0.0006971377667759054   -0.002802497824590538   7.252496059397964e-05
-0.0005286892892793614   -0.0055708082744677975   -1.8354192733136594e-06
0.0010111365976544187   -0.005559763214802742   6.339556514745093e-05
0.0006579925894884887   -0.0027758112618743707   0.00010082471550701157
-0.0005537142081794371   -0.0055441030333568085   1.1143431469848107e-05
0.0009655316413689479   -0.005522060861308599   8.466577606919322e-05
0.0006579925894884887   -0.0027758112618743707   0.00010082471550701157
-0.0007754569600394857   -0.0027669988559471427   5.565372200066107e-05
-0.0005537142081794371   -0.0055441030333568085   1.1143431469848107e-05
-0.0007997978519440889   -0.0027429565929938497   7.246123568152448e-05
0.0009655316413689479   -0.005522060861308599   8.466577606919322e-05
-0.0005797351095892284   -0.005515883151921544   2.6151192163832194e-05
-0.0007997978519440889   -0.0027429565929938497   7.246123568152448e-05
-0.0005537142081794371   -0.0055441030333568085   1.1143431469848107e-05
0.0009655316413689479   -0.005522060861308599   8.466577606919322e-05
-0.0007997978519440889   -0.0027429565929938497   7.246123568152448e-05
0.0006074750038484011   -0.002734296222582121   0.0001333564538790224
0.0006579925894884887   -0.0027758112618743707   0.00010082471550701157
0.0009655316413689479   -0.005522060861308599   8.466577606919322e-05
-0.0007997978519440889   -0.0027429565929938497   7.246123568152448e-05
0.0006579925894884887   -0.0027758112618743707   0.00010082471550701157
-0.0005537142081794371   -0.0055441030333568085   1.1143431469848107e-05
-0.0005073954934752153   -0.005596253350364935   -1.2776515673826243e-05
-0.0007252955351509677   -0.002801418749410331   2.0891321273409362e-05
-0.0020013496931765877   -0.005589672539530573   -5.465703016088627e-05
-0.0005286892892793614   -0.0055708082744677975   -1.8354192733136594e-06
-0.0007252955351509677   -0.002801418749410331   2.0891321273409362e-05
-0.0021369524634384986   -0.002844340434340601   -1.131927593364141e-05
-0.0020013496931765877   -0.005589672539530573   -5.465703016088627e-05
-0.002157148854657673   -0.0028251588429006984   -6.755141220330966e-08
-0.0005286892892793614   -0.0055708082744677975   -1.8354192733136594e-06
-0.0020208245956977963   -0.0055677964418103095   -4.4189371704873105e-05
-0.002157148854657673   -0.0028251588429006984   -6.755141220330966e-08
-0.0020013496931765877   -0.005589672539530573   -5.465703016088627e-05
-0.0005286892892793614   -0.0055708082744677975   -1.8354192733136594e-06
-0.002157148854657673   -0.0028251588429006984   -6.755141220330966e-08
-0.0007467599198500258   -0.0027896347797659337   3.65270773697033e-05
-0.0007252955351509677   -0.002801418749410331   2.0891321273409362e-05
-0.0005286892892793614   -0.0055708082744677975   -1.8354192733136594e-06
-0.002157148854657673   -0.0028251588429006984   -6.755141220330966e-08
-0.0007252955351509677   -0.002801418749410331   2.0891321273409362e-05
-0.0020013496931765877   -0.005589672539530573   -5.465703016088627e-05
-0.0005286892892793614   -0.0055708082744677975   -1.8354192733136594e-06
-0.0007467599198500258   -0.0027896347797659337   3.65270773697033e-05
-0.0020208245956977963   -0.0055677964418103095   -4.4189371704873105e-05
-0.0005537142081794371   -0.0055441030333568085   1.1143431469848107e-05
-0.0007467599198500258   -0.0027896347797659337   3.65270773697033e-05
-0.002157148854657673   -0.0028251588429006984   -6.755141220330966e-08
-0.0020208245956977963   -0.0055677964418103095   -4.4189371704873105e-05
-0.002178523438476686   -0.0028032015194881083   1.195825404196087e-05
-0.0005537142081794371   -0.0055441030333568085   1.1143431469848107e-05
-0.0020410270046600284   -0.005545099452082312   -3.262822138863784e-05
-0.002178523438476686   -0.0028032015194881083   1.195825404196087e-05
-0.0020208245956977963   -0.0055677964418103095   -4.4189371704873105e-05
-0.0005537142081794371   -0.0055441030333568085   1.1143431469848107e-05
-0.002178523438476686   -0.0028032015194881083   1.195825404196087e-05
-0.0007754569600394857   -0.0027669988559471427   5.565372200066107e-05
-0.0007467599198500258   -0.0027896347797659337   3.65270773697033e-05
-0.0005537142081794371   -0.0055441030333568085   1.1143431469848107e-05
-0.002178523438476686   -0.0028032015194881083   1.195825404196087e-05
-0.0007467599198500258   -0.0027896347797659337   3.65270773697033e-05
-0.0020208245956977963   -0.0055677964418103095   -4.4189371704873105e-05
-0.0005537142081794371   -0.0055441030333568085   1.1143431469848107e-05
-0.0007754569600394857   -0.0027669988559471427   5.565372200066107e-05
-0.0020410270046600284   -0.005545099452082312   -3.262822138863784e-05
-0.0005797351095892284   -0.005515883151921544   2.6151192163832194e-05
-0.0007754569600394857   -0.0027669988559471427   5.565372200066107e-05
-0.002178523438476686   -0.0028032015194881083   1.195825404196087e-05
-0.0020410270046600284   -0.005545099452082312   -3.262822138863784e-05
-0.0021990342786280762   -0.002779132764820895   2.529099068093395e-05
-0.0005797351095892284   -0.005515883151921544   2.6151192163832194e-05
-0.0020621161354897576   -0.005522066620327948   -1.9767636008073876e-05
-0.0021990342786280762   -0.002779132764820895   2.529099068093395e-05
-0.0020410270046600284   -0.005545099452082312   -3.262822138863784e-05
-0.0005797351095892284   -0.005515883151921544   2.6151192163832194e-05
-0.0021990342786280762   -0.002779132764820895   2.529099068093395e-05
-0.0007997978519440889   -0.0027429565929938497   7.246123568152448e-05
-0.0007754569600394857   -0.0027669988559471427   5.565372200066107e-05
-0.0005797351095892284   -0.005515883151921544   2.6151192163832194e-05
-0.0021990342786280762   -0.002779132764820895   2.529099068093395e-05
-0.0007754569600394857   -0.0027669988559471427   5.565372200066107e-05
-0.0020410270046600284   -0.005545099452082312   -3.262822138863784e-05
-0.0020013496931765877   -0.005589672539530573   -5.465703016088627e-05
-0.0021369524634384986   -0.002844340434340601   -1.131927593364141e-05
-0.003478516157001353   -0.005587773579227799   -9.224141834696087e-05
-0.0020208245956977963   -0.0055677964418103095   -4.4189371704873105e-05
-0.0021369524634384986   -0.002844340434340601   -1.131927593364141e-05
-0.0035805669627808597   -0.0028779122440612064   -4.777140326612293e-05
-0.003478516157001353   -0.005587773579227799   -9.224141834696087e-05
-0.003598895978648586   -0.0028581320354587885   -3.8907112387363066e-05
-0.0020208245956977963   -0.0055677964418103095   -4.4189371704873105e-05
-0.003497245485478627   -0.005568831582813789   -8.200928996633197e-05
-0.003598895978648586   -0.0028581320354587885   -3.8907112387363066e-05
-0.003478516157001353   -0.005587773579227799   -9.224141834696087e-05
-0.0020208245956977963   -0.0055677964418103095   -4.4189371704873105e-05
-0.003598895978648586   -0.0028581320354587885   -3.8907112387363066e-05
-0.002157148854657673   -0.0028251588429006984   -6.755141220330966e-08
-0.0021369524634384986   -0.002844340434340601   -1.131927593364141e-05
-0.0020208245956977963   -0.0055677964418103095   -4.4189371704873105e-05
-0.003598895978648586   -0.0028581320354587885   -3.8907112387363066e-05
-0.0021369524634384986   -0.002844340434340601   -1.131927593364141e-05
-0.003478516157001353   -0.005587773579227799   -9.224141834696087e-05
-0.0020208245956977963   -0.0055677964418103095   -4.4189371704873105e-05
-0.002157148854657673   -0.0028251588429006984   -6.755141220330966e-08
-0.003497245485478627   -0.005568831582813789   -8.200928996633197e-05
-0.0020410270046600284   -0.005545099452082312   -3.262822138863784e-05
-0.002157148854657673   -0.0028251588429006984   -6.755141220330966e-08
-0.003598895978648586   -0.0028581320354587885   -3.8907112387363066e-05
-0.003497245485478627   -0.005568831582813789   -8.200928996633197e-05
-0.0036165732005260702   -0.0028371081872865436   -2.9987223973741422e-05
-0.0020410270046600284   -0.005545099452082312   -3.262822138863784e-05
-0.0035150937126986726   -0.005549641997568129   -7.081171952454003e-05
-0.0036165732005260702   -0.0028371081872865436   -2.9987223973741422e-05
-0.003497245485478627   -0.005568831582813789   -8.200928996633197e-05
-0.0020410270046600284   -0.005545099452082312   -3.262822138863784e-05
-0.0036165732005260702   -0.0028371081872865436   -2.9987223973741422e-05
-0.002178523438476686   -0.0028032015194881083   1.195825404196087e-05
-0.002157148854657673   -0.0028251588429006984   -6.755141220330966e-08
-0.0020410270046600284   -0.005545099452082312   -3.262822138863784e-05
-0.0036165732005260702   -0.0028371081872865436   -2.9987223973741422e-05
-0.002157148854657673   -0.0028251588429006984   -6.755141220330966e-08
-0.003497245485478627   -0.005568831582813789   -8.200928996633197e-05
-0.0020410270046600284   -0.005545099452082312   -3.262822138863784e-05
-0.002178523438476686   -0.0028032015194881083   1.195825404196087e-05
-0.0035150937126986726   -0.005549641997568129   -7.081171952454003e-05
-0.0020621161354897576   -0.005522066620327948   -1.9767636008073876e-05
-0.002178523438476686   -0.0028032015194881083   1.195825404196087e-05
-0.0036165732005260702   -0.0028371081872865436   -2.9987223973741422e-05
-0.0035150937126986726   -0.005549641997568129   -7.081171952454003e-05
-0.0036329763842256717   -0.002814241946702038   -2.01867067489147e-05
-0.0020621161354897576   -0.005522066620327948   -1.9767636008073876e-05
-0.0035327685696130953   -0.005530080563480644   -5.869477021345397e-05
-0.0036329763842256717   -0.002814241946702038   -2.01867067489147e-05
-0.0035150937126986726   -0.005549641997568129   -7.081171952454003e-05
-0.0020621161354897576   -0.005522066620327948   -1.9767636008073876e-05
-0.0036329763842256717   -0.002814241946702038   -2.01867067489147e-05
-0.0021990342786280762   -0.002779132764820895   2.529099068093395e-05
-0.002178523438476686   -0.0028032015194881083   1.195825404196087e-05
-0.0020621161354897576   -0.005522066620327948   -1.9767636008073876e-05
-0.0036329763842256717   -0.002814241946702038   -2.01867067489147e-05
-0.002178523438476686   -0.0028032015194881083   1.195825404196087e-05
-0.0035150937126986726   -0.005549641997568129   -7.081171952454003e-05
-0.003478516157001353   -0.005587773579227799   -9.224141834696087e-05
-0.0035805669627808597   -0.0028779122440612064   -4.777140326612293e-05
-0.004987192971898186   -0.005578847396118614   -0.0001232713671681001
-0.003497245485478627   -0.005568831582813789   -8.200928996633197e-05
-0.0035805669627808597   -0.0028779122440612064   -4.777140326612293e-05
-0.005074968450860142   -0.002891826451612398   -8.124563209802555e-05
-0.004987192971898186   -0.005578847396118614   -0.0001232713671681001
-0.005091523019074017   -0.002874290243682639   -7.466349649108532e-05
-0.003497245485478627   -0.005568831582813789   -8.200928996633197e-05
-0.005005044050534543   -0.005563798540758557   -0.00011335759022487064
-0.005091523019074017   -0.002874290243682639   -7.466349649108532e-05
-0.004987192971898186   -0.005578847396118614   -0.0001232713671681001
-0.003497245485478627   -0.005568831582813789   -8.200928996633197e-05
-0.005091523019074017   -0.002874290243682639   -7.466349649108532e-05
-0.003598895978648586   -0.0028581320354587885   -3.8907112387363066e-05
-0.0035805669627808597   -0.0028779122440612064   -4.777140326612293e-05
-0.003497245485478627   -0.005568831582813789   -8.200928996633197e-05
-0.005091523019074017   -0.002874290243682639   -7.466349649108532e-05
-0.0035805669627808597   -0.0028779122440612064   -4.777140326612293e-05
-0.004987192971898186   -0.005578847396118614   -0.0001232713671681001
-0.003497245485478627   -0.005568831582813789   -8.200928996633197e-05
-0.003598895978648586   -0.0028581320354587885   -3.8907112387363066e-05
-0.005005044050534543   -0.005563798540758557   -0.00011335759022487064
-0.0035150937126986726   -0.005549641997568129   -7.081171952454003e-05
-0.003598895978648586   -0.0028581320354587885   -3.8907112387363066e-05
-0.005091523019074017   -0.002874290243682639   -7.466349649108532e-05
-0.005005044050534543   -0.005563798540758557   -0.00011335759022487064
-0.005106283317768956   -0.002855010205993549   -6.819145114438773e-05
-0.0035150937126986726   -0.005549641997568129   -7.081171952454003e-05
-0.005020046646924021   -0.005547957966349025   -0.00010273117494885072
-0.005106283317768956   -0.002855010205993549   -6.819145114438773e-05
-0.005005044050534543   -0.005563798540758557   -0.00011335759022487064
-0.0035150937126986726   -0.005549641997568129   -7.081171952454003e-05
-0.005106283317768956   -0.002855010205993549   -6.819145114438773e-05
-0.0036165732005260702   -0.0028371081872865436   -2.9987223973741422e-05
-0.003598895978648586   -0.0028581320354587885   -3.8907112387363066e-05
-0.0035150937126986726   -0.005549641997568129   -7.081171952454003e-05
-0.005106283317768956   -0.002855010205993549   -6.819145114438773e-05
-0.003598895978648586   -0.0028581320354587885   -3.8907112387363066e-05
-0.005005044050534543   -0.005563798540758557   -0.00011335759022487064
-0.0035150937126986726   -0.005549641997568129   -7.081171952454003e-05
-0.0036165732005260702   -0.0028371081872865436   -2.9987223973741422e-05
-0.005020046646924021   -0.005547957966349025   -0.00010273117494885072
-0.0035327685696130953   -0.005530080563480644   -5.869477021345397e-05
-0.0036165732005260702   -0.0028371081872865436   -2.9987223973741422e-05
-0.005106283317768956   -0.002855010205993549   -6.819145114438773e-05
-0.005020046646924021   -0.005547957966349025   -0.00010273117494885072
-0.0051196819659475945   -0.0028343984528803393   -6.143659618988294e-05
-0.0035327685696130953   -0.005530080563480644   -5.869477021345397e-05
-0.005034219282742228   -0.005531782633333159   -9.110750711887702e-05
-0.0051196819659475945   -0.0028343984528803393   -6.143659618988294e-05
-0.005020046646924021   -0.005547957966349025   -0.00010273117494885072
-0.0035327685696130953   -0.005530080563480644   -5.869477021345397e-05
-0.0051196819659475945   -0.0028343984528803393   -6.143659618988294e-05
-0.0036329763842256717   -0.002814241946702038   -2.01867067489147e-05
-0.0036165732005260702   -0.0028371081872865436   -2.9987223973741422e-05
-0.0035327685696130953   -0.005530080563480644   -5.869477021345397e-05
-0.0051196819659475945   -0.0028343984528803393   -6.143659618988294e-05
-0.0036165732005260702   -0.0028371081872865436   -2.9987223973741422e-05
-0.005020046646924021   -0.005547957966349025   -0.00010273117494885072
-0.004987192971898186   -0.005578847396118614   -0.0001232713671681001
-0.005074968450860142   -0.002891826451612398   -8.124563209802555e-05
-0.006570168073921938   -0.005563789256521415   -0.0001453546130064896
-0.005005044050534543   -0.005563798540758557   -0.00011335759022487064
-0.005074968450860142   -0.002891826451612398   -8.124563209802555e-05
-0.006625096864263961   -0.0028931590896318325   -0.00010843595082238697
-0.006570168073921938   -0.005563789256521415   -0.0001453546130064896
-0.006639119898396291   -0.002876242222217777   -0.00010537779070212574
-0.005005044050534543   -0.005563798540758557   -0.00011335759022487064
-0.006580608890008663   -0.0055515394077199935   -0.0001375260852952056
-0.006639119898396291   -0.002876242222217777   -0.00010537779070212574
-0.006570168073921938   -0.005563789256521415   -0.0001453546130064896
-0.005005044050534543   -0.005563798540758557   -0.00011335759022487064
-0.006639119898396291   -0.002876242222217777   -0.00010537779070212574
-0.005091523019074017   -0.002874290243682639   -7.466349649108532e-05
-0.005074968450860142   -0.002891826451612398   -8.124563209802555e-05
-0.005005044050534543   -0.005563798540758557   -0.00011335759022487064
-0.006639119898396291   -0.002876242222217777   -0.00010537779070212574
-0.005074968450860142   -0.002891826451612398   -8.124563209802555e-05
-0.006570168073921938   -0.005563789256521415   -0.0001453546130064896
-0.005005044050534543   -0.005563798540758557   -0.00011335759022487064
-0.005091523019074017   -0.002874290243682639   -7.466349649108532e-05
-0.006580608890008663   -0.0055515394077199935   -0.0001375260852952056
-0.005020046646924021   -0.005547957966349025   -0.00010273117494885072
-0.005091523019074017   -0.002874290243682639   -7.466349649108532e-05
-0.006639119898396291   -0.002876242222217777   -0.00010537779070212574
-0.006580608890008663   -0.0055515394077199935   -0.0001375260852952056
-0.006651683560764866   -0.0028577694008512762   -0.00010175804039997702
-0.005020046646924021   -0.005547957966349025   -0.00010273117494885072
-0.006590156249948373   -0.005537518003742127   -0.00012800450000292494
-0.006651683560764866   -0.0028577694008512762   -0.00010175804039997702
-0.006580608890008663   -0.0055515394077199935   -0.0001375260852952056
-0.005020046646924021   -0.005547957966349025   -0.00010273117494885072
-0.006651683560764866   -0.0028577694008512762   -0.00010175804039997702
-0.005106283317768956   -0.002855010205993549   -6.819145114438773e-05
-0.005091523019074017   -0.002874290243682639   -7.466349649108532e-05
-0.005020046646924021   -0.005547957966349025   -0.00010273117494885072
-0.006651683560764866   -0.0028577694008512762   -0.00010175804039997702
-0.005091523019074017   -0.002874290243682639   -7.466349649108532e-05
-0.006580608890008663   -0.0055515394077199935   -0.0001375260852952056
-0.005020046646924021   -0.005547957966349025   -0.00010273117494885072
-0.005106283317768956   -0.002855010205993549   -6.819145114438773e-05
-0.006590156249948373   -0.005537518003742127   -0.00012800450000292494
-0.005034219282742228   -0.005531782633333159   -9.110750711887702e-05
-0.005106283317768956   -0.002855010205993549   -6.819145114438773e-05
-0.006651683560764866   -0.0028577694008512762   -0.00010175804039997702
-0.006590156249948373   -0.005537518003742127   -0.00012800450000292494
-0.006661990105621599   -0.002838243073225087   -9.82436438785525e-05
-0.005034219282742228   -0.005531782633333159   -9.110750711887702e-05
-0.006594049722412658   -0.005525129432487557   -0.00011718233661412169
-0.006661990105621599   -0.002838243073225087   -9.82436438785525e-05
-0.006590156249948373   -0.005537518003742127   -0.00012800450000292494
-0.005034219282742228   -0.005531782633333159   -9.110750711887702e-05
-0.006661990105621599   -0.002838243073225087   -9.82436438785525e-05
-0.0051196819659475945   -0.0028343984528803393   -6.143659618988294e-05
-0.005106283317768956   -0.002855010205993549   -6.819145114438773e-05
-0.005034219282742228   -0.005531782633333159   -9.110750711887702e-05
-0.006661990105621599   -0.002838243073225087   -9.82436438785525e-05
-0.005106283317768956   -0.002855010205993549   -6.819145114438773e-05
-0.006590156249948373   -0.005537518003742127   -0.00012800450000292494
0.0007643583846280123   -0.0028360766264913305   3.4239234441894516e-05
0.0   0.0   0.0
-0.0007252955351509677   -0.002801418749410331   2.0891321273409362e-05
0.0006971377667759054   -0.002802497824590538   7.252496059397964e-05
0.0   0.0   0.0
-0.0009020193253438377   -0.00024306007799531452   -4.200908787902715e-06
-0.0007252955351509677   -0.002801418749410331   2.0891321273409362e-05
-0.0009562195891641713   -0.0001917814786277894   2.8330741195667032e-05
0.0006971377667759054   -0.002802497824590538   7.252496059397964e-05
-0.0007467599198500258   -0.0027896347797659337   3.65270773697033e-05
-0.0009562195891641713   -0.0001917814786277894   2.8330741195667032e-05
-0.0007252955351509677   -0.002801418749410331   2.0891321273409362e-05
0.0006971377667759054   -0.002802497824590538   7.252496059397964e-05
-0.0009562195891641713   -0.0001917814786277894   2.8330741195667032e-05
0.0   0.0   0.0
0.0   0.0   0.0
0.0006971377667759054   -0.002802497824590538   7.252496059397964e-05
-0.0009562195891641713   -0.0001917814786277894   2.8330741195667032e-05
0.0   0.0   0.0
-0.0007252955351509677   -0.002801418749410331   2.0891321273409362e-05
0.0006971377667759054   -0.002802497824590538   7.252496059397964e-05
0.0   0.0   0.0
-0.0007467599198500258   -0.0027896347797659337   3.65270773697033e-05
0.0006579925894884887   -0.0027758112618743707   0.00010082471550701157
0.0   0.0   0.0
-0.0009562195891641713   -0.0001917814786277894   2.8330741195667032e-05
-0.0007467599198500258   -0.0027896347797659337   3.65270773697033e-05
-0.0009906681504083669   -0.00016745455501987952   4.7590378908587656e-05
0.0006579925894884887   -0.0027758112618743707   0.00010082471550701157
-0.0007754569600394857   -0.0027669988559471427   5.565372200066107e-05
-0.0009906681504083669   -0.00016745455501987952   4.7590378908587656e-05
-0.0007467599198500258   -0.0027896347797659337   3.65270773697033e-05
0.0006579925894884887   -0.0027758112618743707   0.00010082471550701157
-0.0009906681504083669   -0.00016745455501987952   4.7590378908587656e-05
0.0   0.0   0.0
0.0   0.0   0.0
0.0006579925894884887   -0.0027758112618743707   0.00010082471550701157
-0.0009906681504083669   -0.00016745455501987952   4.7590378908587656e-05
0.0   0.0   0.0
-0.0007467599198500258   -0.0027896347797659337   3.65270773697033e-05
0.0006579925894884887   -0.0027758112618743707   0.00010082471550701157
0.0   0.0   0.0
-0.0007754569600394857   -0.0027669988559471427   5.565372200066107e-05
0.0006074750038484011   -0.002734296222582121   0.0001333564538790224
0.0   0.0   0.0
-0.0009906681504083669   -0.00016745455501987952   4.7590378908587656e-05
-0.0007754569600394857   -0.0027669988559471427   5.565372200066107e-05
-0.0010376094391236215   -0.00013490361174720714   6.97893458597785e-05
0.0006074750038484011   -0.002734296222582121   0.0001333564538790224
-0.0007997978519440889   -0.0027429565929938497   7.246123568152448e-05
-0.0010376094391236215   -0.00013490361174720714   6.97893458597785e-05
-0.0007754569600394857   -0.0027669988559471427   5.565372200066107e-05
0.0006074750038484011   -0.002734296222582121   0.0001333564538790224
-0.0010376094391236215   -0.00013490361174720714   6.97893458597785e-05
0.0   0.0   0.0
0.0   0.0   0.0
0.0006074750038484011   -0.002734296222582121   0.0001333564538790224
-0.0010376094391236215   -0.00013490361174720714   6.97893458597785e-05
0.0   0.0   0.0
-0.0007754569600394857   -0.0027669988559471427   5.565372200066107e-05
-0.0007252955351509677   -0.002801418749410331   2.0891321273409362e-05
-0.0009020193253438377   -0.00024306007799531452   -4.200908787902715e-06
-0.0021369524634384986   -0.002844340434340601   -1.131927593364141e-05
-0.0007467599198500258   -0.0027896347797659337   3.65270773697033e-05
-0.0009020193253438377   -0.00024306007799531452   -4.200908787902715e-06
-0.0021976441949450704   -0.0003236448019746695   9.889555734134432e-07
-0.0021369524634384986   -0.002844340434340601   -1.131927593364141e-05
-0.002226141821648347   -0.00029643462319769624   9.983553482105497e-06
-0.0007467599198500258   -0.0027896347797659337   3.65270773697033e-05
-0.002157148854657673   -0.0028251588429006984   -6.755141220330966e-08
-0.002226141821648347   -0.00029643462319769624   9.983553482105497e-06
-0.0021369524634384986   -0.002844340434340601   -1.131927593364141e-05
-0.0007467599198500258   -0.0027896347797659337   3.65270773697033e-05
-0.002226141821648347   -0.00029643462319769624   9.983553482105497e-06
-0.0009562195891641713   -0.0001917814786277894   2.8330741195667032e-05
-0.0009020193253438377   -0.00024306007799531452   -4.200908787902715e-06
-0.0007467599198500258   -0.0027896347797659337   3.65270773697033e-05
-0.002226141821648347   -0.00029643462319769624   9.983553482105497e-06
-0.0009020193253438377   -0.00024306007799531452   -4.200908787902715e-06
-0.0021369524634384986   -0.002844340434340601   -1.131927593364141e-05
-0.0007467599198500258   -0.0027896347797659337   3.65270773697033e-05
-0.0009562195891641713   -0.0001917814786277894   2.8330741195667032e-05
-0.002157148854657673   -0.0028251588429006984   -6.755141220330966e-08
-0.0007754569600394857   -0.0027669988559471427   5.565372200066107e-05
-0.0009562195891641713   -0.0001917814786277894   2.8330741195667032e-05
-0.002226141821648347   -0.00029643462319769624   9.983553482105497e-06
-0.002157148854657673   -0.0028251588429006984   -6.755141220330966e-08
-0.002254720190876192   -0.0002643805511641621   2.5598206070714e-05
-0.0007754569600394857   -0.0027669988559471427   5.565372200066107e-05
-0.002178523438476686   -0.0028032015194881083   1.195825404196087e-05
-0.002254720190876192   -0.0002643805511641621   2.5598206070714e-05
-0.002157148854657673   -0.0028251588429006984   -6.755141220330966e-08
-0.0007754569600394857   -0.0027669988559471427   5.565372200066107e-05
-0.002254720190876192   -0.0002643805511641621   2.5598206070714e-05
-0.0009906681504083669   -0.00016745455501987952   4.7590378908587656e-05
-0.0009562195891641713   -0.0001917814786277894   2.8330741195667032e-05
-0.0007754569600394857   -0.0027669988559471427   5.565372200066107e-05
-0.002254720190876192   -0.0002643805511641621   2.5598206070714e-05
-0.0009562195891641713   -0.0001917814786277894   2.8330741195667032e-05
-0.002157148854657673   -0.0028251588429006984   -6.755141220330966e-08
-0.0007754569600394857   -0.0027669988559471427   5.565372200066107e-05
-0.0009906681504083669   -0.00016745455501987952   4.7590378908587656e-05
-0.002178523438476686   -0.0028032015194881083   1.195825404196087e-05
-0.0007997978519440889   -0.0027429565929938497   7.246123568152448e-05
-0.0009906681504083669   -0.00016745455501987952   4.7590378908587656e-05
-0.002254720190876192   -0.0002643805511641621   2.5598206070714e-05
-0.002178523438476686   -0.0028032015194881083   1.195825404196087e-05
-0.0022871489696007024   -0.00022682709132358794   4.085956097542789e-05
-0.0007997978519440889   -0.0027429565929938497   7.246123568152448e-05
-0.0021990342786280762   -0.002779132764820895   2.529099068093395e-05
-0.0022871489696007024   -0.00022682709132358794   4.085956097542789e-05
-0.002178523438476686   -0.0028032015194881083   1.195825404196087e-05
-0.0007997978519440889   -0.0027429565929938497   7.246123568152448e-05
-0.0022871489696007024   -0.00022682709132358794   4.085956097542789e-05
-0.0010376094391236215   -0.00013490361174720714   6.97893458597785e-05
-0.0009906681504083669   -0.00016745455501987952   4.7590378908587656e-05
-0.0007997978519440889   -0.0027429565929938497   7.246123568152448e-05
-0.0022871489696007024   -0.00022682709132358794   4.085956097542789e-05
-0.0009906681504083669   -0.00016745455501987952   4.7590378908587656e-05
-0.002178523438476686   -0.0028032015194881083   1.195825404196087e-05
-0.0021369524634384986   -0.002844340434340601   -1.131927593364141e-05
-0.0021976441949450704   -0.0003236448019746695   9.889555734134432e-07
-0.0035805669627808597   -0.0028779122440612064   -4.777140326612293e-05
-0.002157148854657673   -0.0028251588429006984   -6.755141220330966e-08
-0.0021976441949450704   -0.0003236448019746695   9.889555734134432e-07
-0.003614965722825411   -0.0003491200104359652   -2.025580499507927e-05
-0.0035805669627808597   -0.0028779122440612064   -4.777140326612293e-05
-0.003632580516834167   -0.000328808101996593   -1.7467792004949638e-05
-0.002157148854657673   -0.0028251588429006984   -6.755141220330966e-08
-0.003598895978648586   -0.0028581320354587885   -3.8907112387363066e-05
-0.003632580516834167   -0.000328808101996593   -1.7467792004949638e-05
-0.0035805669627808597   -0.0028779122440612064   -4.777140326612293e-05
-0.002157148854657673   -0.0028251588429006984   -6.755141220330966e-08
-0.003632580516834167   -0.000328808101996593   -1.7467792004949638e-05
-0.002226141821648347   -0.00029643462319769624   9.983553482105497e-06
-0.0021976441949450704   -0.0003236448019746695   9.889555734134432e-07
-0.002157148854657673   -0.0028251588429006984   -6.755141220330966e-08
-0.003632580516834167   -0.000328808101996593   -1.7467792004949638e-05
-0.0021976441949450704   -0.0003236448019746695   9.889555734134432e-07
-0.0035805669627808597   -0.0028779122440612064   -4.777140326612293e-05
-0.002157148854657673   -0.0028251588429006984   -6.755141220330966e-08
-0.002226141821648347   -0.00029643462319769624   9.983553482105497e-06
-0.003598895978648586   -0.0028581320354587885   -3.8907112387363066e-05
-0.002178523438476686   -0.0028032015194881083   1.195825404196087e-05
-0.002226141821648347   -0.00029643462319769624   9.983553482105497e-06
-0.003632580516834167   -0.000328808101996593   -1.7467792004949638e-05
-0.003598895978648586   -0.0028581320354587885   -3.8907112387363066e-05
-0.0036509546813066136   -0.00030478183985958206   -1.2744989433403294e-05
-0.002178523438476686   -0.0028032015194881083   1.195825404196087e-05
-0.0036165732005260702   -0.0028371081872865436   -2.9987223973741422e-05
-0.0036509546813066136   -0.00030478183985958206   -1.2744989433403294e-05
-0.003598895978648586   -0.0028581320354587885   -3.8907112387363066e-05
-0.002178523438476686   -0.0028032015194881083   1.195825404196087e-05
-0.0036509546813066136   -0.00030478183985958206   -1.2744989433403294e-05
-0.002254720190876192   -0.0002643805511641621   2.5598206070714e-05
-0.002226141821648347   -0.00029643462319769624   9.983553482105497e-06
-0.002178523438476686   -0.0028032015194881083   1.195825404196087e-05
-0.0036509546813066136   -0.00030478183985958206   -1.2744989433403294e-05
-0.002226141821648347   -0.00029643462319769624   9.983553482105497e-06
-0.003598895978648586   -0.0028581320354587885   -3.8907112387363066e-05
-0.002178523438476686   -0.0028032015194881083   1.195825404196087e-05
-0.002254720190876192   -0.0002643805511641621   2.5598206070714e-05
-0.0036165732005260702   -0.0028371081872865436   -2.9987223973741422e-05
-0.0021990342786280762   -0.002779132764820895   2.529099068093395e-05
-0.002254720190876192   -0.0002643805511641621   2.5598206070714e-05
-0.0036509546813066136   -0.00030478183985958206   -1.2744989433403294e-05
-0.0036165732005260702   -0.0028371081872865436   -2.9987223973741422e-05
-0.0036690362414651236   -0.0002747998559579166   -6.494033255026837e-06
-0.0021990342786280762   -0.002779132764820895   2.529099068093395e-05
-0.0036329763842256717   -0.002814241946702038   -2.01867067489147e-05
-0.0036690362414651236   -0.0002747998559579166   -6.494033255026837e-06
-0.0036165732005260702   -0.0028371081872865436   -2.9987223973741422e-05
-0.0021990342786280762   -0.002779132764820895   2.529099068093395e-05
-0.0036690362414651236   -0.0002747998559579166   -6.494033255026837e-06
-0.0022871489696007024   -0.00022682709132358794   4.085956097542789e-05
-0.002254720190876192   -0.0002643805511641621   2.5598206070714e-05
-0.0021990342786280762   -0.002779132764820895   2.529099068093395e-05
-0.0036690362414651236   -0.0002747998559579166   -6.494033255026837e-06
-0.002254720190876192   -0.0002643805511641621   2.5598206070714e-05
-0.0036165732005260702   -0.0028371081872865436   -2.9987223973741422e-05
-0.0035805669627808597   -0.0028779122440612064   -4.777140326612293e-05
-0.003614965722825411   -0.0003491200104359652   -2.025580499507927e-05
-0.005074968450860142   -0.002891826451612398   -8.124563209802555e-05
-0.003598895978648586   -0.0028581320354587885   -3.8907112387363066e-05
-0.003614965722825411   -0.0003491200104359652   -2.025580499507927e-05
-0.005101728921168287   -0.00034811773897004537   -5.313948761297041e-05
-0.005074968450860142   -0.002891826451612398   -8.124563209802555e-05
-0.00511371032926063   -0.00033054198526301544   -5.190104961972575e-05
-0.003598895978648586   -0.0028581320354587885   -3.8907112387363066e-05
-0.005091523019074017   -0.002874290243682639   -7.466349649108532e-05
-0.00511371032926063   -0.00033054198526301544   -5.190104961972575e-05
-0.005074968450860142   -0.002891826451612398   -8.124563209802555e-05
-0.003598895978648586   -0.0028581320354587885   -3.8907112387363066e-05
-0.00511371032926063   -0.00033054198526301544   -5.190104961972575e-05
-0.003632580516834167   -0.000328808101996593   -1.7467792004949638e-05
-0.003614965722825411   -0.0003491200104359652   -2.025580499507927e-05
-0.003598895978648586   -0.0028581320354587885   -3.8907112387363066e-05
-0.00511371032926063   -0.00033054198526301544   -5.190104961972575e-05
-0.003614965722825411   -0.0003491200104359652   -2.025580499507927e-05
-0.005074968450860142   -0.002891826451612398   -8.124563209802555e-05
-0.003598895978648586   -0.0028581320354587885   -3.8907112387363066e-05
-0.003632580516834167   -0.000328808101996593   -1.7467792004949638e-05
-0.005091523019074017   -0.002874290243682639   -7.466349649108532e-05
-0.0036165732005260702   -0.0028371081872865436   -2.9987223973741422e-05
-0.003632580516834167   -0.000328808101996593   -1.7467792004949638e-05
-0.00511371032926063   -0.00033054198526301544   -5.190104961972575e-05
-0.005091523019074017   -0.002874290243682639   -7.466349649108532e-05
-0.005126190658380913   -0.00031054431052092034   -5.0789318768911276e-05
-0.0036165732005260702   -0.0028371081872865436   -2.9987223973741422e-05
-0.005106283317768956   -0.002855010205993549   -6.819145114438773e-05
-0.005126190658380913   -0.00031054431052092034   -5.0789318768911276e-05
-0.005091523019074017   -0.002874290243682639   -7.466349649108532e-05
-0.0036165732005260702   -0.0028371081872865436   -2.9987223973741422e-05
-0.005126190658380913   -0.00031054431052092034   -5.0789318768911276e-05
-0.0036509546813066136   -0.00030478183985958206   -1.2744989433403294e-05
-0.003632580516834167   -0.000328808101996593   -1.7467792004949638e-05
-0.0036165732005260702   -0.0028371081872865436   -2.9987223973741422e-05
-0.005126190658380913   -0.00031054431052092034   -5.0789318768911276e-05
-0.003632580516834167   -0.000328808101996593   -1.7467792004949638e-05
-0.005091523019074017   -0.002874290243682639   -7.466349649108532e-05
-0.0036165732005260702   -0.0028371081872865436   -2.9987223973741422e-05
-0.0036509546813066136   -0.00030478183985958206   -1.2744989433403294e-05
-0.005106283317768956   -0.002855010205993549   -6.819145114438773e-05
-0.0036329763842256717   -0.002814241946702038   -2.01867067489147e-05
-0.0036509546813066136   -0.00030478183985958206   -1.2744989433403294e-05
-0.005126190658380913   -0.00031054431052092034   -5.0789318768911276e-05
-0.005106283317768956   -0.002855010205993549   -6.819145114438773e-05
-0.005136125204749239   -0.0002884497317770366   -4.9833750837218194e-05
-0.0036329763842256717   -0.002814241946702038   -2.01867067489147e-05
-0.0051196819659475945   -0.0028343984528803393   -6.143659618988294e-05
-0.005136125204749239   -0.0002884497317770366   -4.9833750837218194e-05
-0.005106283317768956   -0.002855010205993549   -6.819145114438773e-05
-0.0036329763842256717   -0.002814241946702038   -2.01867067489147e-05
-0.005136125204749239   -0.0002884497317770366   -4.9833750837218194e-05
-0.0036690362414651236   -0.0002747998559579166   -6.494033255026837e-06
-0.0036509546813066136   -0.00030478183985958206   -1.2744989433403294e-05
-0.0036329763842256717   -0.002814241946702038   -2.01867067489147e-05
-0.005136125204749239   -0.0002884497317770366   -4.9833750837218194e-05
-0.0036509546813066136   -0.00030478183985958206   -1.2744989433403294e-05
-0.005106283317768956   -0.002855010205993549   -6.819145114438773e-05
-0.005074968450860142   -0.002891826451612398   -8.124563209802555e-05
-0.005101728921168287   -0.00034811773897004537   -5.313948761297041e-05
-0.006625096864263961   -0.0028931590896318325   -0.00010843595082238697
-0.005091523019074017   -0.002874290243682639   -7.466349649108532e-05
-0.005101728921168287   -0.00034811773897004537   -5.313948761297041e-05
-0.006631359902900813   -0.0003461287879677018   -8.572826364078138e-05
-0.006625096864263961   -0.0028931590896318325   -0.00010843595082238697
-0.006640939544431372   -0.00032722357289057154   -8.556715111079094e-05
-0.005091523019074017   -0.002874290243682639   -7.466349649108532e-05
-0.006639119898396291   -0.002876242222217777   -0.00010537779070212574
-0.006640939544431372   -0.00032722357289057154   -8.556715111079094e-05
-0.006625096864263961   -0.0028931590896318325   -0.00010843595082238697
-0.005091523019074017   -0.002874290243682639   -7.466349649108532e-05
-0.006640939544431372   -0.00032722357289057154   -8.556715111079094e-05
-0.00511371032926063   -0.00033054198526301544   -5.190104961972575e-05
-0.005101728921168287   -0.00034811773897004537   -5.313948761297041e-05
-0.005091523019074017   -0.002874290243682639   -7.466349649108532e-05
-0.006640939544431372   -0.00032722357289057154   -8.556715111079094e-05
-0.005101728921168287   -0.00034811773897004537   -5.313948761297041e-05
-0.006625096864263961   -0.0028931590896318325   -0.00010843595082238697
-0.005091523019074017   -0.002874290243682639   -7.466349649108532e-05
-0.00511371032926063   -0.00033054198526301544   -5.190104961972575e-05
-0.006639119898396291   -0.002876242222217777   -0.00010537779070212574
-0.005106283317768956   -0.002855010205993549   -6.819145114438773e-05
-0.00511371032926063   -0.00033054198526301544   -5.190104961972575e-05
-0.006640939544431372   -0.00032722357289057154   -8.556715111079094e-05
-0.006639119898396291   -0.002876242222217777   -0.00010537779070212574
-0.006651415939068574   -0.00030804262011050485   -8.689675085228186e-05
-0.005106283317768956   -0.002855010205993549   -6.819145114438773e-05
-0.006651683560764866   -0.0028577694008512762   -0.00010175804039997702
-0.006651415939068574   -0.00030804262011050485   -8.689675085228186e-05
-0.006639119898396291   -0.002876242222217777   -0.00010537779070212574
-0.005106283317768956   -0.002855010205993549   -6.819145114438773e-05
-0.006651415939068574   -0.00030804262011050485   -8.689675085228186e-05
-0.005126190658380913   -0.00031054431052092034   -5.0789318768911276e-05
-0.00511371032926063   -0.00033054198526301544   -5.190104961972575e-05
-0.005106283317768956   -0.002855010205993549   -6.819145114438773e-05
-0.006651415939068574   -0.00030804262011050485   -8.689675085228186e-05
-0.00511371032926063   -0.00033054198526301544   -5.190104961972575e-05
-0.006639119898396291   -0.002876242222217777   -0.00010537779070212574
-0.005106283317768956   -0.002855010205993549   -6.819145114438773e-05
-0.005126190658380913   -0.00031054431052092034   -5.0789318768911276e-05
-0.006651683560764866   -0.0028577694008512762   -0.00010175804039997702
-0.0051196819659475945   -0.0028343984528803393   -6.143659618988294e-05
-0.005126190658380913   -0.00031054431052092034   -5.0789318768911276e-05
-0.006651415939068574   -0.00030804262011050485   -8.689675085228186e-05
-0.006651683560764866   -0.0028577694008512762   -0.00010175804039997702
-0.0066592835425575755   -0.000286954097491574   -8.82411236614069e-05
-0.0051196819659475945   -0.0028343984528803393   -6.143659618988294e-05
-0.006661990105621599   -0.002838243073225087   -9.82436438785525e-05
-0.0066592835425575755   -0.000286954097491574   -8.82411236614069e-05
-0.006651683560764866   -0.0028577694008512762   -0.00010175804039997702
-0.0051196819659475945   -0.0028343984528803393   -6.143659618988294e-05
-0.0066592835425575755   -0.000286954097491574   -8.82411236614069e-05
-0.005136125204749239   -0.0002884497317770366   -4.9833750837218194e-05
-0.005126190658380913   -0.00031054431052092034   -5.0789318768911276e-05
-0.0051196819659475945   -0.0028343984528803393   -6.143659618988294e-05
-0.0066592835425575755   -0.000286954097491574   -8.82411236614069e-05
-0.005126190658380913   -0.00031054431052092034   -5.0789318768911276e-05
-0.006651683560764866   -0.0028577694008512762   -0.00010175804039997702
              </DataArray>   
          </PointData>  
       </Piece>  
   </UnstructuredGrid> 
</VTKFile> 
