<?xml version="1.0"?> 
<VTKFile type="UnstructuredGrid"> 
   <UnstructuredGrid> 
      <Piece NumberOfPoints="6000"  NumberOfCells="1500">  
          <Points>  
             <DataArray type="Float64" NumberOfComponents="3" format="ascii">   
-500.0   0.0   0.0
-450.0   0.0   0.0
-500.0   30.0   0.0
-500.0   0.0   16.666666666666668
-450.0   0.0   0.0
-450.0   30.0   0.0
-500.0   30.0   0.0
-450.0   30.0   16.666666666666668
-500.0   0.0   16.666666666666668
-500.0   30.0   16.666666666666668
-450.0   30.0   16.666666666666668
-500.0   30.0   0.0
-500.0   0.0   16.666666666666668
-450.0   30.0   16.666666666666668
-450.0   0.0   16.666666666666668
-450.0   0.0   0.0
-500.0   0.0   16.666666666666668
-450.0   30.0   16.666666666666668
-450.0   0.0   0.0
-500.0   30.0   0.0
-500.0   0.0   16.666666666666668
-450.0   0.0   16.666666666666668
-500.0   30.0   16.666666666666668
-500.0   0.0   33.333333333333336
-450.0   0.0   16.666666666666668
-450.0   30.0   16.666666666666668
-500.0   30.0   16.666666666666668
-450.0   30.0   33.333333333333336
-500.0   0.0   33.333333333333336
-500.0   30.0   33.333333333333336
-450.0   30.0   33.333333333333336
-500.0   30.0   16.666666666666668
-500.0   0.0   33.333333333333336
-450.0   30.0   33.333333333333336
-450.0   0.0   33.333333333333336
-450.0   0.0   16.666666666666668
-500.0   0.0   33.333333333333336
-450.0   30.0   33.333333333333336
-450.0   0.0   16.666666666666668
-500.0   30.0   16.666666666666668
-500.0   0.0   33.333333333333336
-450.0   0.0   33.333333333333336
-500.0   30.0   33.333333333333336
-500.0   0.0   50.0
-450.0   0.0   33.333333333333336
-450.0   30.0   33.333333333333336
-500.0   30.0   33.333333333333336
-450.0   30.0   50.0
-500.0   0.0   50.0
-500.0   30.0   50.0
-450.0   30.0   50.0
-500.0   30.0   33.333333333333336
-500.0   0.0   50.0
-450.0   30.0   50.0
-450.0   0.0   50.0
-450.0   0.0   33.333333333333336
-500.0   0.0   50.0
-450.0   30.0   50.0
-450.0   0.0   33.333333333333336
-500.0   30.0   33.333333333333336
-500.0   30.0   0.0
-450.0   30.0   0.0
-500.0   60.0   0.0
-500.0   30.0   16.666666666666668
-450.0   30.0   0.0
-450.0   60.0   0.0
-500.0   60.0   0.0
-450.0   60.0   16.666666666666668
-500.0   30.0   16.666666666666668
-500.0   60.0   16.666666666666668
-450.0   60.0   16.666666666666668
-500.0   60.0   0.0
-500.0   30.0   16.666666666666668
-450.0   60.0   16.666666666666668
-450.0   30.0   16.666666666666668
-450.0   30.0   0.0
-500.0   30.0   16.666666666666668
-450.0   60.0   16.666666666666668
-450.0   30.0   0.0
-500.0   60.0   0.0
-500.0   30.0   16.666666666666668
-450.0   30.0   16.666666666666668
-500.0   60.0   16.666666666666668
-500.0   30.0   33.333333333333336
-450.0   30.0   16.666666666666668
-450.0   60.0   16.666666666666668
-500.0   60.0   16.666666666666668
-450.0   60.0   33.333333333333336
-500.0   30.0   33.333333333333336
-500.0   60.0   33.333333333333336
-450.0   60.0   33.333333333333336
-500.0   60.0   16.666666666666668
-500.0   30.0   33.333333333333336
-450.0   60.0   33.333333333333336
-450.0   30.0   33.333333333333336
-450.0   30.0   16.666666666666668
-500.0   30.0   33.333333333333336
-450.0   60.0   33.333333333333336
-450.0   30.0   16.666666666666668
-500.0   60.0   16.666666666666668
-500.0   30.0   33.333333333333336
-450.0   30.0   33.333333333333336
-500.0   60.0   33.333333333333336
-500.0   30.0   50.0
-450.0   30.0   33.333333333333336
-450.0   60.0   33.333333333333336
-500.0   60.0   33.333333333333336
-450.0   60.0   50.0
-500.0   30.0   50.0
-500.0   60.0   50.0
-450.0   60.0   50.0
-500.0   60.0   33.333333333333336
-500.0   30.0   50.0
-450.0   60.0   50.0
-450.0   30.0   50.0
-450.0   30.0   33.333333333333336
-500.0   30.0   50.0
-450.0   60.0   50.0
-450.0   30.0   33.333333333333336
-500.0   60.0   33.333333333333336
-500.0   60.0   0.0
-450.0   60.0   0.0
-500.0   90.0   0.0
-500.0   60.0   16.666666666666668
-450.0   60.0   0.0
-450.0   90.0   0.0
-500.0   90.0   0.0
-450.0   90.0   16.666666666666668
-500.0   60.0   16.666666666666668
-500.0   90.0   16.666666666666668
-450.0   90.0   16.666666666666668
-500.0   90.0   0.0
-500.0   60.0   16.666666666666668
-450.0   90.0   16.666666666666668
-450.0   60.0   16.666666666666668
-450.0   60.0   0.0
-500.0   60.0   16.666666666666668
-450.0   90.0   16.666666666666668
-450.0   60.0   0.0
-500.0   90.0   0.0
-500.0   60.0   16.666666666666668
-450.0   60.0   16.666666666666668
-500.0   90.0   16.666666666666668
-500.0   60.0   33.333333333333336
-450.0   60.0   16.666666666666668
-450.0   90.0   16.666666666666668
-500.0   90.0   16.666666666666668
-450.0   90.0   33.333333333333336
-500.0   60.0   33.333333333333336
-500.0   90.0   33.333333333333336
-450.0   90.0   33.333333333333336
-500.0   90.0   16.666666666666668
-500.0   60.0   33.333333333333336
-450.0   90.0   33.333333333333336
-450.0   60.0   33.333333333333336
-450.0   60.0   16.666666666666668
-500.0   60.0   33.333333333333336
-450.0   90.0   33.333333333333336
-450.0   60.0   16.666666666666668
-500.0   90.0   16.666666666666668
-500.0   60.0   33.333333333333336
-450.0   60.0   33.333333333333336
-500.0   90.0   33.333333333333336
-500.0   60.0   50.0
-450.0   60.0   33.333333333333336
-450.0   90.0   33.333333333333336
-500.0   90.0   33.333333333333336
-450.0   90.0   50.0
-500.0   60.0   50.0
-500.0   90.0   50.0
-450.0   90.0   50.0
-500.0   90.0   33.333333333333336
-500.0   60.0   50.0
-450.0   90.0   50.0
-450.0   60.0   50.0
-450.0   60.0   33.333333333333336
-500.0   60.0   50.0
-450.0   90.0   50.0
-450.0   60.0   33.333333333333336
-500.0   90.0   33.333333333333336
-500.0   90.0   0.0
-450.0   90.0   0.0
-500.0   120.0   0.0
-500.0   90.0   16.666666666666668
-450.0   90.0   0.0
-450.0   120.0   0.0
-500.0   120.0   0.0
-450.0   120.0   16.666666666666668
-500.0   90.0   16.666666666666668
-500.0   120.0   16.666666666666668
-450.0   120.0   16.666666666666668
-500.0   120.0   0.0
-500.0   90.0   16.666666666666668
-450.0   120.0   16.666666666666668
-450.0   90.0   16.666666666666668
-450.0   90.0   0.0
-500.0   90.0   16.666666666666668
-450.0   120.0   16.666666666666668
-450.0   90.0   0.0
-500.0   120.0   0.0
-500.0   90.0   16.666666666666668
-450.0   90.0   16.666666666666668
-500.0   120.0   16.666666666666668
-500.0   90.0   33.333333333333336
-450.0   90.0   16.666666666666668
-450.0   120.0   16.666666666666668
-500.0   120.0   16.666666666666668
-450.0   120.0   33.333333333333336
-500.0   90.0   33.333333333333336
-500.0   120.0   33.333333333333336
-450.0   120.0   33.333333333333336
-500.0   120.0   16.666666666666668
-500.0   90.0   33.333333333333336
-450.0   120.0   33.333333333333336
-450.0   90.0   33.333333333333336
-450.0   90.0   16.666666666666668
-500.0   90.0   33.333333333333336
-450.0   120.0   33.333333333333336
-450.0   90.0   16.666666666666668
-500.0   120.0   16.666666666666668
-500.0   90.0   33.333333333333336
-450.0   90.0   33.333333333333336
-500.0   120.0   33.333333333333336
-500.0   90.0   50.0
-450.0   90.0   33.333333333333336
-450.0   120.0   33.333333333333336
-500.0   120.0   33.333333333333336
-450.0   120.0   50.0
-500.0   90.0   50.0
-500.0   120.0   50.0
-450.0   120.0   50.0
-500.0   120.0   33.333333333333336
-500.0   90.0   50.0
-450.0   120.0   50.0
-450.0   90.0   50.0
-450.0   90.0   33.333333333333336
-500.0   90.0   50.0
-450.0   120.0   50.0
-450.0   90.0   33.333333333333336
-500.0   120.0   33.333333333333336
-500.0   120.0   0.0
-450.0   120.0   0.0
-500.0   150.0   0.0
-500.0   120.0   16.666666666666668
-450.0   120.0   0.0
-450.0   150.0   0.0
-500.0   150.0   0.0
-450.0   150.0   16.666666666666668
-500.0   120.0   16.666666666666668
-500.0   150.0   16.666666666666668
-450.0   150.0   16.666666666666668
-500.0   150.0   0.0
-500.0   120.0   16.666666666666668
-450.0   150.0   16.666666666666668
-450.0   120.0   16.666666666666668
-450.0   120.0   0.0
-500.0   120.0   16.666666666666668
-450.0   150.0   16.666666666666668
-450.0   120.0   0.0
-500.0   150.0   0.0
-500.0   120.0   16.666666666666668
-450.0   120.0   16.666666666666668
-500.0   150.0   16.666666666666668
-500.0   120.0   33.333333333333336
-450.0   120.0   16.666666666666668
-450.0   150.0   16.666666666666668
-500.0   150.0   16.666666666666668
-450.0   150.0   33.333333333333336
-500.0   120.0   33.333333333333336
-500.0   150.0   33.333333333333336
-450.0   150.0   33.333333333333336
-500.0   150.0   16.666666666666668
-500.0   120.0   33.333333333333336
-450.0   150.0   33.333333333333336
-450.0   120.0   33.333333333333336
-450.0   120.0   16.666666666666668
-500.0   120.0   33.333333333333336
-450.0   150.0   33.333333333333336
-450.0   120.0   16.666666666666668
-500.0   150.0   16.666666666666668
-500.0   120.0   33.333333333333336
-450.0   120.0   33.333333333333336
-500.0   150.0   33.333333333333336
-500.0   120.0   50.0
-450.0   120.0   33.333333333333336
-450.0   150.0   33.333333333333336
-500.0   150.0   33.333333333333336
-450.0   150.0   50.0
-500.0   120.0   50.0
-500.0   150.0   50.0
-450.0   150.0   50.0
-500.0   150.0   33.333333333333336
-500.0   120.0   50.0
-450.0   150.0   50.0
-450.0   120.0   50.0
-450.0   120.0   33.333333333333336
-500.0   120.0   50.0
-450.0   150.0   50.0
-450.0   120.0   33.333333333333336
-500.0   150.0   33.333333333333336
-450.0   0.0   0.0
-400.0   0.0   0.0
-450.0   30.0   0.0
-450.0   0.0   16.666666666666668
-400.0   0.0   0.0
-400.0   30.0   0.0
-450.0   30.0   0.0
-400.0   30.0   16.666666666666668
-450.0   0.0   16.666666666666668
-450.0   30.0   16.666666666666668
-400.0   30.0   16.666666666666668
-450.0   30.0   0.0
-450.0   0.0   16.666666666666668
-400.0   30.0   16.666666666666668
-400.0   0.0   16.666666666666668
-400.0   0.0   0.0
-450.0   0.0   16.666666666666668
-400.0   30.0   16.666666666666668
-400.0   0.0   0.0
-450.0   30.0   0.0
-450.0   0.0   16.666666666666668
-400.0   0.0   16.666666666666668
-450.0   30.0   16.666666666666668
-450.0   0.0   33.333333333333336
-400.0   0.0   16.666666666666668
-400.0   30.0   16.666666666666668
-450.0   30.0   16.666666666666668
-400.0   30.0   33.333333333333336
-450.0   0.0   33.333333333333336
-450.0   30.0   33.333333333333336
-400.0   30.0   33.333333333333336
-450.0   30.0   16.666666666666668
-450.0   0.0   33.333333333333336
-400.0   30.0   33.333333333333336
-400.0   0.0   33.333333333333336
-400.0   0.0   16.666666666666668
-450.0   0.0   33.333333333333336
-400.0   30.0   33.333333333333336
-400.0   0.0   16.666666666666668
-450.0   30.0   16.666666666666668
-450.0   0.0   33.333333333333336
-400.0   0.0   33.333333333333336
-450.0   30.0   33.333333333333336
-450.0   0.0   50.0
-400.0   0.0   33.333333333333336
-400.0   30.0   33.333333333333336
-450.0   30.0   33.333333333333336
-400.0   30.0   50.0
-450.0   0.0   50.0
-450.0   30.0   50.0
-400.0   30.0   50.0
-450.0   30.0   33.333333333333336
-450.0   0.0   50.0
-400.0   30.0   50.0
-400.0   0.0   50.0
-400.0   0.0   33.333333333333336
-450.0   0.0   50.0
-400.0   30.0   50.0
-400.0   0.0   33.333333333333336
-450.0   30.0   33.333333333333336
-450.0   30.0   0.0
-400.0   30.0   0.0
-450.0   60.0   0.0
-450.0   30.0   16.666666666666668
-400.0   30.0   0.0
-400.0   60.0   0.0
-450.0   60.0   0.0
-400.0   60.0   16.666666666666668
-450.0   30.0   16.666666666666668
-450.0   60.0   16.666666666666668
-400.0   60.0   16.666666666666668
-450.0   60.0   0.0
-450.0   30.0   16.666666666666668
-400.0   60.0   16.666666666666668
-400.0   30.0   16.666666666666668
-400.0   30.0   0.0
-450.0   30.0   16.666666666666668
-400.0   60.0   16.666666666666668
-400.0   30.0   0.0
-450.0   60.0   0.0
-450.0   30.0   16.666666666666668
-400.0   30.0   16.666666666666668
-450.0   60.0   16.666666666666668
-450.0   30.0   33.333333333333336
-400.0   30.0   16.666666666666668
-400.0   60.0   16.666666666666668
-450.0   60.0   16.666666666666668
-400.0   60.0   33.333333333333336
-450.0   30.0   33.333333333333336
-450.0   60.0   33.333333333333336
-400.0   60.0   33.333333333333336
-450.0   60.0   16.666666666666668
-450.0   30.0   33.333333333333336
-400.0   60.0   33.333333333333336
-400.0   30.0   33.333333333333336
-400.0   30.0   16.666666666666668
-450.0   30.0   33.333333333333336
-400.0   60.0   33.333333333333336
-400.0   30.0   16.666666666666668
-450.0   60.0   16.666666666666668
-450.0   30.0   33.333333333333336
-400.0   30.0   33.333333333333336
-450.0   60.0   33.333333333333336
-450.0   30.0   50.0
-400.0   30.0   33.333333333333336
-400.0   60.0   33.333333333333336
-450.0   60.0   33.333333333333336
-400.0   60.0   50.0
-450.0   30.0   50.0
-450.0   60.0   50.0
-400.0   60.0   50.0
-450.0   60.0   33.333333333333336
-450.0   30.0   50.0
-400.0   60.0   50.0
-400.0   30.0   50.0
-400.0   30.0   33.333333333333336
-450.0   30.0   50.0
-400.0   60.0   50.0
-400.0   30.0   33.333333333333336
-450.0   60.0   33.333333333333336
-450.0   60.0   0.0
-400.0   60.0   0.0
-450.0   90.0   0.0
-450.0   60.0   16.666666666666668
-400.0   60.0   0.0
-400.0   90.0   0.0
-450.0   90.0   0.0
-400.0   90.0   16.666666666666668
-450.0   60.0   16.666666666666668
-450.0   90.0   16.666666666666668
-400.0   90.0   16.666666666666668
-450.0   90.0   0.0
-450.0   60.0   16.666666666666668
-400.0   90.0   16.666666666666668
-400.0   60.0   16.666666666666668
-400.0   60.0   0.0
-450.0   60.0   16.666666666666668
-400.0   90.0   16.666666666666668
-400.0   60.0   0.0
-450.0   90.0   0.0
-450.0   60.0   16.666666666666668
-400.0   60.0   16.666666666666668
-450.0   90.0   16.666666666666668
-450.0   60.0   33.333333333333336
-400.0   60.0   16.666666666666668
-400.0   90.0   16.666666666666668
-450.0   90.0   16.666666666666668
-400.0   90.0   33.333333333333336
-450.0   60.0   33.333333333333336
-450.0   90.0   33.333333333333336
-400.0   90.0   33.333333333333336
-450.0   90.0   16.666666666666668
-450.0   60.0   33.333333333333336
-400.0   90.0   33.333333333333336
-400.0   60.0   33.333333333333336
-400.0   60.0   16.666666666666668
-450.0   60.0   33.333333333333336
-400.0   90.0   33.333333333333336
-400.0   60.0   16.666666666666668
-450.0   90.0   16.666666666666668
-450.0   60.0   33.333333333333336
-400.0   60.0   33.333333333333336
-450.0   90.0   33.333333333333336
-450.0   60.0   50.0
-400.0   60.0   33.333333333333336
-400.0   90.0   33.333333333333336
-450.0   90.0   33.333333333333336
-400.0   90.0   50.0
-450.0   60.0   50.0
-450.0   90.0   50.0
-400.0   90.0   50.0
-450.0   90.0   33.333333333333336
-450.0   60.0   50.0
-400.0   90.0   50.0
-400.0   60.0   50.0
-400.0   60.0   33.333333333333336
-450.0   60.0   50.0
-400.0   90.0   50.0
-400.0   60.0   33.333333333333336
-450.0   90.0   33.333333333333336
-450.0   90.0   0.0
-400.0   90.0   0.0
-450.0   120.0   0.0
-450.0   90.0   16.666666666666668
-400.0   90.0   0.0
-400.0   120.0   0.0
-450.0   120.0   0.0
-400.0   120.0   16.666666666666668
-450.0   90.0   16.666666666666668
-450.0   120.0   16.666666666666668
-400.0   120.0   16.666666666666668
-450.0   120.0   0.0
-450.0   90.0   16.666666666666668
-400.0   120.0   16.666666666666668
-400.0   90.0   16.666666666666668
-400.0   90.0   0.0
-450.0   90.0   16.666666666666668
-400.0   120.0   16.666666666666668
-400.0   90.0   0.0
-450.0   120.0   0.0
-450.0   90.0   16.666666666666668
-400.0   90.0   16.666666666666668
-450.0   120.0   16.666666666666668
-450.0   90.0   33.333333333333336
-400.0   90.0   16.666666666666668
-400.0   120.0   16.666666666666668
-450.0   120.0   16.666666666666668
-400.0   120.0   33.333333333333336
-450.0   90.0   33.333333333333336
-450.0   120.0   33.333333333333336
-400.0   120.0   33.333333333333336
-450.0   120.0   16.666666666666668
-450.0   90.0   33.333333333333336
-400.0   120.0   33.333333333333336
-400.0   90.0   33.333333333333336
-400.0   90.0   16.666666666666668
-450.0   90.0   33.333333333333336
-400.0   120.0   33.333333333333336
-400.0   90.0   16.666666666666668
-450.0   120.0   16.666666666666668
-450.0   90.0   33.333333333333336
-400.0   90.0   33.333333333333336
-450.0   120.0   33.333333333333336
-450.0   90.0   50.0
-400.0   90.0   33.333333333333336
-400.0   120.0   33.333333333333336
-450.0   120.0   33.333333333333336
-400.0   120.0   50.0
-450.0   90.0   50.0
-450.0   120.0   50.0
-400.0   120.0   50.0
-450.0   120.0   33.333333333333336
-450.0   90.0   50.0
-400.0   120.0   50.0
-400.0   90.0   50.0
-400.0   90.0   33.333333333333336
-450.0   90.0   50.0
-400.0   120.0   50.0
-400.0   90.0   33.333333333333336
-450.0   120.0   33.333333333333336
-450.0   120.0   0.0
-400.0   120.0   0.0
-450.0   150.0   0.0
-450.0   120.0   16.666666666666668
-400.0   120.0   0.0
-400.0   150.0   0.0
-450.0   150.0   0.0
-400.0   150.0   16.666666666666668
-450.0   120.0   16.666666666666668
-450.0   150.0   16.666666666666668
-400.0   150.0   16.666666666666668
-450.0   150.0   0.0
-450.0   120.0   16.666666666666668
-400.0   150.0   16.666666666666668
-400.0   120.0   16.666666666666668
-400.0   120.0   0.0
-450.0   120.0   16.666666666666668
-400.0   150.0   16.666666666666668
-400.0   120.0   0.0
-450.0   150.0   0.0
-450.0   120.0   16.666666666666668
-400.0   120.0   16.666666666666668
-450.0   150.0   16.666666666666668
-450.0   120.0   33.333333333333336
-400.0   120.0   16.666666666666668
-400.0   150.0   16.666666666666668
-450.0   150.0   16.666666666666668
-400.0   150.0   33.333333333333336
-450.0   120.0   33.333333333333336
-450.0   150.0   33.333333333333336
-400.0   150.0   33.333333333333336
-450.0   150.0   16.666666666666668
-450.0   120.0   33.333333333333336
-400.0   150.0   33.333333333333336
-400.0   120.0   33.333333333333336
-400.0   120.0   16.666666666666668
-450.0   120.0   33.333333333333336
-400.0   150.0   33.333333333333336
-400.0   120.0   16.666666666666668
-450.0   150.0   16.666666666666668
-450.0   120.0   33.333333333333336
-400.0   120.0   33.333333333333336
-450.0   150.0   33.333333333333336
-450.0   120.0   50.0
-400.0   120.0   33.333333333333336
-400.0   150.0   33.333333333333336
-450.0   150.0   33.333333333333336
-400.0   150.0   50.0
-450.0   120.0   50.0
-450.0   150.0   50.0
-400.0   150.0   50.0
-450.0   150.0   33.333333333333336
-450.0   120.0   50.0
-400.0   150.0   50.0
-400.0   120.0   50.0
-400.0   120.0   33.333333333333336
-450.0   120.0   50.0
-400.0   150.0   50.0
-400.0   120.0   33.333333333333336
-450.0   150.0   33.333333333333336
-400.0   0.0   0.0
-350.0   0.0   0.0
-400.0   30.0   0.0
-400.0   0.0   16.666666666666668
-350.0   0.0   0.0
-350.0   30.0   0.0
-400.0   30.0   0.0
-350.0   30.0   16.666666666666668
-400.0   0.0   16.666666666666668
-400.0   30.0   16.666666666666668
-350.0   30.0   16.666666666666668
-400.0   30.0   0.0
-400.0   0.0   16.666666666666668
-350.0   30.0   16.666666666666668
-350.0   0.0   16.666666666666668
-350.0   0.0   0.0
-400.0   0.0   16.666666666666668
-350.0   30.0   16.666666666666668
-350.0   0.0   0.0
-400.0   30.0   0.0
-400.0   0.0   16.666666666666668
-350.0   0.0   16.666666666666668
-400.0   30.0   16.666666666666668
-400.0   0.0   33.333333333333336
-350.0   0.0   16.666666666666668
-350.0   30.0   16.666666666666668
-400.0   30.0   16.666666666666668
-350.0   30.0   33.333333333333336
-400.0   0.0   33.333333333333336
-400.0   30.0   33.333333333333336
-350.0   30.0   33.333333333333336
-400.0   30.0   16.666666666666668
-400.0   0.0   33.333333333333336
-350.0   30.0   33.333333333333336
-350.0   0.0   33.333333333333336
-350.0   0.0   16.666666666666668
-400.0   0.0   33.333333333333336
-350.0   30.0   33.333333333333336
-350.0   0.0   16.666666666666668
-400.0   30.0   16.666666666666668
-400.0   0.0   33.333333333333336
-350.0   0.0   33.333333333333336
-400.0   30.0   33.333333333333336
-400.0   0.0   50.0
-350.0   0.0   33.333333333333336
-350.0   30.0   33.333333333333336
-400.0   30.0   33.333333333333336
-350.0   30.0   50.0
-400.0   0.0   50.0
-400.0   30.0   50.0
-350.0   30.0   50.0
-400.0   30.0   33.333333333333336
-400.0   0.0   50.0
-350.0   30.0   50.0
-350.0   0.0   50.0
-350.0   0.0   33.333333333333336
-400.0   0.0   50.0
-350.0   30.0   50.0
-350.0   0.0   33.333333333333336
-400.0   30.0   33.333333333333336
-400.0   30.0   0.0
-350.0   30.0   0.0
-400.0   60.0   0.0
-400.0   30.0   16.666666666666668
-350.0   30.0   0.0
-350.0   60.0   0.0
-400.0   60.0   0.0
-350.0   60.0   16.666666666666668
-400.0   30.0   16.666666666666668
-400.0   60.0   16.666666666666668
-350.0   60.0   16.666666666666668
-400.0   60.0   0.0
-400.0   30.0   16.666666666666668
-350.0   60.0   16.666666666666668
-350.0   30.0   16.666666666666668
-350.0   30.0   0.0
-400.0   30.0   16.666666666666668
-350.0   60.0   16.666666666666668
-350.0   30.0   0.0
-400.0   60.0   0.0
-400.0   30.0   16.666666666666668
-350.0   30.0   16.666666666666668
-400.0   60.0   16.666666666666668
-400.0   30.0   33.333333333333336
-350.0   30.0   16.666666666666668
-350.0   60.0   16.666666666666668
-400.0   60.0   16.666666666666668
-350.0   60.0   33.333333333333336
-400.0   30.0   33.333333333333336
-400.0   60.0   33.333333333333336
-350.0   60.0   33.333333333333336
-400.0   60.0   16.666666666666668
-400.0   30.0   33.333333333333336
-350.0   60.0   33.333333333333336
-350.0   30.0   33.333333333333336
-350.0   30.0   16.666666666666668
-400.0   30.0   33.333333333333336
-350.0   60.0   33.333333333333336
-350.0   30.0   16.666666666666668
-400.0   60.0   16.666666666666668
-400.0   30.0   33.333333333333336
-350.0   30.0   33.333333333333336
-400.0   60.0   33.333333333333336
-400.0   30.0   50.0
-350.0   30.0   33.333333333333336
-350.0   60.0   33.333333333333336
-400.0   60.0   33.333333333333336
-350.0   60.0   50.0
-400.0   30.0   50.0
-400.0   60.0   50.0
-350.0   60.0   50.0
-400.0   60.0   33.333333333333336
-400.0   30.0   50.0
-350.0   60.0   50.0
-350.0   30.0   50.0
-350.0   30.0   33.333333333333336
-400.0   30.0   50.0
-350.0   60.0   50.0
-350.0   30.0   33.333333333333336
-400.0   60.0   33.333333333333336
-400.0   60.0   0.0
-350.0   60.0   0.0
-400.0   90.0   0.0
-400.0   60.0   16.666666666666668
-350.0   60.0   0.0
-350.0   90.0   0.0
-400.0   90.0   0.0
-350.0   90.0   16.666666666666668
-400.0   60.0   16.666666666666668
-400.0   90.0   16.666666666666668
-350.0   90.0   16.666666666666668
-400.0   90.0   0.0
-400.0   60.0   16.666666666666668
-350.0   90.0   16.666666666666668
-350.0   60.0   16.666666666666668
-350.0   60.0   0.0
-400.0   60.0   16.666666666666668
-350.0   90.0   16.666666666666668
-350.0   60.0   0.0
-400.0   90.0   0.0
-400.0   60.0   16.666666666666668
-350.0   60.0   16.666666666666668
-400.0   90.0   16.666666666666668
-400.0   60.0   33.333333333333336
-350.0   60.0   16.666666666666668
-350.0   90.0   16.666666666666668
-400.0   90.0   16.666666666666668
-350.0   90.0   33.333333333333336
-400.0   60.0   33.333333333333336
-400.0   90.0   33.333333333333336
-350.0   90.0   33.333333333333336
-400.0   90.0   16.666666666666668
-400.0   60.0   33.333333333333336
-350.0   90.0   33.333333333333336
-350.0   60.0   33.333333333333336
-350.0   60.0   16.666666666666668
-400.0   60.0   33.333333333333336
-350.0   90.0   33.333333333333336
-350.0   60.0   16.666666666666668
-400.0   90.0   16.666666666666668
-400.0   60.0   33.333333333333336
-350.0   60.0   33.333333333333336
-400.0   90.0   33.333333333333336
-400.0   60.0   50.0
-350.0   60.0   33.333333333333336
-350.0   90.0   33.333333333333336
-400.0   90.0   33.333333333333336
-350.0   90.0   50.0
-400.0   60.0   50.0
-400.0   90.0   50.0
-350.0   90.0   50.0
-400.0   90.0   33.333333333333336
-400.0   60.0   50.0
-350.0   90.0   50.0
-350.0   60.0   50.0
-350.0   60.0   33.333333333333336
-400.0   60.0   50.0
-350.0   90.0   50.0
-350.0   60.0   33.333333333333336
-400.0   90.0   33.333333333333336
-400.0   90.0   0.0
-350.0   90.0   0.0
-400.0   120.0   0.0
-400.0   90.0   16.666666666666668
-350.0   90.0   0.0
-350.0   120.0   0.0
-400.0   120.0   0.0
-350.0   120.0   16.666666666666668
-400.0   90.0   16.666666666666668
-400.0   120.0   16.666666666666668
-350.0   120.0   16.666666666666668
-400.0   120.0   0.0
-400.0   90.0   16.666666666666668
-350.0   120.0   16.666666666666668
-350.0   90.0   16.666666666666668
-350.0   90.0   0.0
-400.0   90.0   16.666666666666668
-350.0   120.0   16.666666666666668
-350.0   90.0   0.0
-400.0   120.0   0.0
-400.0   90.0   16.666666666666668
-350.0   90.0   16.666666666666668
-400.0   120.0   16.666666666666668
-400.0   90.0   33.333333333333336
-350.0   90.0   16.666666666666668
-350.0   120.0   16.666666666666668
-400.0   120.0   16.666666666666668
-350.0   120.0   33.333333333333336
-400.0   90.0   33.333333333333336
-400.0   120.0   33.333333333333336
-350.0   120.0   33.333333333333336
-400.0   120.0   16.666666666666668
-400.0   90.0   33.333333333333336
-350.0   120.0   33.333333333333336
-350.0   90.0   33.333333333333336
-350.0   90.0   16.666666666666668
-400.0   90.0   33.333333333333336
-350.0   120.0   33.333333333333336
-350.0   90.0   16.666666666666668
-400.0   120.0   16.666666666666668
-400.0   90.0   33.333333333333336
-350.0   90.0   33.333333333333336
-400.0   120.0   33.333333333333336
-400.0   90.0   50.0
-350.0   90.0   33.333333333333336
-350.0   120.0   33.333333333333336
-400.0   120.0   33.333333333333336
-350.0   120.0   50.0
-400.0   90.0   50.0
-400.0   120.0   50.0
-350.0   120.0   50.0
-400.0   120.0   33.333333333333336
-400.0   90.0   50.0
-350.0   120.0   50.0
-350.0   90.0   50.0
-350.0   90.0   33.333333333333336
-400.0   90.0   50.0
-350.0   120.0   50.0
-350.0   90.0   33.333333333333336
-400.0   120.0   33.333333333333336
-400.0   120.0   0.0
-350.0   120.0   0.0
-400.0   150.0   0.0
-400.0   120.0   16.666666666666668
-350.0   120.0   0.0
-350.0   150.0   0.0
-400.0   150.0   0.0
-350.0   150.0   16.666666666666668
-400.0   120.0   16.666666666666668
-400.0   150.0   16.666666666666668
-350.0   150.0   16.666666666666668
-400.0   150.0   0.0
-400.0   120.0   16.666666666666668
-350.0   150.0   16.666666666666668
-350.0   120.0   16.666666666666668
-350.0   120.0   0.0
-400.0   120.0   16.666666666666668
-350.0   150.0   16.666666666666668
-350.0   120.0   0.0
-400.0   150.0   0.0
-400.0   120.0   16.666666666666668
-350.0   120.0   16.666666666666668
-400.0   150.0   16.666666666666668
-400.0   120.0   33.333333333333336
-350.0   120.0   16.666666666666668
-350.0   150.0   16.666666666666668
-400.0   150.0   16.666666666666668
-350.0   150.0   33.333333333333336
-400.0   120.0   33.333333333333336
-400.0   150.0   33.333333333333336
-350.0   150.0   33.333333333333336
-400.0   150.0   16.666666666666668
-400.0   120.0   33.333333333333336
-350.0   150.0   33.333333333333336
-350.0   120.0   33.333333333333336
-350.0   120.0   16.666666666666668
-400.0   120.0   33.333333333333336
-350.0   150.0   33.333333333333336
-350.0   120.0   16.666666666666668
-400.0   150.0   16.666666666666668
-400.0   120.0   33.333333333333336
-350.0   120.0   33.333333333333336
-400.0   150.0   33.333333333333336
-400.0   120.0   50.0
-350.0   120.0   33.333333333333336
-350.0   150.0   33.333333333333336
-400.0   150.0   33.333333333333336
-350.0   150.0   50.0
-400.0   120.0   50.0
-400.0   150.0   50.0
-350.0   150.0   50.0
-400.0   150.0   33.333333333333336
-400.0   120.0   50.0
-350.0   150.0   50.0
-350.0   120.0   50.0
-350.0   120.0   33.333333333333336
-400.0   120.0   50.0
-350.0   150.0   50.0
-350.0   120.0   33.333333333333336
-400.0   150.0   33.333333333333336
-350.0   0.0   0.0
-300.0   0.0   0.0
-350.0   30.0   0.0
-350.0   0.0   16.666666666666668
-300.0   0.0   0.0
-300.0   30.0   0.0
-350.0   30.0   0.0
-300.0   30.0   16.666666666666668
-350.0   0.0   16.666666666666668
-350.0   30.0   16.666666666666668
-300.0   30.0   16.666666666666668
-350.0   30.0   0.0
-350.0   0.0   16.666666666666668
-300.0   30.0   16.666666666666668
-300.0   0.0   16.666666666666668
-300.0   0.0   0.0
-350.0   0.0   16.666666666666668
-300.0   30.0   16.666666666666668
-300.0   0.0   0.0
-350.0   30.0   0.0
-350.0   0.0   16.666666666666668
-300.0   0.0   16.666666666666668
-350.0   30.0   16.666666666666668
-350.0   0.0   33.333333333333336
-300.0   0.0   16.666666666666668
-300.0   30.0   16.666666666666668
-350.0   30.0   16.666666666666668
-300.0   30.0   33.333333333333336
-350.0   0.0   33.333333333333336
-350.0   30.0   33.333333333333336
-300.0   30.0   33.333333333333336
-350.0   30.0   16.666666666666668
-350.0   0.0   33.333333333333336
-300.0   30.0   33.333333333333336
-300.0   0.0   33.333333333333336
-300.0   0.0   16.666666666666668
-350.0   0.0   33.333333333333336
-300.0   30.0   33.333333333333336
-300.0   0.0   16.666666666666668
-350.0   30.0   16.666666666666668
-350.0   0.0   33.333333333333336
-300.0   0.0   33.333333333333336
-350.0   30.0   33.333333333333336
-350.0   0.0   50.0
-300.0   0.0   33.333333333333336
-300.0   30.0   33.333333333333336
-350.0   30.0   33.333333333333336
-300.0   30.0   50.0
-350.0   0.0   50.0
-350.0   30.0   50.0
-300.0   30.0   50.0
-350.0   30.0   33.333333333333336
-350.0   0.0   50.0
-300.0   30.0   50.0
-300.0   0.0   50.0
-300.0   0.0   33.333333333333336
-350.0   0.0   50.0
-300.0   30.0   50.0
-300.0   0.0   33.333333333333336
-350.0   30.0   33.333333333333336
-350.0   30.0   0.0
-300.0   30.0   0.0
-350.0   60.0   0.0
-350.0   30.0   16.666666666666668
-300.0   30.0   0.0
-300.0   60.0   0.0
-350.0   60.0   0.0
-300.0   60.0   16.666666666666668
-350.0   30.0   16.666666666666668
-350.0   60.0   16.666666666666668
-300.0   60.0   16.666666666666668
-350.0   60.0   0.0
-350.0   30.0   16.666666666666668
-300.0   60.0   16.666666666666668
-300.0   30.0   16.666666666666668
-300.0   30.0   0.0
-350.0   30.0   16.666666666666668
-300.0   60.0   16.666666666666668
-300.0   30.0   0.0
-350.0   60.0   0.0
-350.0   30.0   16.666666666666668
-300.0   30.0   16.666666666666668
-350.0   60.0   16.666666666666668
-350.0   30.0   33.333333333333336
-300.0   30.0   16.666666666666668
-300.0   60.0   16.666666666666668
-350.0   60.0   16.666666666666668
-300.0   60.0   33.333333333333336
-350.0   30.0   33.333333333333336
-350.0   60.0   33.333333333333336
-300.0   60.0   33.333333333333336
-350.0   60.0   16.666666666666668
-350.0   30.0   33.333333333333336
-300.0   60.0   33.333333333333336
-300.0   30.0   33.333333333333336
-300.0   30.0   16.666666666666668
-350.0   30.0   33.333333333333336
-300.0   60.0   33.333333333333336
-300.0   30.0   16.666666666666668
-350.0   60.0   16.666666666666668
-350.0   30.0   33.333333333333336
-300.0   30.0   33.333333333333336
-350.0   60.0   33.333333333333336
-350.0   30.0   50.0
-300.0   30.0   33.333333333333336
-300.0   60.0   33.333333333333336
-350.0   60.0   33.333333333333336
-300.0   60.0   50.0
-350.0   30.0   50.0
-350.0   60.0   50.0
-300.0   60.0   50.0
-350.0   60.0   33.333333333333336
-350.0   30.0   50.0
-300.0   60.0   50.0
-300.0   30.0   50.0
-300.0   30.0   33.333333333333336
-350.0   30.0   50.0
-300.0   60.0   50.0
-300.0   30.0   33.333333333333336
-350.0   60.0   33.333333333333336
-350.0   60.0   0.0
-300.0   60.0   0.0
-350.0   90.0   0.0
-350.0   60.0   16.666666666666668
-300.0   60.0   0.0
-300.0   90.0   0.0
-350.0   90.0   0.0
-300.0   90.0   16.666666666666668
-350.0   60.0   16.666666666666668
-350.0   90.0   16.666666666666668
-300.0   90.0   16.666666666666668
-350.0   90.0   0.0
-350.0   60.0   16.666666666666668
-300.0   90.0   16.666666666666668
-300.0   60.0   16.666666666666668
-300.0   60.0   0.0
-350.0   60.0   16.666666666666668
-300.0   90.0   16.666666666666668
-300.0   60.0   0.0
-350.0   90.0   0.0
-350.0   60.0   16.666666666666668
-300.0   60.0   16.666666666666668
-350.0   90.0   16.666666666666668
-350.0   60.0   33.333333333333336
-300.0   60.0   16.666666666666668
-300.0   90.0   16.666666666666668
-350.0   90.0   16.666666666666668
-300.0   90.0   33.333333333333336
-350.0   60.0   33.333333333333336
-350.0   90.0   33.333333333333336
-300.0   90.0   33.333333333333336
-350.0   90.0   16.666666666666668
-350.0   60.0   33.333333333333336
-300.0   90.0   33.333333333333336
-300.0   60.0   33.333333333333336
-300.0   60.0   16.666666666666668
-350.0   60.0   33.333333333333336
-300.0   90.0   33.333333333333336
-300.0   60.0   16.666666666666668
-350.0   90.0   16.666666666666668
-350.0   60.0   33.333333333333336
-300.0   60.0   33.333333333333336
-350.0   90.0   33.333333333333336
-350.0   60.0   50.0
-300.0   60.0   33.333333333333336
-300.0   90.0   33.333333333333336
-350.0   90.0   33.333333333333336
-300.0   90.0   50.0
-350.0   60.0   50.0
-350.0   90.0   50.0
-300.0   90.0   50.0
-350.0   90.0   33.333333333333336
-350.0   60.0   50.0
-300.0   90.0   50.0
-300.0   60.0   50.0
-300.0   60.0   33.333333333333336
-350.0   60.0   50.0
-300.0   90.0   50.0
-300.0   60.0   33.333333333333336
-350.0   90.0   33.333333333333336
-350.0   90.0   0.0
-300.0   90.0   0.0
-350.0   120.0   0.0
-350.0   90.0   16.666666666666668
-300.0   90.0   0.0
-300.0   120.0   0.0
-350.0   120.0   0.0
-300.0   120.0   16.666666666666668
-350.0   90.0   16.666666666666668
-350.0   120.0   16.666666666666668
-300.0   120.0   16.666666666666668
-350.0   120.0   0.0
-350.0   90.0   16.666666666666668
-300.0   120.0   16.666666666666668
-300.0   90.0   16.666666666666668
-300.0   90.0   0.0
-350.0   90.0   16.666666666666668
-300.0   120.0   16.666666666666668
-300.0   90.0   0.0
-350.0   120.0   0.0
-350.0   90.0   16.666666666666668
-300.0   90.0   16.666666666666668
-350.0   120.0   16.666666666666668
-350.0   90.0   33.333333333333336
-300.0   90.0   16.666666666666668
-300.0   120.0   16.666666666666668
-350.0   120.0   16.666666666666668
-300.0   120.0   33.333333333333336
-350.0   90.0   33.333333333333336
-350.0   120.0   33.333333333333336
-300.0   120.0   33.333333333333336
-350.0   120.0   16.666666666666668
-350.0   90.0   33.333333333333336
-300.0   120.0   33.333333333333336
-300.0   90.0   33.333333333333336
-300.0   90.0   16.666666666666668
-350.0   90.0   33.333333333333336
-300.0   120.0   33.333333333333336
-300.0   90.0   16.666666666666668
-350.0   120.0   16.666666666666668
-350.0   90.0   33.333333333333336
-300.0   90.0   33.333333333333336
-350.0   120.0   33.333333333333336
-350.0   90.0   50.0
-300.0   90.0   33.333333333333336
-300.0   120.0   33.333333333333336
-350.0   120.0   33.333333333333336
-300.0   120.0   50.0
-350.0   90.0   50.0
-350.0   120.0   50.0
-300.0   120.0   50.0
-350.0   120.0   33.333333333333336
-350.0   90.0   50.0
-300.0   120.0   50.0
-300.0   90.0   50.0
-300.0   90.0   33.333333333333336
-350.0   90.0   50.0
-300.0   120.0   50.0
-300.0   90.0   33.333333333333336
-350.0   120.0   33.333333333333336
-350.0   120.0   0.0
-300.0   120.0   0.0
-350.0   150.0   0.0
-350.0   120.0   16.666666666666668
-300.0   120.0   0.0
-300.0   150.0   0.0
-350.0   150.0   0.0
-300.0   150.0   16.666666666666668
-350.0   120.0   16.666666666666668
-350.0   150.0   16.666666666666668
-300.0   150.0   16.666666666666668
-350.0   150.0   0.0
-350.0   120.0   16.666666666666668
-300.0   150.0   16.666666666666668
-300.0   120.0   16.666666666666668
-300.0   120.0   0.0
-350.0   120.0   16.666666666666668
-300.0   150.0   16.666666666666668
-300.0   120.0   0.0
-350.0   150.0   0.0
-350.0   120.0   16.666666666666668
-300.0   120.0   16.666666666666668
-350.0   150.0   16.666666666666668
-350.0   120.0   33.333333333333336
-300.0   120.0   16.666666666666668
-300.0   150.0   16.666666666666668
-350.0   150.0   16.666666666666668
-300.0   150.0   33.333333333333336
-350.0   120.0   33.333333333333336
-350.0   150.0   33.333333333333336
-300.0   150.0   33.333333333333336
-350.0   150.0   16.666666666666668
-350.0   120.0   33.333333333333336
-300.0   150.0   33.333333333333336
-300.0   120.0   33.333333333333336
-300.0   120.0   16.666666666666668
-350.0   120.0   33.333333333333336
-300.0   150.0   33.333333333333336
-300.0   120.0   16.666666666666668
-350.0   150.0   16.666666666666668
-350.0   120.0   33.333333333333336
-300.0   120.0   33.333333333333336
-350.0   150.0   33.333333333333336
-350.0   120.0   50.0
-300.0   120.0   33.333333333333336
-300.0   150.0   33.333333333333336
-350.0   150.0   33.333333333333336
-300.0   150.0   50.0
-350.0   120.0   50.0
-350.0   150.0   50.0
-300.0   150.0   50.0
-350.0   150.0   33.333333333333336
-350.0   120.0   50.0
-300.0   150.0   50.0
-300.0   120.0   50.0
-300.0   120.0   33.333333333333336
-350.0   120.0   50.0
-300.0   150.0   50.0
-300.0   120.0   33.333333333333336
-350.0   150.0   33.333333333333336
-300.0   0.0   0.0
-250.0   0.0   0.0
-300.0   30.0   0.0
-300.0   0.0   16.666666666666668
-250.0   0.0   0.0
-250.0   30.0   0.0
-300.0   30.0   0.0
-250.0   30.0   16.666666666666668
-300.0   0.0   16.666666666666668
-300.0   30.0   16.666666666666668
-250.0   30.0   16.666666666666668
-300.0   30.0   0.0
-300.0   0.0   16.666666666666668
-250.0   30.0   16.666666666666668
-250.0   0.0   16.666666666666668
-250.0   0.0   0.0
-300.0   0.0   16.666666666666668
-250.0   30.0   16.666666666666668
-250.0   0.0   0.0
-300.0   30.0   0.0
-300.0   0.0   16.666666666666668
-250.0   0.0   16.666666666666668
-300.0   30.0   16.666666666666668
-300.0   0.0   33.333333333333336
-250.0   0.0   16.666666666666668
-250.0   30.0   16.666666666666668
-300.0   30.0   16.666666666666668
-250.0   30.0   33.333333333333336
-300.0   0.0   33.333333333333336
-300.0   30.0   33.333333333333336
-250.0   30.0   33.333333333333336
-300.0   30.0   16.666666666666668
-300.0   0.0   33.333333333333336
-250.0   30.0   33.333333333333336
-250.0   0.0   33.333333333333336
-250.0   0.0   16.666666666666668
-300.0   0.0   33.333333333333336
-250.0   30.0   33.333333333333336
-250.0   0.0   16.666666666666668
-300.0   30.0   16.666666666666668
-300.0   0.0   33.333333333333336
-250.0   0.0   33.333333333333336
-300.0   30.0   33.333333333333336
-300.0   0.0   50.0
-250.0   0.0   33.333333333333336
-250.0   30.0   33.333333333333336
-300.0   30.0   33.333333333333336
-250.0   30.0   50.0
-300.0   0.0   50.0
-300.0   30.0   50.0
-250.0   30.0   50.0
-300.0   30.0   33.333333333333336
-300.0   0.0   50.0
-250.0   30.0   50.0
-250.0   0.0   50.0
-250.0   0.0   33.333333333333336
-300.0   0.0   50.0
-250.0   30.0   50.0
-250.0   0.0   33.333333333333336
-300.0   30.0   33.333333333333336
-300.0   30.0   0.0
-250.0   30.0   0.0
-300.0   60.0   0.0
-300.0   30.0   16.666666666666668
-250.0   30.0   0.0
-250.0   60.0   0.0
-300.0   60.0   0.0
-250.0   60.0   16.666666666666668
-300.0   30.0   16.666666666666668
-300.0   60.0   16.666666666666668
-250.0   60.0   16.666666666666668
-300.0   60.0   0.0
-300.0   30.0   16.666666666666668
-250.0   60.0   16.666666666666668
-250.0   30.0   16.666666666666668
-250.0   30.0   0.0
-300.0   30.0   16.666666666666668
-250.0   60.0   16.666666666666668
-250.0   30.0   0.0
-300.0   60.0   0.0
-300.0   30.0   16.666666666666668
-250.0   30.0   16.666666666666668
-300.0   60.0   16.666666666666668
-300.0   30.0   33.333333333333336
-250.0   30.0   16.666666666666668
-250.0   60.0   16.666666666666668
-300.0   60.0   16.666666666666668
-250.0   60.0   33.333333333333336
-300.0   30.0   33.333333333333336
-300.0   60.0   33.333333333333336
-250.0   60.0   33.333333333333336
-300.0   60.0   16.666666666666668
-300.0   30.0   33.333333333333336
-250.0   60.0   33.333333333333336
-250.0   30.0   33.333333333333336
-250.0   30.0   16.666666666666668
-300.0   30.0   33.333333333333336
-250.0   60.0   33.333333333333336
-250.0   30.0   16.666666666666668
-300.0   60.0   16.666666666666668
-300.0   30.0   33.333333333333336
-250.0   30.0   33.333333333333336
-300.0   60.0   33.333333333333336
-300.0   30.0   50.0
-250.0   30.0   33.333333333333336
-250.0   60.0   33.333333333333336
-300.0   60.0   33.333333333333336
-250.0   60.0   50.0
-300.0   30.0   50.0
-300.0   60.0   50.0
-250.0   60.0   50.0
-300.0   60.0   33.333333333333336
-300.0   30.0   50.0
-250.0   60.0   50.0
-250.0   30.0   50.0
-250.0   30.0   33.333333333333336
-300.0   30.0   50.0
-250.0   60.0   50.0
-250.0   30.0   33.333333333333336
-300.0   60.0   33.333333333333336
-300.0   60.0   0.0
-250.0   60.0   0.0
-300.0   90.0   0.0
-300.0   60.0   16.666666666666668
-250.0   60.0   0.0
-250.0   90.0   0.0
-300.0   90.0   0.0
-250.0   90.0   16.666666666666668
-300.0   60.0   16.666666666666668
-300.0   90.0   16.666666666666668
-250.0   90.0   16.666666666666668
-300.0   90.0   0.0
-300.0   60.0   16.666666666666668
-250.0   90.0   16.666666666666668
-250.0   60.0   16.666666666666668
-250.0   60.0   0.0
-300.0   60.0   16.666666666666668
-250.0   90.0   16.666666666666668
-250.0   60.0   0.0
-300.0   90.0   0.0
-300.0   60.0   16.666666666666668
-250.0   60.0   16.666666666666668
-300.0   90.0   16.666666666666668
-300.0   60.0   33.333333333333336
-250.0   60.0   16.666666666666668
-250.0   90.0   16.666666666666668
-300.0   90.0   16.666666666666668
-250.0   90.0   33.333333333333336
-300.0   60.0   33.333333333333336
-300.0   90.0   33.333333333333336
-250.0   90.0   33.333333333333336
-300.0   90.0   16.666666666666668
-300.0   60.0   33.333333333333336
-250.0   90.0   33.333333333333336
-250.0   60.0   33.333333333333336
-250.0   60.0   16.666666666666668
-300.0   60.0   33.333333333333336
-250.0   90.0   33.333333333333336
-250.0   60.0   16.666666666666668
-300.0   90.0   16.666666666666668
-300.0   60.0   33.333333333333336
-250.0   60.0   33.333333333333336
-300.0   90.0   33.333333333333336
-300.0   60.0   50.0
-250.0   60.0   33.333333333333336
-250.0   90.0   33.333333333333336
-300.0   90.0   33.333333333333336
-250.0   90.0   50.0
-300.0   60.0   50.0
-300.0   90.0   50.0
-250.0   90.0   50.0
-300.0   90.0   33.333333333333336
-300.0   60.0   50.0
-250.0   90.0   50.0
-250.0   60.0   50.0
-250.0   60.0   33.333333333333336
-300.0   60.0   50.0
-250.0   90.0   50.0
-250.0   60.0   33.333333333333336
-300.0   90.0   33.333333333333336
-300.0   90.0   0.0
-250.0   90.0   0.0
-300.0   120.0   0.0
-300.0   90.0   16.666666666666668
-250.0   90.0   0.0
-250.0   120.0   0.0
-300.0   120.0   0.0
-250.0   120.0   16.666666666666668
-300.0   90.0   16.666666666666668
-300.0   120.0   16.666666666666668
-250.0   120.0   16.666666666666668
-300.0   120.0   0.0
-300.0   90.0   16.666666666666668
-250.0   120.0   16.666666666666668
-250.0   90.0   16.666666666666668
-250.0   90.0   0.0
-300.0   90.0   16.666666666666668
-250.0   120.0   16.666666666666668
-250.0   90.0   0.0
-300.0   120.0   0.0
-300.0   90.0   16.666666666666668
-250.0   90.0   16.666666666666668
-300.0   120.0   16.666666666666668
-300.0   90.0   33.333333333333336
-250.0   90.0   16.666666666666668
-250.0   120.0   16.666666666666668
-300.0   120.0   16.666666666666668
-250.0   120.0   33.333333333333336
-300.0   90.0   33.333333333333336
-300.0   120.0   33.333333333333336
-250.0   120.0   33.333333333333336
-300.0   120.0   16.666666666666668
-300.0   90.0   33.333333333333336
-250.0   120.0   33.333333333333336
-250.0   90.0   33.333333333333336
-250.0   90.0   16.666666666666668
-300.0   90.0   33.333333333333336
-250.0   120.0   33.333333333333336
-250.0   90.0   16.666666666666668
-300.0   120.0   16.666666666666668
-300.0   90.0   33.333333333333336
-250.0   90.0   33.333333333333336
-300.0   120.0   33.333333333333336
-300.0   90.0   50.0
-250.0   90.0   33.333333333333336
-250.0   120.0   33.333333333333336
-300.0   120.0   33.333333333333336
-250.0   120.0   50.0
-300.0   90.0   50.0
-300.0   120.0   50.0
-250.0   120.0   50.0
-300.0   120.0   33.333333333333336
-300.0   90.0   50.0
-250.0   120.0   50.0
-250.0   90.0   50.0
-250.0   90.0   33.333333333333336
-300.0   90.0   50.0
-250.0   120.0   50.0
-250.0   90.0   33.333333333333336
-300.0   120.0   33.333333333333336
-300.0   120.0   0.0
-250.0   120.0   0.0
-300.0   150.0   0.0
-300.0   120.0   16.666666666666668
-250.0   120.0   0.0
-250.0   150.0   0.0
-300.0   150.0   0.0
-250.0   150.0   16.666666666666668
-300.0   120.0   16.666666666666668
-300.0   150.0   16.666666666666668
-250.0   150.0   16.666666666666668
-300.0   150.0   0.0
-300.0   120.0   16.666666666666668
-250.0   150.0   16.666666666666668
-250.0   120.0   16.666666666666668
-250.0   120.0   0.0
-300.0   120.0   16.666666666666668
-250.0   150.0   16.666666666666668
-250.0   120.0   0.0
-300.0   150.0   0.0
-300.0   120.0   16.666666666666668
-250.0   120.0   16.666666666666668
-300.0   150.0   16.666666666666668
-300.0   120.0   33.333333333333336
-250.0   120.0   16.666666666666668
-250.0   150.0   16.666666666666668
-300.0   150.0   16.666666666666668
-250.0   150.0   33.333333333333336
-300.0   120.0   33.333333333333336
-300.0   150.0   33.333333333333336
-250.0   150.0   33.333333333333336
-300.0   150.0   16.666666666666668
-300.0   120.0   33.333333333333336
-250.0   150.0   33.333333333333336
-250.0   120.0   33.333333333333336
-250.0   120.0   16.666666666666668
-300.0   120.0   33.333333333333336
-250.0   150.0   33.333333333333336
-250.0   120.0   16.666666666666668
-300.0   150.0   16.666666666666668
-300.0   120.0   33.333333333333336
-250.0   120.0   33.333333333333336
-300.0   150.0   33.333333333333336
-300.0   120.0   50.0
-250.0   120.0   33.333333333333336
-250.0   150.0   33.333333333333336
-300.0   150.0   33.333333333333336
-250.0   150.0   50.0
-300.0   120.0   50.0
-300.0   150.0   50.0
-250.0   150.0   50.0
-300.0   150.0   33.333333333333336
-300.0   120.0   50.0
-250.0   150.0   50.0
-250.0   120.0   50.0
-250.0   120.0   33.333333333333336
-300.0   120.0   50.0
-250.0   150.0   50.0
-250.0   120.0   33.333333333333336
-300.0   150.0   33.333333333333336
-250.0   0.0   0.0
-200.0   0.0   0.0
-250.0   30.0   0.0
-250.0   0.0   16.666666666666668
-200.0   0.0   0.0
-200.0   30.0   0.0
-250.0   30.0   0.0
-200.0   30.0   16.666666666666668
-250.0   0.0   16.666666666666668
-250.0   30.0   16.666666666666668
-200.0   30.0   16.666666666666668
-250.0   30.0   0.0
-250.0   0.0   16.666666666666668
-200.0   30.0   16.666666666666668
-200.0   0.0   16.666666666666668
-200.0   0.0   0.0
-250.0   0.0   16.666666666666668
-200.0   30.0   16.666666666666668
-200.0   0.0   0.0
-250.0   30.0   0.0
-250.0   0.0   16.666666666666668
-200.0   0.0   16.666666666666668
-250.0   30.0   16.666666666666668
-250.0   0.0   33.333333333333336
-200.0   0.0   16.666666666666668
-200.0   30.0   16.666666666666668
-250.0   30.0   16.666666666666668
-200.0   30.0   33.333333333333336
-250.0   0.0   33.333333333333336
-250.0   30.0   33.333333333333336
-200.0   30.0   33.333333333333336
-250.0   30.0   16.666666666666668
-250.0   0.0   33.333333333333336
-200.0   30.0   33.333333333333336
-200.0   0.0   33.333333333333336
-200.0   0.0   16.666666666666668
-250.0   0.0   33.333333333333336
-200.0   30.0   33.333333333333336
-200.0   0.0   16.666666666666668
-250.0   30.0   16.666666666666668
-250.0   0.0   33.333333333333336
-200.0   0.0   33.333333333333336
-250.0   30.0   33.333333333333336
-250.0   0.0   50.0
-200.0   0.0   33.333333333333336
-200.0   30.0   33.333333333333336
-250.0   30.0   33.333333333333336
-200.0   30.0   50.0
-250.0   0.0   50.0
-250.0   30.0   50.0
-200.0   30.0   50.0
-250.0   30.0   33.333333333333336
-250.0   0.0   50.0
-200.0   30.0   50.0
-200.0   0.0   50.0
-200.0   0.0   33.333333333333336
-250.0   0.0   50.0
-200.0   30.0   50.0
-200.0   0.0   33.333333333333336
-250.0   30.0   33.333333333333336
-250.0   30.0   0.0
-200.0   30.0   0.0
-250.0   60.0   0.0
-250.0   30.0   16.666666666666668
-200.0   30.0   0.0
-200.0   60.0   0.0
-250.0   60.0   0.0
-200.0   60.0   16.666666666666668
-250.0   30.0   16.666666666666668
-250.0   60.0   16.666666666666668
-200.0   60.0   16.666666666666668
-250.0   60.0   0.0
-250.0   30.0   16.666666666666668
-200.0   60.0   16.666666666666668
-200.0   30.0   16.666666666666668
-200.0   30.0   0.0
-250.0   30.0   16.666666666666668
-200.0   60.0   16.666666666666668
-200.0   30.0   0.0
-250.0   60.0   0.0
-250.0   30.0   16.666666666666668
-200.0   30.0   16.666666666666668
-250.0   60.0   16.666666666666668
-250.0   30.0   33.333333333333336
-200.0   30.0   16.666666666666668
-200.0   60.0   16.666666666666668
-250.0   60.0   16.666666666666668
-200.0   60.0   33.333333333333336
-250.0   30.0   33.333333333333336
-250.0   60.0   33.333333333333336
-200.0   60.0   33.333333333333336
-250.0   60.0   16.666666666666668
-250.0   30.0   33.333333333333336
-200.0   60.0   33.333333333333336
-200.0   30.0   33.333333333333336
-200.0   30.0   16.666666666666668
-250.0   30.0   33.333333333333336
-200.0   60.0   33.333333333333336
-200.0   30.0   16.666666666666668
-250.0   60.0   16.666666666666668
-250.0   30.0   33.333333333333336
-200.0   30.0   33.333333333333336
-250.0   60.0   33.333333333333336
-250.0   30.0   50.0
-200.0   30.0   33.333333333333336
-200.0   60.0   33.333333333333336
-250.0   60.0   33.333333333333336
-200.0   60.0   50.0
-250.0   30.0   50.0
-250.0   60.0   50.0
-200.0   60.0   50.0
-250.0   60.0   33.333333333333336
-250.0   30.0   50.0
-200.0   60.0   50.0
-200.0   30.0   50.0
-200.0   30.0   33.333333333333336
-250.0   30.0   50.0
-200.0   60.0   50.0
-200.0   30.0   33.333333333333336
-250.0   60.0   33.333333333333336
-250.0   60.0   0.0
-200.0   60.0   0.0
-250.0   90.0   0.0
-250.0   60.0   16.666666666666668
-200.0   60.0   0.0
-200.0   90.0   0.0
-250.0   90.0   0.0
-200.0   90.0   16.666666666666668
-250.0   60.0   16.666666666666668
-250.0   90.0   16.666666666666668
-200.0   90.0   16.666666666666668
-250.0   90.0   0.0
-250.0   60.0   16.666666666666668
-200.0   90.0   16.666666666666668
-200.0   60.0   16.666666666666668
-200.0   60.0   0.0
-250.0   60.0   16.666666666666668
-200.0   90.0   16.666666666666668
-200.0   60.0   0.0
-250.0   90.0   0.0
-250.0   60.0   16.666666666666668
-200.0   60.0   16.666666666666668
-250.0   90.0   16.666666666666668
-250.0   60.0   33.333333333333336
-200.0   60.0   16.666666666666668
-200.0   90.0   16.666666666666668
-250.0   90.0   16.666666666666668
-200.0   90.0   33.333333333333336
-250.0   60.0   33.333333333333336
-250.0   90.0   33.333333333333336
-200.0   90.0   33.333333333333336
-250.0   90.0   16.666666666666668
-250.0   60.0   33.333333333333336
-200.0   90.0   33.333333333333336
-200.0   60.0   33.333333333333336
-200.0   60.0   16.666666666666668
-250.0   60.0   33.333333333333336
-200.0   90.0   33.333333333333336
-200.0   60.0   16.666666666666668
-250.0   90.0   16.666666666666668
-250.0   60.0   33.333333333333336
-200.0   60.0   33.333333333333336
-250.0   90.0   33.333333333333336
-250.0   60.0   50.0
-200.0   60.0   33.333333333333336
-200.0   90.0   33.333333333333336
-250.0   90.0   33.333333333333336
-200.0   90.0   50.0
-250.0   60.0   50.0
-250.0   90.0   50.0
-200.0   90.0   50.0
-250.0   90.0   33.333333333333336
-250.0   60.0   50.0
-200.0   90.0   50.0
-200.0   60.0   50.0
-200.0   60.0   33.333333333333336
-250.0   60.0   50.0
-200.0   90.0   50.0
-200.0   60.0   33.333333333333336
-250.0   90.0   33.333333333333336
-250.0   90.0   0.0
-200.0   90.0   0.0
-250.0   120.0   0.0
-250.0   90.0   16.666666666666668
-200.0   90.0   0.0
-200.0   120.0   0.0
-250.0   120.0   0.0
-200.0   120.0   16.666666666666668
-250.0   90.0   16.666666666666668
-250.0   120.0   16.666666666666668
-200.0   120.0   16.666666666666668
-250.0   120.0   0.0
-250.0   90.0   16.666666666666668
-200.0   120.0   16.666666666666668
-200.0   90.0   16.666666666666668
-200.0   90.0   0.0
-250.0   90.0   16.666666666666668
-200.0   120.0   16.666666666666668
-200.0   90.0   0.0
-250.0   120.0   0.0
-250.0   90.0   16.666666666666668
-200.0   90.0   16.666666666666668
-250.0   120.0   16.666666666666668
-250.0   90.0   33.333333333333336
-200.0   90.0   16.666666666666668
-200.0   120.0   16.666666666666668
-250.0   120.0   16.666666666666668
-200.0   120.0   33.333333333333336
-250.0   90.0   33.333333333333336
-250.0   120.0   33.333333333333336
-200.0   120.0   33.333333333333336
-250.0   120.0   16.666666666666668
-250.0   90.0   33.333333333333336
-200.0   120.0   33.333333333333336
-200.0   90.0   33.333333333333336
-200.0   90.0   16.666666666666668
-250.0   90.0   33.333333333333336
-200.0   120.0   33.333333333333336
-200.0   90.0   16.666666666666668
-250.0   120.0   16.666666666666668
-250.0   90.0   33.333333333333336
-200.0   90.0   33.333333333333336
-250.0   120.0   33.333333333333336
-250.0   90.0   50.0
-200.0   90.0   33.333333333333336
-200.0   120.0   33.333333333333336
-250.0   120.0   33.333333333333336
-200.0   120.0   50.0
-250.0   90.0   50.0
-250.0   120.0   50.0
-200.0   120.0   50.0
-250.0   120.0   33.333333333333336
-250.0   90.0   50.0
-200.0   120.0   50.0
-200.0   90.0   50.0
-200.0   90.0   33.333333333333336
-250.0   90.0   50.0
-200.0   120.0   50.0
-200.0   90.0   33.333333333333336
-250.0   120.0   33.333333333333336
-250.0   120.0   0.0
-200.0   120.0   0.0
-250.0   150.0   0.0
-250.0   120.0   16.666666666666668
-200.0   120.0   0.0
-200.0   150.0   0.0
-250.0   150.0   0.0
-200.0   150.0   16.666666666666668
-250.0   120.0   16.666666666666668
-250.0   150.0   16.666666666666668
-200.0   150.0   16.666666666666668
-250.0   150.0   0.0
-250.0   120.0   16.666666666666668
-200.0   150.0   16.666666666666668
-200.0   120.0   16.666666666666668
-200.0   120.0   0.0
-250.0   120.0   16.666666666666668
-200.0   150.0   16.666666666666668
-200.0   120.0   0.0
-250.0   150.0   0.0
-250.0   120.0   16.666666666666668
-200.0   120.0   16.666666666666668
-250.0   150.0   16.666666666666668
-250.0   120.0   33.333333333333336
-200.0   120.0   16.666666666666668
-200.0   150.0   16.666666666666668
-250.0   150.0   16.666666666666668
-200.0   150.0   33.333333333333336
-250.0   120.0   33.333333333333336
-250.0   150.0   33.333333333333336
-200.0   150.0   33.333333333333336
-250.0   150.0   16.666666666666668
-250.0   120.0   33.333333333333336
-200.0   150.0   33.333333333333336
-200.0   120.0   33.333333333333336
-200.0   120.0   16.666666666666668
-250.0   120.0   33.333333333333336
-200.0   150.0   33.333333333333336
-200.0   120.0   16.666666666666668
-250.0   150.0   16.666666666666668
-250.0   120.0   33.333333333333336
-200.0   120.0   33.333333333333336
-250.0   150.0   33.333333333333336
-250.0   120.0   50.0
-200.0   120.0   33.333333333333336
-200.0   150.0   33.333333333333336
-250.0   150.0   33.333333333333336
-200.0   150.0   50.0
-250.0   120.0   50.0
-250.0   150.0   50.0
-200.0   150.0   50.0
-250.0   150.0   33.333333333333336
-250.0   120.0   50.0
-200.0   150.0   50.0
-200.0   120.0   50.0
-200.0   120.0   33.333333333333336
-250.0   120.0   50.0
-200.0   150.0   50.0
-200.0   120.0   33.333333333333336
-250.0   150.0   33.333333333333336
-200.0   0.0   0.0
-150.0   0.0   0.0
-200.0   30.0   0.0
-200.0   0.0   16.666666666666668
-150.0   0.0   0.0
-150.0   30.0   0.0
-200.0   30.0   0.0
-150.0   30.0   16.666666666666668
-200.0   0.0   16.666666666666668
-200.0   30.0   16.666666666666668
-150.0   30.0   16.666666666666668
-200.0   30.0   0.0
-200.0   0.0   16.666666666666668
-150.0   30.0   16.666666666666668
-150.0   0.0   16.666666666666668
-150.0   0.0   0.0
-200.0   0.0   16.666666666666668
-150.0   30.0   16.666666666666668
-150.0   0.0   0.0
-200.0   30.0   0.0
-200.0   0.0   16.666666666666668
-150.0   0.0   16.666666666666668
-200.0   30.0   16.666666666666668
-200.0   0.0   33.333333333333336
-150.0   0.0   16.666666666666668
-150.0   30.0   16.666666666666668
-200.0   30.0   16.666666666666668
-150.0   30.0   33.333333333333336
-200.0   0.0   33.333333333333336
-200.0   30.0   33.333333333333336
-150.0   30.0   33.333333333333336
-200.0   30.0   16.666666666666668
-200.0   0.0   33.333333333333336
-150.0   30.0   33.333333333333336
-150.0   0.0   33.333333333333336
-150.0   0.0   16.666666666666668
-200.0   0.0   33.333333333333336
-150.0   30.0   33.333333333333336
-150.0   0.0   16.666666666666668
-200.0   30.0   16.666666666666668
-200.0   0.0   33.333333333333336
-150.0   0.0   33.333333333333336
-200.0   30.0   33.333333333333336
-200.0   0.0   50.0
-150.0   0.0   33.333333333333336
-150.0   30.0   33.333333333333336
-200.0   30.0   33.333333333333336
-150.0   30.0   50.0
-200.0   0.0   50.0
-200.0   30.0   50.0
-150.0   30.0   50.0
-200.0   30.0   33.333333333333336
-200.0   0.0   50.0
-150.0   30.0   50.0
-150.0   0.0   50.0
-150.0   0.0   33.333333333333336
-200.0   0.0   50.0
-150.0   30.0   50.0
-150.0   0.0   33.333333333333336
-200.0   30.0   33.333333333333336
-200.0   30.0   0.0
-150.0   30.0   0.0
-200.0   60.0   0.0
-200.0   30.0   16.666666666666668
-150.0   30.0   0.0
-150.0   60.0   0.0
-200.0   60.0   0.0
-150.0   60.0   16.666666666666668
-200.0   30.0   16.666666666666668
-200.0   60.0   16.666666666666668
-150.0   60.0   16.666666666666668
-200.0   60.0   0.0
-200.0   30.0   16.666666666666668
-150.0   60.0   16.666666666666668
-150.0   30.0   16.666666666666668
-150.0   30.0   0.0
-200.0   30.0   16.666666666666668
-150.0   60.0   16.666666666666668
-150.0   30.0   0.0
-200.0   60.0   0.0
-200.0   30.0   16.666666666666668
-150.0   30.0   16.666666666666668
-200.0   60.0   16.666666666666668
-200.0   30.0   33.333333333333336
-150.0   30.0   16.666666666666668
-150.0   60.0   16.666666666666668
-200.0   60.0   16.666666666666668
-150.0   60.0   33.333333333333336
-200.0   30.0   33.333333333333336
-200.0   60.0   33.333333333333336
-150.0   60.0   33.333333333333336
-200.0   60.0   16.666666666666668
-200.0   30.0   33.333333333333336
-150.0   60.0   33.333333333333336
-150.0   30.0   33.333333333333336
-150.0   30.0   16.666666666666668
-200.0   30.0   33.333333333333336
-150.0   60.0   33.333333333333336
-150.0   30.0   16.666666666666668
-200.0   60.0   16.666666666666668
-200.0   30.0   33.333333333333336
-150.0   30.0   33.333333333333336
-200.0   60.0   33.333333333333336
-200.0   30.0   50.0
-150.0   30.0   33.333333333333336
-150.0   60.0   33.333333333333336
-200.0   60.0   33.333333333333336
-150.0   60.0   50.0
-200.0   30.0   50.0
-200.0   60.0   50.0
-150.0   60.0   50.0
-200.0   60.0   33.333333333333336
-200.0   30.0   50.0
-150.0   60.0   50.0
-150.0   30.0   50.0
-150.0   30.0   33.333333333333336
-200.0   30.0   50.0
-150.0   60.0   50.0
-150.0   30.0   33.333333333333336
-200.0   60.0   33.333333333333336
-200.0   60.0   0.0
-150.0   60.0   0.0
-200.0   90.0   0.0
-200.0   60.0   16.666666666666668
-150.0   60.0   0.0
-150.0   90.0   0.0
-200.0   90.0   0.0
-150.0   90.0   16.666666666666668
-200.0   60.0   16.666666666666668
-200.0   90.0   16.666666666666668
-150.0   90.0   16.666666666666668
-200.0   90.0   0.0
-200.0   60.0   16.666666666666668
-150.0   90.0   16.666666666666668
-150.0   60.0   16.666666666666668
-150.0   60.0   0.0
-200.0   60.0   16.666666666666668
-150.0   90.0   16.666666666666668
-150.0   60.0   0.0
-200.0   90.0   0.0
-200.0   60.0   16.666666666666668
-150.0   60.0   16.666666666666668
-200.0   90.0   16.666666666666668
-200.0   60.0   33.333333333333336
-150.0   60.0   16.666666666666668
-150.0   90.0   16.666666666666668
-200.0   90.0   16.666666666666668
-150.0   90.0   33.333333333333336
-200.0   60.0   33.333333333333336
-200.0   90.0   33.333333333333336
-150.0   90.0   33.333333333333336
-200.0   90.0   16.666666666666668
-200.0   60.0   33.333333333333336
-150.0   90.0   33.333333333333336
-150.0   60.0   33.333333333333336
-150.0   60.0   16.666666666666668
-200.0   60.0   33.333333333333336
-150.0   90.0   33.333333333333336
-150.0   60.0   16.666666666666668
-200.0   90.0   16.666666666666668
-200.0   60.0   33.333333333333336
-150.0   60.0   33.333333333333336
-200.0   90.0   33.333333333333336
-200.0   60.0   50.0
-150.0   60.0   33.333333333333336
-150.0   90.0   33.333333333333336
-200.0   90.0   33.333333333333336
-150.0   90.0   50.0
-200.0   60.0   50.0
-200.0   90.0   50.0
-150.0   90.0   50.0
-200.0   90.0   33.333333333333336
-200.0   60.0   50.0
-150.0   90.0   50.0
-150.0   60.0   50.0
-150.0   60.0   33.333333333333336
-200.0   60.0   50.0
-150.0   90.0   50.0
-150.0   60.0   33.333333333333336
-200.0   90.0   33.333333333333336
-200.0   90.0   0.0
-150.0   90.0   0.0
-200.0   120.0   0.0
-200.0   90.0   16.666666666666668
-150.0   90.0   0.0
-150.0   120.0   0.0
-200.0   120.0   0.0
-150.0   120.0   16.666666666666668
-200.0   90.0   16.666666666666668
-200.0   120.0   16.666666666666668
-150.0   120.0   16.666666666666668
-200.0   120.0   0.0
-200.0   90.0   16.666666666666668
-150.0   120.0   16.666666666666668
-150.0   90.0   16.666666666666668
-150.0   90.0   0.0
-200.0   90.0   16.666666666666668
-150.0   120.0   16.666666666666668
-150.0   90.0   0.0
-200.0   120.0   0.0
-200.0   90.0   16.666666666666668
-150.0   90.0   16.666666666666668
-200.0   120.0   16.666666666666668
-200.0   90.0   33.333333333333336
-150.0   90.0   16.666666666666668
-150.0   120.0   16.666666666666668
-200.0   120.0   16.666666666666668
-150.0   120.0   33.333333333333336
-200.0   90.0   33.333333333333336
-200.0   120.0   33.333333333333336
-150.0   120.0   33.333333333333336
-200.0   120.0   16.666666666666668
-200.0   90.0   33.333333333333336
-150.0   120.0   33.333333333333336
-150.0   90.0   33.333333333333336
-150.0   90.0   16.666666666666668
-200.0   90.0   33.333333333333336
-150.0   120.0   33.333333333333336
-150.0   90.0   16.666666666666668
-200.0   120.0   16.666666666666668
-200.0   90.0   33.333333333333336
-150.0   90.0   33.333333333333336
-200.0   120.0   33.333333333333336
-200.0   90.0   50.0
-150.0   90.0   33.333333333333336
-150.0   120.0   33.333333333333336
-200.0   120.0   33.333333333333336
-150.0   120.0   50.0
-200.0   90.0   50.0
-200.0   120.0   50.0
-150.0   120.0   50.0
-200.0   120.0   33.333333333333336
-200.0   90.0   50.0
-150.0   120.0   50.0
-150.0   90.0   50.0
-150.0   90.0   33.333333333333336
-200.0   90.0   50.0
-150.0   120.0   50.0
-150.0   90.0   33.333333333333336
-200.0   120.0   33.333333333333336
-200.0   120.0   0.0
-150.0   120.0   0.0
-200.0   150.0   0.0
-200.0   120.0   16.666666666666668
-150.0   120.0   0.0
-150.0   150.0   0.0
-200.0   150.0   0.0
-150.0   150.0   16.666666666666668
-200.0   120.0   16.666666666666668
-200.0   150.0   16.666666666666668
-150.0   150.0   16.666666666666668
-200.0   150.0   0.0
-200.0   120.0   16.666666666666668
-150.0   150.0   16.666666666666668
-150.0   120.0   16.666666666666668
-150.0   120.0   0.0
-200.0   120.0   16.666666666666668
-150.0   150.0   16.666666666666668
-150.0   120.0   0.0
-200.0   150.0   0.0
-200.0   120.0   16.666666666666668
-150.0   120.0   16.666666666666668
-200.0   150.0   16.666666666666668
-200.0   120.0   33.333333333333336
-150.0   120.0   16.666666666666668
-150.0   150.0   16.666666666666668
-200.0   150.0   16.666666666666668
-150.0   150.0   33.333333333333336
-200.0   120.0   33.333333333333336
-200.0   150.0   33.333333333333336
-150.0   150.0   33.333333333333336
-200.0   150.0   16.666666666666668
-200.0   120.0   33.333333333333336
-150.0   150.0   33.333333333333336
-150.0   120.0   33.333333333333336
-150.0   120.0   16.666666666666668
-200.0   120.0   33.333333333333336
-150.0   150.0   33.333333333333336
-150.0   120.0   16.666666666666668
-200.0   150.0   16.666666666666668
-200.0   120.0   33.333333333333336
-150.0   120.0   33.333333333333336
-200.0   150.0   33.333333333333336
-200.0   120.0   50.0
-150.0   120.0   33.333333333333336
-150.0   150.0   33.333333333333336
-200.0   150.0   33.333333333333336
-150.0   150.0   50.0
-200.0   120.0   50.0
-200.0   150.0   50.0
-150.0   150.0   50.0
-200.0   150.0   33.333333333333336
-200.0   120.0   50.0
-150.0   150.0   50.0
-150.0   120.0   50.0
-150.0   120.0   33.333333333333336
-200.0   120.0   50.0
-150.0   150.0   50.0
-150.0   120.0   33.333333333333336
-200.0   150.0   33.333333333333336
-150.0   0.0   0.0
-100.0   0.0   0.0
-150.0   30.0   0.0
-150.0   0.0   16.666666666666668
-100.0   0.0   0.0
-100.0   30.0   0.0
-150.0   30.0   0.0
-100.0   30.0   16.666666666666668
-150.0   0.0   16.666666666666668
-150.0   30.0   16.666666666666668
-100.0   30.0   16.666666666666668
-150.0   30.0   0.0
-150.0   0.0   16.666666666666668
-100.0   30.0   16.666666666666668
-100.0   0.0   16.666666666666668
-100.0   0.0   0.0
-150.0   0.0   16.666666666666668
-100.0   30.0   16.666666666666668
-100.0   0.0   0.0
-150.0   30.0   0.0
-150.0   0.0   16.666666666666668
-100.0   0.0   16.666666666666668
-150.0   30.0   16.666666666666668
-150.0   0.0   33.333333333333336
-100.0   0.0   16.666666666666668
-100.0   30.0   16.666666666666668
-150.0   30.0   16.666666666666668
-100.0   30.0   33.333333333333336
-150.0   0.0   33.333333333333336
-150.0   30.0   33.333333333333336
-100.0   30.0   33.333333333333336
-150.0   30.0   16.666666666666668
-150.0   0.0   33.333333333333336
-100.0   30.0   33.333333333333336
-100.0   0.0   33.333333333333336
-100.0   0.0   16.666666666666668
-150.0   0.0   33.333333333333336
-100.0   30.0   33.333333333333336
-100.0   0.0   16.666666666666668
-150.0   30.0   16.666666666666668
-150.0   0.0   33.333333333333336
-100.0   0.0   33.333333333333336
-150.0   30.0   33.333333333333336
-150.0   0.0   50.0
-100.0   0.0   33.333333333333336
-100.0   30.0   33.333333333333336
-150.0   30.0   33.333333333333336
-100.0   30.0   50.0
-150.0   0.0   50.0
-150.0   30.0   50.0
-100.0   30.0   50.0
-150.0   30.0   33.333333333333336
-150.0   0.0   50.0
-100.0   30.0   50.0
-100.0   0.0   50.0
-100.0   0.0   33.333333333333336
-150.0   0.0   50.0
-100.0   30.0   50.0
-100.0   0.0   33.333333333333336
-150.0   30.0   33.333333333333336
-150.0   30.0   0.0
-100.0   30.0   0.0
-150.0   60.0   0.0
-150.0   30.0   16.666666666666668
-100.0   30.0   0.0
-100.0   60.0   0.0
-150.0   60.0   0.0
-100.0   60.0   16.666666666666668
-150.0   30.0   16.666666666666668
-150.0   60.0   16.666666666666668
-100.0   60.0   16.666666666666668
-150.0   60.0   0.0
-150.0   30.0   16.666666666666668
-100.0   60.0   16.666666666666668
-100.0   30.0   16.666666666666668
-100.0   30.0   0.0
-150.0   30.0   16.666666666666668
-100.0   60.0   16.666666666666668
-100.0   30.0   0.0
-150.0   60.0   0.0
-150.0   30.0   16.666666666666668
-100.0   30.0   16.666666666666668
-150.0   60.0   16.666666666666668
-150.0   30.0   33.333333333333336
-100.0   30.0   16.666666666666668
-100.0   60.0   16.666666666666668
-150.0   60.0   16.666666666666668
-100.0   60.0   33.333333333333336
-150.0   30.0   33.333333333333336
-150.0   60.0   33.333333333333336
-100.0   60.0   33.333333333333336
-150.0   60.0   16.666666666666668
-150.0   30.0   33.333333333333336
-100.0   60.0   33.333333333333336
-100.0   30.0   33.333333333333336
-100.0   30.0   16.666666666666668
-150.0   30.0   33.333333333333336
-100.0   60.0   33.333333333333336
-100.0   30.0   16.666666666666668
-150.0   60.0   16.666666666666668
-150.0   30.0   33.333333333333336
-100.0   30.0   33.333333333333336
-150.0   60.0   33.333333333333336
-150.0   30.0   50.0
-100.0   30.0   33.333333333333336
-100.0   60.0   33.333333333333336
-150.0   60.0   33.333333333333336
-100.0   60.0   50.0
-150.0   30.0   50.0
-150.0   60.0   50.0
-100.0   60.0   50.0
-150.0   60.0   33.333333333333336
-150.0   30.0   50.0
-100.0   60.0   50.0
-100.0   30.0   50.0
-100.0   30.0   33.333333333333336
-150.0   30.0   50.0
-100.0   60.0   50.0
-100.0   30.0   33.333333333333336
-150.0   60.0   33.333333333333336
-150.0   60.0   0.0
-100.0   60.0   0.0
-150.0   90.0   0.0
-150.0   60.0   16.666666666666668
-100.0   60.0   0.0
-100.0   90.0   0.0
-150.0   90.0   0.0
-100.0   90.0   16.666666666666668
-150.0   60.0   16.666666666666668
-150.0   90.0   16.666666666666668
-100.0   90.0   16.666666666666668
-150.0   90.0   0.0
-150.0   60.0   16.666666666666668
-100.0   90.0   16.666666666666668
-100.0   60.0   16.666666666666668
-100.0   60.0   0.0
-150.0   60.0   16.666666666666668
-100.0   90.0   16.666666666666668
-100.0   60.0   0.0
-150.0   90.0   0.0
-150.0   60.0   16.666666666666668
-100.0   60.0   16.666666666666668
-150.0   90.0   16.666666666666668
-150.0   60.0   33.333333333333336
-100.0   60.0   16.666666666666668
-100.0   90.0   16.666666666666668
-150.0   90.0   16.666666666666668
-100.0   90.0   33.333333333333336
-150.0   60.0   33.333333333333336
-150.0   90.0   33.333333333333336
-100.0   90.0   33.333333333333336
-150.0   90.0   16.666666666666668
-150.0   60.0   33.333333333333336
-100.0   90.0   33.333333333333336
-100.0   60.0   33.333333333333336
-100.0   60.0   16.666666666666668
-150.0   60.0   33.333333333333336
-100.0   90.0   33.333333333333336
-100.0   60.0   16.666666666666668
-150.0   90.0   16.666666666666668
-150.0   60.0   33.333333333333336
-100.0   60.0   33.333333333333336
-150.0   90.0   33.333333333333336
-150.0   60.0   50.0
-100.0   60.0   33.333333333333336
-100.0   90.0   33.333333333333336
-150.0   90.0   33.333333333333336
-100.0   90.0   50.0
-150.0   60.0   50.0
-150.0   90.0   50.0
-100.0   90.0   50.0
-150.0   90.0   33.333333333333336
-150.0   60.0   50.0
-100.0   90.0   50.0
-100.0   60.0   50.0
-100.0   60.0   33.333333333333336
-150.0   60.0   50.0
-100.0   90.0   50.0
-100.0   60.0   33.333333333333336
-150.0   90.0   33.333333333333336
-150.0   90.0   0.0
-100.0   90.0   0.0
-150.0   120.0   0.0
-150.0   90.0   16.666666666666668
-100.0   90.0   0.0
-100.0   120.0   0.0
-150.0   120.0   0.0
-100.0   120.0   16.666666666666668
-150.0   90.0   16.666666666666668
-150.0   120.0   16.666666666666668
-100.0   120.0   16.666666666666668
-150.0   120.0   0.0
-150.0   90.0   16.666666666666668
-100.0   120.0   16.666666666666668
-100.0   90.0   16.666666666666668
-100.0   90.0   0.0
-150.0   90.0   16.666666666666668
-100.0   120.0   16.666666666666668
-100.0   90.0   0.0
-150.0   120.0   0.0
-150.0   90.0   16.666666666666668
-100.0   90.0   16.666666666666668
-150.0   120.0   16.666666666666668
-150.0   90.0   33.333333333333336
-100.0   90.0   16.666666666666668
-100.0   120.0   16.666666666666668
-150.0   120.0   16.666666666666668
-100.0   120.0   33.333333333333336
-150.0   90.0   33.333333333333336
-150.0   120.0   33.333333333333336
-100.0   120.0   33.333333333333336
-150.0   120.0   16.666666666666668
-150.0   90.0   33.333333333333336
-100.0   120.0   33.333333333333336
-100.0   90.0   33.333333333333336
-100.0   90.0   16.666666666666668
-150.0   90.0   33.333333333333336
-100.0   120.0   33.333333333333336
-100.0   90.0   16.666666666666668
-150.0   120.0   16.666666666666668
-150.0   90.0   33.333333333333336
-100.0   90.0   33.333333333333336
-150.0   120.0   33.333333333333336
-150.0   90.0   50.0
-100.0   90.0   33.333333333333336
-100.0   120.0   33.333333333333336
-150.0   120.0   33.333333333333336
-100.0   120.0   50.0
-150.0   90.0   50.0
-150.0   120.0   50.0
-100.0   120.0   50.0
-150.0   120.0   33.333333333333336
-150.0   90.0   50.0
-100.0   120.0   50.0
-100.0   90.0   50.0
-100.0   90.0   33.333333333333336
-150.0   90.0   50.0
-100.0   120.0   50.0
-100.0   90.0   33.333333333333336
-150.0   120.0   33.333333333333336
-150.0   120.0   0.0
-100.0   120.0   0.0
-150.0   150.0   0.0
-150.0   120.0   16.666666666666668
-100.0   120.0   0.0
-100.0   150.0   0.0
-150.0   150.0   0.0
-100.0   150.0   16.666666666666668
-150.0   120.0   16.666666666666668
-150.0   150.0   16.666666666666668
-100.0   150.0   16.666666666666668
-150.0   150.0   0.0
-150.0   120.0   16.666666666666668
-100.0   150.0   16.666666666666668
-100.0   120.0   16.666666666666668
-100.0   120.0   0.0
-150.0   120.0   16.666666666666668
-100.0   150.0   16.666666666666668
-100.0   120.0   0.0
-150.0   150.0   0.0
-150.0   120.0   16.666666666666668
-100.0   120.0   16.666666666666668
-150.0   150.0   16.666666666666668
-150.0   120.0   33.333333333333336
-100.0   120.0   16.666666666666668
-100.0   150.0   16.666666666666668
-150.0   150.0   16.666666666666668
-100.0   150.0   33.333333333333336
-150.0   120.0   33.333333333333336
-150.0   150.0   33.333333333333336
-100.0   150.0   33.333333333333336
-150.0   150.0   16.666666666666668
-150.0   120.0   33.333333333333336
-100.0   150.0   33.333333333333336
-100.0   120.0   33.333333333333336
-100.0   120.0   16.666666666666668
-150.0   120.0   33.333333333333336
-100.0   150.0   33.333333333333336
-100.0   120.0   16.666666666666668
-150.0   150.0   16.666666666666668
-150.0   120.0   33.333333333333336
-100.0   120.0   33.333333333333336
-150.0   150.0   33.333333333333336
-150.0   120.0   50.0
-100.0   120.0   33.333333333333336
-100.0   150.0   33.333333333333336
-150.0   150.0   33.333333333333336
-100.0   150.0   50.0
-150.0   120.0   50.0
-150.0   150.0   50.0
-100.0   150.0   50.0
-150.0   150.0   33.333333333333336
-150.0   120.0   50.0
-100.0   150.0   50.0
-100.0   120.0   50.0
-100.0   120.0   33.333333333333336
-150.0   120.0   50.0
-100.0   150.0   50.0
-100.0   120.0   33.333333333333336
-150.0   150.0   33.333333333333336
-100.0   0.0   0.0
-50.0   0.0   0.0
-100.0   30.0   0.0
-100.0   0.0   16.666666666666668
-50.0   0.0   0.0
-50.0   30.0   0.0
-100.0   30.0   0.0
-50.0   30.0   16.666666666666668
-100.0   0.0   16.666666666666668
-100.0   30.0   16.666666666666668
-50.0   30.0   16.666666666666668
-100.0   30.0   0.0
-100.0   0.0   16.666666666666668
-50.0   30.0   16.666666666666668
-50.0   0.0   16.666666666666668
-50.0   0.0   0.0
-100.0   0.0   16.666666666666668
-50.0   30.0   16.666666666666668
-50.0   0.0   0.0
-100.0   30.0   0.0
-100.0   0.0   16.666666666666668
-50.0   0.0   16.666666666666668
-100.0   30.0   16.666666666666668
-100.0   0.0   33.333333333333336
-50.0   0.0   16.666666666666668
-50.0   30.0   16.666666666666668
-100.0   30.0   16.666666666666668
-50.0   30.0   33.333333333333336
-100.0   0.0   33.333333333333336
-100.0   30.0   33.333333333333336
-50.0   30.0   33.333333333333336
-100.0   30.0   16.666666666666668
-100.0   0.0   33.333333333333336
-50.0   30.0   33.333333333333336
-50.0   0.0   33.333333333333336
-50.0   0.0   16.666666666666668
-100.0   0.0   33.333333333333336
-50.0   30.0   33.333333333333336
-50.0   0.0   16.666666666666668
-100.0   30.0   16.666666666666668
-100.0   0.0   33.333333333333336
-50.0   0.0   33.333333333333336
-100.0   30.0   33.333333333333336
-100.0   0.0   50.0
-50.0   0.0   33.333333333333336
-50.0   30.0   33.333333333333336
-100.0   30.0   33.333333333333336
-50.0   30.0   50.0
-100.0   0.0   50.0
-100.0   30.0   50.0
-50.0   30.0   50.0
-100.0   30.0   33.333333333333336
-100.0   0.0   50.0
-50.0   30.0   50.0
-50.0   0.0   50.0
-50.0   0.0   33.333333333333336
-100.0   0.0   50.0
-50.0   30.0   50.0
-50.0   0.0   33.333333333333336
-100.0   30.0   33.333333333333336
-100.0   30.0   0.0
-50.0   30.0   0.0
-100.0   60.0   0.0
-100.0   30.0   16.666666666666668
-50.0   30.0   0.0
-50.0   60.0   0.0
-100.0   60.0   0.0
-50.0   60.0   16.666666666666668
-100.0   30.0   16.666666666666668
-100.0   60.0   16.666666666666668
-50.0   60.0   16.666666666666668
-100.0   60.0   0.0
-100.0   30.0   16.666666666666668
-50.0   60.0   16.666666666666668
-50.0   30.0   16.666666666666668
-50.0   30.0   0.0
-100.0   30.0   16.666666666666668
-50.0   60.0   16.666666666666668
-50.0   30.0   0.0
-100.0   60.0   0.0
-100.0   30.0   16.666666666666668
-50.0   30.0   16.666666666666668
-100.0   60.0   16.666666666666668
-100.0   30.0   33.333333333333336
-50.0   30.0   16.666666666666668
-50.0   60.0   16.666666666666668
-100.0   60.0   16.666666666666668
-50.0   60.0   33.333333333333336
-100.0   30.0   33.333333333333336
-100.0   60.0   33.333333333333336
-50.0   60.0   33.333333333333336
-100.0   60.0   16.666666666666668
-100.0   30.0   33.333333333333336
-50.0   60.0   33.333333333333336
-50.0   30.0   33.333333333333336
-50.0   30.0   16.666666666666668
-100.0   30.0   33.333333333333336
-50.0   60.0   33.333333333333336
-50.0   30.0   16.666666666666668
-100.0   60.0   16.666666666666668
-100.0   30.0   33.333333333333336
-50.0   30.0   33.333333333333336
-100.0   60.0   33.333333333333336
-100.0   30.0   50.0
-50.0   30.0   33.333333333333336
-50.0   60.0   33.333333333333336
-100.0   60.0   33.333333333333336
-50.0   60.0   50.0
-100.0   30.0   50.0
-100.0   60.0   50.0
-50.0   60.0   50.0
-100.0   60.0   33.333333333333336
-100.0   30.0   50.0
-50.0   60.0   50.0
-50.0   30.0   50.0
-50.0   30.0   33.333333333333336
-100.0   30.0   50.0
-50.0   60.0   50.0
-50.0   30.0   33.333333333333336
-100.0   60.0   33.333333333333336
-100.0   60.0   0.0
-50.0   60.0   0.0
-100.0   90.0   0.0
-100.0   60.0   16.666666666666668
-50.0   60.0   0.0
-50.0   90.0   0.0
-100.0   90.0   0.0
-50.0   90.0   16.666666666666668
-100.0   60.0   16.666666666666668
-100.0   90.0   16.666666666666668
-50.0   90.0   16.666666666666668
-100.0   90.0   0.0
-100.0   60.0   16.666666666666668
-50.0   90.0   16.666666666666668
-50.0   60.0   16.666666666666668
-50.0   60.0   0.0
-100.0   60.0   16.666666666666668
-50.0   90.0   16.666666666666668
-50.0   60.0   0.0
-100.0   90.0   0.0
-100.0   60.0   16.666666666666668
-50.0   60.0   16.666666666666668
-100.0   90.0   16.666666666666668
-100.0   60.0   33.333333333333336
-50.0   60.0   16.666666666666668
-50.0   90.0   16.666666666666668
-100.0   90.0   16.666666666666668
-50.0   90.0   33.333333333333336
-100.0   60.0   33.333333333333336
-100.0   90.0   33.333333333333336
-50.0   90.0   33.333333333333336
-100.0   90.0   16.666666666666668
-100.0   60.0   33.333333333333336
-50.0   90.0   33.333333333333336
-50.0   60.0   33.333333333333336
-50.0   60.0   16.666666666666668
-100.0   60.0   33.333333333333336
-50.0   90.0   33.333333333333336
-50.0   60.0   16.666666666666668
-100.0   90.0   16.666666666666668
-100.0   60.0   33.333333333333336
-50.0   60.0   33.333333333333336
-100.0   90.0   33.333333333333336
-100.0   60.0   50.0
-50.0   60.0   33.333333333333336
-50.0   90.0   33.333333333333336
-100.0   90.0   33.333333333333336
-50.0   90.0   50.0
-100.0   60.0   50.0
-100.0   90.0   50.0
-50.0   90.0   50.0
-100.0   90.0   33.333333333333336
-100.0   60.0   50.0
-50.0   90.0   50.0
-50.0   60.0   50.0
-50.0   60.0   33.333333333333336
-100.0   60.0   50.0
-50.0   90.0   50.0
-50.0   60.0   33.333333333333336
-100.0   90.0   33.333333333333336
-100.0   90.0   0.0
-50.0   90.0   0.0
-100.0   120.0   0.0
-100.0   90.0   16.666666666666668
-50.0   90.0   0.0
-50.0   120.0   0.0
-100.0   120.0   0.0
-50.0   120.0   16.666666666666668
-100.0   90.0   16.666666666666668
-100.0   120.0   16.666666666666668
-50.0   120.0   16.666666666666668
-100.0   120.0   0.0
-100.0   90.0   16.666666666666668
-50.0   120.0   16.666666666666668
-50.0   90.0   16.666666666666668
-50.0   90.0   0.0
-100.0   90.0   16.666666666666668
-50.0   120.0   16.666666666666668
-50.0   90.0   0.0
-100.0   120.0   0.0
-100.0   90.0   16.666666666666668
-50.0   90.0   16.666666666666668
-100.0   120.0   16.666666666666668
-100.0   90.0   33.333333333333336
-50.0   90.0   16.666666666666668
-50.0   120.0   16.666666666666668
-100.0   120.0   16.666666666666668
-50.0   120.0   33.333333333333336
-100.0   90.0   33.333333333333336
-100.0   120.0   33.333333333333336
-50.0   120.0   33.333333333333336
-100.0   120.0   16.666666666666668
-100.0   90.0   33.333333333333336
-50.0   120.0   33.333333333333336
-50.0   90.0   33.333333333333336
-50.0   90.0   16.666666666666668
-100.0   90.0   33.333333333333336
-50.0   120.0   33.333333333333336
-50.0   90.0   16.666666666666668
-100.0   120.0   16.666666666666668
-100.0   90.0   33.333333333333336
-50.0   90.0   33.333333333333336
-100.0   120.0   33.333333333333336
-100.0   90.0   50.0
-50.0   90.0   33.333333333333336
-50.0   120.0   33.333333333333336
-100.0   120.0   33.333333333333336
-50.0   120.0   50.0
-100.0   90.0   50.0
-100.0   120.0   50.0
-50.0   120.0   50.0
-100.0   120.0   33.333333333333336
-100.0   90.0   50.0
-50.0   120.0   50.0
-50.0   90.0   50.0
-50.0   90.0   33.333333333333336
-100.0   90.0   50.0
-50.0   120.0   50.0
-50.0   90.0   33.333333333333336
-100.0   120.0   33.333333333333336
-100.0   120.0   0.0
-50.0   120.0   0.0
-100.0   150.0   0.0
-100.0   120.0   16.666666666666668
-50.0   120.0   0.0
-50.0   150.0   0.0
-100.0   150.0   0.0
-50.0   150.0   16.666666666666668
-100.0   120.0   16.666666666666668
-100.0   150.0   16.666666666666668
-50.0   150.0   16.666666666666668
-100.0   150.0   0.0
-100.0   120.0   16.666666666666668
-50.0   150.0   16.666666666666668
-50.0   120.0   16.666666666666668
-50.0   120.0   0.0
-100.0   120.0   16.666666666666668
-50.0   150.0   16.666666666666668
-50.0   120.0   0.0
-100.0   150.0   0.0
-100.0   120.0   16.666666666666668
-50.0   120.0   16.666666666666668
-100.0   150.0   16.666666666666668
-100.0   120.0   33.333333333333336
-50.0   120.0   16.666666666666668
-50.0   150.0   16.666666666666668
-100.0   150.0   16.666666666666668
-50.0   150.0   33.333333333333336
-100.0   120.0   33.333333333333336
-100.0   150.0   33.333333333333336
-50.0   150.0   33.333333333333336
-100.0   150.0   16.666666666666668
-100.0   120.0   33.333333333333336
-50.0   150.0   33.333333333333336
-50.0   120.0   33.333333333333336
-50.0   120.0   16.666666666666668
-100.0   120.0   33.333333333333336
-50.0   150.0   33.333333333333336
-50.0   120.0   16.666666666666668
-100.0   150.0   16.666666666666668
-100.0   120.0   33.333333333333336
-50.0   120.0   33.333333333333336
-100.0   150.0   33.333333333333336
-100.0   120.0   50.0
-50.0   120.0   33.333333333333336
-50.0   150.0   33.333333333333336
-100.0   150.0   33.333333333333336
-50.0   150.0   50.0
-100.0   120.0   50.0
-100.0   150.0   50.0
-50.0   150.0   50.0
-100.0   150.0   33.333333333333336
-100.0   120.0   50.0
-50.0   150.0   50.0
-50.0   120.0   50.0
-50.0   120.0   33.333333333333336
-100.0   120.0   50.0
-50.0   150.0   50.0
-50.0   120.0   33.333333333333336
-100.0   150.0   33.333333333333336
-50.0   0.0   0.0
0.0   0.0   0.0
-50.0   30.0   0.0
-50.0   0.0   16.666666666666668
0.0   0.0   0.0
0.0   30.0   0.0
-50.0   30.0   0.0
0.0   30.0   16.666666666666668
-50.0   0.0   16.666666666666668
-50.0   30.0   16.666666666666668
0.0   30.0   16.666666666666668
-50.0   30.0   0.0
-50.0   0.0   16.666666666666668
0.0   30.0   16.666666666666668
0.0   0.0   16.666666666666668
0.0   0.0   0.0
-50.0   0.0   16.666666666666668
0.0   30.0   16.666666666666668
0.0   0.0   0.0
-50.0   30.0   0.0
-50.0   0.0   16.666666666666668
0.0   0.0   16.666666666666668
-50.0   30.0   16.666666666666668
-50.0   0.0   33.333333333333336
0.0   0.0   16.666666666666668
0.0   30.0   16.666666666666668
-50.0   30.0   16.666666666666668
0.0   30.0   33.333333333333336
-50.0   0.0   33.333333333333336
-50.0   30.0   33.333333333333336
0.0   30.0   33.333333333333336
-50.0   30.0   16.666666666666668
-50.0   0.0   33.333333333333336
0.0   30.0   33.333333333333336
0.0   0.0   33.333333333333336
0.0   0.0   16.666666666666668
-50.0   0.0   33.333333333333336
0.0   30.0   33.333333333333336
0.0   0.0   16.666666666666668
-50.0   30.0   16.666666666666668
-50.0   0.0   33.333333333333336
0.0   0.0   33.333333333333336
-50.0   30.0   33.333333333333336
-50.0   0.0   50.0
0.0   0.0   33.333333333333336
0.0   30.0   33.333333333333336
-50.0   30.0   33.333333333333336
0.0   30.0   50.0
-50.0   0.0   50.0
-50.0   30.0   50.0
0.0   30.0   50.0
-50.0   30.0   33.333333333333336
-50.0   0.0   50.0
0.0   30.0   50.0
0.0   0.0   50.0
0.0   0.0   33.333333333333336
-50.0   0.0   50.0
0.0   30.0   50.0
0.0   0.0   33.333333333333336
-50.0   30.0   33.333333333333336
-50.0   30.0   0.0
0.0   30.0   0.0
-50.0   60.0   0.0
-50.0   30.0   16.666666666666668
0.0   30.0   0.0
0.0   60.0   0.0
-50.0   60.0   0.0
0.0   60.0   16.666666666666668
-50.0   30.0   16.666666666666668
-50.0   60.0   16.666666666666668
0.0   60.0   16.666666666666668
-50.0   60.0   0.0
-50.0   30.0   16.666666666666668
0.0   60.0   16.666666666666668
0.0   30.0   16.666666666666668
0.0   30.0   0.0
-50.0   30.0   16.666666666666668
0.0   60.0   16.666666666666668
0.0   30.0   0.0
-50.0   60.0   0.0
-50.0   30.0   16.666666666666668
0.0   30.0   16.666666666666668
-50.0   60.0   16.666666666666668
-50.0   30.0   33.333333333333336
0.0   30.0   16.666666666666668
0.0   60.0   16.666666666666668
-50.0   60.0   16.666666666666668
0.0   60.0   33.333333333333336
-50.0   30.0   33.333333333333336
-50.0   60.0   33.333333333333336
0.0   60.0   33.333333333333336
-50.0   60.0   16.666666666666668
-50.0   30.0   33.333333333333336
0.0   60.0   33.333333333333336
0.0   30.0   33.333333333333336
0.0   30.0   16.666666666666668
-50.0   30.0   33.333333333333336
0.0   60.0   33.333333333333336
0.0   30.0   16.666666666666668
-50.0   60.0   16.666666666666668
-50.0   30.0   33.333333333333336
0.0   30.0   33.333333333333336
-50.0   60.0   33.333333333333336
-50.0   30.0   50.0
0.0   30.0   33.333333333333336
0.0   60.0   33.333333333333336
-50.0   60.0   33.333333333333336
0.0   60.0   50.0
-50.0   30.0   50.0
-50.0   60.0   50.0
0.0   60.0   50.0
-50.0   60.0   33.333333333333336
-50.0   30.0   50.0
0.0   60.0   50.0
0.0   30.0   50.0
0.0   30.0   33.333333333333336
-50.0   30.0   50.0
0.0   60.0   50.0
0.0   30.0   33.333333333333336
-50.0   60.0   33.333333333333336
-50.0   60.0   0.0
0.0   60.0   0.0
-50.0   90.0   0.0
-50.0   60.0   16.666666666666668
0.0   60.0   0.0
0.0   90.0   0.0
-50.0   90.0   0.0
0.0   90.0   16.666666666666668
-50.0   60.0   16.666666666666668
-50.0   90.0   16.666666666666668
0.0   90.0   16.666666666666668
-50.0   90.0   0.0
-50.0   60.0   16.666666666666668
0.0   90.0   16.666666666666668
0.0   60.0   16.666666666666668
0.0   60.0   0.0
-50.0   60.0   16.666666666666668
0.0   90.0   16.666666666666668
0.0   60.0   0.0
-50.0   90.0   0.0
-50.0   60.0   16.666666666666668
0.0   60.0   16.666666666666668
-50.0   90.0   16.666666666666668
-50.0   60.0   33.333333333333336
0.0   60.0   16.666666666666668
0.0   90.0   16.666666666666668
-50.0   90.0   16.666666666666668
0.0   90.0   33.333333333333336
-50.0   60.0   33.333333333333336
-50.0   90.0   33.333333333333336
0.0   90.0   33.333333333333336
-50.0   90.0   16.666666666666668
-50.0   60.0   33.333333333333336
0.0   90.0   33.333333333333336
0.0   60.0   33.333333333333336
0.0   60.0   16.666666666666668
-50.0   60.0   33.333333333333336
0.0   90.0   33.333333333333336
0.0   60.0   16.666666666666668
-50.0   90.0   16.666666666666668
-50.0   60.0   33.333333333333336
0.0   60.0   33.333333333333336
-50.0   90.0   33.333333333333336
-50.0   60.0   50.0
0.0   60.0   33.333333333333336
0.0   90.0   33.333333333333336
-50.0   90.0   33.333333333333336
0.0   90.0   50.0
-50.0   60.0   50.0
-50.0   90.0   50.0
0.0   90.0   50.0
-50.0   90.0   33.333333333333336
-50.0   60.0   50.0
0.0   90.0   50.0
0.0   60.0   50.0
0.0   60.0   33.333333333333336
-50.0   60.0   50.0
0.0   90.0   50.0
0.0   60.0   33.333333333333336
-50.0   90.0   33.333333333333336
-50.0   90.0   0.0
0.0   90.0   0.0
-50.0   120.0   0.0
-50.0   90.0   16.666666666666668
0.0   90.0   0.0
0.0   120.0   0.0
-50.0   120.0   0.0
0.0   120.0   16.666666666666668
-50.0   90.0   16.666666666666668
-50.0   120.0   16.666666666666668
0.0   120.0   16.666666666666668
-50.0   120.0   0.0
-50.0   90.0   16.666666666666668
0.0   120.0   16.666666666666668
0.0   90.0   16.666666666666668
0.0   90.0   0.0
-50.0   90.0   16.666666666666668
0.0   120.0   16.666666666666668
0.0   90.0   0.0
-50.0   120.0   0.0
-50.0   90.0   16.666666666666668
0.0   90.0   16.666666666666668
-50.0   120.0   16.666666666666668
-50.0   90.0   33.333333333333336
0.0   90.0   16.666666666666668
0.0   120.0   16.666666666666668
-50.0   120.0   16.666666666666668
0.0   120.0   33.333333333333336
-50.0   90.0   33.333333333333336
-50.0   120.0   33.333333333333336
0.0   120.0   33.333333333333336
-50.0   120.0   16.666666666666668
-50.0   90.0   33.333333333333336
0.0   120.0   33.333333333333336
0.0   90.0   33.333333333333336
0.0   90.0   16.666666666666668
-50.0   90.0   33.333333333333336
0.0   120.0   33.333333333333336
0.0   90.0   16.666666666666668
-50.0   120.0   16.666666666666668
-50.0   90.0   33.333333333333336
0.0   90.0   33.333333333333336
-50.0   120.0   33.333333333333336
-50.0   90.0   50.0
0.0   90.0   33.333333333333336
0.0   120.0   33.333333333333336
-50.0   120.0   33.333333333333336
0.0   120.0   50.0
-50.0   90.0   50.0
-50.0   120.0   50.0
0.0   120.0   50.0
-50.0   120.0   33.333333333333336
-50.0   90.0   50.0
0.0   120.0   50.0
0.0   90.0   50.0
0.0   90.0   33.333333333333336
-50.0   90.0   50.0
0.0   120.0   50.0
0.0   90.0   33.333333333333336
-50.0   120.0   33.333333333333336
-50.0   120.0   0.0
0.0   120.0   0.0
-50.0   150.0   0.0
-50.0   120.0   16.666666666666668
0.0   120.0   0.0
0.0   150.0   0.0
-50.0   150.0   0.0
0.0   150.0   16.666666666666668
-50.0   120.0   16.666666666666668
-50.0   150.0   16.666666666666668
0.0   150.0   16.666666666666668
-50.0   150.0   0.0
-50.0   120.0   16.666666666666668
0.0   150.0   16.666666666666668
0.0   120.0   16.666666666666668
0.0   120.0   0.0
-50.0   120.0   16.666666666666668
0.0   150.0   16.666666666666668
0.0   120.0   0.0
-50.0   150.0   0.0
-50.0   120.0   16.666666666666668
0.0   120.0   16.666666666666668
-50.0   150.0   16.666666666666668
-50.0   120.0   33.333333333333336
0.0   120.0   16.666666666666668
0.0   150.0   16.666666666666668
-50.0   150.0   16.666666666666668
0.0   150.0   33.333333333333336
-50.0   120.0   33.333333333333336
-50.0   150.0   33.333333333333336
0.0   150.0   33.333333333333336
-50.0   150.0   16.666666666666668
-50.0   120.0   33.333333333333336
0.0   150.0   33.333333333333336
0.0   120.0   33.333333333333336
0.0   120.0   16.666666666666668
-50.0   120.0   33.333333333333336
0.0   150.0   33.333333333333336
0.0   120.0   16.666666666666668
-50.0   150.0   16.666666666666668
-50.0   120.0   33.333333333333336
0.0   120.0   33.333333333333336
-50.0   150.0   33.333333333333336
-50.0   120.0   50.0
0.0   120.0   33.333333333333336
0.0   150.0   33.333333333333336
-50.0   150.0   33.333333333333336
0.0   150.0   50.0
-50.0   120.0   50.0
-50.0   150.0   50.0
0.0   150.0   50.0
-50.0   150.0   33.333333333333336
-50.0   120.0   50.0
0.0   150.0   50.0
0.0   120.0   50.0
0.0   120.0   33.333333333333336
-50.0   120.0   50.0
0.0   150.0   50.0
0.0   120.0   33.333333333333336
-50.0   150.0   33.333333333333336
0.0   0.0   0.0
50.0   0.0   0.0
0.0   30.0   0.0
0.0   0.0   16.666666666666668
50.0   0.0   0.0
50.0   30.0   0.0
0.0   30.0   0.0
50.0   30.0   16.666666666666668
0.0   0.0   16.666666666666668
0.0   30.0   16.666666666666668
50.0   30.0   16.666666666666668
0.0   30.0   0.0
0.0   0.0   16.666666666666668
50.0   30.0   16.666666666666668
50.0   0.0   16.666666666666668
50.0   0.0   0.0
0.0   0.0   16.666666666666668
50.0   30.0   16.666666666666668
50.0   0.0   0.0
0.0   30.0   0.0
0.0   0.0   16.666666666666668
50.0   0.0   16.666666666666668
0.0   30.0   16.666666666666668
0.0   0.0   33.333333333333336
50.0   0.0   16.666666666666668
50.0   30.0   16.666666666666668
0.0   30.0   16.666666666666668
50.0   30.0   33.333333333333336
0.0   0.0   33.333333333333336
0.0   30.0   33.333333333333336
50.0   30.0   33.333333333333336
0.0   30.0   16.666666666666668
0.0   0.0   33.333333333333336
50.0   30.0   33.333333333333336
50.0   0.0   33.333333333333336
50.0   0.0   16.666666666666668
0.0   0.0   33.333333333333336
50.0   30.0   33.333333333333336
50.0   0.0   16.666666666666668
0.0   30.0   16.666666666666668
0.0   0.0   33.333333333333336
50.0   0.0   33.333333333333336
0.0   30.0   33.333333333333336
0.0   0.0   50.0
50.0   0.0   33.333333333333336
50.0   30.0   33.333333333333336
0.0   30.0   33.333333333333336
50.0   30.0   50.0
0.0   0.0   50.0
0.0   30.0   50.0
50.0   30.0   50.0
0.0   30.0   33.333333333333336
0.0   0.0   50.0
50.0   30.0   50.0
50.0   0.0   50.0
50.0   0.0   33.333333333333336
0.0   0.0   50.0
50.0   30.0   50.0
50.0   0.0   33.333333333333336
0.0   30.0   33.333333333333336
0.0   30.0   0.0
50.0   30.0   0.0
0.0   60.0   0.0
0.0   30.0   16.666666666666668
50.0   30.0   0.0
50.0   60.0   0.0
0.0   60.0   0.0
50.0   60.0   16.666666666666668
0.0   30.0   16.666666666666668
0.0   60.0   16.666666666666668
50.0   60.0   16.666666666666668
0.0   60.0   0.0
0.0   30.0   16.666666666666668
50.0   60.0   16.666666666666668
50.0   30.0   16.666666666666668
50.0   30.0   0.0
0.0   30.0   16.666666666666668
50.0   60.0   16.666666666666668
50.0   30.0   0.0
0.0   60.0   0.0
0.0   30.0   16.666666666666668
50.0   30.0   16.666666666666668
0.0   60.0   16.666666666666668
0.0   30.0   33.333333333333336
50.0   30.0   16.666666666666668
50.0   60.0   16.666666666666668
0.0   60.0   16.666666666666668
50.0   60.0   33.333333333333336
0.0   30.0   33.333333333333336
0.0   60.0   33.333333333333336
50.0   60.0   33.333333333333336
0.0   60.0   16.666666666666668
0.0   30.0   33.333333333333336
50.0   60.0   33.333333333333336
50.0   30.0   33.333333333333336
50.0   30.0   16.666666666666668
0.0   30.0   33.333333333333336
50.0   60.0   33.333333333333336
50.0   30.0   16.666666666666668
0.0   60.0   16.666666666666668
0.0   30.0   33.333333333333336
50.0   30.0   33.333333333333336
0.0   60.0   33.333333333333336
0.0   30.0   50.0
50.0   30.0   33.333333333333336
50.0   60.0   33.333333333333336
0.0   60.0   33.333333333333336
50.0   60.0   50.0
0.0   30.0   50.0
0.0   60.0   50.0
50.0   60.0   50.0
0.0   60.0   33.333333333333336
0.0   30.0   50.0
50.0   60.0   50.0
50.0   30.0   50.0
50.0   30.0   33.333333333333336
0.0   30.0   50.0
50.0   60.0   50.0
50.0   30.0   33.333333333333336
0.0   60.0   33.333333333333336
0.0   60.0   0.0
50.0   60.0   0.0
0.0   90.0   0.0
0.0   60.0   16.666666666666668
50.0   60.0   0.0
50.0   90.0   0.0
0.0   90.0   0.0
50.0   90.0   16.666666666666668
0.0   60.0   16.666666666666668
0.0   90.0   16.666666666666668
50.0   90.0   16.666666666666668
0.0   90.0   0.0
0.0   60.0   16.666666666666668
50.0   90.0   16.666666666666668
50.0   60.0   16.666666666666668
50.0   60.0   0.0
0.0   60.0   16.666666666666668
50.0   90.0   16.666666666666668
50.0   60.0   0.0
0.0   90.0   0.0
0.0   60.0   16.666666666666668
50.0   60.0   16.666666666666668
0.0   90.0   16.666666666666668
0.0   60.0   33.333333333333336
50.0   60.0   16.666666666666668
50.0   90.0   16.666666666666668
0.0   90.0   16.666666666666668
50.0   90.0   33.333333333333336
0.0   60.0   33.333333333333336
0.0   90.0   33.333333333333336
50.0   90.0   33.333333333333336
0.0   90.0   16.666666666666668
0.0   60.0   33.333333333333336
50.0   90.0   33.333333333333336
50.0   60.0   33.333333333333336
50.0   60.0   16.666666666666668
0.0   60.0   33.333333333333336
50.0   90.0   33.333333333333336
50.0   60.0   16.666666666666668
0.0   90.0   16.666666666666668
0.0   60.0   33.333333333333336
50.0   60.0   33.333333333333336
0.0   90.0   33.333333333333336
0.0   60.0   50.0
50.0   60.0   33.333333333333336
50.0   90.0   33.333333333333336
0.0   90.0   33.333333333333336
50.0   90.0   50.0
0.0   60.0   50.0
0.0   90.0   50.0
50.0   90.0   50.0
0.0   90.0   33.333333333333336
0.0   60.0   50.0
50.0   90.0   50.0
50.0   60.0   50.0
50.0   60.0   33.333333333333336
0.0   60.0   50.0
50.0   90.0   50.0
50.0   60.0   33.333333333333336
0.0   90.0   33.333333333333336
0.0   90.0   0.0
50.0   90.0   0.0
0.0   120.0   0.0
0.0   90.0   16.666666666666668
50.0   90.0   0.0
50.0   120.0   0.0
0.0   120.0   0.0
50.0   120.0   16.666666666666668
0.0   90.0   16.666666666666668
0.0   120.0   16.666666666666668
50.0   120.0   16.666666666666668
0.0   120.0   0.0
0.0   90.0   16.666666666666668
50.0   120.0   16.666666666666668
50.0   90.0   16.666666666666668
50.0   90.0   0.0
0.0   90.0   16.666666666666668
50.0   120.0   16.666666666666668
50.0   90.0   0.0
0.0   120.0   0.0
0.0   90.0   16.666666666666668
50.0   90.0   16.666666666666668
0.0   120.0   16.666666666666668
0.0   90.0   33.333333333333336
50.0   90.0   16.666666666666668
50.0   120.0   16.666666666666668
0.0   120.0   16.666666666666668
50.0   120.0   33.333333333333336
0.0   90.0   33.333333333333336
0.0   120.0   33.333333333333336
50.0   120.0   33.333333333333336
0.0   120.0   16.666666666666668
0.0   90.0   33.333333333333336
50.0   120.0   33.333333333333336
50.0   90.0   33.333333333333336
50.0   90.0   16.666666666666668
0.0   90.0   33.333333333333336
50.0   120.0   33.333333333333336
50.0   90.0   16.666666666666668
0.0   120.0   16.666666666666668
0.0   90.0   33.333333333333336
50.0   90.0   33.333333333333336
0.0   120.0   33.333333333333336
0.0   90.0   50.0
50.0   90.0   33.333333333333336
50.0   120.0   33.333333333333336
0.0   120.0   33.333333333333336
50.0   120.0   50.0
0.0   90.0   50.0
0.0   120.0   50.0
50.0   120.0   50.0
0.0   120.0   33.333333333333336
0.0   90.0   50.0
50.0   120.0   50.0
50.0   90.0   50.0
50.0   90.0   33.333333333333336
0.0   90.0   50.0
50.0   120.0   50.0
50.0   90.0   33.333333333333336
0.0   120.0   33.333333333333336
0.0   120.0   0.0
50.0   120.0   0.0
0.0   150.0   0.0
0.0   120.0   16.666666666666668
50.0   120.0   0.0
50.0   150.0   0.0
0.0   150.0   0.0
50.0   150.0   16.666666666666668
0.0   120.0   16.666666666666668
0.0   150.0   16.666666666666668
50.0   150.0   16.666666666666668
0.0   150.0   0.0
0.0   120.0   16.666666666666668
50.0   150.0   16.666666666666668
50.0   120.0   16.666666666666668
50.0   120.0   0.0
0.0   120.0   16.666666666666668
50.0   150.0   16.666666666666668
50.0   120.0   0.0
0.0   150.0   0.0
0.0   120.0   16.666666666666668
50.0   120.0   16.666666666666668
0.0   150.0   16.666666666666668
0.0   120.0   33.333333333333336
50.0   120.0   16.666666666666668
50.0   150.0   16.666666666666668
0.0   150.0   16.666666666666668
50.0   150.0   33.333333333333336
0.0   120.0   33.333333333333336
0.0   150.0   33.333333333333336
50.0   150.0   33.333333333333336
0.0   150.0   16.666666666666668
0.0   120.0   33.333333333333336
50.0   150.0   33.333333333333336
50.0   120.0   33.333333333333336
50.0   120.0   16.666666666666668
0.0   120.0   33.333333333333336
50.0   150.0   33.333333333333336
50.0   120.0   16.666666666666668
0.0   150.0   16.666666666666668
0.0   120.0   33.333333333333336
50.0   120.0   33.333333333333336
0.0   150.0   33.333333333333336
0.0   120.0   50.0
50.0   120.0   33.333333333333336
50.0   150.0   33.333333333333336
0.0   150.0   33.333333333333336
50.0   150.0   50.0
0.0   120.0   50.0
0.0   150.0   50.0
50.0   150.0   50.0
0.0   150.0   33.333333333333336
0.0   120.0   50.0
50.0   150.0   50.0
50.0   120.0   50.0
50.0   120.0   33.333333333333336
0.0   120.0   50.0
50.0   150.0   50.0
50.0   120.0   33.333333333333336
0.0   150.0   33.333333333333336
50.0   0.0   0.0
100.0   0.0   0.0
50.0   30.0   0.0
50.0   0.0   16.666666666666668
100.0   0.0   0.0
100.0   30.0   0.0
50.0   30.0   0.0
100.0   30.0   16.666666666666668
50.0   0.0   16.666666666666668
50.0   30.0   16.666666666666668
100.0   30.0   16.666666666666668
50.0   30.0   0.0
50.0   0.0   16.666666666666668
100.0   30.0   16.666666666666668
100.0   0.0   16.666666666666668
100.0   0.0   0.0
50.0   0.0   16.666666666666668
100.0   30.0   16.666666666666668
100.0   0.0   0.0
50.0   30.0   0.0
50.0   0.0   16.666666666666668
100.0   0.0   16.666666666666668
50.0   30.0   16.666666666666668
50.0   0.0   33.333333333333336
100.0   0.0   16.666666666666668
100.0   30.0   16.666666666666668
50.0   30.0   16.666666666666668
100.0   30.0   33.333333333333336
50.0   0.0   33.333333333333336
50.0   30.0   33.333333333333336
100.0   30.0   33.333333333333336
50.0   30.0   16.666666666666668
50.0   0.0   33.333333333333336
100.0   30.0   33.333333333333336
100.0   0.0   33.333333333333336
100.0   0.0   16.666666666666668
50.0   0.0   33.333333333333336
100.0   30.0   33.333333333333336
100.0   0.0   16.666666666666668
50.0   30.0   16.666666666666668
50.0   0.0   33.333333333333336
100.0   0.0   33.333333333333336
50.0   30.0   33.333333333333336
50.0   0.0   50.0
100.0   0.0   33.333333333333336
100.0   30.0   33.333333333333336
50.0   30.0   33.333333333333336
100.0   30.0   50.0
50.0   0.0   50.0
50.0   30.0   50.0
100.0   30.0   50.0
50.0   30.0   33.333333333333336
50.0   0.0   50.0
100.0   30.0   50.0
100.0   0.0   50.0
100.0   0.0   33.333333333333336
50.0   0.0   50.0
100.0   30.0   50.0
100.0   0.0   33.333333333333336
50.0   30.0   33.333333333333336
50.0   30.0   0.0
100.0   30.0   0.0
50.0   60.0   0.0
50.0   30.0   16.666666666666668
100.0   30.0   0.0
100.0   60.0   0.0
50.0   60.0   0.0
100.0   60.0   16.666666666666668
50.0   30.0   16.666666666666668
50.0   60.0   16.666666666666668
100.0   60.0   16.666666666666668
50.0   60.0   0.0
50.0   30.0   16.666666666666668
100.0   60.0   16.666666666666668
100.0   30.0   16.666666666666668
100.0   30.0   0.0
50.0   30.0   16.666666666666668
100.0   60.0   16.666666666666668
100.0   30.0   0.0
50.0   60.0   0.0
50.0   30.0   16.666666666666668
100.0   30.0   16.666666666666668
50.0   60.0   16.666666666666668
50.0   30.0   33.333333333333336
100.0   30.0   16.666666666666668
100.0   60.0   16.666666666666668
50.0   60.0   16.666666666666668
100.0   60.0   33.333333333333336
50.0   30.0   33.333333333333336
50.0   60.0   33.333333333333336
100.0   60.0   33.333333333333336
50.0   60.0   16.666666666666668
50.0   30.0   33.333333333333336
100.0   60.0   33.333333333333336
100.0   30.0   33.333333333333336
100.0   30.0   16.666666666666668
50.0   30.0   33.333333333333336
100.0   60.0   33.333333333333336
100.0   30.0   16.666666666666668
50.0   60.0   16.666666666666668
50.0   30.0   33.333333333333336
100.0   30.0   33.333333333333336
50.0   60.0   33.333333333333336
50.0   30.0   50.0
100.0   30.0   33.333333333333336
100.0   60.0   33.333333333333336
50.0   60.0   33.333333333333336
100.0   60.0   50.0
50.0   30.0   50.0
50.0   60.0   50.0
100.0   60.0   50.0
50.0   60.0   33.333333333333336
50.0   30.0   50.0
100.0   60.0   50.0
100.0   30.0   50.0
100.0   30.0   33.333333333333336
50.0   30.0   50.0
100.0   60.0   50.0
100.0   30.0   33.333333333333336
50.0   60.0   33.333333333333336
50.0   60.0   0.0
100.0   60.0   0.0
50.0   90.0   0.0
50.0   60.0   16.666666666666668
100.0   60.0   0.0
100.0   90.0   0.0
50.0   90.0   0.0
100.0   90.0   16.666666666666668
50.0   60.0   16.666666666666668
50.0   90.0   16.666666666666668
100.0   90.0   16.666666666666668
50.0   90.0   0.0
50.0   60.0   16.666666666666668
100.0   90.0   16.666666666666668
100.0   60.0   16.666666666666668
100.0   60.0   0.0
50.0   60.0   16.666666666666668
100.0   90.0   16.666666666666668
100.0   60.0   0.0
50.0   90.0   0.0
50.0   60.0   16.666666666666668
100.0   60.0   16.666666666666668
50.0   90.0   16.666666666666668
50.0   60.0   33.333333333333336
100.0   60.0   16.666666666666668
100.0   90.0   16.666666666666668
50.0   90.0   16.666666666666668
100.0   90.0   33.333333333333336
50.0   60.0   33.333333333333336
50.0   90.0   33.333333333333336
100.0   90.0   33.333333333333336
50.0   90.0   16.666666666666668
50.0   60.0   33.333333333333336
100.0   90.0   33.333333333333336
100.0   60.0   33.333333333333336
100.0   60.0   16.666666666666668
50.0   60.0   33.333333333333336
100.0   90.0   33.333333333333336
100.0   60.0   16.666666666666668
50.0   90.0   16.666666666666668
50.0   60.0   33.333333333333336
100.0   60.0   33.333333333333336
50.0   90.0   33.333333333333336
50.0   60.0   50.0
100.0   60.0   33.333333333333336
100.0   90.0   33.333333333333336
50.0   90.0   33.333333333333336
100.0   90.0   50.0
50.0   60.0   50.0
50.0   90.0   50.0
100.0   90.0   50.0
50.0   90.0   33.333333333333336
50.0   60.0   50.0
100.0   90.0   50.0
100.0   60.0   50.0
100.0   60.0   33.333333333333336
50.0   60.0   50.0
100.0   90.0   50.0
100.0   60.0   33.333333333333336
50.0   90.0   33.333333333333336
50.0   90.0   0.0
100.0   90.0   0.0
50.0   120.0   0.0
50.0   90.0   16.666666666666668
100.0   90.0   0.0
100.0   120.0   0.0
50.0   120.0   0.0
100.0   120.0   16.666666666666668
50.0   90.0   16.666666666666668
50.0   120.0   16.666666666666668
100.0   120.0   16.666666666666668
50.0   120.0   0.0
50.0   90.0   16.666666666666668
100.0   120.0   16.666666666666668
100.0   90.0   16.666666666666668
100.0   90.0   0.0
50.0   90.0   16.666666666666668
100.0   120.0   16.666666666666668
100.0   90.0   0.0
50.0   120.0   0.0
50.0   90.0   16.666666666666668
100.0   90.0   16.666666666666668
50.0   120.0   16.666666666666668
50.0   90.0   33.333333333333336
100.0   90.0   16.666666666666668
100.0   120.0   16.666666666666668
50.0   120.0   16.666666666666668
100.0   120.0   33.333333333333336
50.0   90.0   33.333333333333336
50.0   120.0   33.333333333333336
100.0   120.0   33.333333333333336
50.0   120.0   16.666666666666668
50.0   90.0   33.333333333333336
100.0   120.0   33.333333333333336
100.0   90.0   33.333333333333336
100.0   90.0   16.666666666666668
50.0   90.0   33.333333333333336
100.0   120.0   33.333333333333336
100.0   90.0   16.666666666666668
50.0   120.0   16.666666666666668
50.0   90.0   33.333333333333336
100.0   90.0   33.333333333333336
50.0   120.0   33.333333333333336
50.0   90.0   50.0
100.0   90.0   33.333333333333336
100.0   120.0   33.333333333333336
50.0   120.0   33.333333333333336
100.0   120.0   50.0
50.0   90.0   50.0
50.0   120.0   50.0
100.0   120.0   50.0
50.0   120.0   33.333333333333336
50.0   90.0   50.0
100.0   120.0   50.0
100.0   90.0   50.0
100.0   90.0   33.333333333333336
50.0   90.0   50.0
100.0   120.0   50.0
100.0   90.0   33.333333333333336
50.0   120.0   33.333333333333336
50.0   120.0   0.0
100.0   120.0   0.0
50.0   150.0   0.0
50.0   120.0   16.666666666666668
100.0   120.0   0.0
100.0   150.0   0.0
50.0   150.0   0.0
100.0   150.0   16.666666666666668
50.0   120.0   16.666666666666668
50.0   150.0   16.666666666666668
100.0   150.0   16.666666666666668
50.0   150.0   0.0
50.0   120.0   16.666666666666668
100.0   150.0   16.666666666666668
100.0   120.0   16.666666666666668
100.0   120.0   0.0
50.0   120.0   16.666666666666668
100.0   150.0   16.666666666666668
100.0   120.0   0.0
50.0   150.0   0.0
50.0   120.0   16.666666666666668
100.0   120.0   16.666666666666668
50.0   150.0   16.666666666666668
50.0   120.0   33.333333333333336
100.0   120.0   16.666666666666668
100.0   150.0   16.666666666666668
50.0   150.0   16.666666666666668
100.0   150.0   33.333333333333336
50.0   120.0   33.333333333333336
50.0   150.0   33.333333333333336
100.0   150.0   33.333333333333336
50.0   150.0   16.666666666666668
50.0   120.0   33.333333333333336
100.0   150.0   33.333333333333336
100.0   120.0   33.333333333333336
100.0   120.0   16.666666666666668
50.0   120.0   33.333333333333336
100.0   150.0   33.333333333333336
100.0   120.0   16.666666666666668
50.0   150.0   16.666666666666668
50.0   120.0   33.333333333333336
100.0   120.0   33.333333333333336
50.0   150.0   33.333333333333336
50.0   120.0   50.0
100.0   120.0   33.333333333333336
100.0   150.0   33.333333333333336
50.0   150.0   33.333333333333336
100.0   150.0   50.0
50.0   120.0   50.0
50.0   150.0   50.0
100.0   150.0   50.0
50.0   150.0   33.333333333333336
50.0   120.0   50.0
100.0   150.0   50.0
100.0   120.0   50.0
100.0   120.0   33.333333333333336
50.0   120.0   50.0
100.0   150.0   50.0
100.0   120.0   33.333333333333336
50.0   150.0   33.333333333333336
100.0   0.0   0.0
150.0   0.0   0.0
100.0   30.0   0.0
100.0   0.0   16.666666666666668
150.0   0.0   0.0
150.0   30.0   0.0
100.0   30.0   0.0
150.0   30.0   16.666666666666668
100.0   0.0   16.666666666666668
100.0   30.0   16.666666666666668
150.0   30.0   16.666666666666668
100.0   30.0   0.0
100.0   0.0   16.666666666666668
150.0   30.0   16.666666666666668
150.0   0.0   16.666666666666668
150.0   0.0   0.0
100.0   0.0   16.666666666666668
150.0   30.0   16.666666666666668
150.0   0.0   0.0
100.0   30.0   0.0
100.0   0.0   16.666666666666668
150.0   0.0   16.666666666666668
100.0   30.0   16.666666666666668
100.0   0.0   33.333333333333336
150.0   0.0   16.666666666666668
150.0   30.0   16.666666666666668
100.0   30.0   16.666666666666668
150.0   30.0   33.333333333333336
100.0   0.0   33.333333333333336
100.0   30.0   33.333333333333336
150.0   30.0   33.333333333333336
100.0   30.0   16.666666666666668
100.0   0.0   33.333333333333336
150.0   30.0   33.333333333333336
150.0   0.0   33.333333333333336
150.0   0.0   16.666666666666668
100.0   0.0   33.333333333333336
150.0   30.0   33.333333333333336
150.0   0.0   16.666666666666668
100.0   30.0   16.666666666666668
100.0   0.0   33.333333333333336
150.0   0.0   33.333333333333336
100.0   30.0   33.333333333333336
100.0   0.0   50.0
150.0   0.0   33.333333333333336
150.0   30.0   33.333333333333336
100.0   30.0   33.333333333333336
150.0   30.0   50.0
100.0   0.0   50.0
100.0   30.0   50.0
150.0   30.0   50.0
100.0   30.0   33.333333333333336
100.0   0.0   50.0
150.0   30.0   50.0
150.0   0.0   50.0
150.0   0.0   33.333333333333336
100.0   0.0   50.0
150.0   30.0   50.0
150.0   0.0   33.333333333333336
100.0   30.0   33.333333333333336
100.0   30.0   0.0
150.0   30.0   0.0
100.0   60.0   0.0
100.0   30.0   16.666666666666668
150.0   30.0   0.0
150.0   60.0   0.0
100.0   60.0   0.0
150.0   60.0   16.666666666666668
100.0   30.0   16.666666666666668
100.0   60.0   16.666666666666668
150.0   60.0   16.666666666666668
100.0   60.0   0.0
100.0   30.0   16.666666666666668
150.0   60.0   16.666666666666668
150.0   30.0   16.666666666666668
150.0   30.0   0.0
100.0   30.0   16.666666666666668
150.0   60.0   16.666666666666668
150.0   30.0   0.0
100.0   60.0   0.0
100.0   30.0   16.666666666666668
150.0   30.0   16.666666666666668
100.0   60.0   16.666666666666668
100.0   30.0   33.333333333333336
150.0   30.0   16.666666666666668
150.0   60.0   16.666666666666668
100.0   60.0   16.666666666666668
150.0   60.0   33.333333333333336
100.0   30.0   33.333333333333336
100.0   60.0   33.333333333333336
150.0   60.0   33.333333333333336
100.0   60.0   16.666666666666668
100.0   30.0   33.333333333333336
150.0   60.0   33.333333333333336
150.0   30.0   33.333333333333336
150.0   30.0   16.666666666666668
100.0   30.0   33.333333333333336
150.0   60.0   33.333333333333336
150.0   30.0   16.666666666666668
100.0   60.0   16.666666666666668
100.0   30.0   33.333333333333336
150.0   30.0   33.333333333333336
100.0   60.0   33.333333333333336
100.0   30.0   50.0
150.0   30.0   33.333333333333336
150.0   60.0   33.333333333333336
100.0   60.0   33.333333333333336
150.0   60.0   50.0
100.0   30.0   50.0
100.0   60.0   50.0
150.0   60.0   50.0
100.0   60.0   33.333333333333336
100.0   30.0   50.0
150.0   60.0   50.0
150.0   30.0   50.0
150.0   30.0   33.333333333333336
100.0   30.0   50.0
150.0   60.0   50.0
150.0   30.0   33.333333333333336
100.0   60.0   33.333333333333336
100.0   60.0   0.0
150.0   60.0   0.0
100.0   90.0   0.0
100.0   60.0   16.666666666666668
150.0   60.0   0.0
150.0   90.0   0.0
100.0   90.0   0.0
150.0   90.0   16.666666666666668
100.0   60.0   16.666666666666668
100.0   90.0   16.666666666666668
150.0   90.0   16.666666666666668
100.0   90.0   0.0
100.0   60.0   16.666666666666668
150.0   90.0   16.666666666666668
150.0   60.0   16.666666666666668
150.0   60.0   0.0
100.0   60.0   16.666666666666668
150.0   90.0   16.666666666666668
150.0   60.0   0.0
100.0   90.0   0.0
100.0   60.0   16.666666666666668
150.0   60.0   16.666666666666668
100.0   90.0   16.666666666666668
100.0   60.0   33.333333333333336
150.0   60.0   16.666666666666668
150.0   90.0   16.666666666666668
100.0   90.0   16.666666666666668
150.0   90.0   33.333333333333336
100.0   60.0   33.333333333333336
100.0   90.0   33.333333333333336
150.0   90.0   33.333333333333336
100.0   90.0   16.666666666666668
100.0   60.0   33.333333333333336
150.0   90.0   33.333333333333336
150.0   60.0   33.333333333333336
150.0   60.0   16.666666666666668
100.0   60.0   33.333333333333336
150.0   90.0   33.333333333333336
150.0   60.0   16.666666666666668
100.0   90.0   16.666666666666668
100.0   60.0   33.333333333333336
150.0   60.0   33.333333333333336
100.0   90.0   33.333333333333336
100.0   60.0   50.0
150.0   60.0   33.333333333333336
150.0   90.0   33.333333333333336
100.0   90.0   33.333333333333336
150.0   90.0   50.0
100.0   60.0   50.0
100.0   90.0   50.0
150.0   90.0   50.0
100.0   90.0   33.333333333333336
100.0   60.0   50.0
150.0   90.0   50.0
150.0   60.0   50.0
150.0   60.0   33.333333333333336
100.0   60.0   50.0
150.0   90.0   50.0
150.0   60.0   33.333333333333336
100.0   90.0   33.333333333333336
100.0   90.0   0.0
150.0   90.0   0.0
100.0   120.0   0.0
100.0   90.0   16.666666666666668
150.0   90.0   0.0
150.0   120.0   0.0
100.0   120.0   0.0
150.0   120.0   16.666666666666668
100.0   90.0   16.666666666666668
100.0   120.0   16.666666666666668
150.0   120.0   16.666666666666668
100.0   120.0   0.0
100.0   90.0   16.666666666666668
150.0   120.0   16.666666666666668
150.0   90.0   16.666666666666668
150.0   90.0   0.0
100.0   90.0   16.666666666666668
150.0   120.0   16.666666666666668
150.0   90.0   0.0
100.0   120.0   0.0
100.0   90.0   16.666666666666668
150.0   90.0   16.666666666666668
100.0   120.0   16.666666666666668
100.0   90.0   33.333333333333336
150.0   90.0   16.666666666666668
150.0   120.0   16.666666666666668
100.0   120.0   16.666666666666668
150.0   120.0   33.333333333333336
100.0   90.0   33.333333333333336
100.0   120.0   33.333333333333336
150.0   120.0   33.333333333333336
100.0   120.0   16.666666666666668
100.0   90.0   33.333333333333336
150.0   120.0   33.333333333333336
150.0   90.0   33.333333333333336
150.0   90.0   16.666666666666668
100.0   90.0   33.333333333333336
150.0   120.0   33.333333333333336
150.0   90.0   16.666666666666668
100.0   120.0   16.666666666666668
100.0   90.0   33.333333333333336
150.0   90.0   33.333333333333336
100.0   120.0   33.333333333333336
100.0   90.0   50.0
150.0   90.0   33.333333333333336
150.0   120.0   33.333333333333336
100.0   120.0   33.333333333333336
150.0   120.0   50.0
100.0   90.0   50.0
100.0   120.0   50.0
150.0   120.0   50.0
100.0   120.0   33.333333333333336
100.0   90.0   50.0
150.0   120.0   50.0
150.0   90.0   50.0
150.0   90.0   33.333333333333336
100.0   90.0   50.0
150.0   120.0   50.0
150.0   90.0   33.333333333333336
100.0   120.0   33.333333333333336
100.0   120.0   0.0
150.0   120.0   0.0
100.0   150.0   0.0
100.0   120.0   16.666666666666668
150.0   120.0   0.0
150.0   150.0   0.0
100.0   150.0   0.0
150.0   150.0   16.666666666666668
100.0   120.0   16.666666666666668
100.0   150.0   16.666666666666668
150.0   150.0   16.666666666666668
100.0   150.0   0.0
100.0   120.0   16.666666666666668
150.0   150.0   16.666666666666668
150.0   120.0   16.666666666666668
150.0   120.0   0.0
100.0   120.0   16.666666666666668
150.0   150.0   16.666666666666668
150.0   120.0   0.0
100.0   150.0   0.0
100.0   120.0   16.666666666666668
150.0   120.0   16.666666666666668
100.0   150.0   16.666666666666668
100.0   120.0   33.333333333333336
150.0   120.0   16.666666666666668
150.0   150.0   16.666666666666668
100.0   150.0   16.666666666666668
150.0   150.0   33.333333333333336
100.0   120.0   33.333333333333336
100.0   150.0   33.333333333333336
150.0   150.0   33.333333333333336
100.0   150.0   16.666666666666668
100.0   120.0   33.333333333333336
150.0   150.0   33.333333333333336
150.0   120.0   33.333333333333336
150.0   120.0   16.666666666666668
100.0   120.0   33.333333333333336
150.0   150.0   33.333333333333336
150.0   120.0   16.666666666666668
100.0   150.0   16.666666666666668
100.0   120.0   33.333333333333336
150.0   120.0   33.333333333333336
100.0   150.0   33.333333333333336
100.0   120.0   50.0
150.0   120.0   33.333333333333336
150.0   150.0   33.333333333333336
100.0   150.0   33.333333333333336
150.0   150.0   50.0
100.0   120.0   50.0
100.0   150.0   50.0
150.0   150.0   50.0
100.0   150.0   33.333333333333336
100.0   120.0   50.0
150.0   150.0   50.0
150.0   120.0   50.0
150.0   120.0   33.333333333333336
100.0   120.0   50.0
150.0   150.0   50.0
150.0   120.0   33.333333333333336
100.0   150.0   33.333333333333336
150.0   0.0   0.0
200.0   0.0   0.0
150.0   30.0   0.0
150.0   0.0   16.666666666666668
200.0   0.0   0.0
200.0   30.0   0.0
150.0   30.0   0.0
200.0   30.0   16.666666666666668
150.0   0.0   16.666666666666668
150.0   30.0   16.666666666666668
200.0   30.0   16.666666666666668
150.0   30.0   0.0
150.0   0.0   16.666666666666668
200.0   30.0   16.666666666666668
200.0   0.0   16.666666666666668
200.0   0.0   0.0
150.0   0.0   16.666666666666668
200.0   30.0   16.666666666666668
200.0   0.0   0.0
150.0   30.0   0.0
150.0   0.0   16.666666666666668
200.0   0.0   16.666666666666668
150.0   30.0   16.666666666666668
150.0   0.0   33.333333333333336
200.0   0.0   16.666666666666668
200.0   30.0   16.666666666666668
150.0   30.0   16.666666666666668
200.0   30.0   33.333333333333336
150.0   0.0   33.333333333333336
150.0   30.0   33.333333333333336
200.0   30.0   33.333333333333336
150.0   30.0   16.666666666666668
150.0   0.0   33.333333333333336
200.0   30.0   33.333333333333336
200.0   0.0   33.333333333333336
200.0   0.0   16.666666666666668
150.0   0.0   33.333333333333336
200.0   30.0   33.333333333333336
200.0   0.0   16.666666666666668
150.0   30.0   16.666666666666668
150.0   0.0   33.333333333333336
200.0   0.0   33.333333333333336
150.0   30.0   33.333333333333336
150.0   0.0   50.0
200.0   0.0   33.333333333333336
200.0   30.0   33.333333333333336
150.0   30.0   33.333333333333336
200.0   30.0   50.0
150.0   0.0   50.0
150.0   30.0   50.0
200.0   30.0   50.0
150.0   30.0   33.333333333333336
150.0   0.0   50.0
200.0   30.0   50.0
200.0   0.0   50.0
200.0   0.0   33.333333333333336
150.0   0.0   50.0
200.0   30.0   50.0
200.0   0.0   33.333333333333336
150.0   30.0   33.333333333333336
150.0   30.0   0.0
200.0   30.0   0.0
150.0   60.0   0.0
150.0   30.0   16.666666666666668
200.0   30.0   0.0
200.0   60.0   0.0
150.0   60.0   0.0
200.0   60.0   16.666666666666668
150.0   30.0   16.666666666666668
150.0   60.0   16.666666666666668
200.0   60.0   16.666666666666668
150.0   60.0   0.0
150.0   30.0   16.666666666666668
200.0   60.0   16.666666666666668
200.0   30.0   16.666666666666668
200.0   30.0   0.0
150.0   30.0   16.666666666666668
200.0   60.0   16.666666666666668
200.0   30.0   0.0
150.0   60.0   0.0
150.0   30.0   16.666666666666668
200.0   30.0   16.666666666666668
150.0   60.0   16.666666666666668
150.0   30.0   33.333333333333336
200.0   30.0   16.666666666666668
200.0   60.0   16.666666666666668
150.0   60.0   16.666666666666668
200.0   60.0   33.333333333333336
150.0   30.0   33.333333333333336
150.0   60.0   33.333333333333336
200.0   60.0   33.333333333333336
150.0   60.0   16.666666666666668
150.0   30.0   33.333333333333336
200.0   60.0   33.333333333333336
200.0   30.0   33.333333333333336
200.0   30.0   16.666666666666668
150.0   30.0   33.333333333333336
200.0   60.0   33.333333333333336
200.0   30.0   16.666666666666668
150.0   60.0   16.666666666666668
150.0   30.0   33.333333333333336
200.0   30.0   33.333333333333336
150.0   60.0   33.333333333333336
150.0   30.0   50.0
200.0   30.0   33.333333333333336
200.0   60.0   33.333333333333336
150.0   60.0   33.333333333333336
200.0   60.0   50.0
150.0   30.0   50.0
150.0   60.0   50.0
200.0   60.0   50.0
150.0   60.0   33.333333333333336
150.0   30.0   50.0
200.0   60.0   50.0
200.0   30.0   50.0
200.0   30.0   33.333333333333336
150.0   30.0   50.0
200.0   60.0   50.0
200.0   30.0   33.333333333333336
150.0   60.0   33.333333333333336
150.0   60.0   0.0
200.0   60.0   0.0
150.0   90.0   0.0
150.0   60.0   16.666666666666668
200.0   60.0   0.0
200.0   90.0   0.0
150.0   90.0   0.0
200.0   90.0   16.666666666666668
150.0   60.0   16.666666666666668
150.0   90.0   16.666666666666668
200.0   90.0   16.666666666666668
150.0   90.0   0.0
150.0   60.0   16.666666666666668
200.0   90.0   16.666666666666668
200.0   60.0   16.666666666666668
200.0   60.0   0.0
150.0   60.0   16.666666666666668
200.0   90.0   16.666666666666668
200.0   60.0   0.0
150.0   90.0   0.0
150.0   60.0   16.666666666666668
200.0   60.0   16.666666666666668
150.0   90.0   16.666666666666668
150.0   60.0   33.333333333333336
200.0   60.0   16.666666666666668
200.0   90.0   16.666666666666668
150.0   90.0   16.666666666666668
200.0   90.0   33.333333333333336
150.0   60.0   33.333333333333336
150.0   90.0   33.333333333333336
200.0   90.0   33.333333333333336
150.0   90.0   16.666666666666668
150.0   60.0   33.333333333333336
200.0   90.0   33.333333333333336
200.0   60.0   33.333333333333336
200.0   60.0   16.666666666666668
150.0   60.0   33.333333333333336
200.0   90.0   33.333333333333336
200.0   60.0   16.666666666666668
150.0   90.0   16.666666666666668
150.0   60.0   33.333333333333336
200.0   60.0   33.333333333333336
150.0   90.0   33.333333333333336
150.0   60.0   50.0
200.0   60.0   33.333333333333336
200.0   90.0   33.333333333333336
150.0   90.0   33.333333333333336
200.0   90.0   50.0
150.0   60.0   50.0
150.0   90.0   50.0
200.0   90.0   50.0
150.0   90.0   33.333333333333336
150.0   60.0   50.0
200.0   90.0   50.0
200.0   60.0   50.0
200.0   60.0   33.333333333333336
150.0   60.0   50.0
200.0   90.0   50.0
200.0   60.0   33.333333333333336
150.0   90.0   33.333333333333336
150.0   90.0   0.0
200.0   90.0   0.0
150.0   120.0   0.0
150.0   90.0   16.666666666666668
200.0   90.0   0.0
200.0   120.0   0.0
150.0   120.0   0.0
200.0   120.0   16.666666666666668
150.0   90.0   16.666666666666668
150.0   120.0   16.666666666666668
200.0   120.0   16.666666666666668
150.0   120.0   0.0
150.0   90.0   16.666666666666668
200.0   120.0   16.666666666666668
200.0   90.0   16.666666666666668
200.0   90.0   0.0
150.0   90.0   16.666666666666668
200.0   120.0   16.666666666666668
200.0   90.0   0.0
150.0   120.0   0.0
150.0   90.0   16.666666666666668
200.0   90.0   16.666666666666668
150.0   120.0   16.666666666666668
150.0   90.0   33.333333333333336
200.0   90.0   16.666666666666668
200.0   120.0   16.666666666666668
150.0   120.0   16.666666666666668
200.0   120.0   33.333333333333336
150.0   90.0   33.333333333333336
150.0   120.0   33.333333333333336
200.0   120.0   33.333333333333336
150.0   120.0   16.666666666666668
150.0   90.0   33.333333333333336
200.0   120.0   33.333333333333336
200.0   90.0   33.333333333333336
200.0   90.0   16.666666666666668
150.0   90.0   33.333333333333336
200.0   120.0   33.333333333333336
200.0   90.0   16.666666666666668
150.0   120.0   16.666666666666668
150.0   90.0   33.333333333333336
200.0   90.0   33.333333333333336
150.0   120.0   33.333333333333336
150.0   90.0   50.0
200.0   90.0   33.333333333333336
200.0   120.0   33.333333333333336
150.0   120.0   33.333333333333336
200.0   120.0   50.0
150.0   90.0   50.0
150.0   120.0   50.0
200.0   120.0   50.0
150.0   120.0   33.333333333333336
150.0   90.0   50.0
200.0   120.0   50.0
200.0   90.0   50.0
200.0   90.0   33.333333333333336
150.0   90.0   50.0
200.0   120.0   50.0
200.0   90.0   33.333333333333336
150.0   120.0   33.333333333333336
150.0   120.0   0.0
200.0   120.0   0.0
150.0   150.0   0.0
150.0   120.0   16.666666666666668
200.0   120.0   0.0
200.0   150.0   0.0
150.0   150.0   0.0
200.0   150.0   16.666666666666668
150.0   120.0   16.666666666666668
150.0   150.0   16.666666666666668
200.0   150.0   16.666666666666668
150.0   150.0   0.0
150.0   120.0   16.666666666666668
200.0   150.0   16.666666666666668
200.0   120.0   16.666666666666668
200.0   120.0   0.0
150.0   120.0   16.666666666666668
200.0   150.0   16.666666666666668
200.0   120.0   0.0
150.0   150.0   0.0
150.0   120.0   16.666666666666668
200.0   120.0   16.666666666666668
150.0   150.0   16.666666666666668
150.0   120.0   33.333333333333336
200.0   120.0   16.666666666666668
200.0   150.0   16.666666666666668
150.0   150.0   16.666666666666668
200.0   150.0   33.333333333333336
150.0   120.0   33.333333333333336
150.0   150.0   33.333333333333336
200.0   150.0   33.333333333333336
150.0   150.0   16.666666666666668
150.0   120.0   33.333333333333336
200.0   150.0   33.333333333333336
200.0   120.0   33.333333333333336
200.0   120.0   16.666666666666668
150.0   120.0   33.333333333333336
200.0   150.0   33.333333333333336
200.0   120.0   16.666666666666668
150.0   150.0   16.666666666666668
150.0   120.0   33.333333333333336
200.0   120.0   33.333333333333336
150.0   150.0   33.333333333333336
150.0   120.0   50.0
200.0   120.0   33.333333333333336
200.0   150.0   33.333333333333336
150.0   150.0   33.333333333333336
200.0   150.0   50.0
150.0   120.0   50.0
150.0   150.0   50.0
200.0   150.0   50.0
150.0   150.0   33.333333333333336
150.0   120.0   50.0
200.0   150.0   50.0
200.0   120.0   50.0
200.0   120.0   33.333333333333336
150.0   120.0   50.0
200.0   150.0   50.0
200.0   120.0   33.333333333333336
150.0   150.0   33.333333333333336
200.0   0.0   0.0
250.0   0.0   0.0
200.0   30.0   0.0
200.0   0.0   16.666666666666668
250.0   0.0   0.0
250.0   30.0   0.0
200.0   30.0   0.0
250.0   30.0   16.666666666666668
200.0   0.0   16.666666666666668
200.0   30.0   16.666666666666668
250.0   30.0   16.666666666666668
200.0   30.0   0.0
200.0   0.0   16.666666666666668
250.0   30.0   16.666666666666668
250.0   0.0   16.666666666666668
250.0   0.0   0.0
200.0   0.0   16.666666666666668
250.0   30.0   16.666666666666668
250.0   0.0   0.0
200.0   30.0   0.0
200.0   0.0   16.666666666666668
250.0   0.0   16.666666666666668
200.0   30.0   16.666666666666668
200.0   0.0   33.333333333333336
250.0   0.0   16.666666666666668
250.0   30.0   16.666666666666668
200.0   30.0   16.666666666666668
250.0   30.0   33.333333333333336
200.0   0.0   33.333333333333336
200.0   30.0   33.333333333333336
250.0   30.0   33.333333333333336
200.0   30.0   16.666666666666668
200.0   0.0   33.333333333333336
250.0   30.0   33.333333333333336
250.0   0.0   33.333333333333336
250.0   0.0   16.666666666666668
200.0   0.0   33.333333333333336
250.0   30.0   33.333333333333336
250.0   0.0   16.666666666666668
200.0   30.0   16.666666666666668
200.0   0.0   33.333333333333336
250.0   0.0   33.333333333333336
200.0   30.0   33.333333333333336
200.0   0.0   50.0
250.0   0.0   33.333333333333336
250.0   30.0   33.333333333333336
200.0   30.0   33.333333333333336
250.0   30.0   50.0
200.0   0.0   50.0
200.0   30.0   50.0
250.0   30.0   50.0
200.0   30.0   33.333333333333336
200.0   0.0   50.0
250.0   30.0   50.0
250.0   0.0   50.0
250.0   0.0   33.333333333333336
200.0   0.0   50.0
250.0   30.0   50.0
250.0   0.0   33.333333333333336
200.0   30.0   33.333333333333336
200.0   30.0   0.0
250.0   30.0   0.0
200.0   60.0   0.0
200.0   30.0   16.666666666666668
250.0   30.0   0.0
250.0   60.0   0.0
200.0   60.0   0.0
250.0   60.0   16.666666666666668
200.0   30.0   16.666666666666668
200.0   60.0   16.666666666666668
250.0   60.0   16.666666666666668
200.0   60.0   0.0
200.0   30.0   16.666666666666668
250.0   60.0   16.666666666666668
250.0   30.0   16.666666666666668
250.0   30.0   0.0
200.0   30.0   16.666666666666668
250.0   60.0   16.666666666666668
250.0   30.0   0.0
200.0   60.0   0.0
200.0   30.0   16.666666666666668
250.0   30.0   16.666666666666668
200.0   60.0   16.666666666666668
200.0   30.0   33.333333333333336
250.0   30.0   16.666666666666668
250.0   60.0   16.666666666666668
200.0   60.0   16.666666666666668
250.0   60.0   33.333333333333336
200.0   30.0   33.333333333333336
200.0   60.0   33.333333333333336
250.0   60.0   33.333333333333336
200.0   60.0   16.666666666666668
200.0   30.0   33.333333333333336
250.0   60.0   33.333333333333336
250.0   30.0   33.333333333333336
250.0   30.0   16.666666666666668
200.0   30.0   33.333333333333336
250.0   60.0   33.333333333333336
250.0   30.0   16.666666666666668
200.0   60.0   16.666666666666668
200.0   30.0   33.333333333333336
250.0   30.0   33.333333333333336
200.0   60.0   33.333333333333336
200.0   30.0   50.0
250.0   30.0   33.333333333333336
250.0   60.0   33.333333333333336
200.0   60.0   33.333333333333336
250.0   60.0   50.0
200.0   30.0   50.0
200.0   60.0   50.0
250.0   60.0   50.0
200.0   60.0   33.333333333333336
200.0   30.0   50.0
250.0   60.0   50.0
250.0   30.0   50.0
250.0   30.0   33.333333333333336
200.0   30.0   50.0
250.0   60.0   50.0
250.0   30.0   33.333333333333336
200.0   60.0   33.333333333333336
200.0   60.0   0.0
250.0   60.0   0.0
200.0   90.0   0.0
200.0   60.0   16.666666666666668
250.0   60.0   0.0
250.0   90.0   0.0
200.0   90.0   0.0
250.0   90.0   16.666666666666668
200.0   60.0   16.666666666666668
200.0   90.0   16.666666666666668
250.0   90.0   16.666666666666668
200.0   90.0   0.0
200.0   60.0   16.666666666666668
250.0   90.0   16.666666666666668
250.0   60.0   16.666666666666668
250.0   60.0   0.0
200.0   60.0   16.666666666666668
250.0   90.0   16.666666666666668
250.0   60.0   0.0
200.0   90.0   0.0
200.0   60.0   16.666666666666668
250.0   60.0   16.666666666666668
200.0   90.0   16.666666666666668
200.0   60.0   33.333333333333336
250.0   60.0   16.666666666666668
250.0   90.0   16.666666666666668
200.0   90.0   16.666666666666668
250.0   90.0   33.333333333333336
200.0   60.0   33.333333333333336
200.0   90.0   33.333333333333336
250.0   90.0   33.333333333333336
200.0   90.0   16.666666666666668
200.0   60.0   33.333333333333336
250.0   90.0   33.333333333333336
250.0   60.0   33.333333333333336
250.0   60.0   16.666666666666668
200.0   60.0   33.333333333333336
250.0   90.0   33.333333333333336
250.0   60.0   16.666666666666668
200.0   90.0   16.666666666666668
200.0   60.0   33.333333333333336
250.0   60.0   33.333333333333336
200.0   90.0   33.333333333333336
200.0   60.0   50.0
250.0   60.0   33.333333333333336
250.0   90.0   33.333333333333336
200.0   90.0   33.333333333333336
250.0   90.0   50.0
200.0   60.0   50.0
200.0   90.0   50.0
250.0   90.0   50.0
200.0   90.0   33.333333333333336
200.0   60.0   50.0
250.0   90.0   50.0
250.0   60.0   50.0
250.0   60.0   33.333333333333336
200.0   60.0   50.0
250.0   90.0   50.0
250.0   60.0   33.333333333333336
200.0   90.0   33.333333333333336
200.0   90.0   0.0
250.0   90.0   0.0
200.0   120.0   0.0
200.0   90.0   16.666666666666668
250.0   90.0   0.0
250.0   120.0   0.0
200.0   120.0   0.0
250.0   120.0   16.666666666666668
200.0   90.0   16.666666666666668
200.0   120.0   16.666666666666668
250.0   120.0   16.666666666666668
200.0   120.0   0.0
200.0   90.0   16.666666666666668
250.0   120.0   16.666666666666668
250.0   90.0   16.666666666666668
250.0   90.0   0.0
200.0   90.0   16.666666666666668
250.0   120.0   16.666666666666668
250.0   90.0   0.0
200.0   120.0   0.0
200.0   90.0   16.666666666666668
250.0   90.0   16.666666666666668
200.0   120.0   16.666666666666668
200.0   90.0   33.333333333333336
250.0   90.0   16.666666666666668
250.0   120.0   16.666666666666668
200.0   120.0   16.666666666666668
250.0   120.0   33.333333333333336
200.0   90.0   33.333333333333336
200.0   120.0   33.333333333333336
250.0   120.0   33.333333333333336
200.0   120.0   16.666666666666668
200.0   90.0   33.333333333333336
250.0   120.0   33.333333333333336
250.0   90.0   33.333333333333336
250.0   90.0   16.666666666666668
200.0   90.0   33.333333333333336
250.0   120.0   33.333333333333336
250.0   90.0   16.666666666666668
200.0   120.0   16.666666666666668
200.0   90.0   33.333333333333336
250.0   90.0   33.333333333333336
200.0   120.0   33.333333333333336
200.0   90.0   50.0
250.0   90.0   33.333333333333336
250.0   120.0   33.333333333333336
200.0   120.0   33.333333333333336
250.0   120.0   50.0
200.0   90.0   50.0
200.0   120.0   50.0
250.0   120.0   50.0
200.0   120.0   33.333333333333336
200.0   90.0   50.0
250.0   120.0   50.0
250.0   90.0   50.0
250.0   90.0   33.333333333333336
200.0   90.0   50.0
250.0   120.0   50.0
250.0   90.0   33.333333333333336
200.0   120.0   33.333333333333336
200.0   120.0   0.0
250.0   120.0   0.0
200.0   150.0   0.0
200.0   120.0   16.666666666666668
250.0   120.0   0.0
250.0   150.0   0.0
200.0   150.0   0.0
250.0   150.0   16.666666666666668
200.0   120.0   16.666666666666668
200.0   150.0   16.666666666666668
250.0   150.0   16.666666666666668
200.0   150.0   0.0
200.0   120.0   16.666666666666668
250.0   150.0   16.666666666666668
250.0   120.0   16.666666666666668
250.0   120.0   0.0
200.0   120.0   16.666666666666668
250.0   150.0   16.666666666666668
250.0   120.0   0.0
200.0   150.0   0.0
200.0   120.0   16.666666666666668
250.0   120.0   16.666666666666668
200.0   150.0   16.666666666666668
200.0   120.0   33.333333333333336
250.0   120.0   16.666666666666668
250.0   150.0   16.666666666666668
200.0   150.0   16.666666666666668
250.0   150.0   33.333333333333336
200.0   120.0   33.333333333333336
200.0   150.0   33.333333333333336
250.0   150.0   33.333333333333336
200.0   150.0   16.666666666666668
200.0   120.0   33.333333333333336
250.0   150.0   33.333333333333336
250.0   120.0   33.333333333333336
250.0   120.0   16.666666666666668
200.0   120.0   33.333333333333336
250.0   150.0   33.333333333333336
250.0   120.0   16.666666666666668
200.0   150.0   16.666666666666668
200.0   120.0   33.333333333333336
250.0   120.0   33.333333333333336
200.0   150.0   33.333333333333336
200.0   120.0   50.0
250.0   120.0   33.333333333333336
250.0   150.0   33.333333333333336
200.0   150.0   33.333333333333336
250.0   150.0   50.0
200.0   120.0   50.0
200.0   150.0   50.0
250.0   150.0   50.0
200.0   150.0   33.333333333333336
200.0   120.0   50.0
250.0   150.0   50.0
250.0   120.0   50.0
250.0   120.0   33.333333333333336
200.0   120.0   50.0
250.0   150.0   50.0
250.0   120.0   33.333333333333336
200.0   150.0   33.333333333333336
250.0   0.0   0.0
300.0   0.0   0.0
250.0   30.0   0.0
250.0   0.0   16.666666666666668
300.0   0.0   0.0
300.0   30.0   0.0
250.0   30.0   0.0
300.0   30.0   16.666666666666668
250.0   0.0   16.666666666666668
250.0   30.0   16.666666666666668
300.0   30.0   16.666666666666668
250.0   30.0   0.0
250.0   0.0   16.666666666666668
300.0   30.0   16.666666666666668
300.0   0.0   16.666666666666668
300.0   0.0   0.0
250.0   0.0   16.666666666666668
300.0   30.0   16.666666666666668
300.0   0.0   0.0
250.0   30.0   0.0
250.0   0.0   16.666666666666668
300.0   0.0   16.666666666666668
250.0   30.0   16.666666666666668
250.0   0.0   33.333333333333336
300.0   0.0   16.666666666666668
300.0   30.0   16.666666666666668
250.0   30.0   16.666666666666668
300.0   30.0   33.333333333333336
250.0   0.0   33.333333333333336
250.0   30.0   33.333333333333336
300.0   30.0   33.333333333333336
250.0   30.0   16.666666666666668
250.0   0.0   33.333333333333336
300.0   30.0   33.333333333333336
300.0   0.0   33.333333333333336
300.0   0.0   16.666666666666668
250.0   0.0   33.333333333333336
300.0   30.0   33.333333333333336
300.0   0.0   16.666666666666668
250.0   30.0   16.666666666666668
250.0   0.0   33.333333333333336
300.0   0.0   33.333333333333336
250.0   30.0   33.333333333333336
250.0   0.0   50.0
300.0   0.0   33.333333333333336
300.0   30.0   33.333333333333336
250.0   30.0   33.333333333333336
300.0   30.0   50.0
250.0   0.0   50.0
250.0   30.0   50.0
300.0   30.0   50.0
250.0   30.0   33.333333333333336
250.0   0.0   50.0
300.0   30.0   50.0
300.0   0.0   50.0
300.0   0.0   33.333333333333336
250.0   0.0   50.0
300.0   30.0   50.0
300.0   0.0   33.333333333333336
250.0   30.0   33.333333333333336
250.0   30.0   0.0
300.0   30.0   0.0
250.0   60.0   0.0
250.0   30.0   16.666666666666668
300.0   30.0   0.0
300.0   60.0   0.0
250.0   60.0   0.0
300.0   60.0   16.666666666666668
250.0   30.0   16.666666666666668
250.0   60.0   16.666666666666668
300.0   60.0   16.666666666666668
250.0   60.0   0.0
250.0   30.0   16.666666666666668
300.0   60.0   16.666666666666668
300.0   30.0   16.666666666666668
300.0   30.0   0.0
250.0   30.0   16.666666666666668
300.0   60.0   16.666666666666668
300.0   30.0   0.0
250.0   60.0   0.0
250.0   30.0   16.666666666666668
300.0   30.0   16.666666666666668
250.0   60.0   16.666666666666668
250.0   30.0   33.333333333333336
300.0   30.0   16.666666666666668
300.0   60.0   16.666666666666668
250.0   60.0   16.666666666666668
300.0   60.0   33.333333333333336
250.0   30.0   33.333333333333336
250.0   60.0   33.333333333333336
300.0   60.0   33.333333333333336
250.0   60.0   16.666666666666668
250.0   30.0   33.333333333333336
300.0   60.0   33.333333333333336
300.0   30.0   33.333333333333336
300.0   30.0   16.666666666666668
250.0   30.0   33.333333333333336
300.0   60.0   33.333333333333336
300.0   30.0   16.666666666666668
250.0   60.0   16.666666666666668
250.0   30.0   33.333333333333336
300.0   30.0   33.333333333333336
250.0   60.0   33.333333333333336
250.0   30.0   50.0
300.0   30.0   33.333333333333336
300.0   60.0   33.333333333333336
250.0   60.0   33.333333333333336
300.0   60.0   50.0
250.0   30.0   50.0
250.0   60.0   50.0
300.0   60.0   50.0
250.0   60.0   33.333333333333336
250.0   30.0   50.0
300.0   60.0   50.0
300.0   30.0   50.0
300.0   30.0   33.333333333333336
250.0   30.0   50.0
300.0   60.0   50.0
300.0   30.0   33.333333333333336
250.0   60.0   33.333333333333336
250.0   60.0   0.0
300.0   60.0   0.0
250.0   90.0   0.0
250.0   60.0   16.666666666666668
300.0   60.0   0.0
300.0   90.0   0.0
250.0   90.0   0.0
300.0   90.0   16.666666666666668
250.0   60.0   16.666666666666668
250.0   90.0   16.666666666666668
300.0   90.0   16.666666666666668
250.0   90.0   0.0
250.0   60.0   16.666666666666668
300.0   90.0   16.666666666666668
300.0   60.0   16.666666666666668
300.0   60.0   0.0
250.0   60.0   16.666666666666668
300.0   90.0   16.666666666666668
300.0   60.0   0.0
250.0   90.0   0.0
250.0   60.0   16.666666666666668
300.0   60.0   16.666666666666668
250.0   90.0   16.666666666666668
250.0   60.0   33.333333333333336
300.0   60.0   16.666666666666668
300.0   90.0   16.666666666666668
250.0   90.0   16.666666666666668
300.0   90.0   33.333333333333336
250.0   60.0   33.333333333333336
250.0   90.0   33.333333333333336
300.0   90.0   33.333333333333336
250.0   90.0   16.666666666666668
250.0   60.0   33.333333333333336
300.0   90.0   33.333333333333336
300.0   60.0   33.333333333333336
300.0   60.0   16.666666666666668
250.0   60.0   33.333333333333336
300.0   90.0   33.333333333333336
300.0   60.0   16.666666666666668
250.0   90.0   16.666666666666668
250.0   60.0   33.333333333333336
300.0   60.0   33.333333333333336
250.0   90.0   33.333333333333336
250.0   60.0   50.0
300.0   60.0   33.333333333333336
300.0   90.0   33.333333333333336
250.0   90.0   33.333333333333336
300.0   90.0   50.0
250.0   60.0   50.0
250.0   90.0   50.0
300.0   90.0   50.0
250.0   90.0   33.333333333333336
250.0   60.0   50.0
300.0   90.0   50.0
300.0   60.0   50.0
300.0   60.0   33.333333333333336
250.0   60.0   50.0
300.0   90.0   50.0
300.0   60.0   33.333333333333336
250.0   90.0   33.333333333333336
250.0   90.0   0.0
300.0   90.0   0.0
250.0   120.0   0.0
250.0   90.0   16.666666666666668
300.0   90.0   0.0
300.0   120.0   0.0
250.0   120.0   0.0
300.0   120.0   16.666666666666668
250.0   90.0   16.666666666666668
250.0   120.0   16.666666666666668
300.0   120.0   16.666666666666668
250.0   120.0   0.0
250.0   90.0   16.666666666666668
300.0   120.0   16.666666666666668
300.0   90.0   16.666666666666668
300.0   90.0   0.0
250.0   90.0   16.666666666666668
300.0   120.0   16.666666666666668
300.0   90.0   0.0
250.0   120.0   0.0
250.0   90.0   16.666666666666668
300.0   90.0   16.666666666666668
250.0   120.0   16.666666666666668
250.0   90.0   33.333333333333336
300.0   90.0   16.666666666666668
300.0   120.0   16.666666666666668
250.0   120.0   16.666666666666668
300.0   120.0   33.333333333333336
250.0   90.0   33.333333333333336
250.0   120.0   33.333333333333336
300.0   120.0   33.333333333333336
250.0   120.0   16.666666666666668
250.0   90.0   33.333333333333336
300.0   120.0   33.333333333333336
300.0   90.0   33.333333333333336
300.0   90.0   16.666666666666668
250.0   90.0   33.333333333333336
300.0   120.0   33.333333333333336
300.0   90.0   16.666666666666668
250.0   120.0   16.666666666666668
250.0   90.0   33.333333333333336
300.0   90.0   33.333333333333336
250.0   120.0   33.333333333333336
250.0   90.0   50.0
300.0   90.0   33.333333333333336
300.0   120.0   33.333333333333336
250.0   120.0   33.333333333333336
300.0   120.0   50.0
250.0   90.0   50.0
250.0   120.0   50.0
300.0   120.0   50.0
250.0   120.0   33.333333333333336
250.0   90.0   50.0
300.0   120.0   50.0
300.0   90.0   50.0
300.0   90.0   33.333333333333336
250.0   90.0   50.0
300.0   120.0   50.0
300.0   90.0   33.333333333333336
250.0   120.0   33.333333333333336
250.0   120.0   0.0
300.0   120.0   0.0
250.0   150.0   0.0
250.0   120.0   16.666666666666668
300.0   120.0   0.0
300.0   150.0   0.0
250.0   150.0   0.0
300.0   150.0   16.666666666666668
250.0   120.0   16.666666666666668
250.0   150.0   16.666666666666668
300.0   150.0   16.666666666666668
250.0   150.0   0.0
250.0   120.0   16.666666666666668
300.0   150.0   16.666666666666668
300.0   120.0   16.666666666666668
300.0   120.0   0.0
250.0   120.0   16.666666666666668
300.0   150.0   16.666666666666668
300.0   120.0   0.0
250.0   150.0   0.0
250.0   120.0   16.666666666666668
300.0   120.0   16.666666666666668
250.0   150.0   16.666666666666668
250.0   120.0   33.333333333333336
300.0   120.0   16.666666666666668
300.0   150.0   16.666666666666668
250.0   150.0   16.666666666666668
300.0   150.0   33.333333333333336
250.0   120.0   33.333333333333336
250.0   150.0   33.333333333333336
300.0   150.0   33.333333333333336
250.0   150.0   16.666666666666668
250.0   120.0   33.333333333333336
300.0   150.0   33.333333333333336
300.0   120.0   33.333333333333336
300.0   120.0   16.666666666666668
250.0   120.0   33.333333333333336
300.0   150.0   33.333333333333336
300.0   120.0   16.666666666666668
250.0   150.0   16.666666666666668
250.0   120.0   33.333333333333336
300.0   120.0   33.333333333333336
250.0   150.0   33.333333333333336
250.0   120.0   50.0
300.0   120.0   33.333333333333336
300.0   150.0   33.333333333333336
250.0   150.0   33.333333333333336
300.0   150.0   50.0
250.0   120.0   50.0
250.0   150.0   50.0
300.0   150.0   50.0
250.0   150.0   33.333333333333336
250.0   120.0   50.0
300.0   150.0   50.0
300.0   120.0   50.0
300.0   120.0   33.333333333333336
250.0   120.0   50.0
300.0   150.0   50.0
300.0   120.0   33.333333333333336
250.0   150.0   33.333333333333336
300.0   0.0   0.0
350.0   0.0   0.0
300.0   30.0   0.0
300.0   0.0   16.666666666666668
350.0   0.0   0.0
350.0   30.0   0.0
300.0   30.0   0.0
350.0   30.0   16.666666666666668
300.0   0.0   16.666666666666668
300.0   30.0   16.666666666666668
350.0   30.0   16.666666666666668
300.0   30.0   0.0
300.0   0.0   16.666666666666668
350.0   30.0   16.666666666666668
350.0   0.0   16.666666666666668
350.0   0.0   0.0
300.0   0.0   16.666666666666668
350.0   30.0   16.666666666666668
350.0   0.0   0.0
300.0   30.0   0.0
300.0   0.0   16.666666666666668
350.0   0.0   16.666666666666668
300.0   30.0   16.666666666666668
300.0   0.0   33.333333333333336
350.0   0.0   16.666666666666668
350.0   30.0   16.666666666666668
300.0   30.0   16.666666666666668
350.0   30.0   33.333333333333336
300.0   0.0   33.333333333333336
300.0   30.0   33.333333333333336
350.0   30.0   33.333333333333336
300.0   30.0   16.666666666666668
300.0   0.0   33.333333333333336
350.0   30.0   33.333333333333336
350.0   0.0   33.333333333333336
350.0   0.0   16.666666666666668
300.0   0.0   33.333333333333336
350.0   30.0   33.333333333333336
350.0   0.0   16.666666666666668
300.0   30.0   16.666666666666668
300.0   0.0   33.333333333333336
350.0   0.0   33.333333333333336
300.0   30.0   33.333333333333336
300.0   0.0   50.0
350.0   0.0   33.333333333333336
350.0   30.0   33.333333333333336
300.0   30.0   33.333333333333336
350.0   30.0   50.0
300.0   0.0   50.0
300.0   30.0   50.0
350.0   30.0   50.0
300.0   30.0   33.333333333333336
300.0   0.0   50.0
350.0   30.0   50.0
350.0   0.0   50.0
350.0   0.0   33.333333333333336
300.0   0.0   50.0
350.0   30.0   50.0
350.0   0.0   33.333333333333336
300.0   30.0   33.333333333333336
300.0   30.0   0.0
350.0   30.0   0.0
300.0   60.0   0.0
300.0   30.0   16.666666666666668
350.0   30.0   0.0
350.0   60.0   0.0
300.0   60.0   0.0
350.0   60.0   16.666666666666668
300.0   30.0   16.666666666666668
300.0   60.0   16.666666666666668
350.0   60.0   16.666666666666668
300.0   60.0   0.0
300.0   30.0   16.666666666666668
350.0   60.0   16.666666666666668
350.0   30.0   16.666666666666668
350.0   30.0   0.0
300.0   30.0   16.666666666666668
350.0   60.0   16.666666666666668
350.0   30.0   0.0
300.0   60.0   0.0
300.0   30.0   16.666666666666668
350.0   30.0   16.666666666666668
300.0   60.0   16.666666666666668
300.0   30.0   33.333333333333336
350.0   30.0   16.666666666666668
350.0   60.0   16.666666666666668
300.0   60.0   16.666666666666668
350.0   60.0   33.333333333333336
300.0   30.0   33.333333333333336
300.0   60.0   33.333333333333336
350.0   60.0   33.333333333333336
300.0   60.0   16.666666666666668
300.0   30.0   33.333333333333336
350.0   60.0   33.333333333333336
350.0   30.0   33.333333333333336
350.0   30.0   16.666666666666668
300.0   30.0   33.333333333333336
350.0   60.0   33.333333333333336
350.0   30.0   16.666666666666668
300.0   60.0   16.666666666666668
300.0   30.0   33.333333333333336
350.0   30.0   33.333333333333336
300.0   60.0   33.333333333333336
300.0   30.0   50.0
350.0   30.0   33.333333333333336
350.0   60.0   33.333333333333336
300.0   60.0   33.333333333333336
350.0   60.0   50.0
300.0   30.0   50.0
300.0   60.0   50.0
350.0   60.0   50.0
300.0   60.0   33.333333333333336
300.0   30.0   50.0
350.0   60.0   50.0
350.0   30.0   50.0
350.0   30.0   33.333333333333336
300.0   30.0   50.0
350.0   60.0   50.0
350.0   30.0   33.333333333333336
300.0   60.0   33.333333333333336
300.0   60.0   0.0
350.0   60.0   0.0
300.0   90.0   0.0
300.0   60.0   16.666666666666668
350.0   60.0   0.0
350.0   90.0   0.0
300.0   90.0   0.0
350.0   90.0   16.666666666666668
300.0   60.0   16.666666666666668
300.0   90.0   16.666666666666668
350.0   90.0   16.666666666666668
300.0   90.0   0.0
300.0   60.0   16.666666666666668
350.0   90.0   16.666666666666668
350.0   60.0   16.666666666666668
350.0   60.0   0.0
300.0   60.0   16.666666666666668
350.0   90.0   16.666666666666668
350.0   60.0   0.0
300.0   90.0   0.0
300.0   60.0   16.666666666666668
350.0   60.0   16.666666666666668
300.0   90.0   16.666666666666668
300.0   60.0   33.333333333333336
350.0   60.0   16.666666666666668
350.0   90.0   16.666666666666668
300.0   90.0   16.666666666666668
350.0   90.0   33.333333333333336
300.0   60.0   33.333333333333336
300.0   90.0   33.333333333333336
350.0   90.0   33.333333333333336
300.0   90.0   16.666666666666668
300.0   60.0   33.333333333333336
350.0   90.0   33.333333333333336
350.0   60.0   33.333333333333336
350.0   60.0   16.666666666666668
300.0   60.0   33.333333333333336
350.0   90.0   33.333333333333336
350.0   60.0   16.666666666666668
300.0   90.0   16.666666666666668
300.0   60.0   33.333333333333336
350.0   60.0   33.333333333333336
300.0   90.0   33.333333333333336
300.0   60.0   50.0
350.0   60.0   33.333333333333336
350.0   90.0   33.333333333333336
300.0   90.0   33.333333333333336
350.0   90.0   50.0
300.0   60.0   50.0
300.0   90.0   50.0
350.0   90.0   50.0
300.0   90.0   33.333333333333336
300.0   60.0   50.0
350.0   90.0   50.0
350.0   60.0   50.0
350.0   60.0   33.333333333333336
300.0   60.0   50.0
350.0   90.0   50.0
350.0   60.0   33.333333333333336
300.0   90.0   33.333333333333336
300.0   90.0   0.0
350.0   90.0   0.0
300.0   120.0   0.0
300.0   90.0   16.666666666666668
350.0   90.0   0.0
350.0   120.0   0.0
300.0   120.0   0.0
350.0   120.0   16.666666666666668
300.0   90.0   16.666666666666668
300.0   120.0   16.666666666666668
350.0   120.0   16.666666666666668
300.0   120.0   0.0
300.0   90.0   16.666666666666668
350.0   120.0   16.666666666666668
350.0   90.0   16.666666666666668
350.0   90.0   0.0
300.0   90.0   16.666666666666668
350.0   120.0   16.666666666666668
350.0   90.0   0.0
300.0   120.0   0.0
300.0   90.0   16.666666666666668
350.0   90.0   16.666666666666668
300.0   120.0   16.666666666666668
300.0   90.0   33.333333333333336
350.0   90.0   16.666666666666668
350.0   120.0   16.666666666666668
300.0   120.0   16.666666666666668
350.0   120.0   33.333333333333336
300.0   90.0   33.333333333333336
300.0   120.0   33.333333333333336
350.0   120.0   33.333333333333336
300.0   120.0   16.666666666666668
300.0   90.0   33.333333333333336
350.0   120.0   33.333333333333336
350.0   90.0   33.333333333333336
350.0   90.0   16.666666666666668
300.0   90.0   33.333333333333336
350.0   120.0   33.333333333333336
350.0   90.0   16.666666666666668
300.0   120.0   16.666666666666668
300.0   90.0   33.333333333333336
350.0   90.0   33.333333333333336
300.0   120.0   33.333333333333336
300.0   90.0   50.0
350.0   90.0   33.333333333333336
350.0   120.0   33.333333333333336
300.0   120.0   33.333333333333336
350.0   120.0   50.0
300.0   90.0   50.0
300.0   120.0   50.0
350.0   120.0   50.0
300.0   120.0   33.333333333333336
300.0   90.0   50.0
350.0   120.0   50.0
350.0   90.0   50.0
350.0   90.0   33.333333333333336
300.0   90.0   50.0
350.0   120.0   50.0
350.0   90.0   33.333333333333336
300.0   120.0   33.333333333333336
300.0   120.0   0.0
350.0   120.0   0.0
300.0   150.0   0.0
300.0   120.0   16.666666666666668
350.0   120.0   0.0
350.0   150.0   0.0
300.0   150.0   0.0
350.0   150.0   16.666666666666668
300.0   120.0   16.666666666666668
300.0   150.0   16.666666666666668
350.0   150.0   16.666666666666668
300.0   150.0   0.0
300.0   120.0   16.666666666666668
350.0   150.0   16.666666666666668
350.0   120.0   16.666666666666668
350.0   120.0   0.0
300.0   120.0   16.666666666666668
350.0   150.0   16.666666666666668
350.0   120.0   0.0
300.0   150.0   0.0
300.0   120.0   16.666666666666668
350.0   120.0   16.666666666666668
300.0   150.0   16.666666666666668
300.0   120.0   33.333333333333336
350.0   120.0   16.666666666666668
350.0   150.0   16.666666666666668
300.0   150.0   16.666666666666668
350.0   150.0   33.333333333333336
300.0   120.0   33.333333333333336
300.0   150.0   33.333333333333336
350.0   150.0   33.333333333333336
300.0   150.0   16.666666666666668
300.0   120.0   33.333333333333336
350.0   150.0   33.333333333333336
350.0   120.0   33.333333333333336
350.0   120.0   16.666666666666668
300.0   120.0   33.333333333333336
350.0   150.0   33.333333333333336
350.0   120.0   16.666666666666668
300.0   150.0   16.666666666666668
300.0   120.0   33.333333333333336
350.0   120.0   33.333333333333336
300.0   150.0   33.333333333333336
300.0   120.0   50.0
350.0   120.0   33.333333333333336
350.0   150.0   33.333333333333336
300.0   150.0   33.333333333333336
350.0   150.0   50.0
300.0   120.0   50.0
300.0   150.0   50.0
350.0   150.0   50.0
300.0   150.0   33.333333333333336
300.0   120.0   50.0
350.0   150.0   50.0
350.0   120.0   50.0
350.0   120.0   33.333333333333336
300.0   120.0   50.0
350.0   150.0   50.0
350.0   120.0   33.333333333333336
300.0   150.0   33.333333333333336
350.0   0.0   0.0
400.0   0.0   0.0
350.0   30.0   0.0
350.0   0.0   16.666666666666668
400.0   0.0   0.0
400.0   30.0   0.0
350.0   30.0   0.0
400.0   30.0   16.666666666666668
350.0   0.0   16.666666666666668
350.0   30.0   16.666666666666668
400.0   30.0   16.666666666666668
350.0   30.0   0.0
350.0   0.0   16.666666666666668
400.0   30.0   16.666666666666668
400.0   0.0   16.666666666666668
400.0   0.0   0.0
350.0   0.0   16.666666666666668
400.0   30.0   16.666666666666668
400.0   0.0   0.0
350.0   30.0   0.0
350.0   0.0   16.666666666666668
400.0   0.0   16.666666666666668
350.0   30.0   16.666666666666668
350.0   0.0   33.333333333333336
400.0   0.0   16.666666666666668
400.0   30.0   16.666666666666668
350.0   30.0   16.666666666666668
400.0   30.0   33.333333333333336
350.0   0.0   33.333333333333336
350.0   30.0   33.333333333333336
400.0   30.0   33.333333333333336
350.0   30.0   16.666666666666668
350.0   0.0   33.333333333333336
400.0   30.0   33.333333333333336
400.0   0.0   33.333333333333336
400.0   0.0   16.666666666666668
350.0   0.0   33.333333333333336
400.0   30.0   33.333333333333336
400.0   0.0   16.666666666666668
350.0   30.0   16.666666666666668
350.0   0.0   33.333333333333336
400.0   0.0   33.333333333333336
350.0   30.0   33.333333333333336
350.0   0.0   50.0
400.0   0.0   33.333333333333336
400.0   30.0   33.333333333333336
350.0   30.0   33.333333333333336
400.0   30.0   50.0
350.0   0.0   50.0
350.0   30.0   50.0
400.0   30.0   50.0
350.0   30.0   33.333333333333336
350.0   0.0   50.0
400.0   30.0   50.0
400.0   0.0   50.0
400.0   0.0   33.333333333333336
350.0   0.0   50.0
400.0   30.0   50.0
400.0   0.0   33.333333333333336
350.0   30.0   33.333333333333336
350.0   30.0   0.0
400.0   30.0   0.0
350.0   60.0   0.0
350.0   30.0   16.666666666666668
400.0   30.0   0.0
400.0   60.0   0.0
350.0   60.0   0.0
400.0   60.0   16.666666666666668
350.0   30.0   16.666666666666668
350.0   60.0   16.666666666666668
400.0   60.0   16.666666666666668
350.0   60.0   0.0
350.0   30.0   16.666666666666668
400.0   60.0   16.666666666666668
400.0   30.0   16.666666666666668
400.0   30.0   0.0
350.0   30.0   16.666666666666668
400.0   60.0   16.666666666666668
400.0   30.0   0.0
350.0   60.0   0.0
350.0   30.0   16.666666666666668
400.0   30.0   16.666666666666668
350.0   60.0   16.666666666666668
350.0   30.0   33.333333333333336
400.0   30.0   16.666666666666668
400.0   60.0   16.666666666666668
350.0   60.0   16.666666666666668
400.0   60.0   33.333333333333336
350.0   30.0   33.333333333333336
350.0   60.0   33.333333333333336
400.0   60.0   33.333333333333336
350.0   60.0   16.666666666666668
350.0   30.0   33.333333333333336
400.0   60.0   33.333333333333336
400.0   30.0   33.333333333333336
400.0   30.0   16.666666666666668
350.0   30.0   33.333333333333336
400.0   60.0   33.333333333333336
400.0   30.0   16.666666666666668
350.0   60.0   16.666666666666668
350.0   30.0   33.333333333333336
400.0   30.0   33.333333333333336
350.0   60.0   33.333333333333336
350.0   30.0   50.0
400.0   30.0   33.333333333333336
400.0   60.0   33.333333333333336
350.0   60.0   33.333333333333336
400.0   60.0   50.0
350.0   30.0   50.0
350.0   60.0   50.0
400.0   60.0   50.0
350.0   60.0   33.333333333333336
350.0   30.0   50.0
400.0   60.0   50.0
400.0   30.0   50.0
400.0   30.0   33.333333333333336
350.0   30.0   50.0
400.0   60.0   50.0
400.0   30.0   33.333333333333336
350.0   60.0   33.333333333333336
350.0   60.0   0.0
400.0   60.0   0.0
350.0   90.0   0.0
350.0   60.0   16.666666666666668
400.0   60.0   0.0
400.0   90.0   0.0
350.0   90.0   0.0
400.0   90.0   16.666666666666668
350.0   60.0   16.666666666666668
350.0   90.0   16.666666666666668
400.0   90.0   16.666666666666668
350.0   90.0   0.0
350.0   60.0   16.666666666666668
400.0   90.0   16.666666666666668
400.0   60.0   16.666666666666668
400.0   60.0   0.0
350.0   60.0   16.666666666666668
400.0   90.0   16.666666666666668
400.0   60.0   0.0
350.0   90.0   0.0
350.0   60.0   16.666666666666668
400.0   60.0   16.666666666666668
350.0   90.0   16.666666666666668
350.0   60.0   33.333333333333336
400.0   60.0   16.666666666666668
400.0   90.0   16.666666666666668
350.0   90.0   16.666666666666668
400.0   90.0   33.333333333333336
350.0   60.0   33.333333333333336
350.0   90.0   33.333333333333336
400.0   90.0   33.333333333333336
350.0   90.0   16.666666666666668
350.0   60.0   33.333333333333336
400.0   90.0   33.333333333333336
400.0   60.0   33.333333333333336
400.0   60.0   16.666666666666668
350.0   60.0   33.333333333333336
400.0   90.0   33.333333333333336
400.0   60.0   16.666666666666668
350.0   90.0   16.666666666666668
350.0   60.0   33.333333333333336
400.0   60.0   33.333333333333336
350.0   90.0   33.333333333333336
350.0   60.0   50.0
400.0   60.0   33.333333333333336
400.0   90.0   33.333333333333336
350.0   90.0   33.333333333333336
400.0   90.0   50.0
350.0   60.0   50.0
350.0   90.0   50.0
400.0   90.0   50.0
350.0   90.0   33.333333333333336
350.0   60.0   50.0
400.0   90.0   50.0
400.0   60.0   50.0
400.0   60.0   33.333333333333336
350.0   60.0   50.0
400.0   90.0   50.0
400.0   60.0   33.333333333333336
350.0   90.0   33.333333333333336
350.0   90.0   0.0
400.0   90.0   0.0
350.0   120.0   0.0
350.0   90.0   16.666666666666668
400.0   90.0   0.0
400.0   120.0   0.0
350.0   120.0   0.0
400.0   120.0   16.666666666666668
350.0   90.0   16.666666666666668
350.0   120.0   16.666666666666668
400.0   120.0   16.666666666666668
350.0   120.0   0.0
350.0   90.0   16.666666666666668
400.0   120.0   16.666666666666668
400.0   90.0   16.666666666666668
400.0   90.0   0.0
350.0   90.0   16.666666666666668
400.0   120.0   16.666666666666668
400.0   90.0   0.0
350.0   120.0   0.0
350.0   90.0   16.666666666666668
400.0   90.0   16.666666666666668
350.0   120.0   16.666666666666668
350.0   90.0   33.333333333333336
400.0   90.0   16.666666666666668
400.0   120.0   16.666666666666668
350.0   120.0   16.666666666666668
400.0   120.0   33.333333333333336
350.0   90.0   33.333333333333336
350.0   120.0   33.333333333333336
400.0   120.0   33.333333333333336
350.0   120.0   16.666666666666668
350.0   90.0   33.333333333333336
400.0   120.0   33.333333333333336
400.0   90.0   33.333333333333336
400.0   90.0   16.666666666666668
350.0   90.0   33.333333333333336
400.0   120.0   33.333333333333336
400.0   90.0   16.666666666666668
350.0   120.0   16.666666666666668
350.0   90.0   33.333333333333336
400.0   90.0   33.333333333333336
350.0   120.0   33.333333333333336
350.0   90.0   50.0
400.0   90.0   33.333333333333336
400.0   120.0   33.333333333333336
350.0   120.0   33.333333333333336
400.0   120.0   50.0
350.0   90.0   50.0
350.0   120.0   50.0
400.0   120.0   50.0
350.0   120.0   33.333333333333336
350.0   90.0   50.0
400.0   120.0   50.0
400.0   90.0   50.0
400.0   90.0   33.333333333333336
350.0   90.0   50.0
400.0   120.0   50.0
400.0   90.0   33.333333333333336
350.0   120.0   33.333333333333336
350.0   120.0   0.0
400.0   120.0   0.0
350.0   150.0   0.0
350.0   120.0   16.666666666666668
400.0   120.0   0.0
400.0   150.0   0.0
350.0   150.0   0.0
400.0   150.0   16.666666666666668
350.0   120.0   16.666666666666668
350.0   150.0   16.666666666666668
400.0   150.0   16.666666666666668
350.0   150.0   0.0
350.0   120.0   16.666666666666668
400.0   150.0   16.666666666666668
400.0   120.0   16.666666666666668
400.0   120.0   0.0
350.0   120.0   16.666666666666668
400.0   150.0   16.666666666666668
400.0   120.0   0.0
350.0   150.0   0.0
350.0   120.0   16.666666666666668
400.0   120.0   16.666666666666668
350.0   150.0   16.666666666666668
350.0   120.0   33.333333333333336
400.0   120.0   16.666666666666668
400.0   150.0   16.666666666666668
350.0   150.0   16.666666666666668
400.0   150.0   33.333333333333336
350.0   120.0   33.333333333333336
350.0   150.0   33.333333333333336
400.0   150.0   33.333333333333336
350.0   150.0   16.666666666666668
350.0   120.0   33.333333333333336
400.0   150.0   33.333333333333336
400.0   120.0   33.333333333333336
400.0   120.0   16.666666666666668
350.0   120.0   33.333333333333336
400.0   150.0   33.333333333333336
400.0   120.0   16.666666666666668
350.0   150.0   16.666666666666668
350.0   120.0   33.333333333333336
400.0   120.0   33.333333333333336
350.0   150.0   33.333333333333336
350.0   120.0   50.0
400.0   120.0   33.333333333333336
400.0   150.0   33.333333333333336
350.0   150.0   33.333333333333336
400.0   150.0   50.0
350.0   120.0   50.0
350.0   150.0   50.0
400.0   150.0   50.0
350.0   150.0   33.333333333333336
350.0   120.0   50.0
400.0   150.0   50.0
400.0   120.0   50.0
400.0   120.0   33.333333333333336
350.0   120.0   50.0
400.0   150.0   50.0
400.0   120.0   33.333333333333336
350.0   150.0   33.333333333333336
400.0   0.0   0.0
450.0   0.0   0.0
400.0   30.0   0.0
400.0   0.0   16.666666666666668
450.0   0.0   0.0
450.0   30.0   0.0
400.0   30.0   0.0
450.0   30.0   16.666666666666668
400.0   0.0   16.666666666666668
400.0   30.0   16.666666666666668
450.0   30.0   16.666666666666668
400.0   30.0   0.0
400.0   0.0   16.666666666666668
450.0   30.0   16.666666666666668
450.0   0.0   16.666666666666668
450.0   0.0   0.0
400.0   0.0   16.666666666666668
450.0   30.0   16.666666666666668
450.0   0.0   0.0
400.0   30.0   0.0
400.0   0.0   16.666666666666668
450.0   0.0   16.666666666666668
400.0   30.0   16.666666666666668
400.0   0.0   33.333333333333336
450.0   0.0   16.666666666666668
450.0   30.0   16.666666666666668
400.0   30.0   16.666666666666668
450.0   30.0   33.333333333333336
400.0   0.0   33.333333333333336
400.0   30.0   33.333333333333336
450.0   30.0   33.333333333333336
400.0   30.0   16.666666666666668
400.0   0.0   33.333333333333336
450.0   30.0   33.333333333333336
450.0   0.0   33.333333333333336
450.0   0.0   16.666666666666668
400.0   0.0   33.333333333333336
450.0   30.0   33.333333333333336
450.0   0.0   16.666666666666668
400.0   30.0   16.666666666666668
400.0   0.0   33.333333333333336
450.0   0.0   33.333333333333336
400.0   30.0   33.333333333333336
400.0   0.0   50.0
450.0   0.0   33.333333333333336
450.0   30.0   33.333333333333336
400.0   30.0   33.333333333333336
450.0   30.0   50.0
400.0   0.0   50.0
400.0   30.0   50.0
450.0   30.0   50.0
400.0   30.0   33.333333333333336
400.0   0.0   50.0
450.0   30.0   50.0
450.0   0.0   50.0
450.0   0.0   33.333333333333336
400.0   0.0   50.0
450.0   30.0   50.0
450.0   0.0   33.333333333333336
400.0   30.0   33.333333333333336
400.0   30.0   0.0
450.0   30.0   0.0
400.0   60.0   0.0
400.0   30.0   16.666666666666668
450.0   30.0   0.0
450.0   60.0   0.0
400.0   60.0   0.0
450.0   60.0   16.666666666666668
400.0   30.0   16.666666666666668
400.0   60.0   16.666666666666668
450.0   60.0   16.666666666666668
400.0   60.0   0.0
400.0   30.0   16.666666666666668
450.0   60.0   16.666666666666668
450.0   30.0   16.666666666666668
450.0   30.0   0.0
400.0   30.0   16.666666666666668
450.0   60.0   16.666666666666668
450.0   30.0   0.0
400.0   60.0   0.0
400.0   30.0   16.666666666666668
450.0   30.0   16.666666666666668
400.0   60.0   16.666666666666668
400.0   30.0   33.333333333333336
450.0   30.0   16.666666666666668
450.0   60.0   16.666666666666668
400.0   60.0   16.666666666666668
450.0   60.0   33.333333333333336
400.0   30.0   33.333333333333336
400.0   60.0   33.333333333333336
450.0   60.0   33.333333333333336
400.0   60.0   16.666666666666668
400.0   30.0   33.333333333333336
450.0   60.0   33.333333333333336
450.0   30.0   33.333333333333336
450.0   30.0   16.666666666666668
400.0   30.0   33.333333333333336
450.0   60.0   33.333333333333336
450.0   30.0   16.666666666666668
400.0   60.0   16.666666666666668
400.0   30.0   33.333333333333336
450.0   30.0   33.333333333333336
400.0   60.0   33.333333333333336
400.0   30.0   50.0
450.0   30.0   33.333333333333336
450.0   60.0   33.333333333333336
400.0   60.0   33.333333333333336
450.0   60.0   50.0
400.0   30.0   50.0
400.0   60.0   50.0
450.0   60.0   50.0
400.0   60.0   33.333333333333336
400.0   30.0   50.0
450.0   60.0   50.0
450.0   30.0   50.0
450.0   30.0   33.333333333333336
400.0   30.0   50.0
450.0   60.0   50.0
450.0   30.0   33.333333333333336
400.0   60.0   33.333333333333336
400.0   60.0   0.0
450.0   60.0   0.0
400.0   90.0   0.0
400.0   60.0   16.666666666666668
450.0   60.0   0.0
450.0   90.0   0.0
400.0   90.0   0.0
450.0   90.0   16.666666666666668
400.0   60.0   16.666666666666668
400.0   90.0   16.666666666666668
450.0   90.0   16.666666666666668
400.0   90.0   0.0
400.0   60.0   16.666666666666668
450.0   90.0   16.666666666666668
450.0   60.0   16.666666666666668
450.0   60.0   0.0
400.0   60.0   16.666666666666668
450.0   90.0   16.666666666666668
450.0   60.0   0.0
400.0   90.0   0.0
400.0   60.0   16.666666666666668
450.0   60.0   16.666666666666668
400.0   90.0   16.666666666666668
400.0   60.0   33.333333333333336
450.0   60.0   16.666666666666668
450.0   90.0   16.666666666666668
400.0   90.0   16.666666666666668
450.0   90.0   33.333333333333336
400.0   60.0   33.333333333333336
400.0   90.0   33.333333333333336
450.0   90.0   33.333333333333336
400.0   90.0   16.666666666666668
400.0   60.0   33.333333333333336
450.0   90.0   33.333333333333336
450.0   60.0   33.333333333333336
450.0   60.0   16.666666666666668
400.0   60.0   33.333333333333336
450.0   90.0   33.333333333333336
450.0   60.0   16.666666666666668
400.0   90.0   16.666666666666668
400.0   60.0   33.333333333333336
450.0   60.0   33.333333333333336
400.0   90.0   33.333333333333336
400.0   60.0   50.0
450.0   60.0   33.333333333333336
450.0   90.0   33.333333333333336
400.0   90.0   33.333333333333336
450.0   90.0   50.0
400.0   60.0   50.0
400.0   90.0   50.0
450.0   90.0   50.0
400.0   90.0   33.333333333333336
400.0   60.0   50.0
450.0   90.0   50.0
450.0   60.0   50.0
450.0   60.0   33.333333333333336
400.0   60.0   50.0
450.0   90.0   50.0
450.0   60.0   33.333333333333336
400.0   90.0   33.333333333333336
400.0   90.0   0.0
450.0   90.0   0.0
400.0   120.0   0.0
400.0   90.0   16.666666666666668
450.0   90.0   0.0
450.0   120.0   0.0
400.0   120.0   0.0
450.0   120.0   16.666666666666668
400.0   90.0   16.666666666666668
400.0   120.0   16.666666666666668
450.0   120.0   16.666666666666668
400.0   120.0   0.0
400.0   90.0   16.666666666666668
450.0   120.0   16.666666666666668
450.0   90.0   16.666666666666668
450.0   90.0   0.0
400.0   90.0   16.666666666666668
450.0   120.0   16.666666666666668
450.0   90.0   0.0
400.0   120.0   0.0
400.0   90.0   16.666666666666668
450.0   90.0   16.666666666666668
400.0   120.0   16.666666666666668
400.0   90.0   33.333333333333336
450.0   90.0   16.666666666666668
450.0   120.0   16.666666666666668
400.0   120.0   16.666666666666668
450.0   120.0   33.333333333333336
400.0   90.0   33.333333333333336
400.0   120.0   33.333333333333336
450.0   120.0   33.333333333333336
400.0   120.0   16.666666666666668
400.0   90.0   33.333333333333336
450.0   120.0   33.333333333333336
450.0   90.0   33.333333333333336
450.0   90.0   16.666666666666668
400.0   90.0   33.333333333333336
450.0   120.0   33.333333333333336
450.0   90.0   16.666666666666668
400.0   120.0   16.666666666666668
400.0   90.0   33.333333333333336
450.0   90.0   33.333333333333336
400.0   120.0   33.333333333333336
400.0   90.0   50.0
450.0   90.0   33.333333333333336
450.0   120.0   33.333333333333336
400.0   120.0   33.333333333333336
450.0   120.0   50.0
400.0   90.0   50.0
400.0   120.0   50.0
450.0   120.0   50.0
400.0   120.0   33.333333333333336
400.0   90.0   50.0
450.0   120.0   50.0
450.0   90.0   50.0
450.0   90.0   33.333333333333336
400.0   90.0   50.0
450.0   120.0   50.0
450.0   90.0   33.333333333333336
400.0   120.0   33.333333333333336
400.0   120.0   0.0
450.0   120.0   0.0
400.0   150.0   0.0
400.0   120.0   16.666666666666668
450.0   120.0   0.0
450.0   150.0   0.0
400.0   150.0   0.0
450.0   150.0   16.666666666666668
400.0   120.0   16.666666666666668
400.0   150.0   16.666666666666668
450.0   150.0   16.666666666666668
400.0   150.0   0.0
400.0   120.0   16.666666666666668
450.0   150.0   16.666666666666668
450.0   120.0   16.666666666666668
450.0   120.0   0.0
400.0   120.0   16.666666666666668
450.0   150.0   16.666666666666668
450.0   120.0   0.0
400.0   150.0   0.0
400.0   120.0   16.666666666666668
450.0   120.0   16.666666666666668
400.0   150.0   16.666666666666668
400.0   120.0   33.333333333333336
450.0   120.0   16.666666666666668
450.0   150.0   16.666666666666668
400.0   150.0   16.666666666666668
450.0   150.0   33.333333333333336
400.0   120.0   33.333333333333336
400.0   150.0   33.333333333333336
450.0   150.0   33.333333333333336
400.0   150.0   16.666666666666668
400.0   120.0   33.333333333333336
450.0   150.0   33.333333333333336
450.0   120.0   33.333333333333336
450.0   120.0   16.666666666666668
400.0   120.0   33.333333333333336
450.0   150.0   33.333333333333336
450.0   120.0   16.666666666666668
400.0   150.0   16.666666666666668
400.0   120.0   33.333333333333336
450.0   120.0   33.333333333333336
400.0   150.0   33.333333333333336
400.0   120.0   50.0
450.0   120.0   33.333333333333336
450.0   150.0   33.333333333333336
400.0   150.0   33.333333333333336
450.0   150.0   50.0
400.0   120.0   50.0
400.0   150.0   50.0
450.0   150.0   50.0
400.0   150.0   33.333333333333336
400.0   120.0   50.0
450.0   150.0   50.0
450.0   120.0   50.0
450.0   120.0   33.333333333333336
400.0   120.0   50.0
450.0   150.0   50.0
450.0   120.0   33.333333333333336
400.0   150.0   33.333333333333336
450.0   0.0   0.0
500.0   0.0   0.0
450.0   30.0   0.0
450.0   0.0   16.666666666666668
500.0   0.0   0.0
500.0   30.0   0.0
450.0   30.0   0.0
500.0   30.0   16.666666666666668
450.0   0.0   16.666666666666668
450.0   30.0   16.666666666666668
500.0   30.0   16.666666666666668
450.0   30.0   0.0
450.0   0.0   16.666666666666668
500.0   30.0   16.666666666666668
500.0   0.0   16.666666666666668
500.0   0.0   0.0
450.0   0.0   16.666666666666668
500.0   30.0   16.666666666666668
500.0   0.0   0.0
450.0   30.0   0.0
450.0   0.0   16.666666666666668
500.0   0.0   16.666666666666668
450.0   30.0   16.666666666666668
450.0   0.0   33.333333333333336
500.0   0.0   16.666666666666668
500.0   30.0   16.666666666666668
450.0   30.0   16.666666666666668
500.0   30.0   33.333333333333336
450.0   0.0   33.333333333333336
450.0   30.0   33.333333333333336
500.0   30.0   33.333333333333336
450.0   30.0   16.666666666666668
450.0   0.0   33.333333333333336
500.0   30.0   33.333333333333336
500.0   0.0   33.333333333333336
500.0   0.0   16.666666666666668
450.0   0.0   33.333333333333336
500.0   30.0   33.333333333333336
500.0   0.0   16.666666666666668
450.0   30.0   16.666666666666668
450.0   0.0   33.333333333333336
500.0   0.0   33.333333333333336
450.0   30.0   33.333333333333336
450.0   0.0   50.0
500.0   0.0   33.333333333333336
500.0   30.0   33.333333333333336
450.0   30.0   33.333333333333336
500.0   30.0   50.0
450.0   0.0   50.0
450.0   30.0   50.0
500.0   30.0   50.0
450.0   30.0   33.333333333333336
450.0   0.0   50.0
500.0   30.0   50.0
500.0   0.0   50.0
500.0   0.0   33.333333333333336
450.0   0.0   50.0
500.0   30.0   50.0
500.0   0.0   33.333333333333336
450.0   30.0   33.333333333333336
450.0   30.0   0.0
500.0   30.0   0.0
450.0   60.0   0.0
450.0   30.0   16.666666666666668
500.0   30.0   0.0
500.0   60.0   0.0
450.0   60.0   0.0
500.0   60.0   16.666666666666668
450.0   30.0   16.666666666666668
450.0   60.0   16.666666666666668
500.0   60.0   16.666666666666668
450.0   60.0   0.0
450.0   30.0   16.666666666666668
500.0   60.0   16.666666666666668
500.0   30.0   16.666666666666668
500.0   30.0   0.0
450.0   30.0   16.666666666666668
500.0   60.0   16.666666666666668
500.0   30.0   0.0
450.0   60.0   0.0
450.0   30.0   16.666666666666668
500.0   30.0   16.666666666666668
450.0   60.0   16.666666666666668
450.0   30.0   33.333333333333336
500.0   30.0   16.666666666666668
500.0   60.0   16.666666666666668
450.0   60.0   16.666666666666668
500.0   60.0   33.333333333333336
450.0   30.0   33.333333333333336
450.0   60.0   33.333333333333336
500.0   60.0   33.333333333333336
450.0   60.0   16.666666666666668
450.0   30.0   33.333333333333336
500.0   60.0   33.333333333333336
500.0   30.0   33.333333333333336
500.0   30.0   16.666666666666668
450.0   30.0   33.333333333333336
500.0   60.0   33.333333333333336
500.0   30.0   16.666666666666668
450.0   60.0   16.666666666666668
450.0   30.0   33.333333333333336
500.0   30.0   33.333333333333336
450.0   60.0   33.333333333333336
450.0   30.0   50.0
500.0   30.0   33.333333333333336
500.0   60.0   33.333333333333336
450.0   60.0   33.333333333333336
500.0   60.0   50.0
450.0   30.0   50.0
450.0   60.0   50.0
500.0   60.0   50.0
450.0   60.0   33.333333333333336
450.0   30.0   50.0
500.0   60.0   50.0
500.0   30.0   50.0
500.0   30.0   33.333333333333336
450.0   30.0   50.0
500.0   60.0   50.0
500.0   30.0   33.333333333333336
450.0   60.0   33.333333333333336
450.0   60.0   0.0
500.0   60.0   0.0
450.0   90.0   0.0
450.0   60.0   16.666666666666668
500.0   60.0   0.0
500.0   90.0   0.0
450.0   90.0   0.0
500.0   90.0   16.666666666666668
450.0   60.0   16.666666666666668
450.0   90.0   16.666666666666668
500.0   90.0   16.666666666666668
450.0   90.0   0.0
450.0   60.0   16.666666666666668
500.0   90.0   16.666666666666668
500.0   60.0   16.666666666666668
500.0   60.0   0.0
450.0   60.0   16.666666666666668
500.0   90.0   16.666666666666668
500.0   60.0   0.0
450.0   90.0   0.0
450.0   60.0   16.666666666666668
500.0   60.0   16.666666666666668
450.0   90.0   16.666666666666668
450.0   60.0   33.333333333333336
500.0   60.0   16.666666666666668
500.0   90.0   16.666666666666668
450.0   90.0   16.666666666666668
500.0   90.0   33.333333333333336
450.0   60.0   33.333333333333336
450.0   90.0   33.333333333333336
500.0   90.0   33.333333333333336
450.0   90.0   16.666666666666668
450.0   60.0   33.333333333333336
500.0   90.0   33.333333333333336
500.0   60.0   33.333333333333336
500.0   60.0   16.666666666666668
450.0   60.0   33.333333333333336
500.0   90.0   33.333333333333336
500.0   60.0   16.666666666666668
450.0   90.0   16.666666666666668
450.0   60.0   33.333333333333336
500.0   60.0   33.333333333333336
450.0   90.0   33.333333333333336
450.0   60.0   50.0
500.0   60.0   33.333333333333336
500.0   90.0   33.333333333333336
450.0   90.0   33.333333333333336
500.0   90.0   50.0
450.0   60.0   50.0
450.0   90.0   50.0
500.0   90.0   50.0
450.0   90.0   33.333333333333336
450.0   60.0   50.0
500.0   90.0   50.0
500.0   60.0   50.0
500.0   60.0   33.333333333333336
450.0   60.0   50.0
500.0   90.0   50.0
500.0   60.0   33.333333333333336
450.0   90.0   33.333333333333336
450.0   90.0   0.0
500.0   90.0   0.0
450.0   120.0   0.0
450.0   90.0   16.666666666666668
500.0   90.0   0.0
500.0   120.0   0.0
450.0   120.0   0.0
500.0   120.0   16.666666666666668
450.0   90.0   16.666666666666668
450.0   120.0   16.666666666666668
500.0   120.0   16.666666666666668
450.0   120.0   0.0
450.0   90.0   16.666666666666668
500.0   120.0   16.666666666666668
500.0   90.0   16.666666666666668
500.0   90.0   0.0
450.0   90.0   16.666666666666668
500.0   120.0   16.666666666666668
500.0   90.0   0.0
450.0   120.0   0.0
450.0   90.0   16.666666666666668
500.0   90.0   16.666666666666668
450.0   120.0   16.666666666666668
450.0   90.0   33.333333333333336
500.0   90.0   16.666666666666668
500.0   120.0   16.666666666666668
450.0   120.0   16.666666666666668
500.0   120.0   33.333333333333336
450.0   90.0   33.333333333333336
450.0   120.0   33.333333333333336
500.0   120.0   33.333333333333336
450.0   120.0   16.666666666666668
450.0   90.0   33.333333333333336
500.0   120.0   33.333333333333336
500.0   90.0   33.333333333333336
500.0   90.0   16.666666666666668
450.0   90.0   33.333333333333336
500.0   120.0   33.333333333333336
500.0   90.0   16.666666666666668
450.0   120.0   16.666666666666668
450.0   90.0   33.333333333333336
500.0   90.0   33.333333333333336
450.0   120.0   33.333333333333336
450.0   90.0   50.0
500.0   90.0   33.333333333333336
500.0   120.0   33.333333333333336
450.0   120.0   33.333333333333336
500.0   120.0   50.0
450.0   90.0   50.0
450.0   120.0   50.0
500.0   120.0   50.0
450.0   120.0   33.333333333333336
450.0   90.0   50.0
500.0   120.0   50.0
500.0   90.0   50.0
500.0   90.0   33.333333333333336
450.0   90.0   50.0
500.0   120.0   50.0
500.0   90.0   33.333333333333336
450.0   120.0   33.333333333333336
450.0   120.0   0.0
500.0   120.0   0.0
450.0   150.0   0.0
450.0   120.0   16.666666666666668
500.0   120.0   0.0
500.0   150.0   0.0
450.0   150.0   0.0
500.0   150.0   16.666666666666668
450.0   120.0   16.666666666666668
450.0   150.0   16.666666666666668
500.0   150.0   16.666666666666668
450.0   150.0   0.0
450.0   120.0   16.666666666666668
500.0   150.0   16.666666666666668
500.0   120.0   16.666666666666668
500.0   120.0   0.0
450.0   120.0   16.666666666666668
500.0   150.0   16.666666666666668
500.0   120.0   0.0
450.0   150.0   0.0
450.0   120.0   16.666666666666668
500.0   120.0   16.666666666666668
450.0   150.0   16.666666666666668
450.0   120.0   33.333333333333336
500.0   120.0   16.666666666666668
500.0   150.0   16.666666666666668
450.0   150.0   16.666666666666668
500.0   150.0   33.333333333333336
450.0   120.0   33.333333333333336
450.0   150.0   33.333333333333336
500.0   150.0   33.333333333333336
450.0   150.0   16.666666666666668
450.0   120.0   33.333333333333336
500.0   150.0   33.333333333333336
500.0   120.0   33.333333333333336
500.0   120.0   16.666666666666668
450.0   120.0   33.333333333333336
500.0   150.0   33.333333333333336
500.0   120.0   16.666666666666668
450.0   150.0   16.666666666666668
450.0   120.0   33.333333333333336
500.0   120.0   33.333333333333336
450.0   150.0   33.333333333333336
450.0   120.0   50.0
500.0   120.0   33.333333333333336
500.0   150.0   33.333333333333336
450.0   150.0   33.333333333333336
500.0   150.0   50.0
450.0   120.0   50.0
450.0   150.0   50.0
500.0   150.0   50.0
450.0   150.0   33.333333333333336
450.0   120.0   50.0
500.0   150.0   50.0
500.0   120.0   50.0
500.0   120.0   33.333333333333336
450.0   120.0   50.0
500.0   150.0   50.0
500.0   120.0   33.333333333333336
450.0   150.0   33.333333333333336
             </DataArray>   
          </Points>  
          <Cells>  
             <DataArray type="Int32" Name="connectivity" format="ascii">   
0   1   2   3
4   5   6   7
8   9   10   11
12   13   14   15
16   17   18   19
20   21   22   23
24   25   26   27
28   29   30   31
32   33   34   35
36   37   38   39
40   41   42   43
44   45   46   47
48   49   50   51
52   53   54   55
56   57   58   59
60   61   62   63
64   65   66   67
68   69   70   71
72   73   74   75
76   77   78   79
80   81   82   83
84   85   86   87
88   89   90   91
92   93   94   95
96   97   98   99
100   101   102   103
104   105   106   107
108   109   110   111
112   113   114   115
116   117   118   119
120   121   122   123
124   125   126   127
128   129   130   131
132   133   134   135
136   137   138   139
140   141   142   143
144   145   146   147
148   149   150   151
152   153   154   155
156   157   158   159
160   161   162   163
164   165   166   167
168   169   170   171
172   173   174   175
176   177   178   179
180   181   182   183
184   185   186   187
188   189   190   191
192   193   194   195
196   197   198   199
200   201   202   203
204   205   206   207
208   209   210   211
212   213   214   215
216   217   218   219
220   221   222   223
224   225   226   227
228   229   230   231
232   233   234   235
236   237   238   239
240   241   242   243
244   245   246   247
248   249   250   251
252   253   254   255
256   257   258   259
260   261   262   263
264   265   266   267
268   269   270   271
272   273   274   275
276   277   278   279
280   281   282   283
284   285   286   287
288   289   290   291
292   293   294   295
296   297   298   299
300   301   302   303
304   305   306   307
308   309   310   311
312   313   314   315
316   317   318   319
320   321   322   323
324   325   326   327
328   329   330   331
332   333   334   335
336   337   338   339
340   341   342   343
344   345   346   347
348   349   350   351
352   353   354   355
356   357   358   359
360   361   362   363
364   365   366   367
368   369   370   371
372   373   374   375
376   377   378   379
380   381   382   383
384   385   386   387
388   389   390   391
392   393   394   395
396   397   398   399
400   401   402   403
404   405   406   407
408   409   410   411
412   413   414   415
416   417   418   419
420   421   422   423
424   425   426   427
428   429   430   431
432   433   434   435
436   437   438   439
440   441   442   443
444   445   446   447
448   449   450   451
452   453   454   455
456   457   458   459
460   461   462   463
464   465   466   467
468   469   470   471
472   473   474   475
476   477   478   479
480   481   482   483
484   485   486   487
488   489   490   491
492   493   494   495
496   497   498   499
500   501   502   503
504   505   506   507
508   509   510   511
512   513   514   515
516   517   518   519
520   521   522   523
524   525   526   527
528   529   530   531
532   533   534   535
536   537   538   539
540   541   542   543
544   545   546   547
548   549   550   551
552   553   554   555
556   557   558   559
560   561   562   563
564   565   566   567
568   569   570   571
572   573   574   575
576   577   578   579
580   581   582   583
584   585   586   587
588   589   590   591
592   593   594   595
596   597   598   599
600   601   602   603
604   605   606   607
608   609   610   611
612   613   614   615
616   617   618   619
620   621   622   623
624   625   626   627
628   629   630   631
632   633   634   635
636   637   638   639
640   641   642   643
644   645   646   647
648   649   650   651
652   653   654   655
656   657   658   659
660   661   662   663
664   665   666   667
668   669   670   671
672   673   674   675
676   677   678   679
680   681   682   683
684   685   686   687
688   689   690   691
692   693   694   695
696   697   698   699
700   701   702   703
704   705   706   707
708   709   710   711
712   713   714   715
716   717   718   719
720   721   722   723
724   725   726   727
728   729   730   731
732   733   734   735
736   737   738   739
740   741   742   743
744   745   746   747
748   749   750   751
752   753   754   755
756   757   758   759
760   761   762   763
764   765   766   767
768   769   770   771
772   773   774   775
776   777   778   779
780   781   782   783
784   785   786   787
788   789   790   791
792   793   794   795
796   797   798   799
800   801   802   803
804   805   806   807
808   809   810   811
812   813   814   815
816   817   818   819
820   821   822   823
824   825   826   827
828   829   830   831
832   833   834   835
836   837   838   839
840   841   842   843
844   845   846   847
848   849   850   851
852   853   854   855
856   857   858   859
860   861   862   863
864   865   866   867
868   869   870   871
872   873   874   875
876   877   878   879
880   881   882   883
884   885   886   887
888   889   890   891
892   893   894   895
896   897   898   899
900   901   902   903
904   905   906   907
908   909   910   911
912   913   914   915
916   917   918   919
920   921   922   923
924   925   926   927
928   929   930   931
932   933   934   935
936   937   938   939
940   941   942   943
944   945   946   947
948   949   950   951
952   953   954   955
956   957   958   959
960   961   962   963
964   965   966   967
968   969   970   971
972   973   974   975
976   977   978   979
980   981   982   983
984   985   986   987
988   989   990   991
992   993   994   995
996   997   998   999
1000   1001   1002   1003
1004   1005   1006   1007
1008   1009   1010   1011
1012   1013   1014   1015
1016   1017   1018   1019
1020   1021   1022   1023
1024   1025   1026   1027
1028   1029   1030   1031
1032   1033   1034   1035
1036   1037   1038   1039
1040   1041   1042   1043
1044   1045   1046   1047
1048   1049   1050   1051
1052   1053   1054   1055
1056   1057   1058   1059
1060   1061   1062   1063
1064   1065   1066   1067
1068   1069   1070   1071
1072   1073   1074   1075
1076   1077   1078   1079
1080   1081   1082   1083
1084   1085   1086   1087
1088   1089   1090   1091
1092   1093   1094   1095
1096   1097   1098   1099
1100   1101   1102   1103
1104   1105   1106   1107
1108   1109   1110   1111
1112   1113   1114   1115
1116   1117   1118   1119
1120   1121   1122   1123
1124   1125   1126   1127
1128   1129   1130   1131
1132   1133   1134   1135
1136   1137   1138   1139
1140   1141   1142   1143
1144   1145   1146   1147
1148   1149   1150   1151
1152   1153   1154   1155
1156   1157   1158   1159
1160   1161   1162   1163
1164   1165   1166   1167
1168   1169   1170   1171
1172   1173   1174   1175
1176   1177   1178   1179
1180   1181   1182   1183
1184   1185   1186   1187
1188   1189   1190   1191
1192   1193   1194   1195
1196   1197   1198   1199
1200   1201   1202   1203
1204   1205   1206   1207
1208   1209   1210   1211
1212   1213   1214   1215
1216   1217   1218   1219
1220   1221   1222   1223
1224   1225   1226   1227
1228   1229   1230   1231
1232   1233   1234   1235
1236   1237   1238   1239
1240   1241   1242   1243
1244   1245   1246   1247
1248   1249   1250   1251
1252   1253   1254   1255
1256   1257   1258   1259
1260   1261   1262   1263
1264   1265   1266   1267
1268   1269   1270   1271
1272   1273   1274   1275
1276   1277   1278   1279
1280   1281   1282   1283
1284   1285   1286   1287
1288   1289   1290   1291
1292   1293   1294   1295
1296   1297   1298   1299
1300   1301   1302   1303
1304   1305   1306   1307
1308   1309   1310   1311
1312   1313   1314   1315
1316   1317   1318   1319
1320   1321   1322   1323
1324   1325   1326   1327
1328   1329   1330   1331
1332   1333   1334   1335
1336   1337   1338   1339
1340   1341   1342   1343
1344   1345   1346   1347
1348   1349   1350   1351
1352   1353   1354   1355
1356   1357   1358   1359
1360   1361   1362   1363
1364   1365   1366   1367
1368   1369   1370   1371
1372   1373   1374   1375
1376   1377   1378   1379
1380   1381   1382   1383
1384   1385   1386   1387
1388   1389   1390   1391
1392   1393   1394   1395
1396   1397   1398   1399
1400   1401   1402   1403
1404   1405   1406   1407
1408   1409   1410   1411
1412   1413   1414   1415
1416   1417   1418   1419
1420   1421   1422   1423
1424   1425   1426   1427
1428   1429   1430   1431
1432   1433   1434   1435
1436   1437   1438   1439
1440   1441   1442   1443
1444   1445   1446   1447
1448   1449   1450   1451
1452   1453   1454   1455
1456   1457   1458   1459
1460   1461   1462   1463
1464   1465   1466   1467
1468   1469   1470   1471
1472   1473   1474   1475
1476   1477   1478   1479
1480   1481   1482   1483
1484   1485   1486   1487
1488   1489   1490   1491
1492   1493   1494   1495
1496   1497   1498   1499
1500   1501   1502   1503
1504   1505   1506   1507
1508   1509   1510   1511
1512   1513   1514   1515
1516   1517   1518   1519
1520   1521   1522   1523
1524   1525   1526   1527
1528   1529   1530   1531
1532   1533   1534   1535
1536   1537   1538   1539
1540   1541   1542   1543
1544   1545   1546   1547
1548   1549   1550   1551
1552   1553   1554   1555
1556   1557   1558   1559
1560   1561   1562   1563
1564   1565   1566   1567
1568   1569   1570   1571
1572   1573   1574   1575
1576   1577   1578   1579
1580   1581   1582   1583
1584   1585   1586   1587
1588   1589   1590   1591
1592   1593   1594   1595
1596   1597   1598   1599
1600   1601   1602   1603
1604   1605   1606   1607
1608   1609   1610   1611
1612   1613   1614   1615
1616   1617   1618   1619
1620   1621   1622   1623
1624   1625   1626   1627
1628   1629   1630   1631
1632   1633   1634   1635
1636   1637   1638   1639
1640   1641   1642   1643
1644   1645   1646   1647
1648   1649   1650   1651
1652   1653   1654   1655
1656   1657   1658   1659
1660   1661   1662   1663
1664   1665   1666   1667
1668   1669   1670   1671
1672   1673   1674   1675
1676   1677   1678   1679
1680   1681   1682   1683
1684   1685   1686   1687
1688   1689   1690   1691
1692   1693   1694   1695
1696   1697   1698   1699
1700   1701   1702   1703
1704   1705   1706   1707
1708   1709   1710   1711
1712   1713   1714   1715
1716   1717   1718   1719
1720   1721   1722   1723
1724   1725   1726   1727
1728   1729   1730   1731
1732   1733   1734   1735
1736   1737   1738   1739
1740   1741   1742   1743
1744   1745   1746   1747
1748   1749   1750   1751
1752   1753   1754   1755
1756   1757   1758   1759
1760   1761   1762   1763
1764   1765   1766   1767
1768   1769   1770   1771
1772   1773   1774   1775
1776   1777   1778   1779
1780   1781   1782   1783
1784   1785   1786   1787
1788   1789   1790   1791
1792   1793   1794   1795
1796   1797   1798   1799
1800   1801   1802   1803
1804   1805   1806   1807
1808   1809   1810   1811
1812   1813   1814   1815
1816   1817   1818   1819
1820   1821   1822   1823
1824   1825   1826   1827
1828   1829   1830   1831
1832   1833   1834   1835
1836   1837   1838   1839
1840   1841   1842   1843
1844   1845   1846   1847
1848   1849   1850   1851
1852   1853   1854   1855
1856   1857   1858   1859
1860   1861   1862   1863
1864   1865   1866   1867
1868   1869   1870   1871
1872   1873   1874   1875
1876   1877   1878   1879
1880   1881   1882   1883
1884   1885   1886   1887
1888   1889   1890   1891
1892   1893   1894   1895
1896   1897   1898   1899
1900   1901   1902   1903
1904   1905   1906   1907
1908   1909   1910   1911
1912   1913   1914   1915
1916   1917   1918   1919
1920   1921   1922   1923
1924   1925   1926   1927
1928   1929   1930   1931
1932   1933   1934   1935
1936   1937   1938   1939
1940   1941   1942   1943
1944   1945   1946   1947
1948   1949   1950   1951
1952   1953   1954   1955
1956   1957   1958   1959
1960   1961   1962   1963
1964   1965   1966   1967
1968   1969   1970   1971
1972   1973   1974   1975
1976   1977   1978   1979
1980   1981   1982   1983
1984   1985   1986   1987
1988   1989   1990   1991
1992   1993   1994   1995
1996   1997   1998   1999
2000   2001   2002   2003
2004   2005   2006   2007
2008   2009   2010   2011
2012   2013   2014   2015
2016   2017   2018   2019
2020   2021   2022   2023
2024   2025   2026   2027
2028   2029   2030   2031
2032   2033   2034   2035
2036   2037   2038   2039
2040   2041   2042   2043
2044   2045   2046   2047
2048   2049   2050   2051
2052   2053   2054   2055
2056   2057   2058   2059
2060   2061   2062   2063
2064   2065   2066   2067
2068   2069   2070   2071
2072   2073   2074   2075
2076   2077   2078   2079
2080   2081   2082   2083
2084   2085   2086   2087
2088   2089   2090   2091
2092   2093   2094   2095
2096   2097   2098   2099
2100   2101   2102   2103
2104   2105   2106   2107
2108   2109   2110   2111
2112   2113   2114   2115
2116   2117   2118   2119
2120   2121   2122   2123
2124   2125   2126   2127
2128   2129   2130   2131
2132   2133   2134   2135
2136   2137   2138   2139
2140   2141   2142   2143
2144   2145   2146   2147
2148   2149   2150   2151
2152   2153   2154   2155
2156   2157   2158   2159
2160   2161   2162   2163
2164   2165   2166   2167
2168   2169   2170   2171
2172   2173   2174   2175
2176   2177   2178   2179
2180   2181   2182   2183
2184   2185   2186   2187
2188   2189   2190   2191
2192   2193   2194   2195
2196   2197   2198   2199
2200   2201   2202   2203
2204   2205   2206   2207
2208   2209   2210   2211
2212   2213   2214   2215
2216   2217   2218   2219
2220   2221   2222   2223
2224   2225   2226   2227
2228   2229   2230   2231
2232   2233   2234   2235
2236   2237   2238   2239
2240   2241   2242   2243
2244   2245   2246   2247
2248   2249   2250   2251
2252   2253   2254   2255
2256   2257   2258   2259
2260   2261   2262   2263
2264   2265   2266   2267
2268   2269   2270   2271
2272   2273   2274   2275
2276   2277   2278   2279
2280   2281   2282   2283
2284   2285   2286   2287
2288   2289   2290   2291
2292   2293   2294   2295
2296   2297   2298   2299
2300   2301   2302   2303
2304   2305   2306   2307
2308   2309   2310   2311
2312   2313   2314   2315
2316   2317   2318   2319
2320   2321   2322   2323
2324   2325   2326   2327
2328   2329   2330   2331
2332   2333   2334   2335
2336   2337   2338   2339
2340   2341   2342   2343
2344   2345   2346   2347
2348   2349   2350   2351
2352   2353   2354   2355
2356   2357   2358   2359
2360   2361   2362   2363
2364   2365   2366   2367
2368   2369   2370   2371
2372   2373   2374   2375
2376   2377   2378   2379
2380   2381   2382   2383
2384   2385   2386   2387
2388   2389   2390   2391
2392   2393   2394   2395
2396   2397   2398   2399
2400   2401   2402   2403
2404   2405   2406   2407
2408   2409   2410   2411
2412   2413   2414   2415
2416   2417   2418   2419
2420   2421   2422   2423
2424   2425   2426   2427
2428   2429   2430   2431
2432   2433   2434   2435
2436   2437   2438   2439
2440   2441   2442   2443
2444   2445   2446   2447
2448   2449   2450   2451
2452   2453   2454   2455
2456   2457   2458   2459
2460   2461   2462   2463
2464   2465   2466   2467
2468   2469   2470   2471
2472   2473   2474   2475
2476   2477   2478   2479
2480   2481   2482   2483
2484   2485   2486   2487
2488   2489   2490   2491
2492   2493   2494   2495
2496   2497   2498   2499
2500   2501   2502   2503
2504   2505   2506   2507
2508   2509   2510   2511
2512   2513   2514   2515
2516   2517   2518   2519
2520   2521   2522   2523
2524   2525   2526   2527
2528   2529   2530   2531
2532   2533   2534   2535
2536   2537   2538   2539
2540   2541   2542   2543
2544   2545   2546   2547
2548   2549   2550   2551
2552   2553   2554   2555
2556   2557   2558   2559
2560   2561   2562   2563
2564   2565   2566   2567
2568   2569   2570   2571
2572   2573   2574   2575
2576   2577   2578   2579
2580   2581   2582   2583
2584   2585   2586   2587
2588   2589   2590   2591
2592   2593   2594   2595
2596   2597   2598   2599
2600   2601   2602   2603
2604   2605   2606   2607
2608   2609   2610   2611
2612   2613   2614   2615
2616   2617   2618   2619
2620   2621   2622   2623
2624   2625   2626   2627
2628   2629   2630   2631
2632   2633   2634   2635
2636   2637   2638   2639
2640   2641   2642   2643
2644   2645   2646   2647
2648   2649   2650   2651
2652   2653   2654   2655
2656   2657   2658   2659
2660   2661   2662   2663
2664   2665   2666   2667
2668   2669   2670   2671
2672   2673   2674   2675
2676   2677   2678   2679
2680   2681   2682   2683
2684   2685   2686   2687
2688   2689   2690   2691
2692   2693   2694   2695
2696   2697   2698   2699
2700   2701   2702   2703
2704   2705   2706   2707
2708   2709   2710   2711
2712   2713   2714   2715
2716   2717   2718   2719
2720   2721   2722   2723
2724   2725   2726   2727
2728   2729   2730   2731
2732   2733   2734   2735
2736   2737   2738   2739
2740   2741   2742   2743
2744   2745   2746   2747
2748   2749   2750   2751
2752   2753   2754   2755
2756   2757   2758   2759
2760   2761   2762   2763
2764   2765   2766   2767
2768   2769   2770   2771
2772   2773   2774   2775
2776   2777   2778   2779
2780   2781   2782   2783
2784   2785   2786   2787
2788   2789   2790   2791
2792   2793   2794   2795
2796   2797   2798   2799
2800   2801   2802   2803
2804   2805   2806   2807
2808   2809   2810   2811
2812   2813   2814   2815
2816   2817   2818   2819
2820   2821   2822   2823
2824   2825   2826   2827
2828   2829   2830   2831
2832   2833   2834   2835
2836   2837   2838   2839
2840   2841   2842   2843
2844   2845   2846   2847
2848   2849   2850   2851
2852   2853   2854   2855
2856   2857   2858   2859
2860   2861   2862   2863
2864   2865   2866   2867
2868   2869   2870   2871
2872   2873   2874   2875
2876   2877   2878   2879
2880   2881   2882   2883
2884   2885   2886   2887
2888   2889   2890   2891
2892   2893   2894   2895
2896   2897   2898   2899
2900   2901   2902   2903
2904   2905   2906   2907
2908   2909   2910   2911
2912   2913   2914   2915
2916   2917   2918   2919
2920   2921   2922   2923
2924   2925   2926   2927
2928   2929   2930   2931
2932   2933   2934   2935
2936   2937   2938   2939
2940   2941   2942   2943
2944   2945   2946   2947
2948   2949   2950   2951
2952   2953   2954   2955
2956   2957   2958   2959
2960   2961   2962   2963
2964   2965   2966   2967
2968   2969   2970   2971
2972   2973   2974   2975
2976   2977   2978   2979
2980   2981   2982   2983
2984   2985   2986   2987
2988   2989   2990   2991
2992   2993   2994   2995
2996   2997   2998   2999
3000   3001   3002   3003
3004   3005   3006   3007
3008   3009   3010   3011
3012   3013   3014   3015
3016   3017   3018   3019
3020   3021   3022   3023
3024   3025   3026   3027
3028   3029   3030   3031
3032   3033   3034   3035
3036   3037   3038   3039
3040   3041   3042   3043
3044   3045   3046   3047
3048   3049   3050   3051
3052   3053   3054   3055
3056   3057   3058   3059
3060   3061   3062   3063
3064   3065   3066   3067
3068   3069   3070   3071
3072   3073   3074   3075
3076   3077   3078   3079
3080   3081   3082   3083
3084   3085   3086   3087
3088   3089   3090   3091
3092   3093   3094   3095
3096   3097   3098   3099
3100   3101   3102   3103
3104   3105   3106   3107
3108   3109   3110   3111
3112   3113   3114   3115
3116   3117   3118   3119
3120   3121   3122   3123
3124   3125   3126   3127
3128   3129   3130   3131
3132   3133   3134   3135
3136   3137   3138   3139
3140   3141   3142   3143
3144   3145   3146   3147
3148   3149   3150   3151
3152   3153   3154   3155
3156   3157   3158   3159
3160   3161   3162   3163
3164   3165   3166   3167
3168   3169   3170   3171
3172   3173   3174   3175
3176   3177   3178   3179
3180   3181   3182   3183
3184   3185   3186   3187
3188   3189   3190   3191
3192   3193   3194   3195
3196   3197   3198   3199
3200   3201   3202   3203
3204   3205   3206   3207
3208   3209   3210   3211
3212   3213   3214   3215
3216   3217   3218   3219
3220   3221   3222   3223
3224   3225   3226   3227
3228   3229   3230   3231
3232   3233   3234   3235
3236   3237   3238   3239
3240   3241   3242   3243
3244   3245   3246   3247
3248   3249   3250   3251
3252   3253   3254   3255
3256   3257   3258   3259
3260   3261   3262   3263
3264   3265   3266   3267
3268   3269   3270   3271
3272   3273   3274   3275
3276   3277   3278   3279
3280   3281   3282   3283
3284   3285   3286   3287
3288   3289   3290   3291
3292   3293   3294   3295
3296   3297   3298   3299
3300   3301   3302   3303
3304   3305   3306   3307
3308   3309   3310   3311
3312   3313   3314   3315
3316   3317   3318   3319
3320   3321   3322   3323
3324   3325   3326   3327
3328   3329   3330   3331
3332   3333   3334   3335
3336   3337   3338   3339
3340   3341   3342   3343
3344   3345   3346   3347
3348   3349   3350   3351
3352   3353   3354   3355
3356   3357   3358   3359
3360   3361   3362   3363
3364   3365   3366   3367
3368   3369   3370   3371
3372   3373   3374   3375
3376   3377   3378   3379
3380   3381   3382   3383
3384   3385   3386   3387
3388   3389   3390   3391
3392   3393   3394   3395
3396   3397   3398   3399
3400   3401   3402   3403
3404   3405   3406   3407
3408   3409   3410   3411
3412   3413   3414   3415
3416   3417   3418   3419
3420   3421   3422   3423
3424   3425   3426   3427
3428   3429   3430   3431
3432   3433   3434   3435
3436   3437   3438   3439
3440   3441   3442   3443
3444   3445   3446   3447
3448   3449   3450   3451
3452   3453   3454   3455
3456   3457   3458   3459
3460   3461   3462   3463
3464   3465   3466   3467
3468   3469   3470   3471
3472   3473   3474   3475
3476   3477   3478   3479
3480   3481   3482   3483
3484   3485   3486   3487
3488   3489   3490   3491
3492   3493   3494   3495
3496   3497   3498   3499
3500   3501   3502   3503
3504   3505   3506   3507
3508   3509   3510   3511
3512   3513   3514   3515
3516   3517   3518   3519
3520   3521   3522   3523
3524   3525   3526   3527
3528   3529   3530   3531
3532   3533   3534   3535
3536   3537   3538   3539
3540   3541   3542   3543
3544   3545   3546   3547
3548   3549   3550   3551
3552   3553   3554   3555
3556   3557   3558   3559
3560   3561   3562   3563
3564   3565   3566   3567
3568   3569   3570   3571
3572   3573   3574   3575
3576   3577   3578   3579
3580   3581   3582   3583
3584   3585   3586   3587
3588   3589   3590   3591
3592   3593   3594   3595
3596   3597   3598   3599
3600   3601   3602   3603
3604   3605   3606   3607
3608   3609   3610   3611
3612   3613   3614   3615
3616   3617   3618   3619
3620   3621   3622   3623
3624   3625   3626   3627
3628   3629   3630   3631
3632   3633   3634   3635
3636   3637   3638   3639
3640   3641   3642   3643
3644   3645   3646   3647
3648   3649   3650   3651
3652   3653   3654   3655
3656   3657   3658   3659
3660   3661   3662   3663
3664   3665   3666   3667
3668   3669   3670   3671
3672   3673   3674   3675
3676   3677   3678   3679
3680   3681   3682   3683
3684   3685   3686   3687
3688   3689   3690   3691
3692   3693   3694   3695
3696   3697   3698   3699
3700   3701   3702   3703
3704   3705   3706   3707
3708   3709   3710   3711
3712   3713   3714   3715
3716   3717   3718   3719
3720   3721   3722   3723
3724   3725   3726   3727
3728   3729   3730   3731
3732   3733   3734   3735
3736   3737   3738   3739
3740   3741   3742   3743
3744   3745   3746   3747
3748   3749   3750   3751
3752   3753   3754   3755
3756   3757   3758   3759
3760   3761   3762   3763
3764   3765   3766   3767
3768   3769   3770   3771
3772   3773   3774   3775
3776   3777   3778   3779
3780   3781   3782   3783
3784   3785   3786   3787
3788   3789   3790   3791
3792   3793   3794   3795
3796   3797   3798   3799
3800   3801   3802   3803
3804   3805   3806   3807
3808   3809   3810   3811
3812   3813   3814   3815
3816   3817   3818   3819
3820   3821   3822   3823
3824   3825   3826   3827
3828   3829   3830   3831
3832   3833   3834   3835
3836   3837   3838   3839
3840   3841   3842   3843
3844   3845   3846   3847
3848   3849   3850   3851
3852   3853   3854   3855
3856   3857   3858   3859
3860   3861   3862   3863
3864   3865   3866   3867
3868   3869   3870   3871
3872   3873   3874   3875
3876   3877   3878   3879
3880   3881   3882   3883
3884   3885   3886   3887
3888   3889   3890   3891
3892   3893   3894   3895
3896   3897   3898   3899
3900   3901   3902   3903
3904   3905   3906   3907
3908   3909   3910   3911
3912   3913   3914   3915
3916   3917   3918   3919
3920   3921   3922   3923
3924   3925   3926   3927
3928   3929   3930   3931
3932   3933   3934   3935
3936   3937   3938   3939
3940   3941   3942   3943
3944   3945   3946   3947
3948   3949   3950   3951
3952   3953   3954   3955
3956   3957   3958   3959
3960   3961   3962   3963
3964   3965   3966   3967
3968   3969   3970   3971
3972   3973   3974   3975
3976   3977   3978   3979
3980   3981   3982   3983
3984   3985   3986   3987
3988   3989   3990   3991
3992   3993   3994   3995
3996   3997   3998   3999
4000   4001   4002   4003
4004   4005   4006   4007
4008   4009   4010   4011
4012   4013   4014   4015
4016   4017   4018   4019
4020   4021   4022   4023
4024   4025   4026   4027
4028   4029   4030   4031
4032   4033   4034   4035
4036   4037   4038   4039
4040   4041   4042   4043
4044   4045   4046   4047
4048   4049   4050   4051
4052   4053   4054   4055
4056   4057   4058   4059
4060   4061   4062   4063
4064   4065   4066   4067
4068   4069   4070   4071
4072   4073   4074   4075
4076   4077   4078   4079
4080   4081   4082   4083
4084   4085   4086   4087
4088   4089   4090   4091
4092   4093   4094   4095
4096   4097   4098   4099
4100   4101   4102   4103
4104   4105   4106   4107
4108   4109   4110   4111
4112   4113   4114   4115
4116   4117   4118   4119
4120   4121   4122   4123
4124   4125   4126   4127
4128   4129   4130   4131
4132   4133   4134   4135
4136   4137   4138   4139
4140   4141   4142   4143
4144   4145   4146   4147
4148   4149   4150   4151
4152   4153   4154   4155
4156   4157   4158   4159
4160   4161   4162   4163
4164   4165   4166   4167
4168   4169   4170   4171
4172   4173   4174   4175
4176   4177   4178   4179
4180   4181   4182   4183
4184   4185   4186   4187
4188   4189   4190   4191
4192   4193   4194   4195
4196   4197   4198   4199
4200   4201   4202   4203
4204   4205   4206   4207
4208   4209   4210   4211
4212   4213   4214   4215
4216   4217   4218   4219
4220   4221   4222   4223
4224   4225   4226   4227
4228   4229   4230   4231
4232   4233   4234   4235
4236   4237   4238   4239
4240   4241   4242   4243
4244   4245   4246   4247
4248   4249   4250   4251
4252   4253   4254   4255
4256   4257   4258   4259
4260   4261   4262   4263
4264   4265   4266   4267
4268   4269   4270   4271
4272   4273   4274   4275
4276   4277   4278   4279
4280   4281   4282   4283
4284   4285   4286   4287
4288   4289   4290   4291
4292   4293   4294   4295
4296   4297   4298   4299
4300   4301   4302   4303
4304   4305   4306   4307
4308   4309   4310   4311
4312   4313   4314   4315
4316   4317   4318   4319
4320   4321   4322   4323
4324   4325   4326   4327
4328   4329   4330   4331
4332   4333   4334   4335
4336   4337   4338   4339
4340   4341   4342   4343
4344   4345   4346   4347
4348   4349   4350   4351
4352   4353   4354   4355
4356   4357   4358   4359
4360   4361   4362   4363
4364   4365   4366   4367
4368   4369   4370   4371
4372   4373   4374   4375
4376   4377   4378   4379
4380   4381   4382   4383
4384   4385   4386   4387
4388   4389   4390   4391
4392   4393   4394   4395
4396   4397   4398   4399
4400   4401   4402   4403
4404   4405   4406   4407
4408   4409   4410   4411
4412   4413   4414   4415
4416   4417   4418   4419
4420   4421   4422   4423
4424   4425   4426   4427
4428   4429   4430   4431
4432   4433   4434   4435
4436   4437   4438   4439
4440   4441   4442   4443
4444   4445   4446   4447
4448   4449   4450   4451
4452   4453   4454   4455
4456   4457   4458   4459
4460   4461   4462   4463
4464   4465   4466   4467
4468   4469   4470   4471
4472   4473   4474   4475
4476   4477   4478   4479
4480   4481   4482   4483
4484   4485   4486   4487
4488   4489   4490   4491
4492   4493   4494   4495
4496   4497   4498   4499
4500   4501   4502   4503
4504   4505   4506   4507
4508   4509   4510   4511
4512   4513   4514   4515
4516   4517   4518   4519
4520   4521   4522   4523
4524   4525   4526   4527
4528   4529   4530   4531
4532   4533   4534   4535
4536   4537   4538   4539
4540   4541   4542   4543
4544   4545   4546   4547
4548   4549   4550   4551
4552   4553   4554   4555
4556   4557   4558   4559
4560   4561   4562   4563
4564   4565   4566   4567
4568   4569   4570   4571
4572   4573   4574   4575
4576   4577   4578   4579
4580   4581   4582   4583
4584   4585   4586   4587
4588   4589   4590   4591
4592   4593   4594   4595
4596   4597   4598   4599
4600   4601   4602   4603
4604   4605   4606   4607
4608   4609   4610   4611
4612   4613   4614   4615
4616   4617   4618   4619
4620   4621   4622   4623
4624   4625   4626   4627
4628   4629   4630   4631
4632   4633   4634   4635
4636   4637   4638   4639
4640   4641   4642   4643
4644   4645   4646   4647
4648   4649   4650   4651
4652   4653   4654   4655
4656   4657   4658   4659
4660   4661   4662   4663
4664   4665   4666   4667
4668   4669   4670   4671
4672   4673   4674   4675
4676   4677   4678   4679
4680   4681   4682   4683
4684   4685   4686   4687
4688   4689   4690   4691
4692   4693   4694   4695
4696   4697   4698   4699
4700   4701   4702   4703
4704   4705   4706   4707
4708   4709   4710   4711
4712   4713   4714   4715
4716   4717   4718   4719
4720   4721   4722   4723
4724   4725   4726   4727
4728   4729   4730   4731
4732   4733   4734   4735
4736   4737   4738   4739
4740   4741   4742   4743
4744   4745   4746   4747
4748   4749   4750   4751
4752   4753   4754   4755
4756   4757   4758   4759
4760   4761   4762   4763
4764   4765   4766   4767
4768   4769   4770   4771
4772   4773   4774   4775
4776   4777   4778   4779
4780   4781   4782   4783
4784   4785   4786   4787
4788   4789   4790   4791
4792   4793   4794   4795
4796   4797   4798   4799
4800   4801   4802   4803
4804   4805   4806   4807
4808   4809   4810   4811
4812   4813   4814   4815
4816   4817   4818   4819
4820   4821   4822   4823
4824   4825   4826   4827
4828   4829   4830   4831
4832   4833   4834   4835
4836   4837   4838   4839
4840   4841   4842   4843
4844   4845   4846   4847
4848   4849   4850   4851
4852   4853   4854   4855
4856   4857   4858   4859
4860   4861   4862   4863
4864   4865   4866   4867
4868   4869   4870   4871
4872   4873   4874   4875
4876   4877   4878   4879
4880   4881   4882   4883
4884   4885   4886   4887
4888   4889   4890   4891
4892   4893   4894   4895
4896   4897   4898   4899
4900   4901   4902   4903
4904   4905   4906   4907
4908   4909   4910   4911
4912   4913   4914   4915
4916   4917   4918   4919
4920   4921   4922   4923
4924   4925   4926   4927
4928   4929   4930   4931
4932   4933   4934   4935
4936   4937   4938   4939
4940   4941   4942   4943
4944   4945   4946   4947
4948   4949   4950   4951
4952   4953   4954   4955
4956   4957   4958   4959
4960   4961   4962   4963
4964   4965   4966   4967
4968   4969   4970   4971
4972   4973   4974   4975
4976   4977   4978   4979
4980   4981   4982   4983
4984   4985   4986   4987
4988   4989   4990   4991
4992   4993   4994   4995
4996   4997   4998   4999
5000   5001   5002   5003
5004   5005   5006   5007
5008   5009   5010   5011
5012   5013   5014   5015
5016   5017   5018   5019
5020   5021   5022   5023
5024   5025   5026   5027
5028   5029   5030   5031
5032   5033   5034   5035
5036   5037   5038   5039
5040   5041   5042   5043
5044   5045   5046   5047
5048   5049   5050   5051
5052   5053   5054   5055
5056   5057   5058   5059
5060   5061   5062   5063
5064   5065   5066   5067
5068   5069   5070   5071
5072   5073   5074   5075
5076   5077   5078   5079
5080   5081   5082   5083
5084   5085   5086   5087
5088   5089   5090   5091
5092   5093   5094   5095
5096   5097   5098   5099
5100   5101   5102   5103
5104   5105   5106   5107
5108   5109   5110   5111
5112   5113   5114   5115
5116   5117   5118   5119
5120   5121   5122   5123
5124   5125   5126   5127
5128   5129   5130   5131
5132   5133   5134   5135
5136   5137   5138   5139
5140   5141   5142   5143
5144   5145   5146   5147
5148   5149   5150   5151
5152   5153   5154   5155
5156   5157   5158   5159
5160   5161   5162   5163
5164   5165   5166   5167
5168   5169   5170   5171
5172   5173   5174   5175
5176   5177   5178   5179
5180   5181   5182   5183
5184   5185   5186   5187
5188   5189   5190   5191
5192   5193   5194   5195
5196   5197   5198   5199
5200   5201   5202   5203
5204   5205   5206   5207
5208   5209   5210   5211
5212   5213   5214   5215
5216   5217   5218   5219
5220   5221   5222   5223
5224   5225   5226   5227
5228   5229   5230   5231
5232   5233   5234   5235
5236   5237   5238   5239
5240   5241   5242   5243
5244   5245   5246   5247
5248   5249   5250   5251
5252   5253   5254   5255
5256   5257   5258   5259
5260   5261   5262   5263
5264   5265   5266   5267
5268   5269   5270   5271
5272   5273   5274   5275
5276   5277   5278   5279
5280   5281   5282   5283
5284   5285   5286   5287
5288   5289   5290   5291
5292   5293   5294   5295
5296   5297   5298   5299
5300   5301   5302   5303
5304   5305   5306   5307
5308   5309   5310   5311
5312   5313   5314   5315
5316   5317   5318   5319
5320   5321   5322   5323
5324   5325   5326   5327
5328   5329   5330   5331
5332   5333   5334   5335
5336   5337   5338   5339
5340   5341   5342   5343
5344   5345   5346   5347
5348   5349   5350   5351
5352   5353   5354   5355
5356   5357   5358   5359
5360   5361   5362   5363
5364   5365   5366   5367
5368   5369   5370   5371
5372   5373   5374   5375
5376   5377   5378   5379
5380   5381   5382   5383
5384   5385   5386   5387
5388   5389   5390   5391
5392   5393   5394   5395
5396   5397   5398   5399
5400   5401   5402   5403
5404   5405   5406   5407
5408   5409   5410   5411
5412   5413   5414   5415
5416   5417   5418   5419
5420   5421   5422   5423
5424   5425   5426   5427
5428   5429   5430   5431
5432   5433   5434   5435
5436   5437   5438   5439
5440   5441   5442   5443
5444   5445   5446   5447
5448   5449   5450   5451
5452   5453   5454   5455
5456   5457   5458   5459
5460   5461   5462   5463
5464   5465   5466   5467
5468   5469   5470   5471
5472   5473   5474   5475
5476   5477   5478   5479
5480   5481   5482   5483
5484   5485   5486   5487
5488   5489   5490   5491
5492   5493   5494   5495
5496   5497   5498   5499
5500   5501   5502   5503
5504   5505   5506   5507
5508   5509   5510   5511
5512   5513   5514   5515
5516   5517   5518   5519
5520   5521   5522   5523
5524   5525   5526   5527
5528   5529   5530   5531
5532   5533   5534   5535
5536   5537   5538   5539
5540   5541   5542   5543
5544   5545   5546   5547
5548   5549   5550   5551
5552   5553   5554   5555
5556   5557   5558   5559
5560   5561   5562   5563
5564   5565   5566   5567
5568   5569   5570   5571
5572   5573   5574   5575
5576   5577   5578   5579
5580   5581   5582   5583
5584   5585   5586   5587
5588   5589   5590   5591
5592   5593   5594   5595
5596   5597   5598   5599
5600   5601   5602   5603
5604   5605   5606   5607
5608   5609   5610   5611
5612   5613   5614   5615
5616   5617   5618   5619
5620   5621   5622   5623
5624   5625   5626   5627
5628   5629   5630   5631
5632   5633   5634   5635
5636   5637   5638   5639
5640   5641   5642   5643
5644   5645   5646   5647
5648   5649   5650   5651
5652   5653   5654   5655
5656   5657   5658   5659
5660   5661   5662   5663
5664   5665   5666   5667
5668   5669   5670   5671
5672   5673   5674   5675
5676   5677   5678   5679
5680   5681   5682   5683
5684   5685   5686   5687
5688   5689   5690   5691
5692   5693   5694   5695
5696   5697   5698   5699
5700   5701   5702   5703
5704   5705   5706   5707
5708   5709   5710   5711
5712   5713   5714   5715
5716   5717   5718   5719
5720   5721   5722   5723
5724   5725   5726   5727
5728   5729   5730   5731
5732   5733   5734   5735
5736   5737   5738   5739
5740   5741   5742   5743
5744   5745   5746   5747
5748   5749   5750   5751
5752   5753   5754   5755
5756   5757   5758   5759
5760   5761   5762   5763
5764   5765   5766   5767
5768   5769   5770   5771
5772   5773   5774   5775
5776   5777   5778   5779
5780   5781   5782   5783
5784   5785   5786   5787
5788   5789   5790   5791
5792   5793   5794   5795
5796   5797   5798   5799
5800   5801   5802   5803
5804   5805   5806   5807
5808   5809   5810   5811
5812   5813   5814   5815
5816   5817   5818   5819
5820   5821   5822   5823
5824   5825   5826   5827
5828   5829   5830   5831
5832   5833   5834   5835
5836   5837   5838   5839
5840   5841   5842   5843
5844   5845   5846   5847
5848   5849   5850   5851
5852   5853   5854   5855
5856   5857   5858   5859
5860   5861   5862   5863
5864   5865   5866   5867
5868   5869   5870   5871
5872   5873   5874   5875
5876   5877   5878   5879
5880   5881   5882   5883
5884   5885   5886   5887
5888   5889   5890   5891
5892   5893   5894   5895
5896   5897   5898   5899
5900   5901   5902   5903
5904   5905   5906   5907
5908   5909   5910   5911
5912   5913   5914   5915
5916   5917   5918   5919
5920   5921   5922   5923
5924   5925   5926   5927
5928   5929   5930   5931
5932   5933   5934   5935
5936   5937   5938   5939
5940   5941   5942   5943
5944   5945   5946   5947
5948   5949   5950   5951
5952   5953   5954   5955
5956   5957   5958   5959
5960   5961   5962   5963
5964   5965   5966   5967
5968   5969   5970   5971
5972   5973   5974   5975
5976   5977   5978   5979
5980   5981   5982   5983
5984   5985   5986   5987
5988   5989   5990   5991
5992   5993   5994   5995
5996   5997   5998   5999
              </DataArray>   
              <DataArray type="Int32" Name="offsets" format="ascii">   
4
8
12
16
20
24
28
32
36
40
44
48
52
56
60
64
68
72
76
80
84
88
92
96
100
104
108
112
116
120
124
128
132
136
140
144
148
152
156
160
164
168
172
176
180
184
188
192
196
200
204
208
212
216
220
224
228
232
236
240
244
248
252
256
260
264
268
272
276
280
284
288
292
296
300
304
308
312
316
320
324
328
332
336
340
344
348
352
356
360
364
368
372
376
380
384
388
392
396
400
404
408
412
416
420
424
428
432
436
440
444
448
452
456
460
464
468
472
476
480
484
488
492
496
500
504
508
512
516
520
524
528
532
536
540
544
548
552
556
560
564
568
572
576
580
584
588
592
596
600
604
608
612
616
620
624
628
632
636
640
644
648
652
656
660
664
668
672
676
680
684
688
692
696
700
704
708
712
716
720
724
728
732
736
740
744
748
752
756
760
764
768
772
776
780
784
788
792
796
800
804
808
812
816
820
824
828
832
836
840
844
848
852
856
860
864
868
872
876
880
884
888
892
896
900
904
908
912
916
920
924
928
932
936
940
944
948
952
956
960
964
968
972
976
980
984
988
992
996
1000
1004
1008
1012
1016
1020
1024
1028
1032
1036
1040
1044
1048
1052
1056
1060
1064
1068
1072
1076
1080
1084
1088
1092
1096
1100
1104
1108
1112
1116
1120
1124
1128
1132
1136
1140
1144
1148
1152
1156
1160
1164
1168
1172
1176
1180
1184
1188
1192
1196
1200
1204
1208
1212
1216
1220
1224
1228
1232
1236
1240
1244
1248
1252
1256
1260
1264
1268
1272
1276
1280
1284
1288
1292
1296
1300
1304
1308
1312
1316
1320
1324
1328
1332
1336
1340
1344
1348
1352
1356
1360
1364
1368
1372
1376
1380
1384
1388
1392
1396
1400
1404
1408
1412
1416
1420
1424
1428
1432
1436
1440
1444
1448
1452
1456
1460
1464
1468
1472
1476
1480
1484
1488
1492
1496
1500
1504
1508
1512
1516
1520
1524
1528
1532
1536
1540
1544
1548
1552
1556
1560
1564
1568
1572
1576
1580
1584
1588
1592
1596
1600
1604
1608
1612
1616
1620
1624
1628
1632
1636
1640
1644
1648
1652
1656
1660
1664
1668
1672
1676
1680
1684
1688
1692
1696
1700
1704
1708
1712
1716
1720
1724
1728
1732
1736
1740
1744
1748
1752
1756
1760
1764
1768
1772
1776
1780
1784
1788
1792
1796
1800
1804
1808
1812
1816
1820
1824
1828
1832
1836
1840
1844
1848
1852
1856
1860
1864
1868
1872
1876
1880
1884
1888
1892
1896
1900
1904
1908
1912
1916
1920
1924
1928
1932
1936
1940
1944
1948
1952
1956
1960
1964
1968
1972
1976
1980
1984
1988
1992
1996
2000
2004
2008
2012
2016
2020
2024
2028
2032
2036
2040
2044
2048
2052
2056
2060
2064
2068
2072
2076
2080
2084
2088
2092
2096
2100
2104
2108
2112
2116
2120
2124
2128
2132
2136
2140
2144
2148
2152
2156
2160
2164
2168
2172
2176
2180
2184
2188
2192
2196
2200
2204
2208
2212
2216
2220
2224
2228
2232
2236
2240
2244
2248
2252
2256
2260
2264
2268
2272
2276
2280
2284
2288
2292
2296
2300
2304
2308
2312
2316
2320
2324
2328
2332
2336
2340
2344
2348
2352
2356
2360
2364
2368
2372
2376
2380
2384
2388
2392
2396
2400
2404
2408
2412
2416
2420
2424
2428
2432
2436
2440
2444
2448
2452
2456
2460
2464
2468
2472
2476
2480
2484
2488
2492
2496
2500
2504
2508
2512
2516
2520
2524
2528
2532
2536
2540
2544
2548
2552
2556
2560
2564
2568
2572
2576
2580
2584
2588
2592
2596
2600
2604
2608
2612
2616
2620
2624
2628
2632
2636
2640
2644
2648
2652
2656
2660
2664
2668
2672
2676
2680
2684
2688
2692
2696
2700
2704
2708
2712
2716
2720
2724
2728
2732
2736
2740
2744
2748
2752
2756
2760
2764
2768
2772
2776
2780
2784
2788
2792
2796
2800
2804
2808
2812
2816
2820
2824
2828
2832
2836
2840
2844
2848
2852
2856
2860
2864
2868
2872
2876
2880
2884
2888
2892
2896
2900
2904
2908
2912
2916
2920
2924
2928
2932
2936
2940
2944
2948
2952
2956
2960
2964
2968
2972
2976
2980
2984
2988
2992
2996
3000
3004
3008
3012
3016
3020
3024
3028
3032
3036
3040
3044
3048
3052
3056
3060
3064
3068
3072
3076
3080
3084
3088
3092
3096
3100
3104
3108
3112
3116
3120
3124
3128
3132
3136
3140
3144
3148
3152
3156
3160
3164
3168
3172
3176
3180
3184
3188
3192
3196
3200
3204
3208
3212
3216
3220
3224
3228
3232
3236
3240
3244
3248
3252
3256
3260
3264
3268
3272
3276
3280
3284
3288
3292
3296
3300
3304
3308
3312
3316
3320
3324
3328
3332
3336
3340
3344
3348
3352
3356
3360
3364
3368
3372
3376
3380
3384
3388
3392
3396
3400
3404
3408
3412
3416
3420
3424
3428
3432
3436
3440
3444
3448
3452
3456
3460
3464
3468
3472
3476
3480
3484
3488
3492
3496
3500
3504
3508
3512
3516
3520
3524
3528
3532
3536
3540
3544
3548
3552
3556
3560
3564
3568
3572
3576
3580
3584
3588
3592
3596
3600
3604
3608
3612
3616
3620
3624
3628
3632
3636
3640
3644
3648
3652
3656
3660
3664
3668
3672
3676
3680
3684
3688
3692
3696
3700
3704
3708
3712
3716
3720
3724
3728
3732
3736
3740
3744
3748
3752
3756
3760
3764
3768
3772
3776
3780
3784
3788
3792
3796
3800
3804
3808
3812
3816
3820
3824
3828
3832
3836
3840
3844
3848
3852
3856
3860
3864
3868
3872
3876
3880
3884
3888
3892
3896
3900
3904
3908
3912
3916
3920
3924
3928
3932
3936
3940
3944
3948
3952
3956
3960
3964
3968
3972
3976
3980
3984
3988
3992
3996
4000
4004
4008
4012
4016
4020
4024
4028
4032
4036
4040
4044
4048
4052
4056
4060
4064
4068
4072
4076
4080
4084
4088
4092
4096
4100
4104
4108
4112
4116
4120
4124
4128
4132
4136
4140
4144
4148
4152
4156
4160
4164
4168
4172
4176
4180
4184
4188
4192
4196
4200
4204
4208
4212
4216
4220
4224
4228
4232
4236
4240
4244
4248
4252
4256
4260
4264
4268
4272
4276
4280
4284
4288
4292
4296
4300
4304
4308
4312
4316
4320
4324
4328
4332
4336
4340
4344
4348
4352
4356
4360
4364
4368
4372
4376
4380
4384
4388
4392
4396
4400
4404
4408
4412
4416
4420
4424
4428
4432
4436
4440
4444
4448
4452
4456
4460
4464
4468
4472
4476
4480
4484
4488
4492
4496
4500
4504
4508
4512
4516
4520
4524
4528
4532
4536
4540
4544
4548
4552
4556
4560
4564
4568
4572
4576
4580
4584
4588
4592
4596
4600
4604
4608
4612
4616
4620
4624
4628
4632
4636
4640
4644
4648
4652
4656
4660
4664
4668
4672
4676
4680
4684
4688
4692
4696
4700
4704
4708
4712
4716
4720
4724
4728
4732
4736
4740
4744
4748
4752
4756
4760
4764
4768
4772
4776
4780
4784
4788
4792
4796
4800
4804
4808
4812
4816
4820
4824
4828
4832
4836
4840
4844
4848
4852
4856
4860
4864
4868
4872
4876
4880
4884
4888
4892
4896
4900
4904
4908
4912
4916
4920
4924
4928
4932
4936
4940
4944
4948
4952
4956
4960
4964
4968
4972
4976
4980
4984
4988
4992
4996
5000
5004
5008
5012
5016
5020
5024
5028
5032
5036
5040
5044
5048
5052
5056
5060
5064
5068
5072
5076
5080
5084
5088
5092
5096
5100
5104
5108
5112
5116
5120
5124
5128
5132
5136
5140
5144
5148
5152
5156
5160
5164
5168
5172
5176
5180
5184
5188
5192
5196
5200
5204
5208
5212
5216
5220
5224
5228
5232
5236
5240
5244
5248
5252
5256
5260
5264
5268
5272
5276
5280
5284
5288
5292
5296
5300
5304
5308
5312
5316
5320
5324
5328
5332
5336
5340
5344
5348
5352
5356
5360
5364
5368
5372
5376
5380
5384
5388
5392
5396
5400
5404
5408
5412
5416
5420
5424
5428
5432
5436
5440
5444
5448
5452
5456
5460
5464
5468
5472
5476
5480
5484
5488
5492
5496
5500
5504
5508
5512
5516
5520
5524
5528
5532
5536
5540
5544
5548
5552
5556
5560
5564
5568
5572
5576
5580
5584
5588
5592
5596
5600
5604
5608
5612
5616
5620
5624
5628
5632
5636
5640
5644
5648
5652
5656
5660
5664
5668
5672
5676
5680
5684
5688
5692
5696
5700
5704
5708
5712
5716
5720
5724
5728
5732
5736
5740
5744
5748
5752
5756
5760
5764
5768
5772
5776
5780
5784
5788
5792
5796
5800
5804
5808
5812
5816
5820
5824
5828
5832
5836
5840
5844
5848
5852
5856
5860
5864
5868
5872
5876
5880
5884
5888
5892
5896
5900
5904
5908
5912
5916
5920
5924
5928
5932
5936
5940
5944
5948
5952
5956
5960
5964
5968
5972
5976
5980
5984
5988
5992
5996
6000
              </DataArray>   
              <DataArray type="UInt8" Name="types" format="ascii">   
10
10
10
10
10
10
10
10
10
10
10
10
10
10
10
10
10
10
10
10
10
10
10
10
10
10
10
10
10
10
10
10
10
10
10
10
10
10
10
10
10
10
10
10
10
10
10
10
10
10
10
10
10
10
10
10
10
10
10
10
10
10
10
10
10
10
10
10
10
10
10
10
10
10
10
10
10
10
10
10
10
10
10
10
10
10
10
10
10
10
10
10
10
10
10
10
10
10
10
10
10
10
10
10
10
10
10
10
10
10
10
10
10
10
10
10
10
10
10
10
10
10
10
10
10
10
10
10
10
10
10
10
10
10
10
10
10
10
10
10
10
10
10
10
10
10
10
10
10
10
10
10
10
10
10
10
10
10
10
10
10
10
10
10
10
10
10
10
10
10
10
10
10
10
10
10
10
10
10
10
10
10
10
10
10
10
10
10
10
10
10
10
10
10
10
10
10
10
10
10
10
10
10
10
10
10
10
10
10
10
10
10
10
10
10
10
10
10
10
10
10
10
10
10
10
10
10
10
10
10
10
10
10
10
10
10
10
10
10
10
10
10
10
10
10
10
10
10
10
10
10
10
10
10
10
10
10
10
10
10
10
10
10
10
10
10
10
10
10
10
10
10
10
10
10
10
10
10
10
10
10
10
10
10
10
10
10
10
10
10
10
10
10
10
10
10
10
10
10
10
10
10
10
10
10
10
10
10
10
10
10
10
10
10
10
10
10
10
10
10
10
10
10
10
10
10
10
10
10
10
10
10
10
10
10
10
10
10
10
10
10
10
10
10
10
10
10
10
10
10
10
10
10
10
10
10
10
10
10
10
10
10
10
10
10
10
10
10
10
10
10
10
10
10
10
10
10
10
10
10
10
10
10
10
10
10
10
10
10
10
10
10
10
10
10
10
10
10
10
10
10
10
10
10
10
10
10
10
10
10
10
10
10
10
10
10
10
10
10
10
10
10
10
10
10
10
10
10
10
10
10
10
10
10
10
10
10
10
10
10
10
10
10
10
10
10
10
10
10
10
10
10
10
10
10
10
10
10
10
10
10
10
10
10
10
10
10
10
10
10
10
10
10
10
10
10
10
10
10
10
10
10
10
10
10
10
10
10
10
10
10
10
10
10
10
10
10
10
10
10
10
10
10
10
10
10
10
10
10
10
10
10
10
10
10
10
10
10
10
10
10
10
10
10
10
10
10
10
10
10
10
10
10
10
10
10
10
10
10
10
10
10
10
10
10
10
10
10
10
10
10
10
10
10
10
10
10
10
10
10
10
10
10
10
10
10
10
10
10
10
10
10
10
10
10
10
10
10
10
10
10
10
10
10
10
10
10
10
10
10
10
10
10
10
10
10
10
10
10
10
10
10
10
10
10
10
10
10
10
10
10
10
10
10
10
10
10
10
10
10
10
10
10
10
10
10
10
10
10
10
10
10
10
10
10
10
10
10
10
10
10
10
10
10
10
10
10
10
10
10
10
10
10
10
10
10
10
10
10
10
10
10
10
10
10
10
10
10
10
10
10
10
10
10
10
10
10
10
10
10
10
10
10
10
10
10
10
10
10
10
10
10
10
10
10
10
10
10
10
10
10
10
10
10
10
10
10
10
10
10
10
10
10
10
10
10
10
10
10
10
10
10
10
10
10
10
10
10
10
10
10
10
10
10
10
10
10
10
10
10
10
10
10
10
10
10
10
10
10
10
10
10
10
10
10
10
10
10
10
10
10
10
10
10
10
10
10
10
10
10
10
10
10
10
10
10
10
10
10
10
10
10
10
10
10
10
10
10
10
10
10
10
10
10
10
10
10
10
10
10
10
10
10
10
10
10
10
10
10
10
10
10
10
10
10
10
10
10
10
10
10
10
10
10
10
10
10
10
10
10
10
10
10
10
10
10
10
10
10
10
10
10
10
10
10
10
10
10
10
10
10
10
10
10
10
10
10
10
10
10
10
10
10
10
10
10
10
10
10
10
10
10
10
10
10
10
10
10
10
10
10
10
10
10
10
10
10
10
10
10
10
10
10
10
10
10
10
10
10
10
10
10
10
10
10
10
10
10
10
10
10
10
10
10
10
10
10
10
10
10
10
10
10
10
10
10
10
10
10
10
10
10
10
10
10
10
10
10
10
10
10
10
10
10
10
10
10
10
10
10
10
10
10
10
10
10
10
10
10
10
10
10
10
10
10
10
10
10
10
10
10
10
10
10
10
10
10
10
10
10
10
10
10
10
10
10
10
10
10
10
10
10
10
10
10
10
10
10
10
10
10
10
10
10
10
10
10
10
10
10
10
10
10
10
10
10
10
10
10
10
10
10
10
10
10
10
10
10
10
10
10
10
10
10
10
10
10
10
10
10
10
10
10
10
10
10
10
10
10
10
10
10
10
10
10
10
10
10
10
10
10
10
10
10
10
10
10
10
10
10
10
10
10
10
10
10
10
10
10
10
10
10
10
10
10
10
10
10
10
10
10
10
10
10
10
10
10
10
10
10
10
10
10
10
10
10
10
10
10
10
10
10
10
10
10
10
10
10
10
10
10
10
10
10
10
10
10
10
10
10
10
10
10
10
10
10
10
10
10
10
10
10
10
10
10
10
10
10
10
10
10
10
10
10
10
10
10
10
10
10
10
10
10
10
10
10
10
10
10
10
10
10
10
10
10
10
10
10
10
10
10
10
10
10
10
10
10
10
10
10
10
10
10
10
10
10
10
10
10
10
10
10
10
10
10
10
10
10
10
10
10
10
10
10
10
10
10
10
10
10
10
10
10
10
10
10
10
10
10
10
10
10
10
10
10
10
10
10
10
10
10
10
10
10
10
10
10
10
10
10
10
10
10
10
10
10
10
10
10
10
10
10
10
10
10
10
10
10
10
10
10
10
10
10
10
10
10
10
10
10
10
10
10
10
10
10
10
10
10
10
10
10
10
10
10
10
10
10
10
10
10
10
10
10
10
10
10
10
10
10
10
10
10
10
10
10
10
10
10
10
10
10
10
10
10
10
10
10
10
10
10
10
10
10
10
10
10
10
10
10
10
10
10
10
10
10
10
10
10
10
10
10
10
10
10
10
10
10
10
10
10
10
10
10
10
10
10
10
10
10
10
10
10
10
10
10
10
10
10
10
10
10
10
10
10
10
10
10
10
10
10
10
10
10
10
10
10
10
10
10
10
10
10
10
10
10
10
10
10
10
10
10
10
10
10
10
10
10
10
10
10
10
10
10
10
10
10
10
10
10
10
10
10
10
10
10
10
10
10
10
10
10
10
10
10
10
10
10
10
10
10
10
10
10
10
10
10
10
10
10
10
10
10
10
10
10
10
10
10
10
10
10
10
10
10
10
10
10
10
10
10
10
10
10
10
10
10
10
10
10
10
10
10
10
10
10
10
10
10
10
              </DataArray>   
          </Cells>  
          <PointData>  
             <DataArray type="Float64" NumberOfComponents="3" Name="Strains" format="ascii">   
-0.0001256662772533859   0.0   -8.238872985366441e-05
-0.0001256662772533859   0.0   -8.238872985366441e-05
-0.0001256662772533859   0.0   -8.238872985366441e-05
-0.0001256662772533859   0.0   -8.238872985366441e-05
-7.997242082078531e-05   1.393286089295038e-05   2.1274140697733032e-06
-7.997242082078531e-05   1.393286089295038e-05   2.1274140697733032e-06
-7.997242082078531e-05   1.393286089295038e-05   2.1274140697733032e-06
-7.997242082078531e-05   1.393286089295038e-05   2.1274140697733032e-06
-7.839695842424744e-05   0.0   -7.774734525314297e-05
-7.839695842424744e-05   0.0   -7.774734525314297e-05
-7.839695842424744e-05   0.0   -7.774734525314297e-05
-7.839695842424744e-05   0.0   -7.774734525314297e-05
-0.00013152329092701336   1.6714681082323816e-05   7.677336020729566e-07
-0.00013152329092701336   1.6714681082323816e-05   7.677336020729566e-07
-0.00013152329092701336   1.6714681082323816e-05   7.677336020729566e-07
-0.00013152329092701336   1.6714681082323816e-05   7.677336020729566e-07
-0.0001020316178388165   3.867820500434545e-06   -4.067693852912153e-05
-0.0001020316178388165   3.867820500434545e-06   -4.067693852912153e-05
-0.0001020316178388165   3.867820500434545e-06   -4.067693852912153e-05
-0.0001020316178388165   3.867820500434545e-06   -4.067693852912153e-05
-0.00013152329092701358   0.0   -8.777615390253727e-05
-0.00013152329092701358   0.0   -8.777615390253727e-05
-0.00013152329092701358   0.0   -8.777615390253727e-05
-0.00013152329092701358   0.0   -8.777615390253727e-05
-7.839695842424744e-05   1.6714681082323843e-05   1.079654225146729e-05
-7.839695842424744e-05   1.6714681082323843e-05   1.079654225146729e-05
-7.839695842424744e-05   1.6714681082323843e-05   1.079654225146729e-05
-7.839695842424744e-05   1.6714681082323843e-05   1.079654225146729e-05
-7.862468381293077e-05   0.0   -7.965211219230662e-05
-7.862468381293077e-05   0.0   -7.965211219230662e-05
-7.862468381293077e-05   0.0   -7.965211219230662e-05
-7.862468381293077e-05   0.0   -7.965211219230662e-05
-0.00013563965890357198   1.7905773259718435e-05   4.629382336264698e-06
-0.00013563965890357198   1.7905773259718435e-05   4.629382336264698e-06
-0.00013563965890357198   1.7905773259718435e-05   4.629382336264698e-06
-0.00013563965890357198   1.7905773259718435e-05   4.629382336264698e-06
-0.000105073987369972   6.770034758525544e-06   -3.9631960452352836e-05
-0.000105073987369972   6.770034758525544e-06   -3.9631960452352836e-05
-0.000105073987369972   6.770034758525544e-06   -3.9631960452352836e-05
-0.000105073987369972   6.770034758525544e-06   -3.9631960452352836e-05
-0.0001356396589035722   0.0   -9.039557614813771e-05
-0.0001356396589035722   0.0   -9.039557614813771e-05
-0.0001356396589035722   0.0   -9.039557614813771e-05
-0.0001356396589035722   0.0   -9.039557614813771e-05
-7.862468381293063e-05   1.7905773259718435e-05   1.5372846292095743e-05
-7.862468381293063e-05   1.7905773259718435e-05   1.5372846292095743e-05
-7.862468381293063e-05   1.7905773259718435e-05   1.5372846292095743e-05
-7.862468381293063e-05   1.7905773259718435e-05   1.5372846292095743e-05
-7.859083316390347e-05   0.0   -8.014051551688763e-05
-7.859083316390347e-05   0.0   -8.014051551688763e-05
-7.859083316390347e-05   0.0   -8.014051551688763e-05
-7.859083316390347e-05   0.0   -8.014051551688763e-05
-0.00014450086792640592   2.0393697999184987e-05   1.7473323621105798e-05
-0.00014450086792640592   2.0393697999184987e-05   1.7473323621105798e-05
-0.00014450086792640592   2.0393697999184987e-05   1.7473323621105798e-05
-0.00014450086792640592   2.0393697999184987e-05   1.7473323621105798e-05
-0.00010711524603373766   8.54588385937506e-06   -3.7727357716121955e-05
-0.00010711524603373766   8.54588385937506e-06   -3.7727357716121955e-05
-0.00010711524603373766   8.54588385937506e-06   -3.7727357716121955e-05
-0.00010711524603373766   8.54588385937506e-06   -3.7727357716121955e-05
-7.997242082078544e-05   0.0   -7.402901331789418e-05
-7.997242082078544e-05   0.0   -7.402901331789418e-05
-7.997242082078544e-05   0.0   -7.402901331789418e-05
-7.997242082078544e-05   0.0   -7.402901331789418e-05
-3.641220336714711e-05   5.1122341749950295e-06   1.6386896098333559e-06
-3.641220336714711e-05   5.1122341749950295e-06   1.6386896098333559e-06
-3.641220336714711e-05   5.1122341749950295e-06   1.6386896098333559e-06
-3.641220336714711e-05   5.1122341749950295e-06   1.6386896098333559e-06
-3.502720595829298e-05   0.0   -7.338266513899557e-05
-3.502720595829298e-05   0.0   -7.338266513899557e-05
-3.502720595829298e-05   0.0   -7.338266513899557e-05
-3.502720595829298e-05   0.0   -7.338266513899557e-05
-7.839695842424744e-05   7.274466856912109e-06   -5.464424476552324e-06
-7.839695842424744e-05   7.274466856912109e-06   -5.464424476552324e-06
-7.839695842424744e-05   7.274466856912109e-06   -5.464424476552324e-06
-7.839695842424744e-05   7.274466856912109e-06   -5.464424476552324e-06
-5.749981338953914e-05   5.386234824154092e-07   -3.6251493509701186e-05
-5.749981338953914e-05   5.386234824154092e-07   -3.6251493509701186e-05
-5.749981338953914e-05   5.386234824154092e-07   -3.6251493509701186e-05
-5.749981338953914e-05   5.386234824154092e-07   -3.6251493509701186e-05
-7.839695842424737e-05   0.0   -7.77473452531429e-05
-7.839695842424737e-05   0.0   -7.77473452531429e-05
-7.839695842424737e-05   0.0   -7.77473452531429e-05
-7.839695842424737e-05   0.0   -7.77473452531429e-05
-3.502720595829298e-05   7.274466856912109e-06   -1.0997443624050516e-06
-3.502720595829298e-05   7.274466856912109e-06   -1.0997443624050516e-06
-3.502720595829298e-05   7.274466856912109e-06   -1.0997443624050516e-06
-3.502720595829298e-05   7.274466856912109e-06   -1.0997443624050516e-06
-3.4252059802797185e-05   0.0   -7.430518708937085e-05
-3.4252059802797185e-05   0.0   -7.430518708937085e-05
-3.4252059802797185e-05   0.0   -7.430518708937085e-05
-3.4252059802797185e-05   0.0   -7.430518708937085e-05
-7.862468381293077e-05   8.911541838226071e-06   -5.697738842084095e-06
-7.862468381293077e-05   8.911541838226071e-06   -5.697738842084095e-06
-7.862468381293077e-05   8.911541838226071e-06   -5.697738842084095e-06
-7.862468381293077e-05   8.911541838226071e-06   -5.697738842084095e-06
-5.632450911352232e-05   2.868465136476658e-06   -3.923885065338176e-05
-5.632450911352232e-05   2.868465136476658e-06   -3.923885065338176e-05
-5.632450911352232e-05   2.868465136476658e-06   -3.923885065338176e-05
-5.632450911352232e-05   2.868465136476658e-06   -3.923885065338176e-05
-7.862468381293077e-05   0.0   -7.965211219230662e-05
-7.862468381293077e-05   0.0   -7.965211219230662e-05
-7.862468381293077e-05   0.0   -7.965211219230662e-05
-7.862468381293077e-05   0.0   -7.965211219230662e-05
-3.4252059802797246e-05   8.911541838226071e-06   -3.508137391484536e-07
-3.4252059802797246e-05   8.911541838226071e-06   -3.508137391484536e-07
-3.4252059802797246e-05   8.911541838226071e-06   -3.508137391484536e-07
-3.4252059802797246e-05   8.911541838226071e-06   -3.508137391484536e-07
-3.354732409691317e-05   0.0   -7.391968799241131e-05
-3.354732409691317e-05   0.0   -7.391968799241131e-05
-3.354732409691317e-05   0.0   -7.391968799241131e-05
-3.354732409691317e-05   0.0   -7.391968799241131e-05
-7.859083316390327e-05   1.0368045874127081e-05   -5.068000405237096e-06
-7.859083316390327e-05   1.0368045874127081e-05   -5.068000405237096e-06
-7.859083316390327e-05   1.0368045874127081e-05   -5.068000405237096e-06
-7.859083316390327e-05   1.0368045874127081e-05   -5.068000405237096e-06
-5.608600395492195e-05   4.7770201665793695e-06   -3.92214336623443e-05
-5.608600395492195e-05   4.7770201665793695e-06   -3.92214336623443e-05
-5.608600395492195e-05   4.7770201665793695e-06   -3.92214336623443e-05
-5.608600395492195e-05   4.7770201665793695e-06   -3.92214336623443e-05
-3.641220336714717e-05   0.0   -7.096167281289717e-05
-3.641220336714717e-05   0.0   -7.096167281289717e-05
-3.641220336714717e-05   0.0   -7.096167281289717e-05
-3.641220336714717e-05   0.0   -7.096167281289717e-05
4.749687099938554e-06   -6.53289966507357e-07   -2.7504960143253067e-06
4.749687099938554e-06   -6.53289966507357e-07   -2.7504960143253067e-06
4.749687099938554e-06   -6.53289966507357e-07   -2.7504960143253067e-06
4.749687099938554e-06   -6.53289966507357e-07   -2.7504960143253067e-06
5.630654315924718e-06   0.0   -7.260930740041175e-05
5.630654315924718e-06   0.0   -7.260930740041175e-05
5.630654315924718e-06   0.0   -7.260930740041175e-05
5.630654315924718e-06   0.0   -7.260930740041175e-05
-3.502720595829298e-05   1.2889295643061632e-06   -5.619564681966064e-06
-3.502720595829298e-05   1.2889295643061632e-06   -5.619564681966064e-06
-3.502720595829298e-05   1.2889295643061632e-06   -5.619564681966064e-06
-3.502720595829298e-05   1.2889295643061632e-06   -5.619564681966064e-06
-1.539077452561119e-05   -1.373028822929024e-06   -3.674977537076123e-05
-1.539077452561119e-05   -1.373028822929024e-06   -3.674977537076123e-05
-1.539077452561119e-05   -1.373028822929024e-06   -3.674977537076123e-05
-1.539077452561119e-05   -1.373028822929024e-06   -3.674977537076123e-05
-3.502720595829304e-05   0.0   -7.33826651389957e-05
-3.502720595829304e-05   0.0   -7.33826651389957e-05
-3.502720595829304e-05   0.0   -7.33826651389957e-05
-3.502720595829304e-05   0.0   -7.33826651389957e-05
5.6306543159247284e-06   1.2889295643061632e-06   -4.846206943382365e-06
5.6306543159247284e-06   1.2889295643061632e-06   -4.846206943382365e-06
5.6306543159247284e-06   1.2889295643061632e-06   -4.846206943382365e-06
5.6306543159247284e-06   1.2889295643061632e-06   -4.846206943382365e-06
6.325092892863734e-06   0.0   -7.250593813483609e-05
6.325092892863734e-06   0.0   -7.250593813483609e-05
6.325092892863734e-06   0.0   -7.250593813483609e-05
6.325092892863734e-06   0.0   -7.250593813483609e-05
-3.4252059802797124e-05   2.998748257557925e-06   -6.676599263269326e-06
-3.4252059802797124e-05   2.998748257557925e-06   -6.676599263269326e-06
-3.4252059802797124e-05   2.998748257557925e-06   -6.676599263269326e-06
-3.4252059802797124e-05   2.998748257557925e-06   -6.676599263269326e-06
-1.4351056532714621e-05   7.306058367995659e-07   -3.8484052594285216e-05
-1.4351056532714621e-05   7.306058367995659e-07   -3.8484052594285216e-05
-1.4351056532714621e-05   7.306058367995659e-07   -3.8484052594285216e-05
-1.4351056532714621e-05   7.306058367995659e-07   -3.8484052594285216e-05
-3.4252059802797246e-05   0.0   -7.430518708937097e-05
-3.4252059802797246e-05   0.0   -7.430518708937097e-05
-3.4252059802797246e-05   0.0   -7.430518708937097e-05
-3.4252059802797246e-05   0.0   -7.430518708937097e-05
6.325092892863745e-06   2.998748257557925e-06   -4.8773503087345815e-06
6.325092892863745e-06   2.998748257557925e-06   -4.8773503087345815e-06
6.325092892863745e-06   2.998748257557925e-06   -4.8773503087345815e-06
6.325092892863745e-06   2.998748257557925e-06   -4.8773503087345815e-06
7.261664879814398e-06   0.0   -7.093195895802413e-05
7.261664879814398e-06   0.0   -7.093195895802413e-05
7.261664879814398e-06   0.0   -7.093195895802413e-05
7.261664879814398e-06   0.0   -7.093195895802413e-05
-3.354732409691314e-05   4.979548390645185e-06   -5.904706364532021e-06
-3.354732409691314e-05   4.979548390645185e-06   -5.904706364532021e-06
-3.354732409691314e-05   4.979548390645185e-06   -5.904706364532021e-06
-3.354732409691314e-05   4.979548390645185e-06   -5.904706364532021e-06
-1.3495197461491394e-05   2.8110234427889332e-06   -3.8023802454854476e-05
-1.3495197461491394e-05   2.8110234427889332e-06   -3.8023802454854476e-05
-1.3495197461491394e-05   2.8110234427889332e-06   -3.8023802454854476e-05
-1.3495197461491394e-05   2.8110234427889332e-06   -3.8023802454854476e-05
4.749687099938563e-06   0.0   -7.135364679280157e-05
4.749687099938563e-06   0.0   -7.135364679280157e-05
4.749687099938563e-06   0.0   -7.135364679280157e-05
4.749687099938563e-06   0.0   -7.135364679280157e-05
4.942465396976351e-05   -5.796972138749122e-06   -3.7355195967583236e-07
4.942465396976351e-05   -5.796972138749122e-06   -3.7355195967583236e-07
4.942465396976351e-05   -5.796972138749122e-06   -3.7355195967583236e-07
4.942465396976351e-05   -5.796972138749122e-06   -3.7355195967583236e-07
4.9503452814382226e-05   0.0   -7.523251895698989e-05
4.9503452814382226e-05   0.0   -7.523251895698989e-05
4.9503452814382226e-05   0.0   -7.523251895698989e-05
4.9503452814382226e-05   0.0   -7.523251895698989e-05
5.6306543159247284e-06   -4.3720192609631635e-06   5.120234303504836e-07
5.6306543159247284e-06   -4.3720192609631635e-06   5.120234303504836e-07
5.6306543159247284e-06   -4.3720192609631635e-06   5.120234303504836e-07
5.6306543159247284e-06   -4.3720192609631635e-06   5.120234303504836e-07
2.7126569957160394e-05   -3.2323934701569272e-06   -3.599827811285932e-05
2.7126569957160394e-05   -3.2323934701569272e-06   -3.599827811285932e-05
2.7126569957160394e-05   -3.2323934701569272e-06   -3.599827811285932e-05
2.7126569957160394e-05   -3.2323934701569272e-06   -3.599827811285932e-05
5.630654315924738e-06   0.0   -7.260930740041199e-05
5.630654315924738e-06   0.0   -7.260930740041199e-05
5.630654315924738e-06   0.0   -7.260930740041199e-05
5.630654315924738e-06   0.0   -7.260930740041199e-05
4.950345281438214e-05   -4.3720192609631635e-06   -2.111188126227413e-06
4.950345281438214e-05   -4.3720192609631635e-06   -2.111188126227413e-06
4.950345281438214e-05   -4.3720192609631635e-06   -2.111188126227413e-06
4.950345281438214e-05   -4.3720192609631635e-06   -2.111188126227413e-06
4.9283606127487335e-05   0.0   -7.415816189459879e-05
4.9283606127487335e-05   0.0   -7.415816189459879e-05
4.9283606127487335e-05   0.0   -7.415816189459879e-05
4.9283606127487335e-05   0.0   -7.415816189459879e-05
6.325092892863745e-06   -2.75370626627095e-06   -9.08416077130251e-07
6.325092892863745e-06   -2.75370626627095e-06   -9.08416077130251e-07
6.325092892863745e-06   -2.75370626627095e-06   -9.08416077130251e-07
6.325092892863745e-06   -2.75370626627095e-06   -9.08416077130251e-07
2.7457130221706036e-05   -1.2907120784889974e-06   -3.700627480453654e-05
2.7457130221706036e-05   -1.2907120784889974e-06   -3.700627480453654e-05
2.7457130221706036e-05   -1.2907120784889974e-06   -3.700627480453654e-05
2.7457130221706036e-05   -1.2907120784889974e-06   -3.700627480453654e-05
6.325092892863745e-06   0.0   -7.250593813483622e-05
6.325092892863745e-06   0.0   -7.250593813483622e-05
6.325092892863745e-06   0.0   -7.250593813483622e-05
6.325092892863745e-06   0.0   -7.250593813483622e-05
4.928360612748725e-05   -2.7537062662709634e-06   -2.5606398368928216e-06
4.928360612748725e-05   -2.7537062662709634e-06   -2.5606398368928216e-06
4.928360612748725e-05   -2.7537062662709634e-06   -2.5606398368928216e-06
4.928360612748725e-05   -2.7537062662709634e-06   -2.5606398368928216e-06
5.023055713632229e-05   0.0   -7.127910561240503e-05
5.023055713632229e-05   0.0   -7.127910561240503e-05
5.023055713632229e-05   0.0   -7.127910561240503e-05
5.023055713632229e-05   0.0   -7.127910561240503e-05
7.261664879814411e-06   -5.785777573013044e-07   6.828614694888682e-07
7.261664879814411e-06   -5.785777573013044e-07   6.828614694888682e-07
7.261664879814411e-06   -5.785777573013044e-07   6.828614694888682e-07
7.261664879814411e-06   -5.785777573013044e-07   6.828614694888682e-07
2.827782501459302e-05   1.0223604353593252e-06   -3.530463500407181e-05
2.827782501459302e-05   1.0223604353593252e-06   -3.530463500407181e-05
2.827782501459302e-05   1.0223604353593252e-06   -3.530463500407181e-05
2.827782501459302e-05   1.0223604353593252e-06   -3.530463500407181e-05
4.942465396976368e-05   0.0   -7.483183007605107e-05
4.942465396976368e-05   0.0   -7.483183007605107e-05
4.942465396976368e-05   0.0   -7.483183007605107e-05
4.942465396976368e-05   0.0   -7.483183007605107e-05
0.0001115351701776566   -1.4689184772362905e-05   1.9872186073686423e-05
0.0001115351701776566   -1.4689184772362905e-05   1.9872186073686423e-05
0.0001115351701776566   -1.4689184772362905e-05   1.9872186073686423e-05
0.0001115351701776566   -1.4689184772362905e-05   1.9872186073686423e-05
0.00010473772147074833   0.0   -8.273429378856773e-05
0.00010473772147074833   0.0   -8.273429378856773e-05
0.00010473772147074833   0.0   -8.273429378856773e-05
0.00010473772147074833   0.0   -8.273429378856773e-05
4.950345281438214e-05   -1.2502958052629698e-05   1.6824595470286903e-05
4.950345281438214e-05   -1.2502958052629698e-05   1.6824595470286903e-05
4.950345281438214e-05   -1.2502958052629698e-05   1.6824595470286903e-05
4.950345281438214e-05   -1.2502958052629698e-05   1.6824595470286903e-05
7.708118772025601e-05   -6.5853864270972086e-06   -3.268883901482215e-05
7.708118772025601e-05   -6.5853864270972086e-06   -3.268883901482215e-05
7.708118772025601e-05   -6.5853864270972086e-06   -3.268883901482215e-05
7.708118772025601e-05   -6.5853864270972086e-06   -3.268883901482215e-05
4.9503452814382185e-05   0.0   -7.523251895698982e-05
4.9503452814382185e-05   0.0   -7.523251895698982e-05
4.9503452814382185e-05   0.0   -7.523251895698982e-05
4.9503452814382185e-05   0.0   -7.523251895698982e-05
0.00010473772147074833   -1.2502958052629725e-05   9.32282063870909e-06
0.00010473772147074833   -1.2502958052629725e-05   9.32282063870909e-06
0.00010473772147074833   -1.2502958052629725e-05   9.32282063870909e-06
0.00010473772147074833   -1.2502958052629725e-05   9.32282063870909e-06
0.00010159960908630514   0.0   -8.101411670468511e-05
0.00010159960908630514   0.0   -8.101411670468511e-05
0.00010159960908630514   0.0   -8.101411670468511e-05
0.00010159960908630514   0.0   -8.101411670468511e-05
4.928360612748725e-05   -1.1426591350143829e-05   1.3035176370097522e-05
4.928360612748725e-05   -1.1426591350143829e-05   1.3035176370097522e-05
4.928360612748725e-05   -1.1426591350143829e-05   1.3035176370097522e-05
4.928360612748725e-05   -1.1426591350143829e-05   1.3035176370097522e-05
7.555153095034364e-05   -4.81799812307935e-06   -3.4709854270901674e-05
7.555153095034364e-05   -4.81799812307935e-06   -3.4709854270901674e-05
7.555153095034364e-05   -4.81799812307935e-06   -3.4709854270901674e-05
7.555153095034364e-05   -4.81799812307935e-06   -3.4709854270901674e-05
4.9283606127487335e-05   0.0   -7.415816189459879e-05
4.9283606127487335e-05   0.0   -7.415816189459879e-05
4.9283606127487335e-05   0.0   -7.415816189459879e-05
4.9283606127487335e-05   0.0   -7.415816189459879e-05
0.00010159960908630497   -1.1426591350143829e-05   6.179221560011233e-06
0.00010159960908630497   -1.1426591350143829e-05   6.179221560011233e-06
0.00010159960908630497   -1.1426591350143829e-05   6.179221560011233e-06
0.00010159960908630497   -1.1426591350143829e-05   6.179221560011233e-06
9.693331556676532e-05   0.0   -7.661110353884189e-05
9.693331556676532e-05   0.0   -7.661110353884189e-05
9.693331556676532e-05   0.0   -7.661110353884189e-05
9.693331556676532e-05   0.0   -7.661110353884189e-05
5.023055713632216e-05   -8.886663210728099e-06   6.558825105000072e-06
5.023055713632216e-05   -8.886663210728099e-06   6.558825105000072e-06
5.023055713632216e-05   -8.886663210728099e-06   6.558825105000072e-06
5.023055713632216e-05   -8.886663210728099e-06   6.558825105000072e-06
7.31084608471262e-05   -2.0441180368692424e-06   -3.5676541517321925e-05
7.31084608471262e-05   -2.0441180368692424e-06   -3.5676541517321925e-05
7.31084608471262e-05   -2.0441180368692424e-06   -3.5676541517321925e-05
7.31084608471262e-05   -2.0441180368692424e-06   -3.5676541517321925e-05
-0.00010909722178395343   1.393286089295034e-05   -7.152449729581981e-05
-0.00010909722178395343   1.393286089295034e-05   -7.152449729581981e-05
-0.00010909722178395343   1.393286089295034e-05   -7.152449729581981e-05
-0.00010909722178395343   1.393286089295034e-05   -7.152449729581981e-05
-6.987013748204824e-05   1.2533449570726034e-05   -6.9856702526456635e-06
-6.987013748204824e-05   1.2533449570726034e-05   -6.9856702526456635e-06
-6.987013748204824e-05   1.2533449570726034e-05   -6.9856702526456635e-06
-6.987013748204824e-05   1.2533449570726034e-05   -6.9856702526456635e-06
-7.163193917631477e-05   1.6714681082323816e-05   -6.006364445158168e-05
-7.163193917631477e-05   1.6714681082323816e-05   -6.006364445158168e-05
-7.163193917631477e-05   1.6714681082323816e-05   -6.006364445158168e-05
-7.163193917631477e-05   1.6714681082323816e-05   -6.006364445158168e-05
-0.0001102862516382935   1.5039470044827879e-05   5.365336274213784e-06
-0.0001102862516382935   1.5039470044827879e-05   5.365336274213784e-06
-0.0001102862516382935   1.5039470044827879e-05   5.365336274213784e-06
-0.0001102862516382935   1.5039470044827879e-05   5.365336274213784e-06
-8.664834244505142e-05   1.45515982603832e-05   -3.3738455977189825e-05
-8.664834244505142e-05   1.45515982603832e-05   -3.3738455977189825e-05
-8.664834244505142e-05   1.45515982603832e-05   -3.3738455977189825e-05
-8.664834244505142e-05   1.45515982603832e-05   -3.3738455977189825e-05
-0.0001102862516382935   1.671468108232382e-05   -5.905851782908415e-05
-0.0001102862516382935   1.671468108232382e-05   -5.905851782908415e-05
-0.0001102862516382935   1.671468108232382e-05   -5.905851782908415e-05
-0.0001102862516382935   1.671468108232382e-05   -5.905851782908415e-05
-7.163193917631501e-05   1.5039470044827933e-05   4.360209651716444e-06
-7.163193917631501e-05   1.5039470044827933e-05   4.360209651716444e-06
-7.163193917631501e-05   1.5039470044827933e-05   4.360209651716444e-06
-7.163193917631501e-05   1.5039470044827933e-05   4.360209651716444e-06
-7.20050947683359e-05   1.7905773259718408e-05   -5.3996700053569695e-05
-7.20050947683359e-05   1.7905773259718408e-05   -5.3996700053569695e-05
-7.20050947683359e-05   1.7905773259718408e-05   -5.3996700053569695e-05
-7.20050947683359e-05   1.7905773259718408e-05   -5.3996700053569695e-05
-0.00011106934913519306   1.6170369735913845e-05   1.2151632672141523e-05
-0.00011106934913519306   1.6170369735913845e-05   1.2151632672141523e-05
-0.00011106934913519306   1.6170369735913845e-05   1.2151632672141523e-05
-0.00011106934913519306   1.6170369735913845e-05   1.2151632672141523e-05
-8.920135190937722e-05   1.6127516167456545e-05   -2.426931722981042e-05
-8.920135190937722e-05   1.6127516167456545e-05   -2.426931722981042e-05
-8.920135190937722e-05   1.6127516167456545e-05   -2.426931722981042e-05
-8.920135190937722e-05   1.6127516167456545e-05   -2.426931722981042e-05
-0.00011106934913519286   1.7905773259718415e-05   -5.295545793928691e-05
-0.00011106934913519286   1.7905773259718415e-05   -5.295545793928691e-05
-0.00011106934913519286   1.7905773259718415e-05   -5.295545793928691e-05
-0.00011106934913519286   1.7905773259718415e-05   -5.295545793928691e-05
-7.200509476833604e-05   1.617036973591379e-05   1.1110390557858563e-05
-7.200509476833604e-05   1.617036973591379e-05   1.1110390557858563e-05
-7.200509476833604e-05   1.617036973591379e-05   1.1110390557858563e-05
-7.200509476833604e-05   1.617036973591379e-05   1.1110390557858563e-05
-7.160055847508191e-05   2.039369799918496e-05   -3.988514808383022e-05
-7.160055847508191e-05   2.039369799918496e-05   -3.988514808383022e-05
-7.160055847508191e-05   2.039369799918496e-05   -3.988514808383022e-05
-7.160055847508191e-05   2.039369799918496e-05   -3.988514808383022e-05
-0.0001079995398692446   1.706774027478001e-05   2.27753955410835e-05
-0.0001079995398692446   1.706774027478001e-05   2.27753955410835e-05
-0.0001079995398692446   1.706774027478001e-05   2.27753955410835e-05
-0.0001079995398692446   1.706774027478001e-05   2.27753955410835e-05
-8.688742396920695e-05   1.7687410964747213e-05   -1.278326670629289e-05
-8.688742396920695e-05   1.7687410964747213e-05   -1.278326670629289e-05
-8.688742396920695e-05   1.7687410964747213e-05   -1.278326670629289e-05
-8.688742396920695e-05   1.7687410964747213e-05   -1.278326670629289e-05
-6.987013748204824e-05   5.112234174995039e-06   -7.592020905409137e-05
-6.987013748204824e-05   5.112234174995039e-06   -7.592020905409137e-05
-6.987013748204824e-05   5.112234174995039e-06   -7.592020905409137e-05
-6.987013748204824e-05   5.112234174995039e-06   -7.592020905409137e-05
-3.3098183929781054e-05   5.8318857837787695e-06   -1.420182883504241e-05
-3.3098183929781054e-05   5.8318857837787695e-06   -1.420182883504241e-05
-3.3098183929781054e-05   5.8318857837787695e-06   -1.420182883504241e-05
-3.3098183929781054e-05   5.8318857837787695e-06   -1.420182883504241e-05
-3.3893052559408664e-05   7.274466856912109e-06   -7.580744101416242e-05
-3.3893052559408664e-05   7.274466856912109e-06   -7.580744101416242e-05
-3.3893052559408664e-05   7.274466856912109e-06   -7.580744101416242e-05
-3.3893052559408664e-05   7.274466856912109e-06   -7.580744101416242e-05
-7.163193917631475e-05   8.136417132643644e-06   -1.342646681809094e-05
-7.163193917631475e-05   8.136417132643644e-06   -1.342646681809094e-05
-7.163193917631475e-05   8.136417132643644e-06   -1.342646681809094e-05
-7.163193917631475e-05   8.136417132643644e-06   -1.342646681809094e-05
-5.1976827514570436e-05   6.551858587677638e-06   -4.5234251127352075e-05
-5.1976827514570436e-05   6.551858587677638e-06   -4.5234251127352075e-05
-5.1976827514570436e-05   6.551858587677638e-06   -4.5234251127352075e-05
-5.1976827514570436e-05   6.551858587677638e-06   -4.5234251127352075e-05
-7.16319391763147e-05   7.274466856912089e-06   -7.632461117960112e-05
-7.16319391763147e-05   7.274466856912089e-06   -7.632461117960112e-05
-7.16319391763147e-05   7.274466856912089e-06   -7.632461117960112e-05
-7.16319391763147e-05   7.274466856912089e-06   -7.632461117960112e-05
-3.38930525594086e-05   8.136417132643644e-06   -1.290929665265185e-05
-3.38930525594086e-05   8.136417132643644e-06   -1.290929665265185e-05
-3.38930525594086e-05   8.136417132643644e-06   -1.290929665265185e-05
-3.38930525594086e-05   8.136417132643644e-06   -1.290929665265185e-05
-3.4146326252282515e-05   8.911541838226071e-06   -7.438810427028828e-05
-3.4146326252282515e-05   8.911541838226071e-06   -7.438810427028828e-05
-3.4146326252282515e-05   8.911541838226071e-06   -7.438810427028828e-05
-3.4146326252282515e-05   8.911541838226071e-06   -7.438810427028828e-05
-7.20050947683359e-05   1.0043510033994855e-05   -1.1969337660993641e-05
-7.20050947683359e-05   1.0043510033994855e-05   -1.1969337660993641e-05
-7.20050947683359e-05   1.0043510033994855e-05   -1.1969337660993641e-05
-7.20050947683359e-05   1.0043510033994855e-05   -1.1969337660993641e-05
-5.23876969422091e-05   8.313882960636761e-06   -4.362722446052351e-05
-5.23876969422091e-05   8.313882960636761e-06   -4.362722446052351e-05
-5.23876969422091e-05   8.313882960636761e-06   -4.362722446052351e-05
-5.23876969422091e-05   8.313882960636761e-06   -4.362722446052351e-05
-7.20050947683359e-05   8.911541838226047e-06   -7.506728518774947e-05
-7.20050947683359e-05   8.911541838226047e-06   -7.506728518774947e-05
-7.20050947683359e-05   8.911541838226047e-06   -7.506728518774947e-05
-7.20050947683359e-05   8.911541838226047e-06   -7.506728518774947e-05
-3.414632625228256e-05   1.0043510033994855e-05   -1.129015674353249e-05
-3.414632625228256e-05   1.0043510033994855e-05   -1.129015674353249e-05
-3.414632625228256e-05   1.0043510033994855e-05   -1.129015674353249e-05
-3.414632625228256e-05   1.0043510033994855e-05   -1.129015674353249e-05
-3.4067811995973706e-05   1.0368045874127081e-05   -7.362646507508766e-05
-3.4067811995973706e-05   1.0368045874127081e-05   -7.362646507508766e-05
-3.4067811995973706e-05   1.0368045874127081e-05   -7.362646507508766e-05
-3.4067811995973706e-05   1.0368045874127081e-05   -7.362646507508766e-05
-7.160055847508186e-05   1.2095088931787876e-05   -1.2108113444503723e-05
-7.160055847508186e-05   1.2095088931787876e-05   -1.2108113444503723e-05
-7.160055847508186e-05   1.2095088931787876e-05   -1.2108113444503723e-05
-7.160055847508186e-05   1.2095088931787876e-05   -1.2108113444503723e-05
-5.2701010853726455e-05   9.908692482204812e-06   -4.22955216103464e-05
-5.2701010853726455e-05   9.908692482204812e-06   -4.22955216103464e-05
-5.2701010853726455e-05   9.908692482204812e-06   -4.22955216103464e-05
-5.2701010853726455e-05   9.908692482204812e-06   -4.22955216103464e-05
-3.309818392978099e-05   -6.532899665073583e-07   -7.948562973307535e-05
-3.309818392978099e-05   -6.532899665073583e-07   -7.948562973307535e-05
-3.309818392978099e-05   -6.532899665073583e-07   -7.948562973307535e-05
-3.309818392978099e-05   -6.532899665073583e-07   -7.948562973307535e-05
3.210617948254394e-06   -1.7268159866308747e-07   -1.8682594915643138e-05
3.210617948254394e-06   -1.7268159866308747e-07   -1.8682594915643138e-05
3.210617948254394e-06   -1.7268159866308747e-07   -1.8682594915643138e-05
3.210617948254394e-06   -1.7268159866308747e-07   -1.8682594915643138e-05
3.0566645665050344e-06   1.2889295643061767e-06   -7.993037206618784e-05
3.0566645665050344e-06   1.2889295643061767e-06   -7.993037206618784e-05
3.0566645665050344e-06   1.2889295643061767e-06   -7.993037206618784e-05
3.0566645665050344e-06   1.2889295643061767e-06   -7.993037206618784e-05
-3.38930525594086e-05   1.9504116768653606e-06   -1.8744399457200548e-05
-3.38930525594086e-05   1.9504116768653606e-06   -1.8744399457200548e-05
-3.38930525594086e-05   1.9504116768653606e-06   -1.8744399457200548e-05
-3.38930525594086e-05   1.9504116768653606e-06   -1.8744399457200548e-05
-1.527277477807196e-05   6.472431225111868e-07   -4.8996294626815834e-05
-1.527277477807196e-05   6.472431225111868e-07   -4.8996294626815834e-05
-1.527277477807196e-05   6.472431225111868e-07   -4.8996294626815834e-05
-1.527277477807196e-05   6.472431225111868e-07   -4.8996294626815834e-05
-3.38930525594086e-05   1.288929564306174e-06   -8.032726133372333e-05
-3.38930525594086e-05   1.288929564306174e-06   -8.032726133372333e-05
-3.38930525594086e-05   1.288929564306174e-06   -8.032726133372333e-05
-3.38930525594086e-05   1.288929564306174e-06   -8.032726133372333e-05
3.0566645665050395e-06   1.9504116768653064e-06   -1.8347510189664962e-05
3.0566645665050395e-06   1.9504116768653064e-06   -1.8347510189664962e-05
3.0566645665050395e-06   1.9504116768653064e-06   -1.8347510189664962e-05
3.0566645665050395e-06   1.9504116768653064e-06   -1.8347510189664962e-05
2.8483639980757525e-06   2.998748257557925e-06   -8.009832271451466e-05
2.8483639980757525e-06   2.998748257557925e-06   -8.009832271451466e-05
2.8483639980757525e-06   2.998748257557925e-06   -8.009832271451466e-05
2.8483639980757525e-06   2.998748257557925e-06   -8.009832271451466e-05
-3.4146326252282454e-05   4.024693390715167e-06   -1.9056072710478658e-05
-3.4146326252282454e-05   4.024693390715167e-06   -1.9056072710478658e-05
-3.4146326252282454e-05   4.024693390715167e-06   -1.9056072710478658e-05
-3.4146326252282454e-05   4.024693390715167e-06   -1.9056072710478658e-05
-1.5562698069944847e-05   2.4467149527126434e-06   -4.908199928490653e-05
-1.5562698069944847e-05   2.4467149527126434e-06   -4.908199928490653e-05
-1.5562698069944847e-05   2.4467149527126434e-06   -4.908199928490653e-05
-1.5562698069944847e-05   2.4467149527126434e-06   -4.908199928490653e-05
-3.4146326252282454e-05   2.9987482575579294e-06   -8.071388979440906e-05
-3.4146326252282454e-05   2.9987482575579294e-06   -8.071388979440906e-05
-3.4146326252282454e-05   2.9987482575579294e-06   -8.071388979440906e-05
-3.4146326252282454e-05   2.9987482575579294e-06   -8.071388979440906e-05
2.8483639980757525e-06   4.024693390715167e-06   -1.8440505630584405e-05
2.8483639980757525e-06   4.024693390715167e-06   -1.8440505630584405e-05
2.8483639980757525e-06   4.024693390715167e-06   -1.8440505630584405e-05
2.8483639980757525e-06   4.024693390715167e-06   -1.8440505630584405e-05
2.4340581649773375e-06   4.9795483906451985e-06   -7.996009385377291e-05
2.4340581649773375e-06   4.9795483906451985e-06   -7.996009385377291e-05
2.4340581649773375e-06   4.9795483906451985e-06   -7.996009385377291e-05
2.4340581649773375e-06   4.9795483906451985e-06   -7.996009385377291e-05
-3.406781199597368e-05   6.186056232454983e-06   -1.9847548290607145e-05
-3.406781199597368e-05   6.186056232454983e-06   -1.9847548290607145e-05
-3.406781199597368e-05   6.186056232454983e-06   -1.9847548290607145e-05
-3.406781199597368e-05   6.186056232454983e-06   -1.9847548290607145e-05
-1.574021590311925e-05   4.295316773150271e-06   -4.925909810311498e-05
-1.574021590311925e-05   4.295316773150271e-06   -4.925909810311498e-05
-1.574021590311925e-05   4.295316773150271e-06   -4.925909810311498e-05
-1.574021590311925e-05   4.295316773150271e-06   -4.925909810311498e-05
3.210617948254394e-06   -5.7969721387491355e-06   -7.334213737446988e-05
3.210617948254394e-06   -5.7969721387491355e-06   -7.334213737446988e-05
3.210617948254394e-06   -5.7969721387491355e-06   -7.334213737446988e-05
3.210617948254394e-06   -5.7969721387491355e-06   -7.334213737446988e-05
4.0627589835619924e-05   -5.960198253493433e-06   -1.1078453231040485e-05
4.0627589835619924e-05   -5.960198253493433e-06   -1.1078453231040485e-05
4.0627589835619924e-05   -5.960198253493433e-06   -1.1078453231040485e-05
4.0627589835619924e-05   -5.960198253493433e-06   -1.1078453231040485e-05
4.09550994115121e-05   -4.37201926096315e-06   -7.43680313448349e-05
4.09550994115121e-05   -4.37201926096315e-06   -7.43680313448349e-05
4.09550994115121e-05   -4.37201926096315e-06   -7.43680313448349e-05
4.09550994115121e-05   -4.37201926096315e-06   -7.43680313448349e-05
3.0566645665050395e-06   -4.031835348262936e-06   -1.1408083617443166e-05
3.0566645665050395e-06   -4.031835348262936e-06   -1.1408083617443166e-05
3.0566645665050395e-06   -4.031835348262936e-06   -1.1408083617443166e-05
3.0566645665050395e-06   -4.031835348262936e-06   -1.1408083617443166e-05
2.1681774494199437e-05   -4.825284603816421e-06   -4.1973863943601805e-05
2.1681774494199437e-05   -4.825284603816421e-06   -4.1973863943601805e-05
2.1681774494199437e-05   -4.825284603816421e-06   -4.1973863943601805e-05
2.1681774494199437e-05   -4.825284603816421e-06   -4.1973863943601805e-05
3.0566645665050344e-06   -4.3720192609631466e-06   -7.457214169245499e-05
3.0566645665050344e-06   -4.3720192609631466e-06   -7.457214169245499e-05
3.0566645665050344e-06   -4.3720192609631466e-06   -7.457214169245499e-05
3.0566645665050344e-06   -4.3720192609631466e-06   -7.457214169245499e-05
4.09550994115121e-05   -4.03183534826299e-06   -1.120397326982291e-05
4.09550994115121e-05   -4.03183534826299e-06   -1.120397326982291e-05
4.09550994115121e-05   -4.03183534826299e-06   -1.120397326982291e-05
4.09550994115121e-05   -4.03183534826299e-06   -1.120397326982291e-05
4.0746854601699546e-05   -2.753706266270977e-06   -7.576265583721574e-05
4.0746854601699546e-05   -2.753706266270977e-06   -7.576265583721574e-05
4.0746854601699546e-05   -2.753706266270977e-06   -7.576265583721574e-05
4.0746854601699546e-05   -2.753706266270977e-06   -7.576265583721574e-05
2.8483639980757525e-06   -2.142485190113029e-06   -1.2965237476870785e-05
2.8483639980757525e-06   -2.142485190113029e-06   -1.2965237476870785e-05
2.8483639980757525e-06   -2.142485190113029e-06   -1.2965237476870785e-05
2.8483639980757525e-06   -2.142485190113029e-06   -1.2965237476870785e-05
2.1444616952185344e-05   -3.2851172400371025e-06   -4.3273413170432306e-05
2.1444616952185344e-05   -3.2851172400371025e-06   -4.3273413170432306e-05
2.1444616952185344e-05   -3.2851172400371025e-06   -4.3273413170432306e-05
2.1444616952185344e-05   -3.2851172400371025e-06   -4.3273413170432306e-05
2.8483639980757525e-06   -2.7537062662709507e-06   -7.612938848291035e-05
2.8483639980757525e-06   -2.7537062662709507e-06   -7.612938848291035e-05
2.8483639980757525e-06   -2.7537062662709507e-06   -7.612938848291035e-05
2.8483639980757525e-06   -2.7537062662709507e-06   -7.612938848291035e-05
4.0746854601699546e-05   -2.142485190113029e-06   -1.259850483117616e-05
4.0746854601699546e-05   -2.142485190113029e-06   -1.259850483117616e-05
4.0746854601699546e-05   -2.142485190113029e-06   -1.259850483117616e-05
4.0746854601699546e-05   -2.142485190113029e-06   -1.259850483117616e-05
3.9550922983500067e-05   -5.785777573012908e-07   -7.58961461566277e-05
3.9550922983500067e-05   -5.785777573012908e-07   -7.58961461566277e-05
3.9550922983500067e-05   -5.785777573012908e-07   -7.58961461566277e-05
3.9550922983500067e-05   -5.785777573012908e-07   -7.58961461566277e-05
2.4340581649773367e-06   1.94937071884354e-07   -1.4498813689934654e-05
2.4340581649773367e-06   1.94937071884354e-07   -1.4498813689934654e-05
2.4340581649773367e-06   1.94937071884354e-07   -1.4498813689934654e-05
2.4340581649773367e-06   1.94937071884354e-07   -1.4498813689934654e-05
2.120483300173009e-05   -1.486188714723243e-06   -4.477476294589129e-05
2.120483300173009e-05   -1.486188714723243e-06   -4.477476294589129e-05
2.120483300173009e-05   -1.486188714723243e-06   -4.477476294589129e-05
2.120483300173009e-05   -1.486188714723243e-06   -4.477476294589129e-05
4.0627589835619924e-05   -1.4689184772362874e-05   -4.438082414653649e-05
4.0627589835619924e-05   -1.4689184772362874e-05   -4.438082414653649e-05
4.0627589835619924e-05   -1.4689184772362874e-05   -4.438082414653649e-05
4.0627589835619924e-05   -1.4689184772362874e-05   -4.438082414653649e-05
7.756557170714291e-05   -1.1081494925193626e-05   1.934709288097002e-05
7.756557170714291e-05   -1.1081494925193626e-05   1.934709288097002e-05
7.756557170714291e-05   -1.1081494925193626e-05   1.934709288097002e-05
7.756557170714291e-05   -1.1081494925193626e-05   1.934709288097002e-05
8.0501331812543e-05   -1.2502958052629698e-05   -5.3964442226323635e-05
8.0501331812543e-05   -1.2502958052629698e-05   -5.3964442226323635e-05
8.0501331812543e-05   -1.2502958052629698e-05   -5.3964442226323635e-05
8.0501331812543e-05   -1.2502958052629698e-05   -5.3964442226323635e-05
4.095509941151218e-05   -1.0056615515968042e-05   1.0478139586730755e-05
4.095509941151218e-05   -1.0056615515968042e-05   1.0478139586730755e-05
4.095509941151218e-05   -1.0056615515968042e-05   1.0478139586730755e-05
4.095509941151218e-05   -1.0056615515968042e-05   1.0478139586730755e-05
5.7126337048318e-05   -1.2032075990753548e-05   -1.5288646856407624e-05
5.7126337048318e-05   -1.2032075990753548e-05   -1.5288646856407624e-05
5.7126337048318e-05   -1.2032075990753548e-05   -1.5288646856407624e-05
5.7126337048318e-05   -1.2032075990753548e-05   -1.5288646856407624e-05
4.095509941151208e-05   -1.2502958052629683e-05   -5.5432247748320415e-05
4.095509941151208e-05   -1.2502958052629683e-05   -5.5432247748320415e-05
4.095509941151208e-05   -1.2502958052629683e-05   -5.5432247748320415e-05
4.095509941151208e-05   -1.2502958052629683e-05   -5.5432247748320415e-05
8.050133181254286e-05   -1.0056615515967988e-05   1.1945945108727846e-05
8.050133181254286e-05   -1.0056615515967988e-05   1.1945945108727846e-05
8.050133181254286e-05   -1.0056615515967988e-05   1.1945945108727846e-05
8.050133181254286e-05   -1.0056615515967988e-05   1.1945945108727846e-05
8.018955808054739e-05   -1.1426591350143829e-05   -5.869243293222893e-05
8.018955808054739e-05   -1.1426591350143829e-05   -5.869243293222893e-05
8.018955808054739e-05   -1.1426591350143829e-05   -5.869243293222893e-05
8.018955808054739e-05   -1.1426591350143829e-05   -5.869243293222893e-05
4.0746854601699546e-05   -8.969246853483294e-06   5.570999501187994e-06
4.0746854601699546e-05   -8.969246853483294e-06   5.570999501187994e-06
4.0746854601699546e-05   -8.969246853483294e-06   5.570999501187994e-06
4.0746854601699546e-05   -8.969246853483294e-06   5.570999501187994e-06
5.9113195897255626e-05   -1.0628448885826615e-05   -2.404404810533287e-05
5.9113195897255626e-05   -1.0628448885826615e-05   -2.404404810533287e-05
5.9113195897255626e-05   -1.0628448885826615e-05   -2.404404810533287e-05
5.9113195897255626e-05   -1.0628448885826615e-05   -2.404404810533287e-05
4.0746854601699465e-05   -1.1426591350143822e-05   -6.016683963022527e-05
4.0746854601699465e-05   -1.1426591350143822e-05   -6.016683963022527e-05
4.0746854601699465e-05   -1.1426591350143822e-05   -6.016683963022527e-05
4.0746854601699465e-05   -1.1426591350143822e-05   -6.016683963022527e-05
8.018955808054739e-05   -8.96924685348324e-06   7.045406199184163e-06
8.018955808054739e-05   -8.96924685348324e-06   7.045406199184163e-06
8.018955808054739e-05   -8.96924685348324e-06   7.045406199184163e-06
8.018955808054739e-05   -8.96924685348324e-06   7.045406199184163e-06
7.969248951605034e-05   -8.886663210728085e-06   -6.831840942032641e-05
7.969248951605034e-05   -8.886663210728085e-06   -6.831840942032641e-05
7.969248951605034e-05   -8.886663210728085e-06   -6.831840942032641e-05
7.969248951605034e-05   -8.886663210728085e-06   -6.831840942032641e-05
3.9550922983500094e-05   -6.628952466712439e-06   -2.7704249791519423e-06
3.9550922983500094e-05   -6.628952466712439e-06   -2.7704249791519423e-06
3.9550922983500094e-05   -6.628952466712439e-06   -2.7704249791519423e-06
3.9550922983500094e-05   -6.628952466712439e-06   -2.7704249791519423e-06
5.741304979468769e-05   -9.153429149444197e-06   -3.1025950321492135e-05
5.741304979468769e-05   -9.153429149444197e-06   -3.1025950321492135e-05
5.741304979468769e-05   -9.153429149444197e-06   -3.1025950321492135e-05
5.741304979468769e-05   -9.153429149444197e-06   -3.1025950321492135e-05
-8.695835534423927e-05   1.2533449570726082e-05   -5.9982472986640315e-05
-8.695835534423927e-05   1.2533449570726082e-05   -5.9982472986640315e-05
-8.695835534423927e-05   1.2533449570726082e-05   -5.9982472986640315e-05
-8.695835534423927e-05   1.2533449570726082e-05   -5.9982472986640315e-05
-5.699646035832695e-05   9.581361589025583e-06   -1.1817234132473363e-05
-5.699646035832695e-05   9.581361589025583e-06   -1.1817234132473363e-05
-5.699646035832695e-05   9.581361589025583e-06   -1.1817234132473363e-05
-5.699646035832695e-05   9.581361589025583e-06   -1.1817234132473363e-05
-5.727456039050736e-05   1.5039470044827933e-05   -4.980124693856273e-05
-5.727456039050736e-05   1.5039470044827933e-05   -4.980124693856273e-05
-5.727456039050736e-05   1.5039470044827933e-05   -4.980124693856273e-05
-5.727456039050736e-05   1.5039470044827933e-05   -4.980124693856273e-05
-8.564819204124372e-05   1.1588242182651088e-05   -4.4112413669604444e-07
-8.564819204124372e-05   1.1588242182651088e-05   -4.4112413669604444e-07
-8.564819204124372e-05   1.1588242182651088e-05   -4.4112413669604444e-07
-8.564819204124372e-05   1.1588242182651088e-05   -4.4112413669604444e-07
-6.868660575225383e-05   1.2743447861398314e-05   -2.9403558025594486e-05
-6.868660575225383e-05   1.2743447861398314e-05   -2.9403558025594486e-05
-6.868660575225383e-05   1.2743447861398314e-05   -2.9403558025594486e-05
-6.868660575225383e-05   1.2743447861398314e-05   -2.9403558025594486e-05
-8.564819204124374e-05   1.503947004482793e-05   -4.773051022125661e-05
-8.564819204124374e-05   1.503947004482793e-05   -4.773051022125661e-05
-8.564819204124374e-05   1.503947004482793e-05   -4.773051022125661e-05
-8.564819204124374e-05   1.503947004482793e-05   -4.773051022125661e-05
-5.727456039050736e-05   1.1588242182651088e-05   -2.5118608540021677e-06
-5.727456039050736e-05   1.1588242182651088e-05   -2.5118608540021677e-06
-5.727456039050736e-05   1.1588242182651088e-05   -2.5118608540021677e-06
-5.727456039050736e-05   1.1588242182651088e-05   -2.5118608540021677e-06
-5.721926017091203e-05   1.617036973591379e-05   -4.260383965416141e-05
-5.721926017091203e-05   1.617036973591379e-05   -4.260383965416141e-05
-5.721926017091203e-05   1.617036973591379e-05   -4.260383965416141e-05
-5.721926017091203e-05   1.617036973591379e-05   -4.260383965416141e-05
-8.436971053684367e-05   1.2469558473273247e-05   4.8673977133090966e-06
-8.436971053684367e-05   1.2469558473273247e-05   4.8673977133090966e-06
-8.436971053684367e-05   1.2469558473273247e-05   4.8673977133090966e-06
-8.436971053684367e-05   1.2469558473273247e-05   4.8673977133090966e-06
-6.928443385970113e-05   1.390688912301485e-05   -2.113712847177338e-05
-6.928443385970113e-05   1.390688912301485e-05   -2.113712847177338e-05
-6.928443385970113e-05   1.390688912301485e-05   -2.113712847177338e-05
-6.928443385970113e-05   1.390688912301485e-05   -2.113712847177338e-05
-8.436971053684365e-05   1.6170369735913814e-05   -4.0383352896576906e-05
-8.436971053684365e-05   1.6170369735913814e-05   -4.0383352896576906e-05
-8.436971053684365e-05   1.6170369735913814e-05   -4.0383352896576906e-05
-8.436971053684365e-05   1.6170369735913814e-05   -4.0383352896576906e-05
-5.721926017091211e-05   1.2469558473273247e-05   2.6469109557250797e-06
-5.721926017091211e-05   1.2469558473273247e-05   2.6469109557250797e-06
-5.721926017091211e-05   1.2469558473273247e-05   2.6469109557250797e-06
-5.721926017091211e-05   1.2469558473273247e-05   2.6469109557250797e-06
-5.727958485360549e-05   1.706774027478001e-05   -3.2521630174853254e-05
-5.727958485360549e-05   1.706774027478001e-05   -3.2521630174853254e-05
-5.727958485360549e-05   1.706774027478001e-05   -3.2521630174853254e-05
-5.727958485360549e-05   1.706774027478001e-05   -3.2521630174853254e-05
-8.269826528781282e-05   1.3335653644816936e-05   1.208208919346984e-05
-8.269826528781282e-05   1.3335653644816936e-05   1.208208919346984e-05
-8.269826528781282e-05   1.3335653644816936e-05   1.208208919346984e-05
-8.269826528781282e-05   1.3335653644816936e-05   1.208208919346984e-05
-6.770975434564121e-05   1.451800908016331e-05   -1.3608175638022974e-05
-6.770975434564121e-05   1.451800908016331e-05   -1.3608175638022974e-05
-6.770975434564121e-05   1.451800908016331e-05   -1.3608175638022974e-05
-6.770975434564121e-05   1.451800908016331e-05   -1.3608175638022974e-05
-5.699646035832695e-05   5.831885783778731e-06   -6.940167532332753e-05
-5.699646035832695e-05   5.831885783778731e-06   -6.940167532332753e-05
-5.699646035832695e-05   5.831885783778731e-06   -6.940167532332753e-05
-5.699646035832695e-05   5.831885783778731e-06   -6.940167532332753e-05
-2.899536473919397e-05   4.775848544350718e-06   -2.3366804968429444e-05
-2.899536473919397e-05   4.775848544350718e-06   -2.3366804968429444e-05
-2.899536473919397e-05   4.775848544350718e-06   -2.3366804968429444e-05
-2.899536473919397e-05   4.775848544350718e-06   -2.3366804968429444e-05
-2.934971821076883e-05   8.136417132643644e-06   -6.842023284351842e-05
-2.934971821076883e-05   8.136417132643644e-06   -6.842023284351842e-05
-2.934971821076883e-05   8.136417132643644e-06   -6.842023284351842e-05
-2.934971821076883e-05   8.136417132643644e-06   -6.842023284351842e-05
-5.7274560390507375e-05   6.74923474072958e-06   -2.1046519775472488e-05
-5.7274560390507375e-05   6.74923474072958e-06   -2.1046519775472488e-05
-5.7274560390507375e-05   6.74923474072958e-06   -2.1046519775472488e-05
-5.7274560390507375e-05   6.74923474072958e-06   -2.1046519775472488e-05
-4.2784855246070364e-05   6.723592306725622e-06   -4.5180642889131766e-05
-4.2784855246070364e-05   6.723592306725622e-06   -4.5180642889131766e-05
-4.2784855246070364e-05   6.723592306725622e-06   -4.5180642889131766e-05
-4.2784855246070364e-05   6.723592306725622e-06   -4.5180642889131766e-05
-5.7274560390507335e-05   8.136417132643662e-06   -6.758792340836982e-05
-5.7274560390507335e-05   8.136417132643662e-06   -6.758792340836982e-05
-5.7274560390507335e-05   8.136417132643662e-06   -6.758792340836982e-05
-5.7274560390507335e-05   8.136417132643662e-06   -6.758792340836982e-05
-2.9349718210768886e-05   6.74923474072958e-06   -2.1878829210620886e-05
-2.9349718210768886e-05   6.74923474072958e-06   -2.1878829210620886e-05
-2.9349718210768886e-05   6.74923474072958e-06   -2.1878829210620886e-05
-2.9349718210768886e-05   6.74923474072958e-06   -2.1878829210620886e-05
-2.958026232344626e-05   1.0043510033994909e-05   -6.660853858531259e-05
-2.958026232344626e-05   1.0043510033994909e-05   -6.660853858531259e-05
-2.958026232344626e-05   1.0043510033994909e-05   -6.660853858531259e-05
-2.958026232344626e-05   1.0043510033994909e-05   -6.660853858531259e-05
-5.721926017091203e-05   8.50189218016325e-06   -1.961857146057065e-05
-5.721926017091203e-05   8.50189218016325e-06   -1.961857146057065e-05
-5.721926017091203e-05   8.50189218016325e-06   -1.961857146057065e-05
-5.721926017091203e-05   8.50189218016325e-06   -1.961857146057065e-05
-4.286603463531356e-05   8.346737820135938e-06   -4.344752140388478e-05
-4.286603463531356e-05   8.346737820135938e-06   -4.344752140388478e-05
-4.286603463531356e-05   8.346737820135938e-06   -4.344752140388478e-05
-4.286603463531356e-05   8.346737820135938e-06   -4.344752140388478e-05
-5.721926017091203e-05   1.0043510033994892e-05   -6.568356787301361e-05
-5.721926017091203e-05   1.0043510033994892e-05   -6.568356787301361e-05
-5.721926017091203e-05   1.0043510033994892e-05   -6.568356787301361e-05
-5.721926017091203e-05   1.0043510033994892e-05   -6.568356787301361e-05
-2.958026232344633e-05   8.501892180163358e-06   -2.0543542172869327e-05
-2.958026232344633e-05   8.501892180163358e-06   -2.0543542172869327e-05
-2.958026232344633e-05   8.501892180163358e-06   -2.0543542172869327e-05
-2.958026232344633e-05   8.501892180163358e-06   -2.0543542172869327e-05
-2.9877773756831826e-05   1.209508893178793e-05   -6.644718598287821e-05
-2.9877773756831826e-05   1.209508893178793e-05   -6.644718598287821e-05
-2.9877773756831826e-05   1.209508893178793e-05   -6.644718598287821e-05
-2.9877773756831826e-05   1.209508893178793e-05   -6.644718598287821e-05
-5.727958485360544e-05   1.036571983665331e-05   -1.9739879364508303e-05
-5.727958485360544e-05   1.036571983665331e-05   -1.9739879364508303e-05
-5.727958485360544e-05   1.036571983665331e-05   -1.9739879364508303e-05
-5.727958485360544e-05   1.036571983665331e-05   -1.9739879364508303e-05
-4.337608545391612e-05   9.95397464146079e-06   -4.266533124687425e-05
-4.337608545391612e-05   9.95397464146079e-06   -4.266533124687425e-05
-4.337608545391612e-05   9.95397464146079e-06   -4.266533124687425e-05
-4.337608545391612e-05   9.95397464146079e-06   -4.266533124687425e-05
-2.8995364739193915e-05   -1.726815986631038e-07   -7.480442876829172e-05
-2.8995364739193915e-05   -1.726815986631038e-07   -7.480442876829172e-05
-2.8995364739193915e-05   -1.726815986631038e-07   -7.480442876829172e-05
-2.8995364739193915e-05   -1.726815986631038e-07   -7.480442876829172e-05
-1.3098513289908562e-06   2.539306507786353e-07   -2.8405939068288256e-05
-1.3098513289908562e-06   2.539306507786353e-07   -2.8405939068288256e-05
-1.3098513289908562e-06   2.539306507786353e-07   -2.8405939068288256e-05
-1.3098513289908562e-06   2.539306507786353e-07   -2.8405939068288256e-05
-1.5944487310370113e-06   1.9504116768653606e-06   -7.410800808050553e-05
-1.5944487310370113e-06   1.9504116768653606e-06   -7.410800808050553e-05
-1.5944487310370113e-06   1.9504116768653606e-06   -7.410800808050553e-05
-1.5944487310370113e-06   1.9504116768653606e-06   -7.410800808050553e-05
-2.934971821076879e-05   2.1959576228011268e-06   -2.7996553181847247e-05
-2.934971821076879e-05   2.1959576228011268e-06   -2.7996553181847247e-05
-2.934971821076879e-05   2.1959576228011268e-06   -2.7996553181847247e-05
-2.934971821076879e-05   2.1959576228011268e-06   -2.7996553181847247e-05
-1.5226464207610317e-05   1.2790974802974605e-06   -5.0985193768276e-05
-1.5226464207610317e-05   1.2790974802974605e-06   -5.0985193768276e-05
-1.5226464207610317e-05   1.2790974802974605e-06   -5.0985193768276e-05
-1.5226464207610317e-05   1.2790974802974605e-06   -5.0985193768276e-05
-2.934971821076883e-05   1.9504116768653416e-06   -7.4255335648067e-05
-2.934971821076883e-05   1.9504116768653416e-06   -7.4255335648067e-05
-2.934971821076883e-05   1.9504116768653416e-06   -7.4255335648067e-05
-2.934971821076883e-05   1.9504116768653416e-06   -7.4255335648067e-05
-1.5944487310370113e-06   2.1959576228010183e-06   -2.7849225614285836e-05
-1.5944487310370113e-06   2.1959576228010183e-06   -2.7849225614285836e-05
-1.5944487310370113e-06   2.1959576228010183e-06   -2.7849225614285836e-05
-1.5944487310370113e-06   2.1959576228010183e-06   -2.7849225614285836e-05
-1.800854297867037e-06   4.024693390715167e-06   -7.430998222697309e-05
-1.800854297867037e-06   4.024693390715167e-06   -7.430998222697309e-05
-1.800854297867037e-06   4.024693390715167e-06   -7.430998222697309e-05
-1.800854297867037e-06   4.024693390715167e-06   -7.430998222697309e-05
-2.9580262323446265e-05   4.132147266191436e-06   -2.8075441176293514e-05
-2.9580262323446265e-05   4.132147266191436e-06   -2.8075441176293514e-05
-2.9580262323446265e-05   4.132147266191436e-06   -2.8075441176293514e-05
-2.9580262323446265e-05   4.132147266191436e-06   -2.8075441176293514e-05
-1.5593153481374048e-05   2.9916449043020923e-06   -5.070298782928025e-05
-1.5593153481374048e-05   2.9916449043020923e-06   -5.070298782928025e-05
-1.5593153481374048e-05   2.9916449043020923e-06   -5.070298782928025e-05
-1.5593153481374048e-05   2.9916449043020923e-06   -5.070298782928025e-05
-2.958026232344626e-05   4.02469339071518e-06   -7.437445455225891e-05
-2.958026232344626e-05   4.02469339071518e-06   -7.437445455225891e-05
-2.958026232344626e-05   4.02469339071518e-06   -7.437445455225891e-05
-2.958026232344626e-05   4.02469339071518e-06   -7.437445455225891e-05
-1.800854297867037e-06   4.132147266191545e-06   -2.8010968851007476e-05
-1.800854297867037e-06   4.132147266191545e-06   -2.8010968851007476e-05
-1.800854297867037e-06   4.132147266191545e-06   -2.8010968851007476e-05
-1.800854297867037e-06   4.132147266191545e-06   -2.8010968851007476e-05
-2.123914645265968e-06   6.186056232454929e-06   -7.52664400631078e-05
-2.123914645265968e-06   6.186056232454929e-06   -7.52664400631078e-05
-2.123914645265968e-06   6.186056232454929e-06   -7.52664400631078e-05
-2.123914645265968e-06   6.186056232454929e-06   -7.52664400631078e-05
-2.987777375683185e-05   6.11340056657229e-06   -2.8966414810968594e-05
-2.987777375683185e-05   6.11340056657229e-06   -2.8966414810968594e-05
-2.987777375683185e-05   6.11340056657229e-06   -2.8966414810968594e-05
-2.987777375683185e-05   6.11340056657229e-06   -2.8966414810968594e-05
-1.5982580388526404e-05   4.724531064128983e-06   -5.1291748723344426e-05
-1.5982580388526404e-05   4.724531064128983e-06   -5.1291748723344426e-05
-1.5982580388526404e-05   4.724531064128983e-06   -5.1291748723344426e-05
-1.5982580388526404e-05   4.724531064128983e-06   -5.1291748723344426e-05
-1.3098513289908596e-06   -5.960198253493432e-06   -6.684638406517746e-05
-1.3098513289908596e-06   -5.960198253493432e-06   -6.684638406517746e-05
-1.3098513289908596e-06   -5.960198253493432e-06   -6.684638406517746e-05
-1.3098513289908596e-06   -5.960198253493432e-06   -6.684638406517746e-05
2.6239534405971885e-05   -3.9993528657833325e-06   -1.9754233940946938e-05
2.6239534405971885e-05   -3.9993528657833325e-06   -1.9754233940946938e-05
2.6239534405971885e-05   -3.9993528657833325e-06   -1.9754233940946938e-05
2.6239534405971885e-05   -3.9993528657833325e-06   -1.9754233940946938e-05
2.6217229226943765e-05   -4.03183534826299e-06   -6.608142721674091e-05
2.6217229226943765e-05   -4.03183534826299e-06   -6.608142721674091e-05
2.6217229226943765e-05   -4.03183534826299e-06   -6.608142721674091e-05
2.6217229226943765e-05   -4.03183534826299e-06   -6.608142721674091e-05
-1.5944487310370115e-06   -2.2199115290251394e-06   -2.0815784911649e-05
-1.5944487310370115e-06   -2.2199115290251394e-06   -2.0815784911649e-05
-1.5944487310370115e-06   -2.2199115290251394e-06   -2.0815784911649e-05
-1.5944487310370115e-06   -2.2199115290251394e-06   -2.0815784911649e-05
1.229333624211341e-05   -3.913128574783661e-06   -4.294616297277788e-05
1.229333624211341e-05   -3.913128574783661e-06   -4.294616297277788e-05
1.229333624211341e-05   -3.913128574783661e-06   -4.294616297277788e-05
1.229333624211341e-05   -3.913128574783661e-06   -4.294616297277788e-05
-1.5944487310370113e-06   -4.031835348262975e-06   -6.716858150828363e-05
-1.5944487310370113e-06   -4.031835348262975e-06   -6.716858150828363e-05
-1.5944487310370113e-06   -4.031835348262975e-06   -6.716858150828363e-05
-1.5944487310370113e-06   -4.031835348262975e-06   -6.716858150828363e-05
2.6217229226943806e-05   -2.219911529025031e-06   -1.9728630620106317e-05
2.6217229226943806e-05   -2.219911529025031e-06   -1.9728630620106317e-05
2.6217229226943806e-05   -2.219911529025031e-06   -1.9728630620106317e-05
2.6217229226943806e-05   -2.219911529025031e-06   -1.9728630620106317e-05
2.633804564405164e-05   -2.142485190113029e-06   -6.783170894956157e-05
2.633804564405164e-05   -2.142485190113029e-06   -6.783170894956157e-05
2.633804564405164e-05   -2.142485190113029e-06   -6.783170894956157e-05
2.633804564405164e-05   -2.142485190113029e-06   -6.783170894956157e-05
-1.800854297867041e-06   -4.7080998394973157e-07   -2.193654750339516e-05
-1.800854297867041e-06   -4.7080998394973157e-07   -2.193654750339516e-05
-1.800854297867041e-06   -4.7080998394973157e-07   -2.193654750339516e-05
-1.800854297867041e-06   -4.7080998394973157e-07   -2.193654750339516e-05
1.1914683703898709e-05   -2.370003268562307e-06   -4.3656261535570493e-05
1.1914683703898709e-05   -2.370003268562307e-06   -4.3656261535570493e-05
1.1914683703898709e-05   -2.370003268562307e-06   -4.3656261535570493e-05
1.1914683703898709e-05   -2.370003268562307e-06   -4.3656261535570493e-05
-1.800854297867037e-06   -2.1424851901130146e-06   -6.883471407325957e-05
-1.800854297867037e-06   -2.1424851901130146e-06   -6.883471407325957e-05
-1.800854297867037e-06   -2.1424851901130146e-06   -6.883471407325957e-05
-1.800854297867037e-06   -2.1424851901130146e-06   -6.883471407325957e-05
2.6338045644051694e-05   -4.7080998394962315e-07   -2.0933542379696817e-05
2.6338045644051694e-05   -4.7080998394962315e-07   -2.0933542379696817e-05
2.6338045644051694e-05   -4.7080998394962315e-07   -2.0933542379696817e-05
2.6338045644051694e-05   -4.7080998394962315e-07   -2.0933542379696817e-05
2.613335952643788e-05   1.94937071884354e-07   -6.981364073872217e-05
2.613335952643788e-05   1.94937071884354e-07   -6.981364073872217e-05
2.613335952643788e-05   1.94937071884354e-07   -6.981364073872217e-05
2.613335952643788e-05   1.94937071884354e-07   -6.981364073872217e-05
-2.1239146452659702e-06   1.574886119882937e-06   -2.354615321468177e-05
-2.1239146452659702e-06   1.574886119882937e-06   -2.354615321468177e-05
-2.1239146452659702e-06   1.574886119882937e-06   -2.354615321468177e-05
-2.1239146452659702e-06   1.574886119882937e-06   -2.354615321468177e-05
1.1780629232677067e-05   -7.183702203092997e-07   -4.534443920713773e-05
1.1780629232677067e-05   -7.183702203092997e-07   -4.534443920713773e-05
1.1780629232677067e-05   -7.183702203092997e-07   -4.534443920713773e-05
1.1780629232677067e-05   -7.183702203092997e-07   -4.534443920713773e-05
2.623953440597183e-05   -1.1081494925193643e-05   -3.740894462884233e-05
2.623953440597183e-05   -1.1081494925193643e-05   -3.740894462884233e-05
2.623953440597183e-05   -1.1081494925193643e-05   -3.740894462884233e-05
2.623953440597183e-05   -1.1081494925193643e-05   -3.740894462884233e-05
5.204998846413601e-05   -7.257726285489095e-06   7.902739985254123e-06
5.204998846413601e-05   -7.257726285489095e-06   7.902739985254123e-06
5.204998846413601e-05   -7.257726285489095e-06   7.902739985254123e-06
5.204998846413601e-05   -7.257726285489095e-06   7.902739985254123e-06
5.3797483153470615e-05   -1.0056615515967988e-05   -4.210535554710053e-05
5.3797483153470615e-05   -1.0056615515967988e-05   -4.210535554710053e-05
5.3797483153470615e-05   -1.0056615515967988e-05   -4.210535554710053e-05
5.3797483153470615e-05   -1.0056615515967988e-05   -4.210535554710053e-05
2.6217229226943765e-05   -6.233350827490451e-06   1.5677755173577228e-06
2.6217229226943765e-05   -6.233350827490451e-06   1.5677755173577228e-06
2.6217229226943765e-05   -6.233350827490451e-06   1.5677755173577228e-06
2.6217229226943765e-05   -6.233350827490451e-06   1.5677755173577228e-06
3.7884510268711655e-05   -8.554957344102782e-06   -1.6484728975621444e-05
3.7884510268711655e-05   -8.554957344102782e-06   -1.6484728975621444e-05
3.7884510268711655e-05   -8.554957344102782e-06   -1.6484728975621444e-05
3.7884510268711655e-05   -8.554957344102782e-06   -1.6484728975621444e-05
2.621722922694375e-05   -1.005661551596799e-05   -4.439931436018695e-05
2.621722922694375e-05   -1.005661551596799e-05   -4.439931436018695e-05
2.621722922694375e-05   -1.005661551596799e-05   -4.439931436018695e-05
2.621722922694375e-05   -1.005661551596799e-05   -4.439931436018695e-05
5.3797483153470615e-05   -6.233350827490451e-06   3.861734330444185e-06
5.3797483153470615e-05   -6.233350827490451e-06   3.861734330444185e-06
5.3797483153470615e-05   -6.233350827490451e-06   3.861734330444185e-06
5.3797483153470615e-05   -6.233350827490451e-06   3.861734330444185e-06
5.5139261258332705e-05   -8.96924685348324e-06   -4.749282952976493e-05
5.5139261258332705e-05   -8.96924685348324e-06   -4.749282952976493e-05
5.5139261258332705e-05   -8.96924685348324e-06   -4.749282952976493e-05
5.5139261258332705e-05   -8.96924685348324e-06   -4.749282952976493e-05
2.6338045644051602e-05   -5.3536217077621365e-06   -1.6601785933958307e-06
2.6338045644051602e-05   -5.3536217077621365e-06   -1.6601785933958307e-06
2.6338045644051602e-05   -5.3536217077621365e-06   -1.6601785933958307e-06
2.6338045644051602e-05   -5.3536217077621365e-06   -1.6601785933958307e-06
3.9167347932772586e-05   -7.893923520858447e-06   -2.1518167986739637e-05
3.9167347932772586e-05   -7.893923520858447e-06   -2.1518167986739637e-05
3.9167347932772586e-05   -7.893923520858447e-06   -2.1518167986739637e-05
3.9167347932772586e-05   -7.893923520858447e-06   -2.1518167986739637e-05
2.633804564405164e-05   -8.96924685348323e-06   -4.966220461719752e-05
2.633804564405164e-05   -8.96924685348323e-06   -4.966220461719752e-05
2.633804564405164e-05   -8.96924685348323e-06   -4.966220461719752e-05
2.633804564405164e-05   -8.96924685348323e-06   -4.966220461719752e-05
5.5139261258332624e-05   -5.353621707762245e-06   5.091964940371783e-07
5.5139261258332624e-05   -5.353621707762245e-06   5.091964940371783e-07
5.5139261258332624e-05   -5.353621707762245e-06   5.091964940371783e-07
5.5139261258332624e-05   -5.353621707762245e-06   5.091964940371783e-07
5.656794323754489e-05   -6.628952466712385e-06   -5.6656053281551596e-05
5.656794323754489e-05   -6.628952466712385e-06   -5.6656053281551596e-05
5.656794323754489e-05   -6.628952466712385e-06   -5.6656053281551596e-05
5.656794323754489e-05   -6.628952466712385e-06   -5.6656053281551596e-05
2.613335952643777e-05   -3.473439726880273e-06   -7.825054740272279e-06
2.613335952643777e-05   -3.473439726880273e-06   -7.825054740272279e-06
2.613335952643777e-05   -3.473439726880273e-06   -7.825054740272279e-06
2.613335952643777e-05   -3.473439726880273e-06   -7.825054740272279e-06
3.899580370346219e-05   -6.801777054458503e-06   -2.7265459305432613e-05
3.899580370346219e-05   -6.801777054458503e-06   -2.7265459305432613e-05
3.899580370346219e-05   -6.801777054458503e-06   -2.7265459305432613e-05
3.899580370346219e-05   -6.801777054458503e-06   -2.7265459305432613e-05
-6.25323758900661e-05   9.581361589025584e-06   -4.754661189744692e-05
-6.25323758900661e-05   9.581361589025584e-06   -4.754661189744692e-05
-6.25323758900661e-05   9.581361589025584e-06   -4.754661189744692e-05
-6.25323758900661e-05   9.581361589025584e-06   -4.754661189744692e-05
-4.2561829011020734e-05   6.0991375735466e-06   -1.6351701508325262e-05
-4.2561829011020734e-05   6.0991375735466e-06   -1.6351701508325262e-05
-4.2561829011020734e-05   6.0991375735466e-06   -1.6351701508325262e-05
-4.2561829011020734e-05   6.0991375735466e-06   -1.6351701508325262e-05
-4.240722225141362e-05   1.1588242182651088e-05   -4.039201588542122e-05
-4.240722225141362e-05   1.1588242182651088e-05   -4.039201588542122e-05
-4.240722225141362e-05   1.1588242182651088e-05   -4.039201588542122e-05
-4.240722225141362e-05   1.1588242182651088e-05   -4.039201588542122e-05
-6.0665930851021124e-05   7.761225777418038e-06   -7.664625042935703e-06
-6.0665930851021124e-05   7.761225777418038e-06   -7.664625042935703e-06
-6.0665930851021124e-05   7.761225777418038e-06   -7.664625042935703e-06
-6.0665930851021124e-05   7.761225777418038e-06   -7.664625042935703e-06
-4.983407862320822e-05   9.225519541605233e-06   -2.6596288347802762e-05
-4.983407862320822e-05   9.225519541605233e-06   -2.6596288347802762e-05
-4.983407862320822e-05   9.225519541605233e-06   -2.6596288347802762e-05
-4.983407862320822e-05   9.225519541605233e-06   -2.6596288347802762e-05
-6.0665930851021104e-05   1.158824218265105e-05   -3.8095806042281566e-05
-6.0665930851021104e-05   1.158824218265105e-05   -3.8095806042281566e-05
-6.0665930851021104e-05   1.158824218265105e-05   -3.8095806042281566e-05
-6.0665930851021104e-05   1.158824218265105e-05   -3.8095806042281566e-05
-4.240722225141367e-05   7.761225777418255e-06   -9.960834886075387e-06
-4.240722225141367e-05   7.761225777418255e-06   -9.960834886075387e-06
-4.240722225141367e-05   7.761225777418255e-06   -9.960834886075387e-06
-4.240722225141367e-05   7.761225777418255e-06   -9.960834886075387e-06
-4.2085832231702173e-05   1.2469558473273247e-05   -3.522139053975266e-05
-4.2085832231702173e-05   1.2469558473273247e-05   -3.522139053975266e-05
-4.2085832231702173e-05   1.2469558473273247e-05   -3.522139053975266e-05
-4.2085832231702173e-05   1.2469558473273247e-05   -3.522139053975266e-05
-5.9270039898653697e-05   8.535112021692756e-06   -4.220376557218441e-06
-5.9270039898653697e-05   8.535112021692756e-06   -4.220376557218441e-06
-5.9270039898653697e-05   8.535112021692756e-06   -4.220376557218441e-06
-5.9270039898653697e-05   8.535112021692756e-06   -4.220376557218441e-06
-4.983817993738736e-05   1.0152853235696107e-05   -2.0910787887731363e-05
-4.983817993738736e-05   1.0152853235696107e-05   -2.0910787887731363e-05
-4.983817993738736e-05   1.0152853235696107e-05   -2.0910787887731363e-05
-4.983817993738736e-05   1.0152853235696107e-05   -2.0910787887731363e-05
-5.927003989865371e-05   1.246955847327321e-05   -3.286072266880442e-05
-5.927003989865371e-05   1.246955847327321e-05   -3.286072266880442e-05
-5.927003989865371e-05   1.246955847327321e-05   -3.286072266880442e-05
-5.927003989865371e-05   1.246955847327321e-05   -3.286072266880442e-05
-4.2085832231702255e-05   8.535112021692756e-06   -6.581044428166599e-06
-4.2085832231702255e-05   8.535112021692756e-06   -6.581044428166599e-06
-4.2085832231702255e-05   8.535112021692756e-06   -6.581044428166599e-06
-4.2085832231702255e-05   8.535112021692756e-06   -6.581044428166599e-06
-4.195673925386079e-05   1.3335653644816936e-05   -2.8061950173703405e-05
-4.195673925386079e-05   1.3335653644816936e-05   -2.8061950173703405e-05
-4.195673925386079e-05   1.3335653644816936e-05   -2.8061950173703405e-05
-4.195673925386079e-05   1.3335653644816936e-05   -2.8061950173703405e-05
-5.74428500931694e-05   9.507456175632386e-06   4.5153039988183805e-08
-5.74428500931694e-05   9.507456175632386e-06   4.5153039988183805e-08
-5.74428500931694e-05   9.507456175632386e-06   4.5153039988183805e-08
-5.74428500931694e-05   9.507456175632386e-06   4.5153039988183805e-08
-4.8364381192536025e-05   1.0654337627959034e-05   -1.5773757332463302e-05
-4.8364381192536025e-05   1.0654337627959034e-05   -1.5773757332463302e-05
-4.8364381192536025e-05   1.0654337627959034e-05   -1.5773757332463302e-05
-4.8364381192536025e-05   1.0654337627959034e-05   -1.5773757332463302e-05
-4.256182901102065e-05   4.775848544350674e-06   -6.055189479903342e-05
-4.256182901102065e-05   4.775848544350674e-06   -6.055189479903342e-05
-4.256182901102065e-05   4.775848544350674e-06   -6.055189479903342e-05
-4.256182901102065e-05   4.775848544350674e-06   -6.055189479903342e-05
-2.4465431212139215e-05   3.1506347950146715e-06   -3.1366360050499246e-05
-2.4465431212139215e-05   3.1506347950146715e-06   -3.1366360050499246e-05
-2.4465431212139215e-05   3.1506347950146715e-06   -3.1366360050499246e-05
-2.4465431212139215e-05   3.1506347950146715e-06   -3.1366360050499246e-05
-2.4477158634185286e-05   6.74923474072958e-06   -6.003322229084732e-05
-2.4477158634185286e-05   6.74923474072958e-06   -6.003322229084732e-05
-2.4477158634185286e-05   6.74923474072958e-06   -6.003322229084732e-05
-2.4477158634185286e-05   6.74923474072958e-06   -6.003322229084732e-05
-4.2407222251413625e-05   4.904988934136857e-06   -2.9043235444844257e-05
-4.2407222251413625e-05   4.904988934136857e-06   -2.9043235444844257e-05
-4.2407222251413625e-05   4.904988934136857e-06   -2.9043235444844257e-05
-4.2407222251413625e-05   4.904988934136857e-06   -2.9043235444844257e-05
-3.3169386503822715e-05   5.222248402750014e-06   -4.462998403866389e-05
-3.3169386503822715e-05   5.222248402750014e-06   -4.462998403866389e-05
-3.3169386503822715e-05   5.222248402750014e-06   -4.462998403866389e-05
-3.3169386503822715e-05   5.222248402750014e-06   -4.462998403866389e-05
-4.2407222251413565e-05   6.749234740729581e-06   -5.89266748068913e-05
-4.2407222251413565e-05   6.749234740729581e-06   -5.89266748068913e-05
-4.2407222251413565e-05   6.749234740729581e-06   -5.89266748068913e-05
-4.2407222251413565e-05   6.749234740729581e-06   -5.89266748068913e-05
-2.447715863418519e-05   4.90498893413664e-06   -3.0149782928799956e-05
-2.447715863418519e-05   4.90498893413664e-06   -3.0149782928799956e-05
-2.447715863418519e-05   4.90498893413664e-06   -3.0149782928799956e-05
-2.447715863418519e-05   4.90498893413664e-06   -3.0149782928799956e-05
-2.4458803052560216e-05   8.50189218016325e-06   -5.868752206612284e-05
-2.4458803052560216e-05   8.50189218016325e-06   -5.868752206612284e-05
-2.4458803052560216e-05   8.50189218016325e-06   -5.868752206612284e-05
-2.4458803052560216e-05   8.50189218016325e-06   -5.868752206612284e-05
-4.208583223170216e-05   6.500810330038742e-06   -2.8108490990811535e-05
-4.208583223170216e-05   6.500810330038742e-06   -2.8108490990811535e-05
-4.208583223170216e-05   6.500810330038742e-06   -2.8108490990811535e-05
-4.208583223170216e-05   6.500810330038742e-06   -2.8108490990811535e-05
-3.301455809646002e-05   6.662483645734733e-06   -4.33242852056323e-05
-3.301455809646002e-05   6.662483645734733e-06   -4.33242852056323e-05
-3.301455809646002e-05   6.662483645734733e-06   -4.33242852056323e-05
-3.301455809646002e-05   6.662483645734733e-06   -4.33242852056323e-05
-4.2085832231702173e-05   8.501892180163266e-06   -5.748687295604809e-05
-4.2085832231702173e-05   8.501892180163266e-06   -5.748687295604809e-05
-4.2085832231702173e-05   8.501892180163266e-06   -5.748687295604809e-05
-4.2085832231702173e-05   8.501892180163266e-06   -5.748687295604809e-05
-2.4458803052560216e-05   6.500810330038742e-06   -2.9309140100886147e-05
-2.4458803052560216e-05   6.500810330038742e-06   -2.9309140100886147e-05
-2.4458803052560216e-05   6.500810330038742e-06   -2.9309140100886147e-05
-2.4458803052560216e-05   6.500810330038742e-06   -2.9309140100886147e-05
-2.4477988239708575e-05   1.0365719836653419e-05   -5.892389069766949e-05
-2.4477988239708575e-05   1.0365719836653419e-05   -5.892389069766949e-05
-2.4477988239708575e-05   1.0365719836653419e-05   -5.892389069766949e-05
-2.4477988239708575e-05   1.0365719836653419e-05   -5.892389069766949e-05
-4.1956739253860786e-05   8.23367993004376e-06   -2.851341506344984e-05
-4.1956739253860786e-05   8.23367993004376e-06   -2.851341506344984e-05
-4.1956739253860786e-05   8.23367993004376e-06   -2.851341506344984e-05
-4.1956739253860786e-05   8.23367993004376e-06   -2.851341506344984e-05
-3.322807210109561e-05   8.086740849807855e-06   -4.2973030203250406e-05
-3.322807210109561e-05   8.086740849807855e-06   -4.2973030203250406e-05
-3.322807210109561e-05   8.086740849807855e-06   -4.2973030203250406e-05
-3.322807210109561e-05   8.086740849807855e-06   -4.2973030203250406e-05
-2.4465431212139228e-05   2.539306507785626e-07   -6.682212449815876e-05
-2.4465431212139228e-05   2.539306507785626e-07   -6.682212449815876e-05
-2.4465431212139228e-05   2.539306507785626e-07   -6.682212449815876e-05
-2.4465431212139228e-05   2.539306507785626e-07   -6.682212449815876e-05
-6.622908912414191e-06   5.407846057345952e-07   -3.691247495897688e-05
-6.622908912414191e-06   5.407846057345952e-07   -3.691247495897688e-05
-6.622908912414191e-06   5.407846057345952e-07   -3.691247495897688e-05
-6.622908912414191e-06   5.407846057345952e-07   -3.691247495897688e-05
-6.635217936954899e-06   2.1959576228010183e-06   -6.608605429565058e-05
-6.635217936954899e-06   2.1959576228010183e-06   -6.608605429565058e-05
-6.635217936954899e-06   2.1959576228010183e-06   -6.608605429565058e-05
-6.635217936954899e-06   2.1959576228010183e-06   -6.608605429565058e-05
-2.4477158634185204e-05   2.3041109001727903e-06   -3.6414378433356396e-05
-2.4477158634185204e-05   2.3041109001727903e-06   -3.6414378433356396e-05
-2.4477158634185204e-05   2.3041109001727903e-06   -3.6414378433356396e-05
-2.4477158634185204e-05   2.3041109001727903e-06   -3.6414378433356396e-05
-1.544700401227754e-05   1.5513344103536015e-06   -5.101297024264437e-05
-1.544700401227754e-05   1.5513344103536015e-06   -5.101297024264437e-05
-1.544700401227754e-05   1.5513344103536015e-06   -5.101297024264437e-05
-1.544700401227754e-05   1.5513344103536015e-06   -5.101297024264437e-05
-2.4477158634185245e-05   2.1959576228010548e-06   -6.615094626207364e-05
-2.4477158634185245e-05   2.1959576228010548e-06   -6.615094626207364e-05
-2.4477158634185245e-05   2.1959576228010548e-06   -6.615094626207364e-05
-2.4477158634185245e-05   2.1959576228010548e-06   -6.615094626207364e-05
-6.635217936954899e-06   2.3041109001727903e-06   -3.634948646693333e-05
-6.635217936954899e-06   2.3041109001727903e-06   -3.634948646693333e-05
-6.635217936954899e-06   2.3041109001727903e-06   -3.634948646693333e-05
-6.635217936954899e-06   2.3041109001727903e-06   -3.634948646693333e-05
-6.6115386753975955e-06   4.132147266191436e-06   -6.625487001453813e-05
-6.6115386753975955e-06   4.132147266191436e-06   -6.625487001453813e-05
-6.6115386753975955e-06   4.132147266191436e-06   -6.625487001453813e-05
-6.6115386753975955e-06   4.132147266191436e-06   -6.625487001453813e-05
-2.4458803052560222e-05   4.073065691205784e-06   -3.647398044094233e-05
-2.4458803052560222e-05   4.073065691205784e-06   -3.647398044094233e-05
-2.4458803052560222e-05   4.073065691205784e-06   -3.647398044094233e-05
-2.4458803052560222e-05   4.073065691205784e-06   -3.647398044094233e-05
-1.5550146608923832e-05   3.0935547455881356e-06   -5.073403461296571e-05
-1.5550146608923832e-05   3.0935547455881356e-06   -5.073403461296571e-05
-1.5550146608923832e-05   3.0935547455881356e-06   -5.073403461296571e-05
-1.5550146608923832e-05   3.0935547455881356e-06   -5.073403461296571e-05
-2.4458803052560216e-05   4.13214726619148e-06   -6.621942106954675e-05
-2.4458803052560216e-05   4.13214726619148e-06   -6.621942106954675e-05
-2.4458803052560216e-05   4.13214726619148e-06   -6.621942106954675e-05
-2.4458803052560216e-05   4.13214726619148e-06   -6.621942106954675e-05
-6.6115386753975955e-06   4.073065691205784e-06   -3.65094293859336e-05
-6.6115386753975955e-06   4.073065691205784e-06   -3.65094293859336e-05
-6.6115386753975955e-06   4.073065691205784e-06   -3.65094293859336e-05
-6.6115386753975955e-06   4.073065691205784e-06   -3.65094293859336e-05
-6.621817368392101e-06   6.113400566572181e-06   -6.725707550159557e-05
-6.621817368392101e-06   6.113400566572181e-06   -6.725707550159557e-05
-6.621817368392101e-06   6.113400566572181e-06   -6.725707550159557e-05
-6.621817368392101e-06   6.113400566572181e-06   -6.725707550159557e-05
-2.4477988239708602e-05   5.872949208994907e-06   -3.735251990152143e-05
-2.4477988239708602e-05   5.872949208994907e-06   -3.735251990152143e-05
-2.4477988239708602e-05   5.872949208994907e-06   -3.735251990152143e-05
-2.4477988239708602e-05   5.872949208994907e-06   -3.735251990152143e-05
-1.5683576571653118e-05   4.656024004054838e-06   -5.1279717558650066e-05
-1.5683576571653118e-05   4.656024004054838e-06   -5.1279717558650066e-05
-1.5683576571653118e-05   4.656024004054838e-06   -5.1279717558650066e-05
-1.5683576571653118e-05   4.656024004054838e-06   -5.1279717558650066e-05
-6.62290891241418e-06   -3.999352865783216e-06   -5.9174814230469994e-05
-6.62290891241418e-06   -3.999352865783216e-06   -5.9174814230469994e-05
-6.62290891241418e-06   -3.999352865783216e-06   -5.9174814230469994e-05
-6.62290891241418e-06   -3.999352865783216e-06   -5.9174814230469994e-05
1.0963625162490633e-05   -1.8465020008048665e-06   -2.8572213586641683e-05
1.0963625162490633e-05   -1.8465020008048665e-06   -2.8572213586641683e-05
1.0963625162490633e-05   -1.8465020008048665e-06   -2.8572213586641683e-05
1.0963625162490633e-05   -1.8465020008048665e-06   -2.8572213586641683e-05
1.1107350224175494e-05   -2.2199115290251394e-06   -5.783237503658275e-05
1.1107350224175494e-05   -2.2199115290251394e-06   -5.783237503658275e-05
1.1107350224175494e-05   -2.2199115290251394e-06   -5.783237503658275e-05
1.1107350224175494e-05   -2.2199115290251394e-06   -5.783237503658275e-05
-6.635217936954887e-06   -1.861806016400895e-07   -2.948166665779648e-05
-6.635217936954887e-06   -1.861806016400895e-07   -2.948166665779648e-05
-6.635217936954887e-06   -1.861806016400895e-07   -2.948166665779648e-05
-6.635217936954887e-06   -1.861806016400895e-07   -2.948166665779648e-05
2.2130140605266576e-06   -1.909803437625808e-06   -4.319454628534089e-05
2.2130140605266576e-06   -1.909803437625808e-06   -4.319454628534089e-05
2.2130140605266576e-06   -1.909803437625808e-06   -4.319454628534089e-05
2.2130140605266576e-06   -1.909803437625808e-06   -4.319454628534089e-05
-6.635217936954899e-06   -2.2199115290250878e-06   -5.905261359301383e-05
-6.635217936954899e-06   -2.2199115290250878e-06   -5.905261359301383e-05
-6.635217936954899e-06   -2.2199115290250878e-06   -5.905261359301383e-05
-6.635217936954899e-06   -2.2199115290250878e-06   -5.905261359301383e-05
1.1107350224175494e-05   -1.861806016400895e-07   -2.8261428101365466e-05
1.1107350224175494e-05   -1.861806016400895e-07   -2.8261428101365466e-05
1.1107350224175494e-05   -1.861806016400895e-07   -2.8261428101365466e-05
1.1107350224175494e-05   -1.861806016400895e-07   -2.8261428101365466e-05
1.1445173224726741e-05   -4.7080998394962315e-07   -5.905098984231044e-05
1.1445173224726741e-05   -4.7080998394962315e-07   -5.905098984231044e-05
1.1445173224726741e-05   -4.7080998394962315e-07   -5.905098984231044e-05
1.1445173224726741e-05   -4.7080998394962315e-07   -5.905098984231044e-05
-6.6115386753975845e-06   1.4116213904087366e-06   -3.0085928833384962e-05
-6.6115386753975845e-06   1.4116213904087366e-06   -3.0085928833384962e-05
-6.6115386753975845e-06   1.4116213904087366e-06   -3.0085928833384962e-05
-6.6115386753975845e-06   1.4116213904087366e-06   -3.0085928833384962e-05
2.1114738832462463e-06   -5.28719406902179e-07   -4.346007861940479e-05
2.1114738832462463e-06   -5.28719406902179e-07   -4.346007861940479e-05
2.1114738832462463e-06   -5.28719406902179e-07   -4.346007861940479e-05
2.1114738832462463e-06   -5.28719406902179e-07   -4.346007861940479e-05
-6.6115386753975955e-06   -4.7080998394964433e-07   -6.018044866692551e-05
-6.6115386753975955e-06   -4.7080998394964433e-07   -6.018044866692551e-05
-6.6115386753975955e-06   -4.7080998394964433e-07   -6.018044866692551e-05
-6.6115386753975955e-06   -4.7080998394964433e-07   -6.018044866692551e-05
1.1445173224726755e-05   1.4116213904087366e-06   -2.8956470008769763e-05
1.1445173224726755e-05   1.4116213904087366e-06   -2.8956470008769763e-05
1.1445173224726755e-05   1.4116213904087366e-06   -2.8956470008769763e-05
1.1445173224726755e-05   1.4116213904087366e-06   -2.8956470008769763e-05
1.1610277488293823e-05   1.574886119882937e-06   -6.0792051010069266e-05
1.1610277488293823e-05   1.574886119882937e-06   -6.0792051010069266e-05
1.1610277488293823e-05   1.574886119882937e-06   -6.0792051010069266e-05
1.1610277488293823e-05   1.574886119882937e-06   -6.0792051010069266e-05
-6.621817368392101e-06   3.243501946065654e-06   -3.1406395744635606e-05
-6.621817368392101e-06   3.243501946065654e-06   -3.1406395744635606e-05
-6.621817368392101e-06   3.243501946065654e-06   -3.1406395744635606e-05
-6.621817368392101e-06   3.243501946065654e-06   -3.1406395744635606e-05
2.1729331397323278e-06   9.491368562239248e-07   -4.468769420427135e-05
2.1729331397323278e-06   9.491368562239248e-07   -4.468769420427135e-05
2.1729331397323278e-06   9.491368562239248e-07   -4.468769420427135e-05
2.1729331397323278e-06   9.491368562239248e-07   -4.468769420427135e-05
1.096362516249062e-05   -7.257726285489126e-06   -3.252039096910466e-05
1.096362516249062e-05   -7.257726285489126e-06   -3.252039096910466e-05
1.096362516249062e-05   -7.257726285489126e-06   -3.252039096910466e-05
1.096362516249062e-05   -7.257726285489126e-06   -3.252039096910466e-05
2.6596544133117078e-05   -3.3962524506594635e-06   -4.1486417171627404e-06
2.6596544133117078e-05   -3.3962524506594635e-06   -4.1486417171627404e-06
2.6596544133117078e-05   -3.3962524506594635e-06   -4.1486417171627404e-06
2.6596544133117078e-05   -3.3962524506594635e-06   -4.1486417171627404e-06
2.844851619158089e-05   -6.233350827490451e-06   -3.4159398852366576e-05
2.844851619158089e-05   -6.233350827490451e-06   -3.4159398852366576e-05
2.844851619158089e-05   -6.233350827490451e-06   -3.4159398852366576e-05
2.844851619158089e-05   -6.233350827490451e-06   -3.4159398852366576e-05
1.1107350224175484e-05   -2.2724007495702418e-06   -7.634025620109673e-06
1.1107350224175484e-05   -2.2724007495702418e-06   -7.634025620109673e-06
1.1107350224175484e-05   -2.2724007495702418e-06   -7.634025620109673e-06
1.1107350224175484e-05   -2.2724007495702418e-06   -7.634025620109673e-06
1.845697210020748e-05   -4.641660190240582e-06   -1.84618397490941e-05
1.845697210020748e-05   -4.641660190240582e-06   -1.84618397490941e-05
1.845697210020748e-05   -4.641660190240582e-06   -1.84618397490941e-05
1.845697210020748e-05   -4.641660190240582e-06   -1.84618397490941e-05
1.110735022417548e-05   -6.233350827490432e-06   -3.653596889911852e-05
1.110735022417548e-05   -6.233350827490432e-06   -3.653596889911852e-05
1.110735022417548e-05   -6.233350827490432e-06   -3.653596889911852e-05
1.110735022417548e-05   -6.233350827490432e-06   -3.653596889911852e-05
2.8448516191580863e-05   -2.2724007495702418e-06   -5.257455573357407e-06
2.8448516191580863e-05   -2.2724007495702418e-06   -5.257455573357407e-06
2.8448516191580863e-05   -2.2724007495702418e-06   -5.257455573357407e-06
2.8448516191580863e-05   -2.2724007495702418e-06   -5.257455573357407e-06
2.9873451374496567e-05   -5.353621707762245e-06   -3.7462985677272755e-05
2.9873451374496567e-05   -5.353621707762245e-06   -3.7462985677272755e-05
2.9873451374496567e-05   -5.353621707762245e-06   -3.7462985677272755e-05
2.9873451374496567e-05   -5.353621707762245e-06   -3.7462985677272755e-05
1.1445173224726763e-05   -1.4958877432014444e-06   -9.06382913972608e-06
1.1445173224726763e-05   -1.4958877432014444e-06   -9.06382913972608e-06
1.1445173224726763e-05   -1.4958877432014444e-06   -9.06382913972608e-06
1.1445173224726763e-05   -1.4958877432014444e-06   -9.06382913972608e-06
1.9589984333347424e-05   -4.064843399453379e-06   -2.1097140927009352e-05
1.9589984333347424e-05   -4.064843399453379e-06   -2.1097140927009352e-05
1.9589984333347424e-05   -4.064843399453379e-06   -2.1097140927009352e-05
1.9589984333347424e-05   -4.064843399453379e-06   -2.1097140927009352e-05
1.1445173224726741e-05   -5.3536217077622136e-06   -3.977762605600907e-05
1.1445173224726741e-05   -5.3536217077622136e-06   -3.977762605600907e-05
1.1445173224726741e-05   -5.3536217077622136e-06   -3.977762605600907e-05
1.1445173224726741e-05   -5.3536217077622136e-06   -3.977762605600907e-05
2.987345137449654e-05   -1.4958877432016612e-06   -6.749188760989491e-06
2.987345137449654e-05   -1.4958877432016612e-06   -6.749188760989491e-06
2.987345137449654e-05   -1.4958877432016612e-06   -6.749188760989491e-06
2.987345137449654e-05   -1.4958877432016612e-06   -6.749188760989491e-06
3.1766324489525846e-05   -3.4734397268803814e-06   -4.379575603147439e-05
3.1766324489525846e-05   -3.4734397268803814e-06   -4.379575603147439e-05
3.1766324489525846e-05   -3.4734397268803814e-06   -4.379575603147439e-05
3.1766324489525846e-05   -3.4734397268803814e-06   -4.379575603147439e-05
1.1610277488293843e-05   3.1836828094612343e-08   -1.230551029573904e-05
1.1610277488293843e-05   3.1836828094612343e-08   -1.230551029573904e-05
1.1610277488293843e-05   3.1836828094612343e-08   -1.230551029573904e-05
1.1610277488293843e-05   3.1836828094612343e-08   -1.230551029573904e-05
1.9965242168203238e-05   -3.2050093387557283e-06   -2.428834372881144e-05
1.9965242168203238e-05   -3.2050093387557283e-06   -2.428834372881144e-05
1.9965242168203238e-05   -3.2050093387557283e-06   -2.428834372881144e-05
1.9965242168203238e-05   -3.2050093387557283e-06   -2.428834372881144e-05
-3.788816545557928e-05   6.099137573546776e-06   -3.548384397914753e-05
-3.788816545557928e-05   6.099137573546776e-06   -3.548384397914753e-05
-3.788816545557928e-05   6.099137573546776e-06   -3.548384397914753e-05
-3.788816545557928e-05   6.099137573546776e-06   -3.548384397914753e-05
-2.7956843999929286e-05   2.488161980782229e-06   -2.1098226908722816e-05
-2.7956843999929286e-05   2.488161980782229e-06   -2.1098226908722816e-05
-2.7956843999929286e-05   2.488161980782229e-06   -2.1098226908722816e-05
-2.7956843999929286e-05   2.488161980782229e-06   -2.1098226908722816e-05
-2.7544603354556535e-05   7.761225777418038e-06   -3.1303041307059656e-05
-2.7544603354556535e-05   7.761225777418038e-06   -3.1303041307059656e-05
-2.7544603354556535e-05   7.761225777418038e-06   -3.1303041307059656e-05
-2.7544603354556535e-05   7.761225777418038e-06   -3.1303041307059656e-05
-3.58317734962675e-05   3.871870305116945e-06   -1.5157477787493398e-05
-3.58317734962675e-05   3.871870305116945e-06   -1.5157477787493398e-05
-3.58317734962675e-05   3.871870305116945e-06   -1.5157477787493398e-05
-3.58317734962675e-05   3.871870305116945e-06   -1.5157477787493398e-05
-3.09365830972553e-05   5.47029138051958e-06   -2.4275181097756834e-05
-3.09365830972553e-05   5.47029138051958e-06   -2.4275181097756834e-05
-3.09365830972553e-05   5.47029138051958e-06   -2.4275181097756834e-05
-3.09365830972553e-05   5.47029138051958e-06   -2.4275181097756834e-05
-3.583177349626753e-05   7.761225777418113e-06   -2.8969428023678783e-05
-3.583177349626753e-05   7.761225777418113e-06   -2.8969428023678783e-05
-3.583177349626753e-05   7.761225777418113e-06   -2.8969428023678783e-05
-3.583177349626753e-05   7.761225777418113e-06   -2.8969428023678783e-05
-2.754460335455659e-05   3.871870305117162e-06   -1.749109107087435e-05
-2.754460335455659e-05   3.871870305117162e-06   -1.749109107087435e-05
-2.754460335455659e-05   3.871870305117162e-06   -1.749109107087435e-05
-2.754460335455659e-05   3.871870305117162e-06   -1.749109107087435e-05
-2.695656240005894e-05   8.535112021692756e-06   -2.7952362553916067e-05
-2.695656240005894e-05   8.535112021692756e-06   -2.7952362553916067e-05
-2.695656240005894e-05   8.535112021692756e-06   -2.7952362553916067e-05
-2.695656240005894e-05   8.535112021692756e-06   -2.7952362553916067e-05
-3.419052309338294e-05   4.570411407719705e-06   -1.3516941029992086e-05
-3.419052309338294e-05   4.570411407719705e-06   -1.3516941029992086e-05
-3.419052309338294e-05   4.570411407719705e-06   -1.3516941029992086e-05
-3.419052309338294e-05   4.570411407719705e-06   -1.3516941029992086e-05
-3.03937168105169e-05   6.2166925197846504e-06   -2.0832720168674512e-05
-3.03937168105169e-05   6.2166925197846504e-06   -2.0832720168674512e-05
-3.03937168105169e-05   6.2166925197846504e-06   -2.0832720168674512e-05
-3.03937168105169e-05   6.2166925197846504e-06   -2.0832720168674512e-05
-3.419052309338292e-05   8.535112021692683e-06   -2.5573542185532237e-05
-3.419052309338292e-05   8.535112021692683e-06   -2.5573542185532237e-05
-3.419052309338292e-05   8.535112021692683e-06   -2.5573542185532237e-05
-3.419052309338292e-05   8.535112021692683e-06   -2.5573542185532237e-05
-2.6956562400058995e-05   4.570411407719705e-06   -1.5895761398375836e-05
-2.6956562400058995e-05   4.570411407719705e-06   -1.5895761398375836e-05
-2.6956562400058995e-05   4.570411407719705e-06   -1.5895761398375836e-05
-2.6956562400058995e-05   4.570411407719705e-06   -1.5895761398375836e-05
-2.6555093449876898e-05   9.507456175632386e-06   -2.3652643646914287e-05
-2.6555093449876898e-05   9.507456175632386e-06   -2.3652643646914287e-05
-2.6555093449876898e-05   9.507456175632386e-06   -2.3652643646914287e-05
-2.6555093449876898e-05   9.507456175632386e-06   -2.3652643646914287e-05
-3.210039682800276e-05   5.6766480803394255e-06   -1.2111986492861987e-05
-3.210039682800276e-05   5.6766480803394255e-06   -1.2111986492861987e-05
-3.210039682800276e-05   5.6766480803394255e-06   -1.2111986492861987e-05
-3.210039682800276e-05   5.6766480803394255e-06   -1.2111986492861987e-05
-2.8972848301730252e-05   6.7332551866780815e-06   -1.795853163378625e-05
-2.8972848301730252e-05   6.7332551866780815e-06   -1.795853163378625e-05
-2.8972848301730252e-05   6.7332551866780815e-06   -1.795853163378625e-05
-2.8972848301730252e-05   6.7332551866780815e-06   -1.795853163378625e-05
-2.7956843999929286e-05   3.1506347950147943e-06   -5.168995962737859e-05
-2.7956843999929286e-05   3.1506347950147943e-06   -5.168995962737859e-05
-2.7956843999929286e-05   3.1506347950147943e-06   -5.168995962737859e-05
-2.7956843999929286e-05   3.1506347950147943e-06   -5.168995962737859e-05
-1.9889804579750113e-05   1.4253781903754946e-06   -3.9280047889863614e-05
-1.9889804579750113e-05   1.4253781903754946e-06   -3.9280047889863614e-05
-1.9889804579750113e-05   1.4253781903754946e-06   -3.9280047889863614e-05
-1.9889804579750113e-05   1.4253781903754946e-06   -3.9280047889863614e-05
-1.9619166125879508e-05   4.90498893413664e-06   -5.152141569102903e-05
-1.9619166125879508e-05   4.90498893413664e-06   -5.152141569102903e-05
-1.9619166125879508e-05   4.90498893413664e-06   -5.152141569102903e-05
-1.9619166125879508e-05   4.90498893413664e-06   -5.152141569102903e-05
-2.754460335455661e-05   3.011699225469004e-06   -3.7176379818032966e-05
-2.754460335455661e-05   3.011699225469004e-06   -3.7176379818032966e-05
-2.754460335455661e-05   3.011699225469004e-06   -3.7176379818032966e-05
-2.754460335455661e-05   3.011699225469004e-06   -3.7176379818032966e-05
-2.3521064834950655e-05   3.4267645116611758e-06   -4.413131652242599e-05
-2.3521064834950655e-05   3.4267645116611758e-06   -4.413131652242599e-05
-2.3521064834950655e-05   3.4267645116611758e-06   -4.413131652242599e-05
-2.3521064834950655e-05   3.4267645116611758e-06   -4.413131652242599e-05
-2.754460335455648e-05   4.904988934136744e-06   -5.038544186582812e-05
-2.754460335455648e-05   4.904988934136744e-06   -5.038544186582812e-05
-2.754460335455648e-05   4.904988934136744e-06   -5.038544186582812e-05
-2.754460335455648e-05   4.904988934136744e-06   -5.038544186582812e-05
-1.9619166125879535e-05   3.011699225469004e-06   -3.8312353643233765e-05
-1.9619166125879535e-05   3.011699225469004e-06   -3.8312353643233765e-05
-1.9619166125879535e-05   3.011699225469004e-06   -3.8312353643233765e-05
-1.9619166125879535e-05   3.011699225469004e-06   -3.8312353643233765e-05
-1.9320368859872223e-05   6.500810330038742e-06   -5.068854943800281e-05
-1.9320368859872223e-05   6.500810330038742e-06   -5.068854943800281e-05
-1.9320368859872223e-05   6.500810330038742e-06   -5.068854943800281e-05
-1.9320368859872223e-05   6.500810330038742e-06   -5.068854943800281e-05
-2.695656240005904e-05   4.486243127635372e-06   -3.675281988291582e-05
-2.695656240005904e-05   4.486243127635372e-06   -3.675281988291582e-05
-2.695656240005904e-05   4.486243127635372e-06   -3.675281988291582e-05
-2.695656240005904e-05   4.486243127635372e-06   -3.675281988291582e-05
-2.3165548770730713e-05   4.7088173872656975e-06   -4.32047204875742e-05
-2.3165548770730713e-05   4.7088173872656975e-06   -4.32047204875742e-05
-2.3165548770730713e-05   4.7088173872656975e-06   -4.32047204875742e-05
-2.3165548770730713e-05   4.7088173872656975e-06   -4.32047204875742e-05
-2.695656240005894e-05   6.50081033003865e-06   -4.9479809116560487e-05
-2.695656240005894e-05   6.50081033003865e-06   -4.9479809116560487e-05
-2.695656240005894e-05   6.50081033003865e-06   -4.9479809116560487e-05
-2.695656240005894e-05   6.50081033003865e-06   -4.9479809116560487e-05
-1.9320368859872196e-05   4.486243127635372e-06   -3.796156020435782e-05
-1.9320368859872196e-05   4.486243127635372e-06   -3.796156020435782e-05
-1.9320368859872196e-05   4.486243127635372e-06   -3.796156020435782e-05
-1.9320368859872196e-05   4.486243127635372e-06   -3.796156020435782e-05
-1.905436350472331e-05   8.23367993004376e-06   -5.117995743606006e-05
-1.905436350472331e-05   8.23367993004376e-06   -5.117995743606006e-05
-1.905436350472331e-05   8.23367993004376e-06   -5.117995743606006e-05
-1.905436350472331e-05   8.23367993004376e-06   -5.117995743606006e-05
-2.6555093449876952e-05   6.124239651346874e-06   -3.74130766935857e-05
-2.6555093449876952e-05   6.124239651346874e-06   -3.74130766935857e-05
-2.6555093449876952e-05   6.124239651346874e-06   -3.74130766935857e-05
-2.6555093449876952e-05   6.124239651346874e-06   -3.74130766935857e-05
-2.302576390027627e-05   6.006846385695061e-06   -4.322485665019557e-05
-2.302576390027627e-05   6.006846385695061e-06   -4.322485665019557e-05
-2.302576390027627e-05   6.006846385695061e-06   -4.322485665019557e-05
-2.302576390027627e-05   6.006846385695061e-06   -4.322485665019557e-05
-1.9889804579750032e-05   5.407846057344849e-07   -5.84433408716132e-05
-1.9889804579750032e-05   5.407846057344849e-07   -5.84433408716132e-05
-1.9889804579750032e-05   5.407846057344849e-07   -5.84433408716132e-05
-1.9889804579750032e-05   5.407846057344849e-07   -5.84433408716132e-05
-1.2030802005648025e-05   8.148465261280814e-07   -4.5180566095874087e-05
-1.2030802005648025e-05   8.148465261280814e-07   -4.5180566095874087e-05
-1.2030802005648025e-05   8.148465261280814e-07   -4.5180566095874087e-05
-1.2030802005648025e-05   8.148465261280814e-07   -4.5180566095874087e-05
-1.176687425896889e-05   2.3041109001727903e-06   -5.771047864189087e-05
-1.176687425896889e-05   2.3041109001727903e-06   -5.771047864189087e-05
-1.176687425896889e-05   2.3041109001727903e-06   -5.771047864189087e-05
-1.176687425896889e-05   2.3041109001727903e-06   -5.771047864189087e-05
-1.9619166125879505e-05   2.42999848966397e-06   -4.4698858084067287e-05
-1.9619166125879505e-05   2.42999848966397e-06   -4.4698858084067287e-05
-1.9619166125879505e-05   2.42999848966397e-06   -4.4698858084067287e-05
-1.9619166125879505e-05   2.42999848966397e-06   -4.4698858084067287e-05
-1.5725309658337325e-05   1.7469724971044993e-06   -5.0778803267769745e-05
-1.5725309658337325e-05   1.7469724971044993e-06   -5.0778803267769745e-05
-1.5725309658337325e-05   1.7469724971044993e-06   -5.0778803267769745e-05
-1.5725309658337325e-05   1.7469724971044993e-06   -5.0778803267769745e-05
-1.961916612587948e-05   2.3041109001729004e-06   -5.778601119558525e-05
-1.961916612587948e-05   2.3041109001729004e-06   -5.778601119558525e-05
-1.961916612587948e-05   2.3041109001729004e-06   -5.778601119558525e-05
-1.961916612587948e-05   2.3041109001729004e-06   -5.778601119558525e-05
-1.1766874258968868e-05   2.42999848966397e-06   -4.462332553037288e-05
-1.1766874258968868e-05   2.42999848966397e-06   -4.462332553037288e-05
-1.1766874258968868e-05   2.42999848966397e-06   -4.462332553037288e-05
-1.1766874258968868e-05   2.42999848966397e-06   -4.462332553037288e-05
-1.1470237855417262e-05   4.073065691205784e-06   -5.7861634265117946e-05
-1.1470237855417262e-05   4.073065691205784e-06   -5.7861634265117946e-05
-1.1470237855417262e-05   4.073065691205784e-06   -5.7861634265117946e-05
-1.1470237855417262e-05   4.073065691205784e-06   -5.7861634265117946e-05
-1.9320368859872193e-05   4.059324879440674e-06   -4.4769838103966955e-05
-1.9320368859872193e-05   4.059324879440674e-06   -4.4769838103966955e-05
-1.9320368859872193e-05   4.059324879440674e-06   -4.4769838103966955e-05
-1.9320368859872193e-05   4.059324879440674e-06   -4.4769838103966955e-05
-1.5547838104814646e-05   3.1342804993185567e-06   -5.050236273432307e-05
-1.5547838104814646e-05   3.1342804993185567e-06   -5.050236273432307e-05
-1.5547838104814646e-05   3.1342804993185567e-06   -5.050236273432307e-05
-1.5547838104814646e-05   3.1342804993185567e-06   -5.050236273432307e-05
-1.932036885987217e-05   4.07306569120565e-06   -5.785338977805875e-05
-1.932036885987217e-05   4.07306569120565e-06   -5.785338977805875e-05
-1.932036885987217e-05   4.07306569120565e-06   -5.785338977805875e-05
-1.932036885987217e-05   4.07306569120565e-06   -5.785338977805875e-05
-1.1470237855417224e-05   4.059324879440674e-06   -4.4778082591026016e-05
-1.1470237855417224e-05   4.059324879440674e-06   -4.4778082591026016e-05
-1.1470237855417224e-05   4.059324879440674e-06   -4.4778082591026016e-05
-1.1470237855417224e-05   4.059324879440674e-06   -4.4778082591026016e-05
-1.1203645585540155e-05   5.87294920899469e-06   -5.8835680976957795e-05
-1.1203645585540155e-05   5.87294920899469e-06   -5.8835680976957795e-05
-1.1203645585540155e-05   5.87294920899469e-06   -5.8835680976957795e-05
-1.1203645585540155e-05   5.87294920899469e-06   -5.8835680976957795e-05
-1.9054363504723356e-05   5.7132114643413355e-06   -4.565530846486037e-05
-1.9054363504723356e-05   5.7132114643413355e-06   -4.565530846486037e-05
-1.9054363504723356e-05   5.7132114643413355e-06   -4.565530846486037e-05
-1.9054363504723356e-05   5.7132114643413355e-06   -4.565530846486037e-05
-1.540082033680619e-05   4.540023434628946e-06   -5.1040634260228105e-05
-1.540082033680619e-05   4.540023434628946e-06   -5.1040634260228105e-05
-1.540082033680619e-05   4.540023434628946e-06   -5.1040634260228105e-05
-1.540082033680619e-05   4.540023434628946e-06   -5.1040634260228105e-05
-1.2030802005647984e-05   -1.8465020008047252e-06   -5.123035286602913e-05
-1.2030802005647984e-05   -1.8465020008047252e-06   -5.123035286602913e-05
-1.2030802005647984e-05   -1.8465020008047252e-06   -5.123035286602913e-05
-1.2030802005647984e-05   -1.8465020008047252e-06   -5.123035286602913e-05
-4.405374650843602e-06   3.4459607884838525e-07   -3.7206648426896726e-05
-4.405374650843602e-06   3.4459607884838525e-07   -3.7206648426896726e-05
-4.405374650843602e-06   3.4459607884838525e-07   -3.7206648426896726e-05
-4.405374650843602e-06   3.4459607884838525e-07   -3.7206648426896726e-05
-4.011752279904114e-06   -1.8618060163987267e-07   -4.95857224987403e-05
-4.011752279904114e-06   -1.8618060163987267e-07   -4.95857224987403e-05
-4.011752279904114e-06   -1.8618060163987267e-07   -4.95857224987403e-05
-4.011752279904114e-06   -1.8618060163987267e-07   -4.95857224987403e-05
-1.176687425896887e-05   1.908713288382687e-06   -3.79174555343122e-05
-1.176687425896887e-05   1.908713288382687e-06   -3.79174555343122e-05
-1.176687425896887e-05   1.908713288382687e-06   -3.79174555343122e-05
-1.176687425896887e-05   1.908713288382687e-06   -3.79174555343122e-05
-7.972466695017263e-06   2.185994277428653e-07   -4.3227399824515115e-05
-7.972466695017263e-06   2.185994277428653e-07   -4.3227399824515115e-05
-7.972466695017263e-06   2.185994277428653e-07   -4.3227399824515115e-05
-7.972466695017263e-06   2.185994277428653e-07   -4.3227399824515115e-05
-1.176687425896885e-05   -1.8618060164016662e-07   -5.0842658832753814e-05
-1.176687425896885e-05   -1.8618060164016662e-07   -5.0842658832753814e-05
-1.176687425896885e-05   -1.8618060164016662e-07   -5.0842658832753814e-05
-1.176687425896885e-05   -1.8618060164016662e-07   -5.0842658832753814e-05
-4.011752279904114e-06   1.908713288382687e-06   -3.666051920029874e-05
-4.011752279904114e-06   1.908713288382687e-06   -3.666051920029874e-05
-4.011752279904114e-06   1.908713288382687e-06   -3.666051920029874e-05
-4.011752279904114e-06   1.908713288382687e-06   -3.666051920029874e-05
-3.42850705033711e-06   1.4116213904087366e-06   -5.025525922155072e-05
-3.42850705033711e-06   1.4116213904087366e-06   -5.025525922155072e-05
-3.42850705033711e-06   1.4116213904087366e-06   -5.025525922155072e-05
-3.42850705033711e-06   1.4116213904087366e-06   -5.025525922155072e-05
-1.1470237855417244e-05   3.383078875439415e-06   -3.8035249037435304e-05
-1.1470237855417244e-05   3.383078875439415e-06   -3.8035249037435304e-05
-1.1470237855417244e-05   3.383078875439415e-06   -3.8035249037435304e-05
-1.1470237855417244e-05   3.383078875439415e-06   -3.8035249037435304e-05
-7.734122545795686e-06   1.4811975457831254e-06   -4.3120979089011086e-05
-7.734122545795686e-06   1.4811975457831254e-06   -4.3120979089011086e-05
-7.734122545795686e-06   1.4811975457831254e-06   -4.3120979089011086e-05
-7.734122545795686e-06   1.4811975457831254e-06   -4.3120979089011086e-05
-1.1470237855417224e-05   1.411621390408887e-06   -5.1438133712569016e-05
-1.1470237855417224e-05   1.411621390408887e-06   -5.1438133712569016e-05
-1.1470237855417224e-05   1.411621390408887e-06   -5.1438133712569016e-05
-1.1470237855417224e-05   1.411621390408887e-06   -5.1438133712569016e-05
-3.42850705033711e-06   3.383078875439415e-06   -3.685237454641708e-05
-3.42850705033711e-06   3.383078875439415e-06   -3.685237454641708e-05
-3.42850705033711e-06   3.383078875439415e-06   -3.685237454641708e-05
-3.42850705033711e-06   3.383078875439415e-06   -3.685237454641708e-05
-3.021087256557147e-06   3.243501946065871e-06   -5.1660949531541316e-05
-3.021087256557147e-06   3.243501946065871e-06   -5.1660949531541316e-05
-3.021087256557147e-06   3.243501946065871e-06   -5.1660949531541316e-05
-3.021087256557147e-06   3.243501946065871e-06   -5.1660949531541316e-05
-1.1203645585540155e-05   5.050729402706136e-06   -3.9107688790553616e-05
-1.1203645585540155e-05   5.050729402706136e-06   -3.9107688790553616e-05
-1.1203645585540155e-05   5.050729402706136e-06   -3.9107688790553616e-05
-1.1203645585540155e-05   5.050729402706136e-06   -3.9107688790553616e-05
-7.484407344422188e-06   2.805061786968592e-06   -4.39590186229746e-05
-7.484407344422188e-06   2.805061786968592e-06   -4.39590186229746e-05
-7.484407344422188e-06   2.805061786968592e-06   -4.39590186229746e-05
-7.484407344422188e-06   2.805061786968592e-06   -4.39590186229746e-05
-4.405374650843602e-06   -3.396252450659702e-06   -2.7809006449655972e-05
-4.405374650843602e-06   -3.396252450659702e-06   -2.7809006449655972e-05
-4.405374650843602e-06   -3.396252450659702e-06   -2.7809006449655972e-05
-4.405374650843602e-06   -3.396252450659702e-06   -2.7809006449655972e-05
1.2499421414067613e-06   4.737066012922009e-07   -1.606150303140098e-05
1.2499421414067613e-06   4.737066012922009e-07   -1.606150303140098e-05
1.2499421414067613e-06   4.737066012922009e-07   -1.606150303140098e-05
1.2499421414067613e-06   4.737066012922009e-07   -1.606150303140098e-05
3.3192941934000555e-06   -2.2724007495702418e-06   -2.6569217134307004e-05
3.3192941934000555e-06   -2.2724007495702418e-06   -2.6569217134307004e-05
3.3192941934000555e-06   -2.2724007495702418e-06   -2.6569217134307004e-05
3.3192941934000555e-06   -2.2724007495702418e-06   -2.6569217134307004e-05
-4.0117522799041235e-06   1.7094373890586944e-06   -1.6739909228643727e-05
-4.0117522799041235e-06   1.7094373890586944e-06   -1.6739909228643727e-05
-4.0117522799041235e-06   1.7094373890586944e-06   -1.6739909228643727e-05
-4.0117522799041235e-06   1.7094373890586944e-06   -1.6739909228643727e-05
-9.380153071606168e-07   -7.040158416615587e-07   -2.0414732244784675e-05
-9.380153071606168e-07   -7.040158416615587e-07   -2.0414732244784675e-05
-9.380153071606168e-07   -7.040158416615587e-07   -2.0414732244784675e-05
-9.380153071606168e-07   -7.040158416615587e-07   -2.0414732244784675e-05
-4.011752279904087e-06   -2.272400749570326e-06   -2.895832001748402e-05
-4.011752279904087e-06   -2.272400749570326e-06   -2.895832001748402e-05
-4.011752279904087e-06   -2.272400749570326e-06   -2.895832001748402e-05
-4.011752279904087e-06   -2.272400749570326e-06   -2.895832001748402e-05
3.3192941934000013e-06   1.7094373890586944e-06   -1.4350806345466522e-05
3.3192941934000013e-06   1.7094373890586944e-06   -1.4350806345466522e-05
3.3192941934000013e-06   1.7094373890586944e-06   -1.4350806345466522e-05
3.3192941934000013e-06   1.7094373890586944e-06   -1.4350806345466522e-05
4.953071742047773e-06   -1.4958877432016612e-06   -2.8022270469514946e-05
4.953071742047773e-06   -1.4958877432016612e-06   -2.8022270469514946e-05
4.953071742047773e-06   -1.4958877432016612e-06   -2.8022270469514946e-05
4.953071742047773e-06   -1.4958877432016612e-06   -2.8022270469514946e-05
-3.42850705033712e-06   2.404692061784954e-06   -1.6393320365198498e-05
-3.42850705033712e-06   2.404692061784954e-06   -1.6393320365198498e-05
-3.42850705033712e-06   2.404692061784954e-06   -1.6393320365198498e-05
-3.42850705033712e-06   2.404692061784954e-06   -1.6393320365198498e-05
1.1379935626542992e-07   -1.1282413750523038e-07   -2.078665465662878e-05
1.1379935626542992e-07   -1.1282413750523038e-07   -2.078665465662878e-05
1.1379935626542992e-07   -1.1282413750523038e-07   -2.078665465662878e-05
1.1379935626542992e-07   -1.1282413750523038e-07   -2.078665465662878e-05
-3.42850705033711e-06   -1.4958877432016653e-06   -3.0362618352506817e-05
-3.42850705033711e-06   -1.4958877432016653e-06   -3.0362618352506817e-05
-3.42850705033711e-06   -1.4958877432016653e-06   -3.0362618352506817e-05
-3.42850705033711e-06   -1.4958877432016653e-06   -3.0362618352506817e-05
4.953071742047719e-06   2.404692061784954e-06   -1.40529724822066e-05
4.953071742047719e-06   2.404692061784954e-06   -1.40529724822066e-05
4.953071742047719e-06   2.404692061784954e-06   -1.40529724822066e-05
4.953071742047719e-06   2.404692061784954e-06   -1.40529724822066e-05
7.013489632083842e-06   3.1836828094612343e-08   -3.1396962480596466e-05
7.013489632083842e-06   3.1836828094612343e-08   -3.1396962480596466e-05
7.013489632083842e-06   3.1836828094612343e-08   -3.1396962480596466e-05
7.013489632083842e-06   3.1836828094612343e-08   -3.1396962480596466e-05
-3.021087256557143e-06   3.6389553243582843e-06   -1.6836938763952397e-05
-3.021087256557143e-06   3.6389553243582843e-06   -1.6836938763952397e-05
-3.021087256557143e-06   3.6389553243582843e-06   -1.6836938763952397e-05
-3.021087256557143e-06   3.6389553243582843e-06   -1.6836938763952397e-05
1.01586902768136e-06   5.633051667944776e-07   -2.171980914314551e-05
1.01586902768136e-06   5.633051667944776e-07   -2.171980914314551e-05
1.01586902768136e-06   5.633051667944776e-07   -2.171980914314551e-05
1.01586902768136e-06   5.633051667944776e-07   -2.171980914314551e-05
-1.3235010356455986e-05   2.488161980782186e-06   -2.3679142363889965e-05
-1.3235010356455986e-05   2.488161980782186e-06   -2.3679142363889965e-05
-1.3235010356455986e-05   2.488161980782186e-06   -2.3679142363889965e-05
-1.3235010356455986e-05   2.488161980782186e-06   -2.3679142363889965e-05
-1.3378684223409138e-05   -1.1520200140732219e-06   -2.610270800572508e-05
-1.3378684223409138e-05   -1.1520200140732219e-06   -2.610270800572508e-05
-1.3378684223409138e-05   -1.1520200140732219e-06   -2.610270800572508e-05
-1.3378684223409138e-05   -1.1520200140732219e-06   -2.610270800572508e-05
-1.270657599258476e-05   3.871870305116945e-06   -2.2247437749635997e-05
-1.270657599258476e-05   3.871870305116945e-06   -2.2247437749635997e-05
-1.270657599258476e-05   3.871870305116945e-06   -2.2247437749635997e-05
-1.270657599258476e-05   3.871870305116945e-06   -2.2247437749635997e-05
-1.0928923116103676e-05   -3.198137562025402e-08   -2.2867881535328766e-05
-1.0928923116103676e-05   -3.198137562025402e-08   -2.2867881535328766e-05
-1.0928923116103676e-05   -3.198137562025402e-08   -2.2867881535328766e-05
-1.0928923116103676e-05   -3.198137562025402e-08   -2.2867881535328766e-05
-1.2013067523677234e-05   1.7127542913740034e-06   -2.2107815589570215e-05
-1.2013067523677234e-05   1.7127542913740034e-06   -2.2107815589570215e-05
-1.2013067523677234e-05   1.7127542913740034e-06   -2.2107815589570215e-05
-1.2013067523677234e-05   1.7127542913740034e-06   -2.2107815589570215e-05
-1.0928923116103632e-05   3.871870305117016e-06   -1.9905126741193678e-05
-1.0928923116103632e-05   3.871870305117016e-06   -1.9905126741193678e-05
-1.0928923116103632e-05   3.871870305117016e-06   -1.9905126741193678e-05
-1.0928923116103632e-05   3.871870305117016e-06   -1.9905126741193678e-05
-1.270657599258487e-05   -3.198137562025402e-08   -2.521019254377141e-05
-1.270657599258487e-05   -3.198137562025402e-08   -2.521019254377141e-05
-1.270657599258487e-05   -3.198137562025402e-08   -2.521019254377141e-05
-1.270657599258487e-05   -3.198137562025402e-08   -2.521019254377141e-05
-1.1859163114815081e-05   4.570411407719705e-06   -2.064609935529334e-05
-1.1859163114815081e-05   4.570411407719705e-06   -2.064609935529334e-05
-1.1859163114815081e-05   4.570411407719705e-06   -2.064609935529334e-05
-1.1859163114815081e-05   4.570411407719705e-06   -2.064609935529334e-05
-9.020752569109678e-06   6.009429889641642e-07   -2.2995102546882165e-05
-9.020752569109678e-06   6.009429889641642e-07   -2.2995102546882165e-05
-9.020752569109678e-06   6.009429889641642e-07   -2.2995102546882165e-05
-9.020752569109678e-06   6.009429889641642e-07   -2.2995102546882165e-05
-1.0920196702006534e-05   2.2874236406320286e-06   -2.084125071638923e-05
-1.0920196702006534e-05   2.2874236406320286e-06   -2.084125071638923e-05
-1.0920196702006534e-05   2.2874236406320286e-06   -2.084125071638923e-05
-1.0920196702006534e-05   2.2874236406320286e-06   -2.084125071638923e-05
-9.020752569109615e-06   4.570411407719643e-06   -1.8264418304039776e-05
-9.020752569109615e-06   4.570411407719643e-06   -1.8264418304039776e-05
-9.020752569109615e-06   4.570411407719643e-06   -1.8264418304039776e-05
-9.020752569109615e-06   4.570411407719643e-06   -1.8264418304039776e-05
-1.1859163114815081e-05   6.009429889641642e-07   -2.537678359813562e-05
-1.1859163114815081e-05   6.009429889641642e-07   -2.537678359813562e-05
-1.1859163114815081e-05   6.009429889641642e-07   -2.537678359813562e-05
-1.1859163114815081e-05   6.009429889641642e-07   -2.537678359813562e-05
-1.1197254063293198e-05   5.6766480803394255e-06   -1.9155788160627775e-05
-1.1197254063293198e-05   5.6766480803394255e-06   -1.9155788160627775e-05
-1.1197254063293198e-05   5.6766480803394255e-06   -1.9155788160627775e-05
-1.1197254063293198e-05   5.6766480803394255e-06   -1.9155788160627775e-05
-6.664776350539454e-06   1.8635002491263625e-06   -2.4422028983156442e-05
-6.664776350539454e-06   1.8635002491263625e-06   -2.4422028983156442e-05
-6.664776350539454e-06   1.8635002491263625e-06   -2.4422028983156442e-05
-6.664776350539454e-06   1.8635002491263625e-06   -2.4422028983156442e-05
-9.55337200390082e-06   2.8373012182607293e-06   -2.0191983475700533e-05
-9.55337200390082e-06   2.8373012182607293e-06   -2.0191983475700533e-05
-9.55337200390082e-06   2.8373012182607293e-06   -2.0191983475700533e-05
-9.55337200390082e-06   2.8373012182607293e-06   -2.0191983475700533e-05
-1.3378684223409084e-05   1.4253781903755342e-06   -4.300991857916021e-05
-1.3378684223409084e-05   1.4253781903755342e-06   -4.300991857916021e-05
-1.3378684223409084e-05   1.4253781903755342e-06   -4.300991857916021e-05
-1.3378684223409084e-05   1.4253781903755342e-06   -4.300991857916021e-05
-1.5388464729195145e-05   -2.5173324391973215e-07   -4.7365819616047617e-05
-1.5388464729195145e-05   -2.5173324391973215e-07   -4.7365819616047617e-05
-1.5388464729195145e-05   -2.5173324391973215e-07   -4.7365819616047617e-05
-1.5388464729195145e-05   -2.5173324391973215e-07   -4.7365819616047617e-05
-1.4844667752777249e-05   3.011699225469004e-06   -4.304312361994348e-05
-1.4844667752777249e-05   3.011699225469004e-06   -4.304312361994348e-05
-1.4844667752777249e-05   3.011699225469004e-06   -4.304312361994348e-05
-1.4844667752777249e-05   3.011699225469004e-06   -4.304312361994348e-05
-1.270657599258485e-05   1.1610373535546684e-06   -4.549621276378219e-05
-1.270657599258485e-05   1.1610373535546684e-06   -4.549621276378219e-05
-1.270657599258485e-05   1.1610373535546684e-06   -4.549621276378219e-05
-1.270657599258485e-05   1.1610373535546684e-06   -4.549621276378219e-05
-1.3915536855890534e-05   1.6460369178172233e-06   -4.37722777301642e-05
-1.3915536855890534e-05   1.6460369178172233e-06   -4.37722777301642e-05
-1.3915536855890534e-05   1.6460369178172233e-06   -4.37722777301642e-05
-1.3915536855890534e-05   1.6460369178172233e-06   -4.37722777301642e-05
-1.270657599258476e-05   3.011699225469008e-06   -4.193272649679453e-05
-1.270657599258476e-05   3.011699225469008e-06   -4.193272649679453e-05
-1.270657599258476e-05   3.011699225469008e-06   -4.193272649679453e-05
-1.270657599258476e-05   3.011699225469008e-06   -4.193272649679453e-05
-1.4844667752777222e-05   1.1610373535546684e-06   -4.6606609886930706e-05
-1.4844667752777222e-05   1.1610373535546684e-06   -4.6606609886930706e-05
-1.4844667752777222e-05   1.1610373535546684e-06   -4.6606609886930706e-05
-1.4844667752777222e-05   1.1610373535546684e-06   -4.6606609886930706e-05
-1.4279160201996136e-05   4.486243127635155e-06   -4.268243554768456e-05
-1.4279160201996136e-05   4.486243127635155e-06   -4.268243554768456e-05
-1.4279160201996136e-05   4.486243127635155e-06   -4.268243554768456e-05
-1.4279160201996136e-05   4.486243127635155e-06   -4.268243554768456e-05
-1.18591631148151e-05   2.5207802812165885e-06   -4.5536486318468235e-05
-1.18591631148151e-05   2.5207802812165885e-06   -4.5536486318468235e-05
-1.18591631148151e-05   2.5207802812165885e-06   -4.5536486318468235e-05
-1.18591631148151e-05   2.5207802812165885e-06   -4.5536486318468235e-05
-1.3370552605051908e-05   2.7844483779250993e-06   -4.317570469276557e-05
-1.3370552605051908e-05   2.7844483779250993e-06   -4.317570469276557e-05
-1.3370552605051908e-05   2.7844483779250993e-06   -4.317570469276557e-05
-1.3370552605051908e-05   2.7844483779250993e-06   -4.317570469276557e-05
-1.1859163114815081e-05   4.486243127635152e-06   -4.1503157839833243e-05
-1.1859163114815081e-05   4.486243127635152e-06   -4.1503157839833243e-05
-1.1859163114815081e-05   4.486243127635152e-06   -4.1503157839833243e-05
-1.1859163114815081e-05   4.486243127635152e-06   -4.1503157839833243e-05
-1.4279160201996081e-05   2.5207802812165885e-06   -4.6715764026319224e-05
-1.4279160201996081e-05   2.5207802812165885e-06   -4.6715764026319224e-05
-1.4279160201996081e-05   2.5207802812165885e-06   -4.6715764026319224e-05
-1.4279160201996081e-05   2.5207802812165885e-06   -4.6715764026319224e-05
-1.374629337141573e-05   6.124239651346874e-06   -4.338913249403637e-05
-1.374629337141573e-05   6.124239651346874e-06   -4.338913249403637e-05
-1.374629337141573e-05   6.124239651346874e-06   -4.338913249403637e-05
-1.374629337141573e-05   6.124239651346874e-06   -4.338913249403637e-05
-1.1197254063293234e-05   4.073008001578837e-06   -4.6406792351046566e-05
-1.1197254063293234e-05   4.073008001578837e-06   -4.6406792351046566e-05
-1.1197254063293234e-05   4.073008001578837e-06   -4.6406792351046566e-05
-1.1197254063293234e-05   4.073008001578837e-06   -4.6406792351046566e-05
-1.2890760988517149e-05   3.978131248216256e-06   -4.35273547569884e-05
-1.2890760988517149e-05   3.978131248216256e-06   -4.35273547569884e-05
-1.2890760988517149e-05   3.978131248216256e-06   -4.35273547569884e-05
-1.2890760988517149e-05   3.978131248216256e-06   -4.35273547569884e-05
-1.538846472919509e-05   8.148465261280751e-07   -5.008114079798384e-05
-1.538846472919509e-05   8.148465261280751e-07   -5.008114079798384e-05
-1.538846472919509e-05   8.148465261280751e-07   -5.008114079798384e-05
-1.538846472919509e-05   8.148465261280751e-07   -5.008114079798384e-05
-1.7508384339840053e-05   1.1685615000055216e-06   -5.340211116473229e-05
-1.7508384339840053e-05   1.1685615000055216e-06   -5.340211116473229e-05
-1.7508384339840053e-05   1.1685615000055216e-06   -5.340211116473229e-05
-1.7508384339840053e-05   1.1685615000055216e-06   -5.340211116473229e-05
-1.697378566166048e-05   2.42999848966397e-06   -4.931070171600095e-05
-1.697378566166048e-05   2.42999848966397e-06   -4.931070171600095e-05
-1.697378566166048e-05   2.42999848966397e-06   -4.931070171600095e-05
-1.697378566166048e-05   2.42999848966397e-06   -4.931070171600095e-05
-1.4844667752777233e-05   2.6282090642912315e-06   -5.297815790891562e-05
-1.4844667752777233e-05   2.6282090642912315e-06   -5.297815790891562e-05
-1.4844667752777233e-05   2.6282090642912315e-06   -5.297815790891562e-05
-1.4844667752777233e-05   2.6282090642912315e-06   -5.297815790891562e-05
-1.6081450788001342e-05   1.9875817222519184e-06   -5.0532476444986095e-05
-1.6081450788001342e-05   1.9875817222519184e-06   -5.0532476444986095e-05
-1.6081450788001342e-05   1.9875817222519184e-06   -5.0532476444986095e-05
-1.6081450788001342e-05   1.9875817222519184e-06   -5.0532476444986095e-05
-1.4844667752777195e-05   2.429998489663952e-06   -4.9429628060777245e-05
-1.4844667752777195e-05   2.429998489663952e-06   -4.9429628060777245e-05
-1.4844667752777195e-05   2.429998489663952e-06   -4.9429628060777245e-05
-1.4844667752777195e-05   2.429998489663952e-06   -4.9429628060777245e-05
-1.697378566166048e-05   2.6282090642912315e-06   -5.285923156413976e-05
-1.697378566166048e-05   2.6282090642912315e-06   -5.285923156413976e-05
-1.697378566166048e-05   2.6282090642912315e-06   -5.285923156413976e-05
-1.697378566166048e-05   2.6282090642912315e-06   -5.285923156413976e-05
-1.6411771431711312e-05   4.059324879440674e-06   -4.94542877904308e-05
-1.6411771431711312e-05   4.059324879440674e-06   -4.94542877904308e-05
-1.6411771431711312e-05   4.059324879440674e-06   -4.94542877904308e-05
-1.6411771431711312e-05   4.059324879440674e-06   -4.94542877904308e-05
-1.4279160201996098e-05   4.120034307546205e-06   -5.304506549681879e-05
-1.4279160201996098e-05   4.120034307546205e-06   -5.304506549681879e-05
-1.4279160201996098e-05   4.120034307546205e-06   -5.304506549681879e-05
-1.4279160201996098e-05   4.120034307546205e-06   -5.304506549681879e-05
-1.5632436137638403e-05   3.2358245359352753e-06   -5.025907974111606e-05
-1.5632436137638403e-05   3.2358245359352753e-06   -5.025907974111606e-05
-1.5632436137638403e-05   3.2358245359352753e-06   -5.025907974111606e-05
-1.5632436137638403e-05   3.2358245359352753e-06   -5.025907974111606e-05
-1.4279160201996081e-05   4.0593248794407015e-06   -4.9490713447293663e-05
-1.4279160201996081e-05   4.0593248794407015e-06   -4.9490713447293663e-05
-1.4279160201996081e-05   4.0593248794407015e-06   -4.9490713447293663e-05
-1.4279160201996081e-05   4.0593248794407015e-06   -4.9490713447293663e-05
-1.6411771431711285e-05   4.120034307546205e-06   -5.3008639839955654e-05
-1.6411771431711285e-05   4.120034307546205e-06   -5.3008639839955654e-05
-1.6411771431711285e-05   4.120034307546205e-06   -5.3008639839955654e-05
-1.6411771431711285e-05   4.120034307546205e-06   -5.3008639839955654e-05
-1.5881647179491183e-05   5.713211464341552e-06   -5.041414975410076e-05
-1.5881647179491183e-05   5.713211464341552e-06   -5.041414975410076e-05
-1.5881647179491183e-05   5.713211464341552e-06   -5.041414975410076e-05
-1.5881647179491183e-05   5.713211464341552e-06   -5.041414975410076e-05
-1.3746293371415735e-05   5.632462037662243e-06   -5.3924623111552055e-05
-1.3746293371415735e-05   5.632462037662243e-06   -5.3924623111552055e-05
-1.3746293371415735e-05   5.632462037662243e-06   -5.3924623111552055e-05
-1.3746293371415735e-05   5.632462037662243e-06   -5.3924623111552055e-05
-1.5218923347479533e-05   4.501514740485766e-06   -5.079167143980607e-05
-1.5218923347479533e-05   4.501514740485766e-06   -5.079167143980607e-05
-1.5218923347479533e-05   4.501514740485766e-06   -5.079167143980607e-05
-1.5218923347479533e-05   4.501514740485766e-06   -5.079167143980607e-05
-1.750838433984002e-05   3.44596078848349e-07   -4.320965299247205e-05
-1.750838433984002e-05   3.44596078848349e-07   -4.320965299247205e-05
-1.750838433984002e-05   3.44596078848349e-07   -4.320965299247205e-05
-1.750838433984002e-05   3.44596078848349e-07   -4.320965299247205e-05
-1.974437505401834e-05   2.5984842646439334e-06   -4.558397127129199e-05
-1.974437505401834e-05   2.5984842646439334e-06   -4.558397127129199e-05
-1.974437505401834e-05   2.5984842646439334e-06   -4.558397127129199e-05
-1.974437505401834e-05   2.5984842646439334e-06   -4.558397127129199e-05
-1.9098033958480842e-05   1.908713288382687e-06   -4.131240415337944e-05
-1.9098033958480842e-05   1.908713288382687e-06   -4.131240415337944e-05
-1.9098033958480842e-05   1.908713288382687e-06   -4.131240415337944e-05
-1.9098033958480842e-05   1.908713288382687e-06   -4.131240415337944e-05
-1.6973785661660477e-05   4.062759232651564e-06   -4.6145245547974273e-05
-1.6973785661660477e-05   4.062759232651564e-06   -4.6145245547974273e-05
-1.6973785661660477e-05   4.062759232651564e-06   -4.6145245547974273e-05
-1.6973785661660477e-05   4.062759232651564e-06   -4.6145245547974273e-05
-1.8189551389271483e-05   2.3919793831670387e-06   -4.311650142559928e-05
-1.8189551389271483e-05   2.3919793831670387e-06   -4.311650142559928e-05
-1.8189551389271483e-05   2.3919793831670387e-06   -4.311650142559928e-05
-1.8189551389271483e-05   2.3919793831670387e-06   -4.311650142559928e-05
-1.6973785661660446e-05   1.908713288382735e-06   -4.2604831719940547e-05
-1.6973785661660446e-05   1.908713288382735e-06   -4.2604831719940547e-05
-1.6973785661660446e-05   1.908713288382735e-06   -4.2604831719940547e-05
-1.6973785661660446e-05   1.908713288382735e-06   -4.2604831719940547e-05
-1.9098033958480842e-05   4.062759232651564e-06   -4.4852817981413245e-05
-1.9098033958480842e-05   4.062759232651564e-06   -4.4852817981413245e-05
-1.9098033958480842e-05   4.062759232651564e-06   -4.4852817981413245e-05
-1.9098033958480842e-05   4.062759232651564e-06   -4.4852817981413245e-05
-1.826393484396817e-05   3.383078875439415e-06   -4.1492936463353005e-05
-1.826393484396817e-05   3.383078875439415e-06   -4.1492936463353005e-05
-1.826393484396817e-05   3.383078875439415e-06   -4.1492936463353005e-05
-1.826393484396817e-05   3.383078875439415e-06   -4.1492936463353005e-05
-1.6411771431711285e-05   5.413941831250695e-06   -4.579839325726757e-05
-1.6411771431711285e-05   5.413941831250695e-06   -4.579839325726757e-05
-1.6411771431711285e-05   5.413941831250695e-06   -4.579839325726757e-05
-1.6411771431711285e-05   5.413941831250695e-06   -4.579839325726757e-05
-1.7611987730949333e-05   3.5533851238857966e-06   -4.268169873411944e-05
-1.7611987730949333e-05   3.5533851238857966e-06   -4.268169873411944e-05
-1.7611987730949333e-05   3.5533851238857966e-06   -4.268169873411944e-05
-1.7611987730949333e-05   3.5533851238857966e-06   -4.268169873411944e-05
-1.6411771431711258e-05   3.383078875439388e-06   -4.271145423683962e-05
-1.6411771431711258e-05   3.383078875439388e-06   -4.271145423683962e-05
-1.6411771431711258e-05   3.383078875439388e-06   -4.271145423683962e-05
-1.6411771431711258e-05   3.383078875439388e-06   -4.271145423683962e-05
-1.8263934843968212e-05   5.413941831250695e-06   -4.457987548378084e-05
-1.8263934843968212e-05   5.413941831250695e-06   -4.457987548378084e-05
-1.8263934843968212e-05   5.413941831250695e-06   -4.457987548378084e-05
-1.8263934843968212e-05   5.413941831250695e-06   -4.457987548378084e-05
-1.7608375180885326e-05   5.050729402705919e-06   -4.2643858094535835e-05
-1.7608375180885326e-05   5.050729402705919e-06   -4.2643858094535835e-05
-1.7608375180885326e-05   5.050729402705919e-06   -4.2643858094535835e-05
-1.7608375180885326e-05   5.050729402705919e-06   -4.2643858094535835e-05
-1.5881647179491183e-05   6.9287783001493845e-06   -4.6648567435325755e-05
-1.5881647179491183e-05   6.9287783001493845e-06   -4.6648567435325755e-05
-1.5881647179491183e-05   6.9287783001493845e-06   -4.6648567435325755e-05
-1.5881647179491183e-05   6.9287783001493845e-06   -4.6648567435325755e-05
-1.7178404332781853e-05   4.740820442336721e-06   -4.31745307984862e-05
-1.7178404332781853e-05   4.740820442336721e-06   -4.31745307984862e-05
-1.7178404332781853e-05   4.740820442336721e-06   -4.31745307984862e-05
-1.7178404332781853e-05   4.740820442336721e-06   -4.31745307984862e-05
-1.974437505401827e-05   4.7370660129216313e-07   -2.3034150116670515e-05
-1.974437505401827e-05   4.7370660129216313e-07   -2.3034150116670515e-05
-1.974437505401827e-05   4.7370660129216313e-07   -2.3034150116670515e-05
-1.974437505401827e-05   4.7370660129216313e-07   -2.3034150116670515e-05
-2.3890645936428033e-05   4.3643220754181755e-06   -2.7610232302877633e-05
-2.3890645936428033e-05   4.3643220754181755e-06   -2.7610232302877633e-05
-2.3890645936428033e-05   4.3643220754181755e-06   -2.7610232302877633e-05
-2.3890645936428033e-05   4.3643220754181755e-06   -2.7610232302877633e-05
-2.1602535079866497e-05   1.7094373890589112e-06   -1.900266443429833e-05
-2.1602535079866497e-05   1.7094373890589112e-06   -1.900266443429833e-05
-2.1602535079866497e-05   1.7094373890589112e-06   -1.900266443429833e-05
-2.1602535079866497e-05   1.7094373890589112e-06   -1.900266443429833e-05
-1.9098033958480802e-05   5.6913203014359245e-06   -2.5565962717367133e-05
-1.9098033958480802e-05   5.6913203014359245e-06   -2.5565962717367133e-05
-1.9098033958480802e-05   5.6913203014359245e-06   -2.5565962717367133e-05
-1.9098033958480802e-05   5.6913203014359245e-06   -2.5565962717367133e-05
-2.0230565304854327e-05   3.2208940580178997e-06   -2.2196154727361012e-05
-2.0230565304854327e-05   3.2208940580178997e-06   -2.2196154727361012e-05
-2.0230565304854327e-05   3.2208940580178997e-06   -2.2196154727361012e-05
-2.0230565304854327e-05   3.2208940580178997e-06   -2.2196154727361012e-05
-1.9098033958480748e-05   1.7094373890587806e-06   -2.1391794181724235e-05
-1.9098033958480748e-05   1.7094373890587806e-06   -2.1391794181724235e-05
-1.9098033958480748e-05   1.7094373890587806e-06   -2.1391794181724235e-05
-1.9098033958480748e-05   1.7094373890587806e-06   -2.1391794181724235e-05
-2.1602535079866497e-05   5.6913203014359245e-06   -2.3176832969941255e-05
-2.1602535079866497e-05   5.6913203014359245e-06   -2.3176832969941255e-05
-2.1602535079866497e-05   5.6913203014359245e-06   -2.3176832969941255e-05
-2.1602535079866497e-05   5.6913203014359245e-06   -2.3176832969941255e-05
-1.9741476184972732e-05   2.404692061784954e-06   -1.8697321217396893e-05
-1.9741476184972732e-05   2.404692061784954e-06   -1.8697321217396893e-05
-1.9741476184972732e-05   2.404692061784954e-06   -1.8697321217396893e-05
-1.9741476184972732e-05   2.404692061784954e-06   -1.8697321217396893e-05
-1.826393484396817e-05   6.2989605030144315e-06   -2.3496451183808677e-05
-1.826393484396817e-05   6.2989605030144315e-06   -2.3496451183808677e-05
-1.826393484396817e-05   6.2989605030144315e-06   -2.3496451183808677e-05
-1.826393484396817e-05   6.2989605030144315e-06   -2.3496451183808677e-05
-1.9251349286992785e-05   3.834665015877304e-06   -2.0372183153151988e-05
-1.9251349286992785e-05   3.834665015877304e-06   -2.0372183153151988e-05
-1.9251349286992785e-05   3.834665015877304e-06   -2.0372183153151988e-05
-1.9251349286992785e-05   3.834665015877304e-06   -2.0372183153151988e-05
-1.8263934843968144e-05   2.4046920617849915e-06   -2.1033882282134558e-05
-1.8263934843968144e-05   2.4046920617849915e-06   -2.1033882282134558e-05
-1.8263934843968144e-05   2.4046920617849915e-06   -2.1033882282134558e-05
-1.8263934843968144e-05   2.4046920617849915e-06   -2.1033882282134558e-05
-1.9741476184972787e-05   6.2989605030144315e-06   -2.1159890119071094e-05
-1.9741476184972787e-05   6.2989605030144315e-06   -2.1159890119071094e-05
-1.9741476184972787e-05   6.2989605030144315e-06   -2.1159890119071094e-05
-1.9741476184972787e-05   6.2989605030144315e-06   -2.1159890119071094e-05
-1.7466564797065452e-05   3.6389553243582843e-06   -1.9295667392596927e-05
-1.7466564797065452e-05   3.6389553243582843e-06   -1.9295667392596927e-05
-1.7466564797065452e-05   3.6389553243582843e-06   -1.9295667392596927e-05
-1.7466564797065452e-05   3.6389553243582843e-06   -1.9295667392596927e-05
-1.760837518088531e-05   7.241917239895427e-06   -2.122109390221915e-05
-1.760837518088531e-05   7.241917239895427e-06   -2.122109390221915e-05
-1.760837518088531e-05   7.241917239895427e-06   -2.122109390221915e-05
-1.760837518088531e-05   7.241917239895427e-06   -2.122109390221915e-05
-1.781537303558075e-05   4.331789476198387e-06   -1.913002081950862e-05
-1.781537303558075e-05   4.331789476198387e-06   -1.913002081950862e-05
-1.781537303558075e-05   4.331789476198387e-06   -1.913002081950862e-05
-1.781537303558075e-05   4.331789476198387e-06   -1.913002081950862e-05
1.1637786695088464e-05   -1.1520200140730252e-06   -1.202112369825376e-05
1.1637786695088464e-05   -1.1520200140730252e-06   -1.202112369825376e-05
1.1637786695088464e-05   -1.1520200140730252e-06   -1.202112369825376e-05
1.1637786695088464e-05   -1.1520200140730252e-06   -1.202112369825376e-05
1.187776545538634e-06   -4.860236748685954e-06   -3.166273732160439e-05
1.187776545538634e-06   -4.860236748685954e-06   -3.166273732160439e-05
1.187776545538634e-06   -4.860236748685954e-06   -3.166273732160439e-05
1.187776545538634e-06   -4.860236748685954e-06   -3.166273732160439e-05
2.109692683333194e-06   -3.198137562025402e-08   -1.3273318479970972e-05
2.109692683333194e-06   -3.198137562025402e-08   -1.3273318479970972e-05
2.109692683333194e-06   -3.198137562025402e-08   -1.3273318479970972e-05
2.109692683333194e-06   -3.198137562025402e-08   -1.3273318479970972e-05
1.4206736798722812e-05   -3.993225135989591e-06   -3.105831241606528e-05
1.4206736798722812e-05   -3.993225135989591e-06   -3.105831241606528e-05
1.4206736798722812e-05   -3.993225135989591e-06   -3.105831241606528e-05
1.4206736798722812e-05   -3.993225135989591e-06   -3.105831241606528e-05
7.014475835289965e-06   -2.026430085386166e-06   -2.0251287840705907e-05
7.014475835289965e-06   -2.026430085386166e-06   -2.0251287840705907e-05
7.014475835289965e-06   -2.026430085386166e-06   -2.0251287840705907e-05
7.014475835289965e-06   -2.026430085386166e-06   -2.0251287840705907e-05
1.4206736798722842e-05   -3.198137562043715e-08   -1.0896572223749327e-05
1.4206736798722842e-05   -3.198137562043715e-08   -1.0896572223749327e-05
1.4206736798722842e-05   -3.198137562043715e-08   -1.0896572223749327e-05
1.4206736798722842e-05   -3.198137562043715e-08   -1.0896572223749327e-05
2.109692683333194e-06   -3.993225135989591e-06   -3.343505867228714e-05
2.109692683333194e-06   -3.993225135989591e-06   -3.343505867228714e-05
2.109692683333194e-06   -3.993225135989591e-06   -3.343505867228714e-05
2.109692683333194e-06   -3.993225135989591e-06   -3.343505867228714e-05
3.1961172949337632e-06   6.009429889641642e-07   -1.3372535922850362e-05
3.1961172949337632e-06   6.009429889641642e-07   -1.3372535922850362e-05
3.1961172949337632e-06   6.009429889641642e-07   -1.3372535922850362e-05
3.1961172949337632e-06   6.009429889641642e-07   -1.3372535922850362e-05
1.6379368947032326e-05   -3.4159896221798783e-06   -3.293446244299512e-05
1.6379368947032326e-05   -3.4159896221798783e-06   -3.293446244299512e-05
1.6379368947032326e-05   -3.4159896221798783e-06   -3.293446244299512e-05
1.6379368947032326e-05   -3.4159896221798783e-06   -3.293446244299512e-05
8.644894625669012e-06   -1.6217877726932596e-06   -2.1120193017082475e-05
8.644894625669012e-06   -1.6217877726932596e-06   -2.1120193017082475e-05
8.644894625669012e-06   -1.6217877726932596e-06   -2.1120193017082475e-05
8.644894625669012e-06   -1.6217877726932596e-06   -2.1120193017082475e-05
1.6379368947032336e-05   6.009429889639766e-07   -1.0962376356164327e-05
1.6379368947032336e-05   6.009429889639766e-07   -1.0962376356164327e-05
1.6379368947032336e-05   6.009429889639766e-07   -1.0962376356164327e-05
1.6379368947032336e-05   6.009429889639766e-07   -1.0962376356164327e-05
3.1961172949338174e-06   -3.4159896221794446e-06   -3.5344622009681153e-05
3.1961172949338174e-06   -3.4159896221794446e-06   -3.5344622009681153e-05
3.1961172949338174e-06   -3.4159896221794446e-06   -3.5344622009681153e-05
3.1961172949338174e-06   -3.4159896221794446e-06   -3.5344622009681153e-05
4.09138127751825e-06   1.8635002491267962e-06   -1.4646302699294336e-05
4.09138127751825e-06   1.8635002491267962e-06   -1.4646302699294336e-05
4.09138127751825e-06   1.8635002491267962e-06   -1.4646302699294336e-05
4.09138127751825e-06   1.8635002491267962e-06   -1.4646302699294336e-05
1.8989142390677544e-05   -1.960733227004789e-06   -3.718136446888092e-05
1.8989142390677544e-05   -1.960733227004789e-06   -3.718136446888092e-05
1.8989142390677544e-05   -1.960733227004789e-06   -3.718136446888092e-05
1.8989142390677544e-05   -1.960733227004789e-06   -3.718136446888092e-05
9.943972841051743e-06   -1.0282662468311457e-06   -2.2665562074275524e-05
9.943972841051743e-06   -1.0282662468311457e-06   -2.2665562074275524e-05
9.943972841051743e-06   -1.0282662468311457e-06   -2.2665562074275524e-05
9.943972841051743e-06   -1.0282662468311457e-06   -2.2665562074275524e-05
1.187776545538634e-06   -2.5173324391950673e-07   -3.450289848876695e-05
1.187776545538634e-06   -2.5173324391950673e-07   -3.450289848876695e-05
1.187776545538634e-06   -2.5173324391950673e-07   -3.450289848876695e-05
1.187776545538634e-06   -2.5173324391950673e-07   -3.450289848876695e-05
-1.1021962676882629e-05   -1.925697089981502e-06   -5.585684216710587e-05
-1.1021962676882629e-05   -1.925697089981502e-06   -5.585684216710587e-05
-1.1021962676882629e-05   -1.925697089981502e-06   -5.585684216710587e-05
-1.1021962676882629e-05   -1.925697089981502e-06   -5.585684216710587e-05
-1.0212593607318739e-05   1.1610373535546684e-06   -3.4698677149619253e-05
-1.0212593607318739e-05   1.1610373535546684e-06   -3.4698677149619253e-05
-1.0212593607318739e-05   1.1610373535546684e-06   -3.4698677149619253e-05
-1.0212593607318739e-05   1.1610373535546684e-06   -3.4698677149619253e-05
2.109692683333171e-06   -7.378600625075442e-07   -5.4096482517735245e-05
2.109692683333171e-06   -7.378600625075442e-07   -5.4096482517735245e-05
2.109692683333171e-06   -7.378600625075442e-07   -5.4096482517735245e-05
2.109692683333171e-06   -7.378600625075442e-07   -5.4096482517735245e-05
-4.380425025890615e-06   -7.511767644670028e-08   -4.3677265100665265e-05
-4.380425025890615e-06   -7.511767644670028e-08   -4.3677265100665265e-05
-4.380425025890615e-06   -7.511767644670028e-08   -4.3677265100665265e-05
-4.380425025890615e-06   -7.511767644670028e-08   -4.3677265100665265e-05
2.109692683333194e-06   1.1610373535545445e-06   -3.355933869998175e-05
2.109692683333194e-06   1.1610373535545445e-06   -3.355933869998175e-05
2.109692683333194e-06   1.1610373535545445e-06   -3.355933869998175e-05
2.109692683333194e-06   1.1610373535545445e-06   -3.355933869998175e-05
-1.0212593607318766e-05   -7.378600625075442e-07   -5.523582096737269e-05
-1.0212593607318766e-05   -7.378600625075442e-07   -5.523582096737269e-05
-1.0212593607318766e-05   -7.378600625075442e-07   -5.523582096737269e-05
-1.0212593607318766e-05   -7.378600625075442e-07   -5.523582096737269e-05
-9.39863719179307e-06   2.5207802812165885e-06   -3.4750638642425894e-05
-9.39863719179307e-06   2.5207802812165885e-06   -3.4750638642425894e-05
-9.39863719179307e-06   2.5207802812165885e-06   -3.4750638642425894e-05
-9.39863719179307e-06   2.5207802812165885e-06   -3.4750638642425894e-05
3.196117294933784e-06   4.901136158113294e-07   -5.452349612106123e-05
3.196117294933784e-06   4.901136158113294e-07   -5.452349612106123e-05
3.196117294933784e-06   4.901136158113294e-07   -5.452349612106123e-05
3.196117294933784e-06   4.901136158113294e-07   -5.452349612106123e-05
-3.6631094254856683e-06   8.999287855028862e-07   -4.333734068884357e-05
-3.6631094254856683e-06   8.999287855028862e-07   -4.333734068884357e-05
-3.6631094254856683e-06   8.999287855028862e-07   -4.333734068884357e-05
-3.6631094254856683e-06   8.999287855028862e-07   -4.333734068884357e-05
3.1961172949337632e-06   2.520780281216375e-06   -3.3532238643183086e-05
3.1961172949337632e-06   2.520780281216375e-06   -3.3532238643183086e-05
3.1961172949337632e-06   2.520780281216375e-06   -3.3532238643183086e-05
3.1961172949337632e-06   2.520780281216375e-06   -3.3532238643183086e-05
-9.39863719179307e-06   4.901136158113294e-07   -5.574189612030415e-05
-9.39863719179307e-06   4.901136158113294e-07   -5.574189612030415e-05
-9.39863719179307e-06   4.901136158113294e-07   -5.574189612030415e-05
-9.39863719179307e-06   4.901136158113294e-07   -5.574189612030415e-05
-8.620680935662167e-06   4.073008001578837e-06   -3.5620628878576263e-05
-8.620680935662167e-06   4.073008001578837e-06   -3.5620628878576263e-05
-8.620680935662167e-06   4.073008001578837e-06   -3.5620628878576263e-05
-8.620680935662167e-06   4.073008001578837e-06   -3.5620628878576263e-05
4.0913812775182834e-06   1.943922151379472e-06   -5.5529947723757344e-05
4.0913812775182834e-06   1.943922151379472e-06   -5.5529947723757344e-05
4.0913812775182834e-06   1.943922151379472e-06   -5.5529947723757344e-05
4.0913812775182834e-06   1.943922151379472e-06   -5.5529947723757344e-05
-2.8648356762366596e-06   1.9803296559934257e-06   -4.3958097303600915e-05
-2.8648356762366596e-06   1.9803296559934257e-06   -4.3958097303600915e-05
-2.8648356762366596e-06   1.9803296559934257e-06   -4.3958097303600915e-05
-2.8648356762366596e-06   1.9803296559934257e-06   -4.3958097303600915e-05
-1.1021962676882656e-05   1.1685615000053147e-06   -4.1755797329415256e-05
-1.1021962676882656e-05   1.1685615000053147e-06   -4.1755797329415256e-05
-1.1021962676882656e-05   1.1685615000053147e-06   -4.1755797329415256e-05
-1.1021962676882656e-05   1.1685615000053147e-06   -4.1755797329415256e-05
-2.3126945383300837e-05   1.4732575205648676e-06   -6.174795089444306e-05
-2.3126945383300837e-05   1.4732575205648676e-06   -6.174795089444306e-05
-2.3126945383300837e-05   1.4732575205648676e-06   -6.174795089444306e-05
-2.3126945383300837e-05   1.4732575205648676e-06   -6.174795089444306e-05
-2.2311673044098183e-05   2.6282090642907978e-06   -4.100947315049865e-05
-2.2311673044098183e-05   2.6282090642907978e-06   -4.100947315049865e-05
-2.2311673044098183e-05   2.6282090642907978e-06   -4.100947315049865e-05
-2.2311673044098183e-05   2.6282090642907978e-06   -4.100947315049865e-05
-1.0212593607318778e-05   2.729462432800745e-06   -6.123535756623674e-05
-1.0212593607318778e-05   2.729462432800745e-06   -6.123535756623674e-05
-1.0212593607318778e-05   2.729462432800745e-06   -6.123535756623674e-05
-1.0212593607318778e-05   2.729462432800745e-06   -6.123535756623674e-05
-1.6571742602183126e-05   2.25622415816985e-06   -5.035283294335086e-05
-1.6571742602183126e-05   2.25622415816985e-06   -5.035283294335086e-05
-1.6571742602183126e-05   2.25622415816985e-06   -5.035283294335086e-05
-1.6571742602183126e-05   2.25622415816985e-06   -5.035283294335086e-05
-1.0212593607318766e-05   2.6282090642908795e-06   -4.107022517160449e-05
-1.0212593607318766e-05   2.6282090642908795e-06   -4.107022517160449e-05
-1.0212593607318766e-05   2.6282090642908795e-06   -4.107022517160449e-05
-1.0212593607318766e-05   2.6282090642908795e-06   -4.107022517160449e-05
-2.2311673044098143e-05   2.729462432800745e-06   -6.117460554513118e-05
-2.2311673044098143e-05   2.729462432800745e-06   -6.117460554513118e-05
-2.2311673044098143e-05   2.729462432800745e-06   -6.117460554513118e-05
-2.2311673044098143e-05   2.729462432800745e-06   -6.117460554513118e-05
-2.148351691235544e-05   4.120034307545772e-06   -4.11161478533022e-05
-2.148351691235544e-05   4.120034307545772e-06   -4.11161478533022e-05
-2.148351691235544e-05   4.120034307545772e-06   -4.11161478533022e-05
-2.148351691235544e-05   4.120034307545772e-06   -4.11161478533022e-05
-9.398637191793092e-06   4.059688073584922e-06   -6.122140631386274e-05
-9.398637191793092e-06   4.059688073584922e-06   -6.122140631386274e-05
-9.398637191793092e-06   4.059688073584922e-06   -6.122140631386274e-05
-9.398637191793092e-06   4.059688073584922e-06   -6.122140631386274e-05
-1.585401846564718e-05   3.3524172450864406e-06   -5.003807502700747e-05
-1.585401846564718e-05   3.3524172450864406e-06   -5.003807502700747e-05
-1.585401846564718e-05   3.3524172450864406e-06   -5.003807502700747e-05
-1.585401846564718e-05   3.3524172450864406e-06   -5.003807502700747e-05
-9.398637191793097e-06   4.120034307545766e-06   -4.107994011292551e-05
-9.398637191793097e-06   4.120034307545766e-06   -4.107994011292551e-05
-9.398637191793097e-06   4.120034307545766e-06   -4.107994011292551e-05
-9.398637191793097e-06   4.120034307545766e-06   -4.107994011292551e-05
-2.1483516912355405e-05   4.059688073584922e-06   -6.12576140542392e-05
-2.1483516912355405e-05   4.059688073584922e-06   -6.12576140542392e-05
-2.1483516912355405e-05   4.059688073584922e-06   -6.12576140542392e-05
-2.1483516912355405e-05   4.059688073584922e-06   -6.12576140542392e-05
-2.069377968341815e-05   5.632462037661809e-06   -4.20394711272299e-05
-2.069377968341815e-05   5.632462037661809e-06   -4.20394711272299e-05
-2.069377968341815e-05   5.632462037661809e-06   -4.20394711272299e-05
-2.069377968341815e-05   5.632462037661809e-06   -4.20394711272299e-05
-8.620680935662195e-06   5.4128779076469645e-06   -6.202955189548104e-05
-8.620680935662195e-06   5.4128779076469645e-06   -6.202955189548104e-05
-8.620680935662195e-06   5.4128779076469645e-06   -6.202955189548104e-05
-8.620680935662195e-06   5.4128779076469645e-06   -6.202955189548104e-05
-1.5186099383521662e-05   4.465224954894494e-06   -5.051859604406387e-05
-1.5186099383521662e-05   4.465224954894494e-06   -5.051859604406387e-05
-1.5186099383521662e-05   4.465224954894494e-06   -5.051859604406387e-05
-1.5186099383521662e-05   4.465224954894494e-06   -5.051859604406387e-05
-2.3126945383300874e-05   2.5984842646434116e-06   -3.510717273511651e-05
-2.3126945383300874e-05   2.5984842646434116e-06   -3.510717273511651e-05
-2.3126945383300874e-05   2.5984842646434116e-06   -3.510717273511651e-05
-2.3126945383300874e-05   2.5984842646434116e-06   -3.510717273511651e-05
-3.5083039286032993e-05   4.770849815304359e-06   -5.3730576575940084e-05
-3.5083039286032993e-05   4.770849815304359e-06   -5.3730576575940084e-05
-3.5083039286032993e-05   4.770849815304359e-06   -5.3730576575940084e-05
-3.5083039286032993e-05   4.770849815304359e-06   -5.3730576575940084e-05
-3.415188654944831e-05   4.062759232651564e-06   -3.3066133112148906e-05
-3.415188654944831e-05   4.062759232651564e-06   -3.3066133112148906e-05
-3.415188654944831e-05   4.062759232651564e-06   -3.3066133112148906e-05
-3.415188654944831e-05   4.062759232651564e-06   -3.3066133112148906e-05
-2.2311673044098143e-05   6.111682602958583e-06   -5.402917630991698e-05
-2.2311673044098143e-05   6.111682602958583e-06   -5.402917630991698e-05
-2.2311673044098143e-05   6.111682602958583e-06   -5.402917630991698e-05
-2.2311673044098143e-05   6.111682602958583e-06   -5.402917630991698e-05
-2.8469886997806633e-05   4.560574299542625e-06   -4.2834821405019804e-05
-2.8469886997806633e-05   4.560574299542625e-06   -4.2834821405019804e-05
-2.8469886997806633e-05   4.560574299542625e-06   -4.2834821405019804e-05
-2.8469886997806633e-05   4.560574299542625e-06   -4.2834821405019804e-05
-2.2311673044098183e-05   4.06275923265165e-06   -3.429548713433325e-05
-2.2311673044098183e-05   4.06275923265165e-06   -3.429548713433325e-05
-2.2311673044098183e-05   4.06275923265165e-06   -3.429548713433325e-05
-2.2311673044098183e-05   4.06275923265165e-06   -3.429548713433325e-05
-3.415188654944836e-05   6.111682602958583e-06   -5.279982228773277e-05
-3.415188654944836e-05   6.111682602958583e-06   -5.279982228773277e-05
-3.415188654944836e-05   6.111682602958583e-06   -5.279982228773277e-05
-3.415188654944836e-05   6.111682602958583e-06   -5.279982228773277e-05
-3.303806561474895e-05   5.413941831250695e-06   -3.2762421839652384e-05
-3.303806561474895e-05   5.413941831250695e-06   -3.2762421839652384e-05
-3.303806561474895e-05   5.413941831250695e-06   -3.2762421839652384e-05
-3.303806561474895e-05   5.413941831250695e-06   -3.2762421839652384e-05
-2.1483516912355443e-05   7.3197408828537536e-06   -5.316348244127022e-05
-2.1483516912355443e-05   7.3197408828537536e-06   -5.316348244127022e-05
-2.1483516912355443e-05   7.3197408828537536e-06   -5.316348244127022e-05
-2.1483516912355443e-05   7.3197408828537536e-06   -5.316348244127022e-05
-2.7531954365276864e-05   5.618918932665407e-06   -4.206226018295551e-05
-2.7531954365276864e-05   5.618918932665407e-06   -4.206226018295551e-05
-2.7531954365276864e-05   5.618918932665407e-06   -4.206226018295551e-05
-2.7531954365276864e-05   5.618918932665407e-06   -4.206226018295551e-05
-2.148351691235544e-05   5.413941831250667e-06   -3.3905901270614436e-05
-2.148351691235544e-05   5.413941831250667e-06   -3.3905901270614436e-05
-2.148351691235544e-05   5.413941831250667e-06   -3.3905901270614436e-05
-2.148351691235544e-05   5.413941831250667e-06   -3.3905901270614436e-05
-3.303806561474895e-05   7.3197408828537536e-06   -5.202000301030821e-05
-3.303806561474895e-05   7.3197408828537536e-06   -5.202000301030821e-05
-3.303806561474895e-05   7.3197408828537536e-06   -5.202000301030821e-05
-3.303806561474895e-05   7.3197408828537536e-06   -5.202000301030821e-05
-3.210984047786554e-05   6.9287783001493845e-06   -3.3669023169595426e-05
-3.210984047786554e-05   6.9287783001493845e-06   -3.3669023169595426e-05
-3.210984047786554e-05   6.9287783001493845e-06   -3.3669023169595426e-05
-3.210984047786554e-05   6.9287783001493845e-06   -3.3669023169595426e-05
-2.0693779683418153e-05   8.672016009150536e-06   -5.3741733785741695e-05
-2.0693779683418153e-05   8.672016009150536e-06   -5.3741733785741695e-05
-2.0693779683418153e-05   8.672016009150536e-06   -5.3741733785741695e-05
-2.0693779683418153e-05   8.672016009150536e-06   -5.3741733785741695e-05
-2.690229201616267e-05   6.662128819471744e-06   -4.218828091736023e-05
-2.690229201616267e-05   6.662128819471744e-06   -4.218828091736023e-05
-2.690229201616267e-05   6.662128819471744e-06   -4.218828091736023e-05
-2.690229201616267e-05   6.662128819471744e-06   -4.218828091736023e-05
-3.5083039286032993e-05   4.364322075418093e-06   -1.8164383720781045e-05
-3.5083039286032993e-05   4.364322075418093e-06   -1.8164383720781045e-05
-3.5083039286032993e-05   4.364322075418093e-06   -1.8164383720781045e-05
-3.5083039286032993e-05   4.364322075418093e-06   -1.8164383720781045e-05
-4.8704112287438516e-05   8.201338384237946e-06   -3.856396227116523e-05
-4.8704112287438516e-05   8.201338384237946e-06   -3.856396227116523e-05
-4.8704112287438516e-05   8.201338384237946e-06   -3.856396227116523e-05
-4.8704112287438516e-05   8.201338384237946e-06   -3.856396227116523e-05
-4.615174354248003e-05   5.6913203014359245e-06   -1.1438338779199472e-05
-4.615174354248003e-05   5.6913203014359245e-06   -1.1438338779199472e-05
-4.615174354248003e-05   5.6913203014359245e-06   -1.1438338779199472e-05
-4.615174354248003e-05   5.6913203014359245e-06   -1.1438338779199472e-05
-3.4151886549448314e-05   9.592885416275562e-06   -3.3779039503155795e-05
-3.4151886549448314e-05   9.592885416275562e-06   -3.3779039503155795e-05
-3.4151886549448314e-05   9.592885416275562e-06   -3.3779039503155795e-05
-3.4151886549448314e-05   9.592885416275562e-06   -3.3779039503155795e-05
-3.935361677165644e-05   7.122373521411748e-06   -2.3627181995890766e-05
-3.935361677165644e-05   7.122373521411748e-06   -2.3627181995890766e-05
-3.935361677165644e-05   7.122373521411748e-06   -2.3627181995890766e-05
-3.935361677165644e-05   7.122373521411748e-06   -2.3627181995890766e-05
-3.415188654944835e-05   5.69132030143596e-06   -1.3779277848103037e-05
-3.415188654944835e-05   5.69132030143596e-06   -1.3779277848103037e-05
-3.415188654944835e-05   5.69132030143596e-06   -1.3779277848103037e-05
-3.415188654944835e-05   5.69132030143596e-06   -1.3779277848103037e-05
-4.6151743542479864e-05   9.592885416275562e-06   -3.143810043425223e-05
-4.6151743542479864e-05   9.592885416275562e-06   -3.143810043425223e-05
-4.6151743542479864e-05   9.592885416275562e-06   -3.143810043425223e-05
-4.6151743542479864e-05   9.592885416275562e-06   -3.143810043425223e-05
-4.4042145216484667e-05   6.2989605030144315e-06   -9.403581321379981e-06
-4.4042145216484667e-05   6.2989605030144315e-06   -9.403581321379981e-06
-4.4042145216484667e-05   6.2989605030144315e-06   -9.403581321379981e-06
-4.4042145216484667e-05   6.2989605030144315e-06   -9.403581321379981e-06
-3.3038065614748895e-05   1.0091320866848115e-05   -3.001913020923948e-05
-3.3038065614748895e-05   1.0091320866848115e-05   -3.001913020923948e-05
-3.3038065614748895e-05   1.0091320866848115e-05   -3.001913020923948e-05
-3.3038065614748895e-05   1.0091320866848115e-05   -3.001913020923948e-05
-3.841513020804189e-05   7.747427299702788e-06   -1.9651019746797437e-05
-3.841513020804189e-05   7.747427299702788e-06   -1.9651019746797437e-05
-3.841513020804189e-05   7.747427299702788e-06   -1.9651019746797437e-05
-3.841513020804189e-05   7.747427299702788e-06   -1.9651019746797437e-05
-3.303806561474895e-05   6.298960503014556e-06   -1.1678997539679974e-05
-3.303806561474895e-05   6.298960503014556e-06   -1.1678997539679974e-05
-3.303806561474895e-05   6.298960503014556e-06   -1.1678997539679974e-05
-3.303806561474895e-05   6.298960503014556e-06   -1.1678997539679974e-05
-4.404214521648453e-05   1.0091320866847681e-05   -2.77437139909395e-05
-4.404214521648453e-05   1.0091320866847681e-05   -2.77437139909395e-05
-4.404214521648453e-05   1.0091320866847681e-05   -2.77437139909395e-05
-4.404214521648453e-05   1.0091320866847681e-05   -2.77437139909395e-05
-4.1548703323621e-05   7.241917239895427e-06   -7.278555599671624e-06
-4.1548703323621e-05   7.241917239895427e-06   -7.278555599671624e-06
-4.1548703323621e-05   7.241917239895427e-06   -7.278555599671624e-06
-4.1548703323621e-05   7.241917239895427e-06   -7.278555599671624e-06
-3.210984047786551e-05   1.0724956198701532e-05   -2.5099817051214132e-05
-3.210984047786551e-05   1.0724956198701532e-05   -2.5099817051214132e-05
-3.210984047786551e-05   1.0724956198701532e-05   -2.5099817051214132e-05
-3.210984047786551e-05   1.0724956198701532e-05   -2.5099817051214132e-05
-3.643383182183668e-05   8.049827578828373e-06   -1.628808763933881e-05
-3.643383182183668e-05   8.049827578828373e-06   -1.628808763933881e-05
-3.643383182183668e-05   8.049827578828373e-06   -1.628808763933881e-05
-3.643383182183668e-05   8.049827578828373e-06   -1.628808763933881e-05
3.7033916875348224e-05   -4.860236748686138e-06   -3.364225952650745e-07
3.7033916875348224e-05   -4.860236748686138e-06   -3.364225952650745e-07
3.7033916875348224e-05   -4.860236748686138e-06   -3.364225952650745e-07
3.7033916875348224e-05   -4.860236748686138e-06   -3.364225952650745e-07
1.579311897571302e-05   -8.774785539536652e-06   -3.8086481702500913e-05
1.579311897571302e-05   -8.774785539536652e-06   -3.8086481702500913e-05
1.579311897571302e-05   -8.774785539536652e-06   -3.8086481702500913e-05
1.579311897571302e-05   -8.774785539536652e-06   -3.8086481702500913e-05
1.6917926312486216e-05   -3.993225135989591e-06   -4.237127648854845e-06
1.6917926312486216e-05   -3.993225135989591e-06   -4.237127648854845e-06
1.6917926312486216e-05   -3.993225135989591e-06   -4.237127648854845e-06
1.6917926312486216e-05   -3.993225135989591e-06   -4.237127648854845e-06
3.9845108001090115e-05   -8.159718819866248e-06   -3.994920091953541e-05
3.9845108001090115e-05   -8.159718819866248e-06   -3.994920091953541e-05
3.9845108001090115e-05   -8.159718819866248e-06   -3.994920091953541e-05
3.9845108001090115e-05   -8.159718819866248e-06   -3.994920091953541e-05
2.6293140757076436e-05   -5.7807050513271514e-06   -1.8789997107302825e-05
2.6293140757076436e-05   -5.7807050513271514e-06   -1.8789997107302825e-05
2.6293140757076436e-05   -5.7807050513271514e-06   -1.8789997107302825e-05
2.6293140757076436e-05   -5.7807050513271514e-06   -1.8789997107302825e-05
3.984510800109016e-05   -3.993225135989749e-06   -1.737231438528851e-06
3.984510800109016e-05   -3.993225135989749e-06   -1.737231438528851e-06
3.984510800109016e-05   -3.993225135989749e-06   -1.737231438528851e-06
3.984510800109016e-05   -3.993225135989749e-06   -1.737231438528851e-06
1.6917926312486108e-05   -8.159718819866248e-06   -4.2449097129861404e-05
1.6917926312486108e-05   -8.159718819866248e-06   -4.2449097129861404e-05
1.6917926312486108e-05   -8.159718819866248e-06   -4.2449097129861404e-05
1.6917926312486108e-05   -8.159718819866248e-06   -4.2449097129861404e-05
1.8163659834400736e-05   -3.4159896221794446e-06   -5.945682578338291e-06
1.8163659834400736e-05   -3.4159896221794446e-06   -5.945682578338291e-06
1.8163659834400736e-05   -3.4159896221794446e-06   -5.945682578338291e-06
1.8163659834400736e-05   -3.4159896221794446e-06   -5.945682578338291e-06
4.220792666241998e-05   -7.632254703667917e-06   -4.3489701576144364e-05
4.220792666241998e-05   -7.632254703667917e-06   -4.3489701576144364e-05
4.220792666241998e-05   -7.632254703667917e-06   -4.3489701576144364e-05
4.220792666241998e-05   -7.632254703667917e-06   -4.3489701576144364e-05
2.8404747728231634e-05   -5.545993913610298e-06   -2.1736159826531848e-05
2.8404747728231634e-05   -5.545993913610298e-06   -2.1736159826531848e-05
2.8404747728231634e-05   -5.545993913610298e-06   -2.1736159826531848e-05
2.8404747728231634e-05   -5.545993913610298e-06   -2.1736159826531848e-05
4.220792666242008e-05   -3.4159896221795204e-06   -3.415923529445728e-06
4.220792666242008e-05   -3.4159896221795204e-06   -3.415923529445728e-06
4.220792666242008e-05   -3.4159896221795204e-06   -3.415923529445728e-06
4.220792666242008e-05   -3.4159896221795204e-06   -3.415923529445728e-06
1.8163659834400682e-05   -7.632254703667917e-06   -4.601946062503747e-05
1.8163659834400682e-05   -7.632254703667917e-06   -4.601946062503747e-05
1.8163659834400682e-05   -7.632254703667917e-06   -4.601946062503747e-05
1.8163659834400682e-05   -7.632254703667917e-06   -4.601946062503747e-05
1.9194378765659183e-05   -1.960733227004789e-06   -9.892702233046512e-06
1.9194378765659183e-05   -1.960733227004789e-06   -9.892702233046512e-06
1.9194378765659183e-05   -1.960733227004789e-06   -9.892702233046512e-06
1.9194378765659183e-05   -1.960733227004789e-06   -9.892702233046512e-06
4.4951244196932746e-05   -5.962926074014763e-06   -5.041949557696348e-05
4.4951244196932746e-05   -5.962926074014763e-06   -5.041949557696348e-05
4.4951244196932746e-05   -5.962926074014763e-06   -5.041949557696348e-05
4.4951244196932746e-05   -5.962926074014763e-06   -5.041949557696348e-05
2.9552495712285653e-05   -4.894963117167261e-06   -2.5395692543328128e-05
2.9552495712285653e-05   -4.894963117167261e-06   -2.5395692543328128e-05
2.9552495712285653e-05   -4.894963117167261e-06   -2.5395692543328128e-05
2.9552495712285653e-05   -4.894963117167261e-06   -2.5395692543328128e-05
1.579311897571302e-05   -1.925697089981602e-06   -2.5874878407639978e-05
1.579311897571302e-05   -1.925697089981602e-06   -2.5874878407639978e-05
1.579311897571302e-05   -1.925697089981602e-06   -2.5874878407639978e-05
1.579311897571302e-05   -1.925697089981602e-06   -2.5874878407639978e-05
-6.7019775405814295e-06   -4.1151786899906034e-06   -6.468039489480296e-05
-6.7019775405814295e-06   -4.1151786899906034e-06   -6.468039489480296e-05
-6.7019775405814295e-06   -4.1151786899906034e-06   -6.468039489480296e-05
-6.7019775405814295e-06   -4.1151786899906034e-06   -6.468039489480296e-05
-5.654727171069572e-06   -7.378600625075442e-07   -2.641343467318642e-05
-5.654727171069572e-06   -7.378600625075442e-07   -2.641343467318642e-05
-5.654727171069572e-06   -7.378600625075442e-07   -2.641343467318642e-05
-5.654727171069572e-06   -7.378600625075442e-07   -2.641343467318642e-05
1.6917926312486213e-05   -3.262665360646757e-06   -6.25196406335625e-05
1.6917926312486213e-05   -3.262665360646757e-06   -6.25196406335625e-05
1.6917926312486213e-05   -3.262665360646757e-06   -6.25196406335625e-05
1.6917926312486213e-05   -3.262665360646757e-06   -6.25196406335625e-05
5.14490587320587e-06   -1.990880938877726e-06   -4.3661010554489914e-05
5.14490587320587e-06   -1.990880938877726e-06   -4.3661010554489914e-05
5.14490587320587e-06   -1.990880938877726e-06   -4.3661010554489914e-05
5.14490587320587e-06   -1.990880938877726e-06   -4.3661010554489914e-05
1.6917926312486162e-05   -7.378600625076745e-07   -2.4898551494302677e-05
1.6917926312486162e-05   -7.378600625076745e-07   -2.4898551494302677e-05
1.6917926312486162e-05   -7.378600625076745e-07   -2.4898551494302677e-05
1.6917926312486162e-05   -7.378600625076745e-07   -2.4898551494302677e-05
-5.654727171069545e-06   -3.2626653606471906e-06   -6.403452381244625e-05
-5.654727171069545e-06   -3.2626653606471906e-06   -6.403452381244625e-05
-5.654727171069545e-06   -3.2626653606471906e-06   -6.403452381244625e-05
-5.654727171069545e-06   -3.2626653606471906e-06   -6.403452381244625e-05
-4.654793671827491e-06   4.901136158113294e-07   -2.6750875705695972e-05
-4.654793671827491e-06   4.901136158113294e-07   -2.6750875705695972e-05
-4.654793671827491e-06   4.901136158113294e-07   -2.6750875705695972e-05
-4.654793671827491e-06   4.901136158113294e-07   -2.6750875705695972e-05
1.8163659834400662e-05   -2.220418077485218e-06   -6.315531253343193e-05
1.8163659834400662e-05   -2.220418077485218e-06   -6.315531253343193e-05
1.8163659834400662e-05   -2.220418077485218e-06   -6.315531253343193e-05
1.8163659834400662e-05   -2.220418077485218e-06   -6.315531253343193e-05
5.976695051036145e-06   -1.237278762583182e-06   -4.343358815009791e-05
5.976695051036145e-06   -1.237278762583182e-06   -4.343358815009791e-05
5.976695051036145e-06   -1.237278762583182e-06   -4.343358815009791e-05
5.976695051036145e-06   -1.237278762583182e-06   -4.343358815009791e-05
1.8163659834400736e-05   4.901136158113408e-07   -2.512455668971826e-05
1.8163659834400736e-05   4.901136158113408e-07   -2.512455668971826e-05
1.8163659834400736e-05   4.901136158113408e-07   -2.512455668971826e-05
1.8163659834400736e-05   4.901136158113408e-07   -2.512455668971826e-05
-4.654793671827491e-06   -2.2204180774847843e-06   -6.478163154941007e-05
-4.654793671827491e-06   -2.2204180774847843e-06   -6.478163154941007e-05
-4.654793671827491e-06   -2.2204180774847843e-06   -6.478163154941007e-05
-4.654793671827491e-06   -2.2204180774847843e-06   -6.478163154941007e-05
-3.715298226185501e-06   1.943922151379472e-06   -2.7658747933204586e-05
-3.715298226185501e-06   1.943922151379472e-06   -2.7658747933204586e-05
-3.715298226185501e-06   1.943922151379472e-06   -2.7658747933204586e-05
-3.715298226185501e-06   1.943922151379472e-06   -2.7658747933204586e-05
1.9194378765659092e-05   -9.094154002206242e-07   -6.412954038865202e-05
1.9194378765659092e-05   -9.094154002206242e-07   -6.412954038865202e-05
1.9194378765659092e-05   -9.094154002206242e-07   -6.412954038865202e-05
1.9194378765659092e-05   -9.094154002206242e-07   -6.412954038865202e-05
7.012973085008353e-06   -3.081200440351213e-07   -4.418797480127968e-05
7.012973085008353e-06   -3.081200440351213e-07   -4.418797480127968e-05
7.012973085008353e-06   -3.081200440351213e-07   -4.418797480127968e-05
7.012973085008353e-06   -3.081200440351213e-07   -4.418797480127968e-05
-6.7019775405814566e-06   1.473257520564943e-06   -3.326249370731835e-05
-6.7019775405814566e-06   1.473257520564943e-06   -3.326249370731835e-05
-6.7019775405814566e-06   1.473257520564943e-06   -3.326249370731835e-05
-6.7019775405814566e-06   1.473257520564943e-06   -3.326249370731835e-05
-2.8800895136675858e-05   7.373993307774329e-07   -7.053553794801495e-05
-2.8800895136675858e-05   7.373993307774329e-07   -7.053553794801495e-05
-2.8800895136675858e-05   7.373993307774329e-07   -7.053553794801495e-05
-2.8800895136675858e-05   7.373993307774329e-07   -7.053553794801495e-05
-2.7673596004401205e-05   2.729462432800745e-06   -3.303395695390286e-05
-2.7673596004401205e-05   2.729462432800745e-06   -3.303395695390286e-05
-2.7673596004401205e-05   2.729462432800745e-06   -3.303395695390286e-05
-2.7673596004401205e-05   2.729462432800745e-06   -3.303395695390286e-05
-5.654727171069536e-06   1.6944862963807691e-06   -6.91110859942702e-05
-5.654727171069536e-06   1.6944862963807691e-06   -6.91110859942702e-05
-5.654727171069536e-06   1.6944862963807691e-06   -6.91110859942702e-05
-5.654727171069536e-06   1.6944862963807691e-06   -6.91110859942702e-05
-1.7089759879364613e-05   2.0195103458439494e-06   -5.024771257678971e-05
-1.7089759879364613e-05   2.0195103458439494e-06   -5.024771257678971e-05
-1.7089759879364613e-05   2.0195103458439494e-06   -5.024771257678971e-05
-1.7089759879364613e-05   2.0195103458439494e-06   -5.024771257678971e-05
-5.654727171069572e-06   2.729462432800647e-06   -3.2412971272050744e-05
-5.654727171069572e-06   2.729462432800647e-06   -3.2412971272050744e-05
-5.654727171069572e-06   2.729462432800647e-06   -3.2412971272050744e-05
-5.654727171069572e-06   2.729462432800647e-06   -3.2412971272050744e-05
-2.7673596004401205e-05   1.6944862963807691e-06   -6.973207167612215e-05
-2.7673596004401205e-05   1.6944862963807691e-06   -6.973207167612215e-05
-2.7673596004401205e-05   1.6944862963807691e-06   -6.973207167612215e-05
-2.7673596004401205e-05   1.6944862963807691e-06   -6.973207167612215e-05
-2.6586446193807046e-05   4.059688073584922e-06   -3.2984147979481324e-05
-2.6586446193807046e-05   4.059688073584922e-06   -3.2984147979481324e-05
-2.6586446193807046e-05   4.059688073584922e-06   -3.2984147979481324e-05
-2.6586446193807046e-05   4.059688073584922e-06   -3.2984147979481324e-05
-4.654793671827475e-06   2.803417939874122e-06   -6.878314010255407e-05
-4.654793671827475e-06   2.803417939874122e-06   -6.878314010255407e-05
-4.654793671827475e-06   2.803417939874122e-06   -6.878314010255407e-05
-4.654793671827475e-06   2.803417939874122e-06   -6.878314010255407e-05
-1.6119450030139845e-05   2.9154372961719653e-06   -4.9742591119145276e-05
-1.6119450030139845e-05   2.9154372961719653e-06   -4.9742591119145276e-05
-1.6119450030139845e-05   2.9154372961719653e-06   -4.9742591119145276e-05
-1.6119450030139845e-05   2.9154372961719653e-06   -4.9742591119145276e-05
-4.654793671827464e-06   4.059688073584938e-06   -3.223038589925467e-05
-4.654793671827464e-06   4.059688073584938e-06   -3.223038589925467e-05
-4.654793671827464e-06   4.059688073584938e-06   -3.223038589925467e-05
-4.654793671827464e-06   4.059688073584938e-06   -3.223038589925467e-05
-2.6586446193807046e-05   2.803417939874122e-06   -6.953690218278056e-05
-2.6586446193807046e-05   2.803417939874122e-06   -6.953690218278056e-05
-2.6586446193807046e-05   2.803417939874122e-06   -6.953690218278056e-05
-2.6586446193807046e-05   2.803417939874122e-06   -6.953690218278056e-05
-2.5581835421203337e-05   5.4128779076469645e-06   -3.375888129503917e-05
-2.5581835421203337e-05   5.4128779076469645e-06   -3.375888129503917e-05
-2.5581835421203337e-05   5.4128779076469645e-06   -3.375888129503917e-05
-2.5581835421203337e-05   5.4128779076469645e-06   -3.375888129503917e-05
-3.7152982261854726e-06   3.949576740595439e-06   -6.932512925317134e-05
-3.7152982261854726e-06   3.949576740595439e-06   -6.932512925317134e-05
-3.7152982261854726e-06   3.949576740595439e-06   -6.932512925317134e-05
-3.7152982261854726e-06   3.949576740595439e-06   -6.932512925317134e-05
-1.5252315006028243e-05   3.834760326107932e-06   -5.002787810474171e-05
-1.5252315006028243e-05   3.834760326107932e-06   -5.002787810474171e-05
-1.5252315006028243e-05   3.834760326107932e-06   -5.002787810474171e-05
-1.5252315006028243e-05   3.834760326107932e-06   -5.002787810474171e-05
-2.8800895136675905e-05   4.770849815304557e-06   -2.6990053633084475e-05
-2.8800895136675905e-05   4.770849815304557e-06   -2.6990053633084475e-05
-2.8800895136675905e-05   4.770849815304557e-06   -2.6990053633084475e-05
-2.8800895136675905e-05   4.770849815304557e-06   -2.6990053633084475e-05
-5.048385368287083e-05   5.763378011412312e-06   -6.253280095907805e-05
-5.048385368287083e-05   5.763378011412312e-06   -6.253280095907805e-05
-5.048385368287083e-05   5.763378011412312e-06   -6.253280095907805e-05
-5.048385368287083e-05   5.763378011412312e-06   -6.253280095907805e-05
-4.912552095058126e-05   6.111682602958583e-06   -2.5367818574115924e-05
-4.912552095058126e-05   6.111682602958583e-06   -2.5367818574115924e-05
-4.912552095058126e-05   6.111682602958583e-06   -2.5367818574115924e-05
-4.912552095058126e-05   6.111682602958583e-06   -2.5367818574115924e-05
-2.7673596004401256e-05   6.979531177247426e-06   -6.164173596232207e-05
-2.7673596004401256e-05   6.979531177247426e-06   -6.164173596232207e-05
-2.7673596004401256e-05   6.979531177247426e-06   -6.164173596232207e-05
-2.7673596004401256e-05   6.979531177247426e-06   -6.164173596232207e-05
-3.8735738876369676e-05   6.161269960330319e-06   -4.2713874445558236e-05
-3.8735738876369676e-05   6.161269960330319e-06   -4.2713874445558236e-05
-3.8735738876369676e-05   6.161269960330319e-06   -4.2713874445558236e-05
-3.8735738876369676e-05   6.161269960330319e-06   -4.2713874445558236e-05
-2.7673596004401252e-05   6.111682602958637e-06   -2.5888527718688796e-05
-2.7673596004401252e-05   6.111682602958637e-06   -2.5888527718688796e-05
-2.7673596004401252e-05   6.111682602958637e-06   -2.5888527718688796e-05
-2.7673596004401252e-05   6.111682602958637e-06   -2.5888527718688796e-05
-4.912552095058126e-05   6.979531177247426e-06   -6.112102681774911e-05
-4.912552095058126e-05   6.979531177247426e-06   -6.112102681774911e-05
-4.912552095058126e-05   6.979531177247426e-06   -6.112102681774911e-05
-4.912552095058126e-05   6.979531177247426e-06   -6.112102681774911e-05
-4.762337854662929e-05   7.3197408828537536e-06   -2.4465663197990655e-05
-4.762337854662929e-05   7.3197408828537536e-06   -2.4465663197990655e-05
-4.762337854662929e-05   7.3197408828537536e-06   -2.4465663197990655e-05
-4.762337854662929e-05   7.3197408828537536e-06   -2.4465663197990655e-05
-2.6586446193807094e-05   8.026996163722211e-06   -5.9951570287882194e-05
-2.6586446193807094e-05   8.026996163722211e-06   -5.9951570287882194e-05
-2.6586446193807094e-05   8.026996163722211e-06   -5.9951570287882194e-05
-2.6586446193807094e-05   8.026996163722211e-06   -5.9951570287882194e-05
-3.736273990989023e-05   7.1076894945293e-06   -4.143949675956133e-05
-3.736273990989023e-05   7.1076894945293e-06   -4.143949675956133e-05
-3.736273990989023e-05   7.1076894945293e-06   -4.143949675956133e-05
-3.736273990989023e-05   7.1076894945293e-06   -4.143949675956133e-05
-2.65864461938071e-05   7.319740882853779e-06   -2.4890016366511947e-05
-2.65864461938071e-05   7.319740882853779e-06   -2.4890016366511947e-05
-2.65864461938071e-05   7.319740882853779e-06   -2.4890016366511947e-05
-2.65864461938071e-05   7.319740882853779e-06   -2.4890016366511947e-05
-4.762337854662929e-05   8.026996163722211e-06   -5.952721711936131e-05
-4.762337854662929e-05   8.026996163722211e-06   -5.952721711936131e-05
-4.762337854662929e-05   8.026996163722211e-06   -5.952721711936131e-05
-4.762337854662929e-05   8.026996163722211e-06   -5.952721711936131e-05
-4.635383003645817e-05   8.672016009150536e-06   -2.5030690423416243e-05
-4.635383003645817e-05   8.672016009150536e-06   -2.5030690423416243e-05
-4.635383003645817e-05   8.672016009150536e-06   -2.5030690423416243e-05
-4.635383003645817e-05   8.672016009150536e-06   -2.5030690423416243e-05
-2.558183542120338e-05   9.18638648227544e-06   -5.9959303732715804e-05
-2.558183542120338e-05   9.18638648227544e-06   -5.9959303732715804e-05
-2.558183542120338e-05   9.18638648227544e-06   -5.9959303732715804e-05
-2.558183542120338e-05   9.18638648227544e-06   -5.9959303732715804e-05
-3.650650748221179e-05   7.979676084911552e-06   -4.1027490725951104e-05
-3.650650748221179e-05   7.979676084911552e-06   -4.1027490725951104e-05
-3.650650748221179e-05   7.979676084911552e-06   -4.1027490725951104e-05
-3.650650748221179e-05   7.979676084911552e-06   -4.1027490725951104e-05
-5.048385368287083e-05   8.201338384238239e-06   -1.3530132195936802e-05
-5.048385368287083e-05   8.201338384238239e-06   -1.3530132195936802e-05
-5.048385368287083e-05   8.201338384238239e-06   -1.3530132195936802e-05
-5.048385368287083e-05   8.201338384238239e-06   -1.3530132195936802e-05
-7.331386510975603e-05   1.133655871098354e-05   -4.969901904469838e-05
-7.331386510975603e-05   1.133655871098354e-05   -4.969901904469838e-05
-7.331386510975603e-05   1.133655871098354e-05   -4.969901904469838e-05
-7.331386510975603e-05   1.133655871098354e-05   -4.969901904469838e-05
-7.020031946673537e-05   9.592885416275562e-06   -4.331373862130053e-06
-7.020031946673537e-05   9.592885416275562e-06   -4.331373862130053e-06
-7.020031946673537e-05   9.592885416275562e-06   -4.331373862130053e-06
-7.020031946673537e-05   9.592885416275562e-06   -4.331373862130053e-06
-4.912552095058117e-05   1.2952321961957197e-05   -4.147169998312927e-05
-4.912552095058117e-05   1.2952321961957197e-05   -4.147169998312927e-05
-4.912552095058117e-05   1.2952321961957197e-05   -4.147169998312927e-05
-4.912552095058117e-05   1.2952321961957197e-05   -4.147169998312927e-05
-5.826770392801599e-05   1.0800569826243094e-05   -2.4943677072642562e-05
-5.826770392801599e-05   1.0800569826243094e-05   -2.4943677072642562e-05
-5.826770392801599e-05   1.0800569826243094e-05   -2.4943677072642562e-05
-5.826770392801599e-05   1.0800569826243094e-05   -2.4943677072642562e-05
-4.9125520950581204e-05   9.592885416275484e-06   -6.347035789538947e-06
-4.9125520950581204e-05   9.592885416275484e-06   -6.347035789538947e-06
-4.9125520950581204e-05   9.592885416275484e-06   -6.347035789538947e-06
-4.9125520950581204e-05   9.592885416275484e-06   -6.347035789538947e-06
-7.020031946673524e-05   1.2952321961957197e-05   -3.945603805572025e-05
-7.020031946673524e-05   1.2952321961957197e-05   -3.945603805572025e-05
-7.020031946673524e-05   1.2952321961957197e-05   -3.945603805572025e-05
-7.020031946673524e-05   1.2952321961957197e-05   -3.945603805572025e-05
-6.763808185186051e-05   1.0091320866848115e-05   -4.933965642155581e-07
-6.763808185186051e-05   1.0091320866848115e-05   -4.933965642155581e-07
-6.763808185186051e-05   1.0091320866848115e-05   -4.933965642155581e-07
-6.763808185186051e-05   1.0091320866848115e-05   -4.933965642155581e-07
-4.762337854662929e-05   1.3376977254692373e-05   -3.5822629238974385e-05
-4.762337854662929e-05   1.3376977254692373e-05   -3.5822629238974385e-05
-4.762337854662929e-05   1.3376977254692373e-05   -3.5822629238974385e-05
-4.762337854662929e-05   1.3376977254692373e-05   -3.5822629238974385e-05
-5.7202027030648314e-05   1.1442984799962894e-05   -1.8697819626104374e-05
-5.7202027030648314e-05   1.1442984799962894e-05   -1.8697819626104374e-05
-5.7202027030648314e-05   1.1442984799962894e-05   -1.8697819626104374e-05
-5.7202027030648314e-05   1.1442984799962894e-05   -1.8697819626104374e-05
-4.762337854662929e-05   1.009132086684798e-05   -2.464790396922373e-06
-4.762337854662929e-05   1.009132086684798e-05   -2.464790396922373e-06
-4.762337854662929e-05   1.009132086684798e-05   -2.464790396922373e-06
-4.762337854662929e-05   1.009132086684798e-05   -2.464790396922373e-06
-6.763808185186027e-05   1.3376977254692373e-05   -3.3851235406267936e-05
-6.763808185186027e-05   1.3376977254692373e-05   -3.3851235406267936e-05
-6.763808185186027e-05   1.3376977254692373e-05   -3.3851235406267936e-05
-6.763808185186027e-05   1.3376977254692373e-05   -3.3851235406267936e-05
-6.487545691767616e-05   1.0724956198701532e-05   4.377075518926469e-06
-6.487545691767616e-05   1.0724956198701532e-05   4.377075518926469e-06
-6.487545691767616e-05   1.0724956198701532e-05   4.377075518926469e-06
-6.487545691767616e-05   1.0724956198701532e-05   4.377075518926469e-06
-4.6353830036458126e-05   1.374460925406126e-05   -2.8304094449652623e-05
-4.6353830036458126e-05   1.374460925406126e-05   -2.8304094449652623e-05
-4.6353830036458126e-05   1.374460925406126e-05   -2.8304094449652623e-05
-4.6353830036458126e-05   1.374460925406126e-05   -2.8304094449652623e-05
-5.4607256706814315e-05   1.1548135058929865e-05   -1.3230498815314744e-05
-5.4607256706814315e-05   1.1548135058929865e-05   -1.3230498815314744e-05
-5.4607256706814315e-05   1.1548135058929865e-05   -1.3230498815314744e-05
-5.4607256706814315e-05   1.1548135058929865e-05   -1.3230498815314744e-05
6.290354600696474e-05   -8.774785539536997e-06   1.2412609976844916e-05
6.290354600696474e-05   -8.774785539536997e-06   1.2412609976844916e-05
6.290354600696474e-05   -8.774785539536997e-06   1.2412609976844916e-05
6.290354600696474e-05   -8.774785539536997e-06   1.2412609976844916e-05
3.032724749787221e-05   -1.3001740456483786e-05   -4.4417393821810603e-05
3.032724749787221e-05   -1.3001740456483786e-05   -4.4417393821810603e-05
3.032724749787221e-05   -1.3001740456483786e-05   -4.4417393821810603e-05
3.032724749787221e-05   -1.3001740456483786e-05   -4.4417393821810603e-05
3.15741846460326e-05   -8.159718819866248e-06   5.955111618386171e-06
3.15741846460326e-05   -8.159718819866248e-06   5.955111618386171e-06
3.15741846460326e-05   -8.159718819866248e-06   5.955111618386171e-06
3.15741846460326e-05   -8.159718819866248e-06   5.955111618386171e-06
6.57931715774437e-05   -1.2697058419961025e-05   -4.83541295072423e-05
6.57931715774437e-05   -1.2697058419961025e-05   -4.83541295072423e-05
6.57931715774437e-05   -1.2697058419961025e-05   -4.83541295072423e-05
6.57931715774437e-05   -1.2697058419961025e-05   -4.83541295072423e-05
4.5712892595173486e-05   -9.60968766918098e-06   -1.6739420320593316e-05
4.5712892595173486e-05   -9.60968766918098e-06   -1.6739420320593316e-05
4.5712892595173486e-05   -9.60968766918098e-06   -1.6739420320593316e-05
4.5712892595173486e-05   -9.60968766918098e-06   -1.6739420320593316e-05
6.579317157744379e-05   -8.15971881986616e-06   8.677515378442734e-06
6.579317157744379e-05   -8.15971881986616e-06   8.677515378442734e-06
6.579317157744379e-05   -8.15971881986616e-06   8.677515378442734e-06
6.579317157744379e-05   -8.15971881986616e-06   8.677515378442734e-06
3.15741846460326e-05   -1.2697058419961025e-05   -5.1076533267299185e-05
3.15741846460326e-05   -1.2697058419961025e-05   -5.1076533267299185e-05
3.15741846460326e-05   -1.2697058419961025e-05   -5.1076533267299185e-05
3.15741846460326e-05   -1.2697058419961025e-05   -5.1076533267299185e-05
3.281447496592438e-05   -7.632254703667917e-06   2.7982918817262906e-06
3.281447496592438e-05   -7.632254703667917e-06   2.7982918817262906e-06
3.281447496592438e-05   -7.632254703667917e-06   2.7982918817262906e-06
3.281447496592438e-05   -7.632254703667917e-06   2.7982918817262906e-06
6.80119822075371e-05   -1.2256604550642172e-05   -5.308961027944393e-05
6.80119822075371e-05   -1.2256604550642172e-05   -5.308961027944393e-05
6.80119822075371e-05   -1.2256604550642172e-05   -5.308961027944393e-05
6.80119822075371e-05   -1.2256604550642172e-05   -5.308961027944393e-05
4.814564451246257e-05   -9.578176455637966e-06   -2.15861043113222e-05
4.814564451246257e-05   -9.578176455637966e-06   -2.15861043113222e-05
4.814564451246257e-05   -9.578176455637966e-06   -2.15861043113222e-05
4.814564451246257e-05   -9.578176455637966e-06   -2.15861043113222e-05
6.801198220753707e-05   -7.63225470366783e-06   5.57290178991067e-06
6.801198220753707e-05   -7.63225470366783e-06   5.57290178991067e-06
6.801198220753707e-05   -7.63225470366783e-06   5.57290178991067e-06
6.801198220753707e-05   -7.63225470366783e-06   5.57290178991067e-06
3.281447496592438e-05   -1.2256604550642172e-05   -5.5864220187628634e-05
3.281447496592438e-05   -1.2256604550642172e-05   -5.5864220187628634e-05
3.281447496592438e-05   -1.2256604550642172e-05   -5.5864220187628634e-05
3.281447496592438e-05   -1.2256604550642172e-05   -5.5864220187628634e-05
3.365778437839948e-05   -5.962926074014763e-06   -3.5643865453371427e-06
3.365778437839948e-05   -5.962926074014763e-06   -3.5643865453371427e-06
3.365778437839948e-05   -5.962926074014763e-06   -3.5643865453371427e-06
3.365778437839948e-05   -5.962926074014763e-06   -3.5643865453371427e-06
7.035793323255997e-05   -1.0537350013121484e-05   -6.198664693880752e-05
7.035793323255997e-05   -1.0537350013121484e-05   -6.198664693880752e-05
7.035793323255997e-05   -1.0537350013121484e-05   -6.198664693880752e-05
7.035793323255997e-05   -1.0537350013121484e-05   -6.198664693880752e-05
4.882992698958731e-05   -8.84267426993525e-06   -2.712344197976555e-05
4.882992698958731e-05   -8.84267426993525e-06   -2.712344197976555e-05
4.882992698958731e-05   -8.84267426993525e-06   -2.712344197976555e-05
4.882992698958731e-05   -8.84267426993525e-06   -2.712344197976555e-05
3.032724749787229e-05   -4.115178689990401e-06   -1.5403787205619905e-05
3.032724749787229e-05   -4.115178689990401e-06   -1.5403787205619905e-05
3.032724749787229e-05   -4.115178689990401e-06   -1.5403787205619905e-05
3.032724749787229e-05   -4.115178689990401e-06   -1.5403787205619905e-05
-1.811220042686085e-06   -8.440547657740088e-06   -7.156312115386729e-05
-1.811220042686085e-06   -8.440547657740088e-06   -7.156312115386729e-05
-1.811220042686085e-06   -8.440547657740088e-06   -7.156312115386729e-05
-1.811220042686085e-06   -8.440547657740088e-06   -7.156312115386729e-05
-5.307161172917645e-07   -3.262665360646757e-06   -1.6980956125274213e-05
-5.307161172917645e-07   -3.262665360646757e-06   -1.6980956125274213e-05
-5.307161172917645e-07   -3.262665360646757e-06   -1.6980956125274213e-05
-5.307161172917645e-07   -3.262665360646757e-06   -1.6980956125274213e-05
3.157418464603261e-05   -8.038539093912448e-06   -6.762359982418912e-05
3.157418464603261e-05   -8.038539093912448e-06   -6.762359982418912e-05
3.157418464603261e-05   -8.038539093912448e-06   -6.762359982418912e-05
3.157418464603261e-05   -8.038539093912448e-06   -6.762359982418912e-05
1.4935197177543732e-05   -5.105816922957272e-06   -4.165158734594735e-05
1.4935197177543732e-05   -5.105816922957272e-06   -4.165158734594735e-05
1.4935197177543732e-05   -5.105816922957272e-06   -4.165158734594735e-05
1.4935197177543732e-05   -5.105816922957272e-06   -4.165158734594735e-05
3.15741846460326e-05   -3.262665360646757e-06   -1.4115431885315145e-05
3.15741846460326e-05   -3.262665360646757e-06   -1.4115431885315145e-05
3.15741846460326e-05   -3.262665360646757e-06   -1.4115431885315145e-05
3.15741846460326e-05   -3.262665360646757e-06   -1.4115431885315145e-05
-5.307161172917645e-07   -8.038539093912448e-06   -7.048912406414825e-05
-5.307161172917645e-07   -8.038539093912448e-06   -7.048912406414825e-05
-5.307161172917645e-07   -8.038539093912448e-06   -7.048912406414825e-05
-5.307161172917645e-07   -8.038539093912448e-06   -7.048912406414825e-05
5.97635826064157e-07   -2.2204180774847843e-06   -1.7378447571958413e-05
5.97635826064157e-07   -2.2204180774847843e-06   -1.7378447571958413e-05
5.97635826064157e-07   -2.2204180774847843e-06   -1.7378447571958413e-05
5.97635826064157e-07   -2.2204180774847843e-06   -1.7378447571958413e-05
3.281447496592437e-05   -7.288563986301063e-06   -6.80322919264356e-05
3.281447496592437e-05   -7.288563986301063e-06   -6.80322919264356e-05
3.281447496592437e-05   -7.288563986301063e-06   -6.80322919264356e-05
3.281447496592437e-05   -7.288563986301063e-06   -6.80322919264356e-05
1.580813895541896e-05   -4.689134567297838e-06   -4.1248056226994546e-05
1.580813895541896e-05   -4.689134567297838e-06   -4.1248056226994546e-05
1.580813895541896e-05   -4.689134567297838e-06   -4.1248056226994546e-05
1.580813895541896e-05   -4.689134567297838e-06   -4.1248056226994546e-05
3.281447496592438e-05   -2.220418077485045e-06   -1.4337560026668385e-05
3.281447496592438e-05   -2.220418077485045e-06   -1.4337560026668385e-05
3.281447496592438e-05   -2.220418077485045e-06   -1.4337560026668385e-05
3.281447496592438e-05   -2.220418077485045e-06   -1.4337560026668385e-05
5.97635826064157e-07   -7.288563986301497e-06   -7.107317947172551e-05
5.97635826064157e-07   -7.288563986301497e-06   -7.107317947172551e-05
5.97635826064157e-07   -7.288563986301497e-06   -7.107317947172551e-05
5.97635826064157e-07   -7.288563986301497e-06   -7.107317947172551e-05
1.401493250299975e-06   -9.094154002206242e-07   -1.8060448919472206e-05
1.401493250299975e-06   -9.094154002206242e-07   -1.8060448919472206e-05
1.401493250299975e-06   -9.094154002206242e-07   -1.8060448919472206e-05
1.401493250299975e-06   -9.094154002206242e-07   -1.8060448919472206e-05
3.3657784378399593e-05   -6.221637517974006e-06   -6.863360086231966e-05
3.3657784378399593e-05   -6.221637517974006e-06   -6.863360086231966e-05
3.3657784378399593e-05   -6.221637517974006e-06   -6.863360086231966e-05
3.3657784378399593e-05   -6.221637517974006e-06   -6.863360086231966e-05
1.6851164646204655e-05   -3.953936755336177e-06   -4.1983188432911575e-05
1.6851164646204655e-05   -3.953936755336177e-06   -4.1983188432911575e-05
1.6851164646204655e-05   -3.953936755336177e-06   -4.1983188432911575e-05
1.6851164646204655e-05   -3.953936755336177e-06   -4.1983188432911575e-05
-1.811220042686085e-06   7.373993307776359e-07   -2.3412636725609302e-05
-1.811220042686085e-06   7.373993307776359e-07   -2.3412636725609302e-05
-1.811220042686085e-06   7.373993307776359e-07   -2.3412636725609302e-05
-1.811220042686085e-06   7.373993307776359e-07   -2.3412636725609302e-05
-3.3474856447764554e-05   -4.455346890963434e-06   -7.930101180045118e-05
-3.3474856447764554e-05   -4.455346890963434e-06   -7.930101180045118e-05
-3.3474856447764554e-05   -4.455346890963434e-06   -7.930101180045118e-05
-3.3474856447764554e-05   -4.455346890963434e-06   -7.930101180045118e-05
-3.1938691493899214e-05   1.6944862963807691e-06   -2.5463608957444674e-05
-3.1938691493899214e-05   1.6944862963807691e-06   -2.5463608957444674e-05
-3.1938691493899214e-05   1.6944862963807691e-06   -2.5463608957444674e-05
-3.1938691493899214e-05   1.6944862963807691e-06   -2.5463608957444674e-05
-5.307161172917513e-07   -3.982331454196152e-06   -7.440414393477743e-05
-5.307161172917513e-07   -3.982331454196152e-06   -7.440414393477743e-05
-5.307161172917513e-07   -3.982331454196152e-06   -7.440414393477743e-05
-5.307161172917513e-07   -3.982331454196152e-06   -7.440414393477743e-05
-1.673690449378456e-05   -8.766764754727756e-07   -4.9257222961190234e-05
-1.673690449378456e-05   -8.766764754727756e-07   -4.9257222961190234e-05
-1.673690449378456e-05   -8.766764754727756e-07   -4.9257222961190234e-05
-1.673690449378456e-05   -8.766764754727756e-07   -4.9257222961190234e-05
-5.307161172917645e-07   1.6944862963807122e-06   -2.2057518307098435e-05
-5.307161172917645e-07   1.6944862963807122e-06   -2.2057518307098435e-05
-5.307161172917645e-07   1.6944862963807122e-06   -2.2057518307098435e-05
-5.307161172917645e-07   1.6944862963807122e-06   -2.2057518307098435e-05
-3.1938691493899214e-05   -3.982331454196152e-06   -7.781023458512367e-05
-3.1938691493899214e-05   -3.982331454196152e-06   -7.781023458512367e-05
-3.1938691493899214e-05   -3.982331454196152e-06   -7.781023458512367e-05
-3.1938691493899214e-05   -3.982331454196152e-06   -7.781023458512367e-05
-3.052931450016687e-05   2.8034179398745557e-06   -2.5008265609625414e-05
-3.052931450016687e-05   2.8034179398745557e-06   -2.5008265609625414e-05
-3.052931450016687e-05   2.8034179398745557e-06   -2.5008265609625414e-05
-3.052931450016687e-05   2.8034179398745557e-06   -2.5008265609625414e-05
5.976358260641667e-07   -3.2437645343303713e-06   -7.325820666882093e-05
5.976358260641667e-07   -3.2437645343303713e-06   -7.325820666882093e-05
5.976358260641667e-07   -3.2437645343303713e-06   -7.325820666882093e-05
5.976358260641667e-07   -3.2437645343303713e-06   -7.325820666882093e-05
-1.548527050075481e-05   -3.3429510057402315e-07   -4.819904445104299e-05
-1.548527050075481e-05   -3.3429510057402315e-07   -4.819904445104299e-05
-1.548527050075481e-05   -3.3429510057402315e-07   -4.819904445104299e-05
-1.548527050075481e-05   -3.3429510057402315e-07   -4.819904445104299e-05
5.97635826064157e-07   2.8034179398743825e-06   -2.1379956125102458e-05
5.97635826064157e-07   2.8034179398743825e-06   -2.1379956125102458e-05
5.97635826064157e-07   2.8034179398743825e-06   -2.1379956125102458e-05
5.97635826064157e-07   2.8034179398743825e-06   -2.1379956125102458e-05
-3.052931450016687e-05   -3.2437645343299376e-06   -7.688651615334378e-05
-3.052931450016687e-05   -3.2437645343299376e-06   -7.688651615334378e-05
-3.052931450016687e-05   -3.2437645343299376e-06   -7.688651615334378e-05
-3.052931450016687e-05   -3.2437645343299376e-06   -7.688651615334378e-05
-2.957884951181264e-05   3.949576740595439e-06   -2.544000015708035e-05
-2.957884951181264e-05   3.949576740595439e-06   -2.544000015708035e-05
-2.957884951181264e-05   3.949576740595439e-06   -2.544000015708035e-05
-2.957884951181264e-05   3.949576740595439e-06   -2.544000015708035e-05
1.4014932502999974e-06   -2.5436980994864543e-06   -7.317793985655278e-05
1.4014932502999974e-06   -2.5436980994864543e-06   -7.317793985655278e-05
1.4014932502999974e-06   -2.5436980994864543e-06   -7.317793985655278e-05
1.4014932502999974e-06   -2.5436980994864543e-06   -7.317793985655278e-05
-1.4592049638906226e-05   2.7491285811828345e-07   -4.8213201615772736e-05
-1.4592049638906226e-05   2.7491285811828345e-07   -4.8213201615772736e-05
-1.4592049638906226e-05   2.7491285811828345e-07   -4.8213201615772736e-05
-1.4592049638906226e-05   2.7491285811828345e-07   -4.8213201615772736e-05
-3.3474856447764554e-05   5.763378011412488e-06   -1.9121064387381042e-05
-3.3474856447764554e-05   5.763378011412488e-06   -1.9121064387381042e-05
-3.3474856447764554e-05   5.763378011412488e-06   -1.9121064387381042e-05
-3.3474856447764554e-05   5.763378011412488e-06   -1.9121064387381042e-05
-6.557690555801477e-05   1.0809966171699582e-06   -7.543390840767652e-05
-6.557690555801477e-05   1.0809966171699582e-06   -7.543390840767652e-05
-6.557690555801477e-05   1.0809966171699582e-06   -7.543390840767652e-05
-6.557690555801477e-05   1.0809966171699582e-06   -7.543390840767652e-05
-6.339024825864815e-05   6.979531177246992e-06   -2.0385732049173167e-05
-6.339024825864815e-05   6.979531177246992e-06   -2.0385732049173167e-05
-6.339024825864815e-05   6.979531177246992e-06   -2.0385732049173167e-05
-6.339024825864815e-05   6.979531177246992e-06   -2.0385732049173167e-05
-3.193869149389922e-05   1.958766501365672e-06   -6.979253451822588e-05
-3.193869149389922e-05   1.958766501365672e-06   -6.979253451822588e-05
-3.193869149389922e-05   1.958766501365672e-06   -6.979253451822588e-05
-3.193869149389922e-05   1.958766501365672e-06   -6.979253451822588e-05
-4.808956638593999e-05   4.364826078207332e-06   -4.4318045444263036e-05
-4.808956638593999e-05   4.364826078207332e-06   -4.4318045444263036e-05
-4.808956638593999e-05   4.364826078207332e-06   -4.4318045444263036e-05
-4.808956638593999e-05   4.364826078207332e-06   -4.4318045444263036e-05
-3.1938691493899214e-05   6.979531177247053e-06   -1.737327324364429e-05
-3.1938691493899214e-05   6.979531177247053e-06   -1.737327324364429e-05
-3.1938691493899214e-05   6.979531177247053e-06   -1.737327324364429e-05
-3.1938691493899214e-05   6.979531177247053e-06   -1.737327324364429e-05
-6.339024825864826e-05   1.958766501365672e-06   -7.280499332375494e-05
-6.339024825864826e-05   1.958766501365672e-06   -7.280499332375494e-05
-6.339024825864826e-05   1.958766501365672e-06   -7.280499332375494e-05
-6.339024825864826e-05   1.958766501365672e-06   -7.280499332375494e-05
-6.12774582820111e-05   8.026996163722211e-06   -1.8578849914312537e-05
-6.12774582820111e-05   8.026996163722211e-06   -1.8578849914312537e-05
-6.12774582820111e-05   8.026996163722211e-06   -1.8578849914312537e-05
-6.12774582820111e-05   8.026996163722211e-06   -1.8578849914312537e-05
-3.0529314500166915e-05   2.7671358310793308e-06   -6.666984001780092e-05
-3.0529314500166915e-05   2.7671358310793308e-06   -6.666984001780092e-05
-3.0529314500166915e-05   2.7671358310793308e-06   -6.666984001780092e-05
-3.0529314500166915e-05   2.7671358310793308e-06   -6.666984001780092e-05
-4.6114831225651216e-05   5.128495160750153e-06   -4.2110794406462516e-05
-4.6114831225651216e-05   5.128495160750153e-06   -4.2110794406462516e-05
-4.6114831225651216e-05   5.128495160750153e-06   -4.2110794406462516e-05
-4.6114831225651216e-05   5.128495160750153e-06   -4.2110794406462516e-05
-3.052931450016687e-05   8.026996163722042e-06   -1.5422933714727026e-05
-3.052931450016687e-05   8.026996163722042e-06   -1.5422933714727026e-05
-3.052931450016687e-05   8.026996163722042e-06   -1.5422933714727026e-05
-3.052931450016687e-05   8.026996163722042e-06   -1.5422933714727026e-05
-6.12774582820112e-05   2.7671358310793308e-06   -6.982575621738659e-05
-6.12774582820112e-05   2.7671358310793308e-06   -6.982575621738659e-05
-6.12774582820112e-05   2.7671358310793308e-06   -6.982575621738659e-05
-6.12774582820112e-05   2.7671358310793308e-06   -6.982575621738659e-05
-5.9673248963290545e-05   9.18638648227544e-06   -1.863704710855442e-05
-5.9673248963290545e-05   9.18638648227544e-06   -1.863704710855442e-05
-5.9673248963290545e-05   9.18638648227544e-06   -1.863704710855442e-05
-5.9673248963290545e-05   9.18638648227544e-06   -1.863704710855442e-05
-2.9578849511812702e-05   3.4516311953410213e-06   -6.535352635552385e-05
-2.9578849511812702e-05   3.4516311953410213e-06   -6.535352635552385e-05
-2.9578849511812702e-05   3.4516311953410213e-06   -6.535352635552385e-05
-2.9578849511812702e-05   3.4516311953410213e-06   -6.535352635552385e-05
-4.500518223002416e-05   5.6613204345175826e-06   -4.0968785368677716e-05
-4.500518223002416e-05   5.6613204345175826e-06   -4.0968785368677716e-05
-4.500518223002416e-05   5.6613204345175826e-06   -4.0968785368677716e-05
-4.500518223002416e-05   5.6613204345175826e-06   -4.0968785368677716e-05
-6.557690555801477e-05   1.1336558710983595e-05   -1.097784350559427e-05
-6.557690555801477e-05   1.1336558710983595e-05   -1.097784350559427e-05
-6.557690555801477e-05   1.1336558710983595e-05   -1.097784350559427e-05
-6.557690555801477e-05   1.1336558710983595e-05   -1.097784350559427e-05
-9.910778533241491e-05   1.0692943175888165e-05   -6.724881245065211e-05
-9.910778533241491e-05   1.0692943175888165e-05   -6.724881245065211e-05
-9.910778533241491e-05   1.0692943175888165e-05   -6.724881245065211e-05
-9.910778533241491e-05   1.0692943175888165e-05   -6.724881245065211e-05
-9.480232744819782e-05   1.2952321961957631e-05   -3.7805127604492207e-07
-9.480232744819782e-05   1.2952321961957631e-05   -3.7805127604492207e-07
-9.480232744819782e-05   1.2952321961957631e-05   -3.7805127604492207e-07
-9.480232744819782e-05   1.2952321961957631e-05   -3.7805127604492207e-07
-6.339024825864804e-05   1.3549578526138306e-05   -5.3089870530469616e-05
-6.339024825864804e-05   1.3549578526138306e-05   -5.3089870530469616e-05
-6.339024825864804e-05   1.3549578526138306e-05   -5.3089870530469616e-05
-6.339024825864804e-05   1.3549578526138306e-05   -5.3089870530469616e-05
-7.723762740095358e-05   1.2777630799559563e-05   -2.9547736657346837e-05
-7.723762740095358e-05   1.2777630799559563e-05   -2.9547736657346837e-05
-7.723762740095358e-05   1.2777630799559563e-05   -2.9547736657346837e-05
-7.723762740095358e-05   1.2777630799559563e-05   -2.9547736657346837e-05
-6.33902482586482e-05   1.2952321961957636e-05   -7.36405214553414e-07
-6.33902482586482e-05   1.2952321961957636e-05   -7.36405214553414e-07
-6.33902482586482e-05   1.2952321961957636e-05   -7.36405214553414e-07
-6.33902482586482e-05   1.2952321961957636e-05   -7.36405214553414e-07
-9.480232744819768e-05   1.3549578526138306e-05   -5.273151659196114e-05
-9.480232744819768e-05   1.3549578526138306e-05   -5.273151659196114e-05
-9.480232744819768e-05   1.3549578526138306e-05   -5.273151659196114e-05
-9.480232744819768e-05   1.3549578526138306e-05   -5.273151659196114e-05
-9.123016019998734e-05   1.337697725469194e-05   5.614142917011265e-06
-9.123016019998734e-05   1.337697725469194e-05   5.614142917011265e-06
-9.123016019998734e-05   1.337697725469194e-05   5.614142917011265e-06
-9.123016019998734e-05   1.337697725469194e-05   5.614142917011265e-06
-6.12774582820111e-05   1.4190985506253723e-05   -4.479543189721944e-05
-6.12774582820111e-05   1.4190985506253723e-05   -4.479543189721944e-05
-6.12774582820111e-05   1.4190985506253723e-05   -4.479543189721944e-05
-6.12774582820111e-05   1.4190985506253723e-05   -4.479543189721944e-05
-7.560038225328364e-05   1.3707267562311672e-05   -2.0633661178732705e-05
-7.560038225328364e-05   1.3707267562311672e-05   -2.0633661178732705e-05
-7.560038225328364e-05   1.3707267562311672e-05   -2.0633661178732705e-05
-7.560038225328364e-05   1.3707267562311672e-05   -2.0633661178732705e-05
-6.12774582820112e-05   1.337697725469209e-05   5.125737966074455e-06
-6.12774582820112e-05   1.337697725469209e-05   5.125737966074455e-06
-6.12774582820112e-05   1.337697725469209e-05   5.125737966074455e-06
-6.12774582820112e-05   1.337697725469209e-05   5.125737966074455e-06
-9.12301601999875e-05   1.4190985506253723e-05   -4.430702694628282e-05
-9.12301601999875e-05   1.4190985506253723e-05   -4.430702694628282e-05
-9.12301601999875e-05   1.4190985506253723e-05   -4.430702694628282e-05
-9.12301601999875e-05   1.4190985506253723e-05   -4.430702694628282e-05
-8.749551033781028e-05   1.374460925406126e-05   1.3640659570169624e-05
-8.749551033781028e-05   1.374460925406126e-05   1.3640659570169624e-05
-8.749551033781028e-05   1.374460925406126e-05   1.3640659570169624e-05
-8.749551033781028e-05   1.374460925406126e-05   1.3640659570169624e-05
-5.96732489632906e-05   1.5296475386621707e-05   -3.3660895733565804e-05
-5.96732489632906e-05   1.5296475386621707e-05   -3.3660895733565804e-05
-5.96732489632906e-05   1.5296475386621707e-05   -3.3660895733565804e-05
-5.96732489632906e-05   1.5296475386621707e-05   -3.3660895733565804e-05
-7.199778507256579e-05   1.4021285598497454e-05   -1.2354888345233892e-05
-7.199778507256579e-05   1.4021285598497454e-05   -1.2354888345233892e-05
-7.199778507256579e-05   1.4021285598497454e-05   -1.2354888345233892e-05
-7.199778507256579e-05   1.4021285598497454e-05   -1.2354888345233892e-05
8.652106461291874e-05   -1.3001740456484132e-05   2.9470322562449814e-05
8.652106461291874e-05   -1.3001740456484132e-05   2.9470322562449814e-05
8.652106461291874e-05   -1.3001740456484132e-05   2.9470322562449814e-05
8.652106461291874e-05   -1.3001740456484132e-05   2.9470322562449814e-05
4.350491095347111e-05   -1.644974632758348e-05   -4.429207039262253e-05
4.350491095347111e-05   -1.644974632758348e-05   -4.429207039262253e-05
4.350491095347111e-05   -1.644974632758348e-05   -4.429207039262253e-05
4.350491095347111e-05   -1.644974632758348e-05   -4.429207039262253e-05
4.4572606999583185e-05   -1.2697058419960591e-05   2.11277767642468e-05
4.4572606999583185e-05   -1.2697058419960591e-05   2.11277767642468e-05
4.4572606999583185e-05   -1.2697058419960591e-05   2.11277767642468e-05
4.4572606999583185e-05   -1.2697058419960591e-05   2.11277767642468e-05
8.868321648696349e-05   -1.6861205976488863e-05   -4.9891417180803616e-05
8.868321648696349e-05   -1.6861205976488863e-05   -4.9891417180803616e-05
8.868321648696349e-05   -1.6861205976488863e-05   -4.9891417180803616e-05
8.868321648696349e-05   -1.6861205976488863e-05   -4.9891417180803616e-05
6.319951886376649e-05   -1.3281196096490144e-05   -9.566593736807735e-06
6.319951886376649e-05   -1.3281196096490144e-05   -9.566593736807735e-06
6.319951886376649e-05   -1.3281196096490144e-05   -9.566593736807735e-06
6.319951886376649e-05   -1.3281196096490144e-05   -9.566593736807735e-06
8.868321648696349e-05   -1.2697058419960793e-05   2.362626529816376e-05
8.868321648696349e-05   -1.2697058419960793e-05   2.362626529816376e-05
8.868321648696349e-05   -1.2697058419960793e-05   2.362626529816376e-05
8.868321648696349e-05   -1.2697058419960793e-05   2.362626529816376e-05
4.4572606999583185e-05   -1.6861205976488863e-05   -5.238990571472036e-05
4.4572606999583185e-05   -1.6861205976488863e-05   -5.238990571472036e-05
4.4572606999583185e-05   -1.6861205976488863e-05   -5.238990571472036e-05
4.4572606999583185e-05   -1.6861205976488863e-05   -5.238990571472036e-05
4.5475184838727665e-05   -1.2256604550642172e-05   1.6664803899355072e-05
4.5475184838727665e-05   -1.2256604550642172e-05   1.6664803899355072e-05
4.5475184838727665e-05   -1.2256604550642172e-05   1.6664803899355072e-05
4.5475184838727665e-05   -1.2256604550642172e-05   1.6664803899355072e-05
9.003117408550708e-05   -1.6709378733577654e-05   -5.4923513668849225e-05
9.003117408550708e-05   -1.6709378733577654e-05   -5.4923513668849225e-05
9.003117408550708e-05   -1.6709378733577654e-05   -5.4923513668849225e-05
9.003117408550708e-05   -1.6709378733577654e-05   -5.4923513668849225e-05
6.543176174852338e-05   -1.3701830111191235e-05   -1.572902228064155e-05
6.543176174852338e-05   -1.3701830111191235e-05   -1.572902228064155e-05
6.543176174852338e-05   -1.3701830111191235e-05   -1.572902228064155e-05
6.543176174852338e-05   -1.3701830111191235e-05   -1.572902228064155e-05
9.003117408550707e-05   -1.2256604550642083e-05   1.933646840911662e-05
9.003117408550707e-05   -1.2256604550642083e-05   1.933646840911662e-05
9.003117408550707e-05   -1.2256604550642083e-05   1.933646840911662e-05
9.003117408550707e-05   -1.2256604550642083e-05   1.933646840911662e-05
4.5475184838727665e-05   -1.6709378733577654e-05   -5.759517817861045e-05
4.5475184838727665e-05   -1.6709378733577654e-05   -5.759517817861045e-05
4.5475184838727665e-05   -1.6709378733577654e-05   -5.759517817861045e-05
4.5475184838727665e-05   -1.6709378733577654e-05   -5.759517817861045e-05
4.641886818594417e-05   -1.0537350013121484e-05   7.999636776455637e-06
4.641886818594417e-05   -1.0537350013121484e-05   7.999636776455637e-06
4.641886818594417e-05   -1.0537350013121484e-05   7.999636776455637e-06
4.641886818594417e-05   -1.0537350013121484e-05   7.999636776455637e-06
9.135839153475064e-05   -1.5782510683542104e-05   -6.375247240263598e-05
9.135839153475064e-05   -1.5782510683542104e-05   -6.375247240263598e-05
9.135839153475064e-05   -1.5782510683542104e-05   -6.375247240263598e-05
9.135839153475064e-05   -1.5782510683542104e-05   -6.375247240263598e-05
6.546874402607066e-05   -1.3188011671168287e-05   -2.2159759295593416e-05
6.546874402607066e-05   -1.3188011671168287e-05   -2.2159759295593416e-05
6.546874402607066e-05   -1.3188011671168287e-05   -2.2159759295593416e-05
6.546874402607066e-05   -1.3188011671168287e-05   -2.2159759295593416e-05
4.350491095347111e-05   -8.440547657740198e-06   2.8510130883840044e-06
4.350491095347111e-05   -8.440547657740198e-06   2.8510130883840044e-06
4.350491095347111e-05   -8.440547657740198e-06   2.8510130883840044e-06
4.350491095347111e-05   -8.440547657740198e-06   2.8510130883840044e-06
5.200389631989261e-06   -1.6539442310447693e-05   -6.584919257237708e-05
5.200389631989261e-06   -1.6539442310447693e-05   -6.584919257237708e-05
5.200389631989261e-06   -1.6539442310447693e-05   -6.584919257237708e-05
5.200389631989261e-06   -1.6539442310447693e-05   -6.584919257237708e-05
6.4452409347031205e-06   -8.038539093912448e-06   -4.6992175953622373e-07
6.4452409347031205e-06   -8.038539093912448e-06   -4.6992175953622373e-07
6.4452409347031205e-06   -8.038539093912448e-06   -4.6992175953622373e-07
6.4452409347031205e-06   -8.038539093912448e-06   -4.6992175953622373e-07
4.4572606999583246e-05   -1.6456259038734235e-05   -5.8964899900776455e-05
4.4572606999583246e-05   -1.6456259038734235e-05   -5.8964899900776455e-05
4.4572606999583246e-05   -1.6456259038734235e-05   -5.8964899900776455e-05
4.4572606999583246e-05   -1.6456259038734235e-05   -5.8964899900776455e-05
2.5028790819957596e-05   -1.1156197070955488e-05   -2.9571910115401166e-05
2.5028790819957596e-05   -1.1156197070955488e-05   -2.9571910115401166e-05
2.5028790819957596e-05   -1.1156197070955488e-05   -2.9571910115401166e-05
2.5028790819957596e-05   -1.1156197070955488e-05   -2.9571910115401166e-05
4.457260699958313e-05   -8.038539093912328e-06   4.580710207356805e-06
4.457260699958313e-05   -8.038539093912328e-06   4.580710207356805e-06
4.457260699958313e-05   -8.038539093912328e-06   4.580710207356805e-06
4.457260699958313e-05   -8.038539093912328e-06   4.580710207356805e-06
6.4452409347031205e-06   -1.6456259038734235e-05   -6.401553186766965e-05
6.4452409347031205e-06   -1.6456259038734235e-05   -6.401553186766965e-05
6.4452409347031205e-06   -1.6456259038734235e-05   -6.401553186766965e-05
6.4452409347031205e-06   -1.6456259038734235e-05   -6.401553186766965e-05
7.56898178361085e-06   -7.288563986301063e-06   -8.726937670055016e-07
7.56898178361085e-06   -7.288563986301063e-06   -8.726937670055016e-07
7.56898178361085e-06   -7.288563986301063e-06   -8.726937670055016e-07
7.56898178361085e-06   -7.288563986301063e-06   -8.726937670055016e-07
4.5475184838727665e-05   -1.623760719889067e-05   -5.8680272931313266e-05
4.5475184838727665e-05   -1.623760719889067e-05   -5.8680272931313266e-05
4.5475184838727665e-05   -1.623760719889067e-05   -5.8680272931313266e-05
4.5475184838727665e-05   -1.623760719889067e-05   -5.8680272931313266e-05
2.5737053922699708e-05   -1.128099799402706e-05   -2.8757353594184012e-05
2.5737053922699708e-05   -1.128099799402706e-05   -2.8757353594184012e-05
2.5737053922699708e-05   -1.128099799402706e-05   -2.8757353594184012e-05
2.5737053922699708e-05   -1.128099799402706e-05   -2.8757353594184012e-05
4.5475184838727665e-05   -7.288563986301289e-06   4.496732160548002e-06
4.5475184838727665e-05   -7.288563986301289e-06   4.496732160548002e-06
4.5475184838727665e-05   -7.288563986301289e-06   4.496732160548002e-06
4.5475184838727665e-05   -7.288563986301289e-06   4.496732160548002e-06
7.56898178361085e-06   -1.623760719889067e-05   -6.404969885886688e-05
7.56898178361085e-06   -1.623760719889067e-05   -6.404969885886688e-05
7.56898178361085e-06   -1.623760719889067e-05   -6.404969885886688e-05
7.56898178361085e-06   -1.623760719889067e-05   -6.404969885886688e-05
9.245751573216379e-06   -6.221637517974006e-06   -1.649273257115988e-06
9.245751573216379e-06   -6.221637517974006e-06   -1.649273257115988e-06
9.245751573216379e-06   -6.221637517974006e-06   -1.649273257115988e-06
9.245751573216379e-06   -6.221637517974006e-06   -1.649273257115988e-06
4.6418868185944226e-05   -1.579932164051407e-05   -5.7857857138138486e-05
4.6418868185944226e-05   -1.579932164051407e-05   -5.7857857138138486e-05
4.6418868185944226e-05   -1.579932164051407e-05   -5.7857857138138486e-05
4.6418868185944226e-05   -1.579932164051407e-05   -5.7857857138138486e-05
2.7083922749944842e-05   -1.1108590111226935e-05   -2.8447386995711973e-05
2.7083922749944842e-05   -1.1108590111226935e-05   -2.8447386995711973e-05
2.7083922749944842e-05   -1.1108590111226935e-05   -2.8447386995711973e-05
2.7083922749944842e-05   -1.1108590111226935e-05   -2.8447386995711973e-05
5.200389631989261e-06   -4.4553468909632535e-06   -6.630566616780279e-06
5.200389631989261e-06   -4.4553468909632535e-06   -6.630566616780279e-06
5.200389631989261e-06   -4.4553468909632535e-06   -6.630566616780279e-06
5.200389631989261e-06   -4.4553468909632535e-06   -6.630566616780279e-06
-3.270967397906372e-05   -1.999135812784207e-05   -7.913561271066295e-05
-3.270967397906372e-05   -1.999135812784207e-05   -7.913561271066295e-05
-3.270967397906372e-05   -1.999135812784207e-05   -7.913561271066295e-05
-3.270967397906372e-05   -1.999135812784207e-05   -7.913561271066295e-05
-3.0770997493322606e-05   -3.982331454196152e-06   -1.4257217168679899e-05
-3.0770997493322606e-05   -3.982331454196152e-06   -1.4257217168679899e-05
-3.0770997493322606e-05   -3.982331454196152e-06   -1.4257217168679899e-05
-3.0770997493322606e-05   -3.982331454196152e-06   -1.4257217168679899e-05
6.44524093470313e-06   -2.0436124018386684e-05   -6.641200567687511e-05
6.44524093470313e-06   -2.0436124018386684e-05   -6.641200567687511e-05
6.44524093470313e-06   -2.0436124018386684e-05   -6.641200567687511e-05
6.44524093470313e-06   -2.0436124018386684e-05   -6.641200567687511e-05
-1.2519422141923068e-05   -1.131294182345026e-05   -4.0278143199459814e-05
-1.2519422141923068e-05   -1.131294182345026e-05   -4.0278143199459814e-05
-1.2519422141923068e-05   -1.131294182345026e-05   -4.0278143199459814e-05
-1.2519422141923068e-05   -1.131294182345026e-05   -4.0278143199459814e-05
6.4452409347031205e-06   -3.982331454195972e-06   -4.384941630165623e-06
6.4452409347031205e-06   -3.982331454195972e-06   -4.384941630165623e-06
6.4452409347031205e-06   -3.982331454195972e-06   -4.384941630165623e-06
6.4452409347031205e-06   -3.982331454195972e-06   -4.384941630165623e-06
-3.077099749332266e-05   -2.043612401838625e-05   -7.628428121538955e-05
-3.077099749332266e-05   -2.043612401838625e-05   -7.628428121538955e-05
-3.077099749332266e-05   -2.043612401838625e-05   -7.628428121538955e-05
-3.077099749332266e-05   -2.043612401838625e-05   -7.628428121538955e-05
-2.9100875466030917e-05   -3.2437645343303713e-06   -1.3317693174500541e-05
-2.9100875466030917e-05   -3.2437645343303713e-06   -1.3317693174500541e-05
-2.9100875466030917e-05   -3.2437645343303713e-06   -1.3317693174500541e-05
-2.9100875466030917e-05   -3.2437645343303713e-06   -1.3317693174500541e-05
7.568981783610859e-06   -2.034371821832935e-05   -6.417414971350403e-05
7.568981783610859e-06   -2.034371821832935e-05   -6.417414971350403e-05
7.568981783610859e-06   -2.034371821832935e-05   -6.417414971350403e-05
7.568981783610859e-06   -2.034371821832935e-05   -6.417414971350403e-05
-1.1142559932501213e-05   -1.1571611317771728e-05   -3.825151099365174e-05
-1.1142559932501213e-05   -1.1571611317771728e-05   -3.825151099365174e-05
-1.1142559932501213e-05   -1.1571611317771728e-05   -3.825151099365174e-05
-1.1142559932501213e-05   -1.1571611317771728e-05   -3.825151099365174e-05
7.56898178361085e-06   -3.243764534330076e-06   -3.057720964101023e-06
7.56898178361085e-06   -3.243764534330076e-06   -3.057720964101023e-06
7.56898178361085e-06   -3.243764534330076e-06   -3.057720964101023e-06
7.56898178361085e-06   -3.243764534330076e-06   -3.057720964101023e-06
-2.910087546603101e-05   -2.034371821832935e-05   -7.443412192390366e-05
-2.910087546603101e-05   -2.034371821832935e-05   -7.443412192390366e-05
-2.910087546603101e-05   -2.034371821832935e-05   -7.443412192390366e-05
-2.910087546603101e-05   -2.034371821832935e-05   -7.443412192390366e-05
-2.621960194606595e-05   -2.5436980994864543e-06   -1.3260523611739652e-05
-2.621960194606595e-05   -2.5436980994864543e-06   -1.3260523611739652e-05
-2.621960194606595e-05   -2.5436980994864543e-06   -1.3260523611739652e-05
-2.621960194606595e-05   -2.5436980994864543e-06   -1.3260523611739652e-05
9.245751573216396e-06   -1.963410581789062e-05   -6.211520151283448e-05
9.245751573216396e-06   -1.963410581789062e-05   -6.211520151283448e-05
9.245751573216396e-06   -1.963410581789062e-05   -6.211520151283448e-05
9.245751573216396e-06   -1.963410581789062e-05   -6.211520151283448e-05
-9.353449095200349e-06   -1.131790292890466e-05   -3.610625546553121e-05
-9.353449095200349e-06   -1.131790292890466e-05   -3.610625546553121e-05
-9.353449095200349e-06   -1.131790292890466e-05   -3.610625546553121e-05
-9.353449095200349e-06   -1.131790292890466e-05   -3.610625546553121e-05
-3.270967397906368e-05   1.0809966171705139e-06   -9.275641129587783e-06
-3.270967397906368e-05   1.0809966171705139e-06   -9.275641129587783e-06
-3.270967397906368e-05   1.0809966171705139e-06   -9.275641129587783e-06
-3.270967397906368e-05   1.0809966171705139e-06   -9.275641129587783e-06
-7.502068415371221e-05   -2.4964278744598733e-05   -9.542115663773018e-05
-7.502068415371221e-05   -2.4964278744598733e-05   -9.542115663773018e-05
-7.502068415371221e-05   -2.4964278744598733e-05   -9.542115663773018e-05
-7.502068415371221e-05   -2.4964278744598733e-05   -9.542115663773018e-05
-7.270839581260098e-05   1.958766501365672e-06   -2.4130521301119704e-05
-7.270839581260098e-05   1.958766501365672e-06   -2.4130521301119704e-05
-7.270839581260098e-05   1.958766501365672e-06   -2.4130521301119704e-05
-7.270839581260098e-05   1.958766501365672e-06   -2.4130521301119704e-05
-3.0770997493322606e-05   -2.785957383086334e-05   -7.613518096724595e-05
-3.0770997493322606e-05   -2.785957383086334e-05   -7.613518096724595e-05
-3.0770997493322606e-05   -2.785957383086334e-05   -7.613518096724595e-05
-3.0770997493322606e-05   -2.785957383086334e-05   -7.613518096724595e-05
-5.2040802755815377e-05   -1.2715385639277838e-05   -4.977201844470958e-05
-5.2040802755815377e-05   -1.2715385639277838e-05   -4.977201844470958e-05
-5.2040802755815377e-05   -1.2715385639277838e-05   -4.977201844470958e-05
-5.2040802755815377e-05   -1.2715385639277838e-05   -4.977201844470958e-05
-3.0770997493322606e-05   1.9587665013658506e-06   -6.239517101782081e-06
-3.0770997493322606e-05   1.9587665013658506e-06   -6.239517101782081e-06
-3.0770997493322606e-05   1.9587665013658506e-06   -6.239517101782081e-06
-3.0770997493322606e-05   1.9587665013658506e-06   -6.239517101782081e-06
-7.270839581260109e-05   -2.785957383086334e-05   -9.402618516658355e-05
-7.270839581260109e-05   -2.785957383086334e-05   -9.402618516658355e-05
-7.270839581260109e-05   -2.785957383086334e-05   -9.402618516658355e-05
-7.270839581260109e-05   -2.785957383086334e-05   -9.402618516658355e-05
-7.049152415573065e-05   2.7671358310793308e-06   -2.1572251645316214e-05
-7.049152415573065e-05   2.7671358310793308e-06   -2.1572251645316214e-05
-7.049152415573065e-05   2.7671358310793308e-06   -2.1572251645316214e-05
-7.049152415573065e-05   2.7671358310793308e-06   -2.1572251645316214e-05
-2.9100875466030974e-05   -2.8018255179518455e-05   -7.208543152179028e-05
-2.9100875466030974e-05   -2.8018255179518455e-05   -7.208543152179028e-05
-2.9100875466030974e-05   -2.8018255179518455e-05   -7.208543152179028e-05
-2.9100875466030974e-05   -2.8018255179518455e-05   -7.208543152179028e-05
-4.978631067077033e-05   -1.2761411380490025e-05   -4.676381245997507e-05
-4.978631067077033e-05   -1.2761411380490025e-05   -4.676381245997507e-05
-4.978631067077033e-05   -1.2761411380490025e-05   -4.676381245997507e-05
-4.978631067077033e-05   -1.2761411380490025e-05   -4.676381245997507e-05
-2.9100875466030985e-05   2.767135831079394e-06   -3.101017038957413e-06
-2.9100875466030985e-05   2.767135831079394e-06   -3.101017038957413e-06
-2.9100875466030985e-05   2.767135831079394e-06   -3.101017038957413e-06
-2.9100875466030985e-05   2.767135831079394e-06   -3.101017038957413e-06
-7.049152415573075e-05   -2.801825517951802e-05   -9.055666612814905e-05
-7.049152415573075e-05   -2.801825517951802e-05   -9.055666612814905e-05
-7.049152415573075e-05   -2.801825517951802e-05   -9.055666612814905e-05
-7.049152415573075e-05   -2.801825517951802e-05   -9.055666612814905e-05
-6.68601484996556e-05   3.4516311953410213e-06   -1.896457853319336e-05
-6.68601484996556e-05   3.4516311953410213e-06   -1.896457853319336e-05
-6.68601484996556e-05   3.4516311953410213e-06   -1.896457853319336e-05
-6.68601484996556e-05   3.4516311953410213e-06   -1.896457853319336e-05
-2.6219601946066025e-05   -2.5589091015545268e-05   -6.92743894626444e-05
-2.6219601946066025e-05   -2.5589091015545268e-05   -6.92743894626444e-05
-2.6219601946066025e-05   -2.5589091015545268e-05   -6.92743894626444e-05
-2.6219601946066025e-05   -2.5589091015545268e-05   -6.92743894626444e-05
-4.7557540315955584e-05   -1.1285172362230159e-05   -4.2293510038150925e-05
-4.7557540315955584e-05   -1.1285172362230159e-05   -4.2293510038150925e-05
-4.7557540315955584e-05   -1.1285172362230159e-05   -4.2293510038150925e-05
-4.7557540315955584e-05   -1.1285172362230159e-05   -4.2293510038150925e-05
-7.502068415371221e-05   1.0692943175888592e-05   -1.633154106856806e-05
-7.502068415371221e-05   1.0692943175888592e-05   -1.633154106856806e-05
-7.502068415371221e-05   1.0692943175888592e-05   -1.633154106856806e-05
-7.502068415371221e-05   1.0692943175888592e-05   -1.633154106856806e-05
-0.0001292458763112229   0.0   -0.0001131226272366192
-0.0001292458763112229   0.0   -0.0001131226272366192
-0.0001292458763112229   0.0   -0.0001131226272366192
-0.0001292458763112229   0.0   -0.0001131226272366192
-0.00012585995245103604   1.3549578526138306e-05   -1.2545145623517459e-05
-0.00012585995245103604   1.3549578526138306e-05   -1.2545145623517459e-05
-0.00012585995245103604   1.3549578526138306e-05   -1.2545145623517459e-05
-0.00012585995245103604   1.3549578526138306e-05   -1.2545145623517459e-05
-7.270839581260097e-05   0.0   -9.300132623855974e-05
-7.270839581260097e-05   0.0   -9.300132623855974e-05
-7.270839581260097e-05   0.0   -9.300132623855974e-05
-7.270839581260097e-05   0.0   -9.300132623855974e-05
-9.642892890779603e-05   4.1338420702832085e-06   -5.5947409655404405e-05
-9.642892890779603e-05   4.1338420702832085e-06   -5.5947409655404405e-05
-9.642892890779603e-05   4.1338420702832085e-06   -5.5947409655404405e-05
-9.642892890779603e-05   4.1338420702832085e-06   -5.5947409655404405e-05
-7.270839581260103e-05   1.3549578526138537e-05   -4.415398507834388e-06
-7.270839581260103e-05   1.3549578526138537e-05   -4.415398507834388e-06
-7.270839581260103e-05   1.3549578526138537e-05   -4.415398507834388e-06
-7.270839581260103e-05   1.3549578526138537e-05   -4.415398507834388e-06
-0.00012585995245103582   0.0   -0.00010113107335424235
-0.00012585995245103582   0.0   -0.00010113107335424235
-0.00012585995245103582   0.0   -0.00010113107335424235
-0.00012585995245103582   0.0   -0.00010113107335424235
-0.00012299728677121527   1.4190985506253723e-05   -5.056518628901354e-06
-0.00012299728677121527   1.4190985506253723e-05   -5.056518628901354e-06
-0.00012299728677121527   1.4190985506253723e-05   -5.056518628901354e-06
-0.00012299728677121527   1.4190985506253723e-05   -5.056518628901354e-06
-7.049152415573077e-05   0.0   -8.405153168429053e-05
-7.049152415573077e-05   0.0   -8.405153168429053e-05
-7.049152415573077e-05   0.0   -8.405153168429053e-05
-7.049152415573077e-05   0.0   -8.405153168429053e-05
-9.541333068008724e-05   6.559596882471132e-06   -4.645094560651102e-05
-9.541333068008724e-05   6.559596882471132e-06   -4.645094560651102e-05
-9.541333068008724e-05   6.559596882471132e-06   -4.645094560651102e-05
-9.541333068008724e-05   6.559596882471132e-06   -4.645094560651102e-05
-7.049152415573075e-05   1.4190985506253607e-05   3.4580726748505326e-06
-7.049152415573075e-05   1.4190985506253607e-05   3.4580726748505326e-06
-7.049152415573075e-05   1.4190985506253607e-05   3.4580726748505326e-06
-7.049152415573075e-05   1.4190985506253607e-05   3.4580726748505326e-06
-0.00012299728677121505   0.0   -9.256612298804215e-05
-0.00012299728677121505   0.0   -9.256612298804215e-05
-0.00012299728677121505   0.0   -9.256612298804215e-05
-0.00012299728677121505   0.0   -9.256612298804215e-05
-0.00011728737762780155   1.5296475386621707e-05   6.991020028951616e-06
-0.00011728737762780155   1.5296475386621707e-05   6.991020028951616e-06
-0.00011728737762780155   1.5296475386621707e-05   6.991020028951616e-06
-0.00011728737762780155   1.5296475386621707e-05   6.991020028951616e-06
-6.686014849965567e-05   0.0   -6.787647661931866e-05
-6.686014849965567e-05   0.0   -6.787647661931866e-05
-6.686014849965567e-05   0.0   -6.787647661931866e-05
-6.686014849965567e-05   0.0   -6.787647661931866e-05
-9.043553138269299e-05   8.093632382985202e-06   -3.344035124404813e-05
-9.043553138269299e-05   8.093632382985202e-06   -3.344035124404813e-05
-9.043553138269299e-05   8.093632382985202e-06   -3.344035124404813e-05
-9.043553138269299e-05   8.093632382985202e-06   -3.344035124404813e-05
9.572282351626659e-05   -1.644974632758349e-05   5.716246872069955e-05
9.572282351626659e-05   -1.644974632758349e-05   5.716246872069955e-05
9.572282351626659e-05   -1.644974632758349e-05   5.716246872069955e-05
9.572282351626659e-05   -1.644974632758349e-05   5.716246872069955e-05
4.9680109496490134e-05   -1.2663705813473203e-05   -1.7303763670461917e-05
4.9680109496490134e-05   -1.2663705813473203e-05   -1.7303763670461917e-05
4.9680109496490134e-05   -1.2663705813473203e-05   -1.7303763670461917e-05
4.9680109496490134e-05   -1.2663705813473203e-05   -1.7303763670461917e-05
4.8427047287362586e-05   -1.6861205976488863e-05   5.0499206846709756e-05
4.8427047287362586e-05   -1.6861205976488863e-05   5.0499206846709756e-05
4.8427047287362586e-05   -1.6861205976488863e-05   5.0499206846709756e-05
4.8427047287362586e-05   -1.6861205976488863e-05   5.0499206846709756e-05
9.46945594709098e-05   -1.3925545888243164e-05   -2.8374709512149536e-05
9.46945594709098e-05   -1.3925545888243164e-05   -2.8374709512149536e-05
9.46945594709098e-05   -1.3925545888243164e-05   -2.8374709512149536e-05
9.46945594709098e-05   -1.3925545888243164e-05   -2.8374709512149536e-05
6.918039054536376e-05   -1.4167792001330663e-05   1.4294253031612843e-05
6.918039054536376e-05   -1.4167792001330663e-05   1.4294253031612843e-05
6.918039054536376e-05   -1.4167792001330663e-05   1.4294253031612843e-05
6.918039054536376e-05   -1.4167792001330663e-05   1.4294253031612843e-05
9.46945594709098e-05   -1.686120597648893e-05   4.873781079376251e-05
9.46945594709098e-05   -1.686120597648893e-05   4.873781079376251e-05
9.46945594709098e-05   -1.686120597648893e-05   4.873781079376251e-05
9.46945594709098e-05   -1.686120597648893e-05   4.873781079376251e-05
4.8427047287362586e-05   -1.3925545888243164e-05   -2.6613313459202155e-05
4.8427047287362586e-05   -1.3925545888243164e-05   -2.6613313459202155e-05
4.8427047287362586e-05   -1.3925545888243164e-05   -2.6613313459202155e-05
4.8427047287362586e-05   -1.3925545888243164e-05   -2.6613313459202155e-05
4.7293797112153284e-05   -1.6709378733577654e-05   4.534691535323628e-05
4.7293797112153284e-05   -1.6709378733577654e-05   4.534691535323628e-05
4.7293797112153284e-05   -1.6709378733577654e-05   4.534691535323628e-05
4.7293797112153284e-05   -1.6709378733577654e-05   4.534691535323628e-05
9.350649606242834e-05   -1.4042546712493553e-05   -3.327434877653919e-05
9.350649606242834e-05   -1.4042546712493553e-05   -3.327434877653919e-05
9.350649606242834e-05   -1.4042546712493553e-05   -3.327434877653919e-05
9.350649606242834e-05   -1.4042546712493553e-05   -3.327434877653919e-05
6.91240494975098e-05   -1.4416236349855654e-05   7.587275947408892e-06
6.91240494975098e-05   -1.4416236349855654e-05   7.587275947408892e-06
6.91240494975098e-05   -1.4416236349855654e-05   7.587275947408892e-06
6.91240494975098e-05   -1.4416236349855654e-05   7.587275947408892e-06
9.350649606242848e-05   -1.6709378733577613e-05   4.3746816140585775e-05
9.350649606242848e-05   -1.6709378733577613e-05   4.3746816140585775e-05
9.350649606242848e-05   -1.6709378733577613e-05   4.3746816140585775e-05
9.350649606242848e-05   -1.6709378733577613e-05   4.3746816140585775e-05
4.7293797112153284e-05   -1.4042546712493553e-05   -3.1674249563888634e-05
4.7293797112153284e-05   -1.4042546712493553e-05   -3.1674249563888634e-05
4.7293797112153284e-05   -1.4042546712493553e-05   -3.1674249563888634e-05
4.7293797112153284e-05   -1.4042546712493553e-05   -3.1674249563888634e-05
4.591136349394199e-05   -1.5782510683542104e-05   3.696463409568265e-05
4.591136349394199e-05   -1.5782510683542104e-05   3.696463409568265e-05
4.591136349394199e-05   -1.5782510683542104e-05   3.696463409568265e-05
4.591136349394199e-05   -1.5782510683542104e-05   3.696463409568265e-05
9.16451164381444e-05   -1.375256528904703e-05   -4.0476254714685064e-05
9.16451164381444e-05   -1.375256528904703e-05   -4.0476254714685064e-05
9.16451164381444e-05   -1.375256528904703e-05   -4.0476254714685064e-05
9.16451164381444e-05   -1.375256528904703e-05   -4.0476254714685064e-05
6.676088561751674e-05   -1.3708751521900129e-05   9.711750594062628e-07
6.676088561751674e-05   -1.3708751521900129e-05   9.711750594062628e-07
6.676088561751674e-05   -1.3708751521900129e-05   9.711750594062628e-07
6.676088561751674e-05   -1.3708751521900129e-05   9.711750594062628e-07
4.9680109496490134e-05   -1.6539442310447666e-05   4.273630764103551e-05
4.9680109496490134e-05   -1.6539442310447666e-05   4.273630764103551e-05
4.9680109496490134e-05   -1.6539442310447666e-05   4.273630764103551e-05
4.9680109496490134e-05   -1.6539442310447666e-05   4.273630764103551e-05
1.0626754732400237e-05   -7.844135294557148e-06   -1.7135432756247007e-05
1.0626754732400237e-05   -7.844135294557148e-06   -1.7135432756247007e-05
1.0626754732400237e-05   -7.844135294557148e-06   -1.7135432756247007e-05
1.0626754732400237e-05   -7.844135294557148e-06   -1.7135432756247007e-05
8.643541800807254e-06   -1.6456259038734235e-05   4.8805504528771915e-05
8.643541800807254e-06   -1.6456259038734235e-05   4.8805504528771915e-05
8.643541800807254e-06   -1.6456259038734235e-05   4.8805504528771915e-05
8.643541800807254e-06   -1.6456259038734235e-05   4.8805504528771915e-05
4.842704728736259e-05   -8.320772591870716e-06   -2.2381629816938323e-05
4.842704728736259e-05   -8.320772591870716e-06   -2.2381629816938323e-05
4.842704728736259e-05   -8.320772591870716e-06   -2.2381629816938323e-05
4.842704728736259e-05   -8.320772591870716e-06   -2.2381629816938323e-05
2.9304118152820057e-05   -1.1835443557508402e-05   1.1598721320015307e-05
2.9304118152820057e-05   -1.1835443557508402e-05   1.1598721320015307e-05
2.9304118152820057e-05   -1.1835443557508402e-05   1.1598721320015307e-05
2.9304118152820057e-05   -1.1835443557508402e-05   1.1598721320015307e-05
4.842704728736256e-05   -1.6456259038734385e-05   4.392421266065393e-05
4.842704728736256e-05   -1.6456259038734385e-05   4.392421266065393e-05
4.842704728736256e-05   -1.6456259038734385e-05   4.392421266065393e-05
4.842704728736256e-05   -1.6456259038734385e-05   4.392421266065393e-05
8.643541800807254e-06   -8.320772591870716e-06   -1.7500337948820124e-05
8.643541800807254e-06   -8.320772591870716e-06   -1.7500337948820124e-05
8.643541800807254e-06   -8.320772591870716e-06   -1.7500337948820124e-05
8.643541800807254e-06   -8.320772591870716e-06   -1.7500337948820124e-05
7.2297797264785145e-06   -1.623760719889067e-05   4.888405616667712e-05
7.2297797264785145e-06   -1.623760719889067e-05   4.888405616667712e-05
7.2297797264785145e-06   -1.623760719889067e-05   4.888405616667712e-05
7.2297797264785145e-06   -1.623760719889067e-05   4.888405616667712e-05
4.729379711215329e-05   -8.533881255317656e-06   -2.2511541708924776e-05
4.729379711215329e-05   -8.533881255317656e-06   -2.2511541708924776e-05
4.729379711215329e-05   -8.533881255317656e-06   -2.2511541708924776e-05
4.729379711215329e-05   -8.533881255317656e-06   -2.2511541708924776e-05
2.7605254542904825e-05   -1.1593844185971407e-05   1.2138673664882638e-05
2.7605254542904825e-05   -1.1593844185971407e-05   1.2138673664882638e-05
2.7605254542904825e-05   -1.1593844185971407e-05   1.2138673664882638e-05
2.7605254542904825e-05   -1.1593844185971407e-05   1.2138673664882638e-05
4.7293797112153365e-05   -1.623760719889065e-05   4.4261820600533354e-05
4.7293797112153365e-05   -1.623760719889065e-05   4.4261820600533354e-05
4.7293797112153365e-05   -1.623760719889065e-05   4.4261820600533354e-05
4.7293797112153365e-05   -1.623760719889065e-05   4.4261820600533354e-05
7.2297797264785145e-06   -8.533881255317656e-06   -1.7889306142780713e-05
7.2297797264785145e-06   -8.533881255317656e-06   -1.7889306142780713e-05
7.2297797264785145e-06   -8.533881255317656e-06   -1.7889306142780713e-05
7.2297797264785145e-06   -8.533881255317656e-06   -1.7889306142780713e-05
5.656904245270012e-06   -1.5799321640514504e-05   5.047982325569536e-05
5.656904245270012e-06   -1.5799321640514504e-05   5.047982325569536e-05
5.656904245270012e-06   -1.5799321640514504e-05   5.047982325569536e-05
5.656904245270012e-06   -1.5799321640514504e-05   5.047982325569536e-05
4.5911363493942047e-05   -8.343525818409279e-06   -2.108441965202094e-05
4.5911363493942047e-05   -8.343525818409279e-06   -2.108441965202094e-05
4.5911363493942047e-05   -8.343525818409279e-06   -2.108441965202094e-05
4.5911363493942047e-05   -8.343525818409279e-06   -2.108441965202094e-05
2.6565348443879006e-05   -1.108678933253249e-05   1.2804896873224391e-05
2.6565348443879006e-05   -1.108678933253249e-05   1.2804896873224391e-05
2.6565348443879006e-05   -1.108678933253249e-05   1.2804896873224391e-05
2.6565348443879006e-05   -1.108678933253249e-05   1.2804896873224391e-05
1.0626754732400237e-05   -1.9991358127842254e-05   4.398867845441137e-05
1.0626754732400237e-05   -1.9991358127842254e-05   4.398867845441137e-05
1.0626754732400237e-05   -1.9991358127842254e-05   4.398867845441137e-05
1.0626754732400237e-05   -1.9991358127842254e-05   4.398867845441137e-05
-2.6885723305290266e-05   -3.3198985320967087e-06   -8.529242517625515e-06
-2.6885723305290266e-05   -3.3198985320967087e-06   -8.529242517625515e-06
-2.6885723305290266e-05   -3.3198985320967087e-06   -8.529242517625515e-06
-2.6885723305290266e-05   -3.3198985320967087e-06   -8.529242517625515e-06
-2.9971209301888702e-05   -2.043612401838625e-05   5.6566917751397095e-05
-2.9971209301888702e-05   -2.043612401838625e-05   5.6566917751397095e-05
-2.9971209301888702e-05   -2.043612401838625e-05   5.6566917751397095e-05
-2.9971209301888702e-05   -2.043612401838625e-05   5.6566917751397095e-05
8.643541800807261e-06   -3.5063122986690384e-06   -1.7948887784926518e-05
8.643541800807261e-06   -3.5063122986690384e-06   -1.7948887784926518e-05
8.643541800807261e-06   -3.5063122986690384e-06   -1.7948887784926518e-05
8.643541800807261e-06   -3.5063122986690384e-06   -1.7948887784926518e-05
-9.059432904487002e-06   -1.1434081604118698e-05   1.631273164050018e-05
-9.059432904487002e-06   -1.1434081604118698e-05   1.631273164050018e-05
-9.059432904487002e-06   -1.1434081604118698e-05   1.631273164050018e-05
-9.059432904487002e-06   -1.1434081604118698e-05   1.631273164050018e-05
8.643541800807254e-06   -2.0436124018386505e-05   4.6409030719566724e-05
8.643541800807254e-06   -2.0436124018386505e-05   4.6409030719566724e-05
8.643541800807254e-06   -2.0436124018386505e-05   4.6409030719566724e-05
8.643541800807254e-06   -2.0436124018386505e-05   4.6409030719566724e-05
-2.9971209301888648e-05   -3.506312298669472e-06   -7.791000753096418e-06
-2.9971209301888648e-05   -3.506312298669472e-06   -7.791000753096418e-06
-2.9971209301888648e-05   -3.506312298669472e-06   -7.791000753096418e-06
-2.9971209301888648e-05   -3.506312298669472e-06   -7.791000753096418e-06
-3.185627339401866e-05   -2.034371821832935e-05   5.8725243966321894e-05
-3.185627339401866e-05   -2.034371821832935e-05   5.8725243966321894e-05
-3.185627339401866e-05   -2.034371821832935e-05   5.8725243966321894e-05
-3.185627339401866e-05   -2.034371821832935e-05   5.8725243966321894e-05
7.229779726478515e-06   -3.7343204611927673e-06   -1.638381655545538e-05
7.229779726478515e-06   -3.7343204611927673e-06   -1.638381655545538e-05
7.229779726478515e-06   -3.7343204611927673e-06   -1.638381655545538e-05
7.229779726478515e-06   -3.7343204611927673e-06   -1.638381655545538e-05
-1.1147917874251e-05   -1.1399876530380007e-05   1.884501308727299e-05
-1.1147917874251e-05   -1.1399876530380007e-05   1.884501308727299e-05
-1.1147917874251e-05   -1.1399876530380007e-05   1.884501308727299e-05
-1.1147917874251e-05   -1.1399876530380007e-05   1.884501308727299e-05
7.229779726478487e-06   -2.0343718218329253e-05   4.8759605312040074e-05
7.229779726478487e-06   -2.0343718218329253e-05   4.8759605312040074e-05
7.229779726478487e-06   -2.0343718218329253e-05   4.8759605312040074e-05
7.229779726478487e-06   -2.0343718218329253e-05   4.8759605312040074e-05
-3.185627339401858e-05   -3.7343204611927673e-06   -6.418177901173399e-06
-3.185627339401858e-05   -3.7343204611927673e-06   -6.418177901173399e-06
-3.185627339401858e-05   -3.7343204611927673e-06   -6.418177901173399e-06
-3.185627339401858e-05   -3.7343204611927673e-06   -6.418177901173399e-06
-3.407432880338132e-05   -1.963410581789062e-05   6.152116931683457e-05
-3.407432880338132e-05   -1.963410581789062e-05   6.152116931683457e-05
-3.407432880338132e-05   -1.963410581789062e-05   6.152116931683457e-05
-3.407432880338132e-05   -1.963410581789062e-05   6.152116931683457e-05
5.656904245270025e-06   -3.713972547372303e-06   -1.4249632393228582e-05
5.656904245270025e-06   -3.713972547372303e-06   -1.4249632393228582e-05
5.656904245270025e-06   -3.713972547372303e-06   -1.4249632393228582e-05
5.656904245270025e-06   -3.713972547372303e-06   -1.4249632393228582e-05
-1.2848161687244432e-05   -1.0949033267467021e-05   2.0933180593018944e-05
-1.2848161687244432e-05   -1.0949033267467021e-05   2.0933180593018944e-05
-1.2848161687244432e-05   -1.0949033267467021e-05   2.0933180593018944e-05
-1.2848161687244432e-05   -1.0949033267467021e-05   2.0933180593018944e-05
-2.688572330529032e-05   -2.496427874459892e-05   5.333317550185288e-05
-2.688572330529032e-05   -2.496427874459892e-05   5.333317550185288e-05
-2.688572330529032e-05   -2.496427874459892e-05   5.333317550185288e-05
-2.688572330529032e-05   -2.496427874459892e-05   5.333317550185288e-05
-6.962632696295618e-05   3.508914851070924e-06   -8.172477701882258e-07
-6.962632696295618e-05   3.508914851070924e-06   -8.172477701882258e-07
-6.962632696295618e-05   3.508914851070924e-06   -8.172477701882258e-07
-6.962632696295618e-05   3.508914851070924e-06   -8.172477701882258e-07
-7.333112910524515e-05   -2.785957383086334e-05   7.540807394458603e-05
-7.333112910524515e-05   -2.785957383086334e-05   7.540807394458603e-05
-7.333112910524515e-05   -2.785957383086334e-05   7.540807394458603e-05
-7.333112910524515e-05   -2.785957383086334e-05   7.540807394458603e-05
-2.9971209301888648e-05   3.2938527442130487e-06   -1.5550515006053887e-05
-2.9971209301888648e-05   3.2938527442130487e-06   -1.5550515006053887e-05
-2.9971209301888648e-05   3.2938527442130487e-06   -1.5550515006053887e-05
-2.9971209301888648e-05   3.2938527442130487e-06   -1.5550515006053887e-05
-4.925338813756576e-05   -1.039128332907006e-05   2.4797531364044358e-05
-4.925338813756576e-05   -1.039128332907006e-05   2.4797531364044358e-05
-4.925338813756576e-05   -1.039128332907006e-05   2.4797531364044358e-05
-4.925338813756576e-05   -1.039128332907006e-05   2.4797531364044358e-05
-2.9971209301888648e-05   -2.7859573830863176e-05   5.671601799954007e-05
-2.9971209301888648e-05   -2.7859573830863176e-05   5.671601799954007e-05
-2.9971209301888648e-05   -2.7859573830863176e-05   5.671601799954007e-05
-2.9971209301888648e-05   -2.7859573830863176e-05   5.671601799954007e-05
-7.333112910524502e-05   3.2938527442130487e-06   3.141540938992075e-06
-7.333112910524502e-05   3.2938527442130487e-06   3.141540938992075e-06
-7.333112910524502e-05   3.2938527442130487e-06   3.141540938992075e-06
-7.333112910524502e-05   3.2938527442130487e-06   3.141540938992075e-06
-7.558983981557625e-05   -2.801825517951802e-05   7.962565441859424e-05
-7.558983981557625e-05   -2.801825517951802e-05   7.962565441859424e-05
-7.558983981557625e-05   -2.801825517951802e-05   7.962565441859424e-05
-7.558983981557625e-05   -2.801825517951802e-05   7.962565441859424e-05
-3.1856273394018587e-05   2.90127823741361e-06   -1.1815343000827483e-05
-3.1856273394018587e-05   2.90127823741361e-06   -1.1815343000827483e-05
-3.1856273394018587e-05   2.90127823741361e-06   -1.1815343000827483e-05
-3.1856273394018587e-05   2.90127823741361e-06   -1.1815343000827483e-05
-5.166219959018674e-05   -1.1954009068605893e-05   3.0107706376397887e-05
-5.166219959018674e-05   -1.1954009068605893e-05   3.0107706376397887e-05
-5.166219959018674e-05   -1.1954009068605893e-05   3.0107706376397887e-05
-5.166219959018674e-05   -1.1954009068605893e-05   3.0107706376397887e-05
-3.185627339401858e-05   -2.8018255179518292e-05   6.107393436843487e-05
-3.185627339401858e-05   -2.8018255179518292e-05   6.107393436843487e-05
-3.185627339401858e-05   -2.8018255179518292e-05   6.107393436843487e-05
-3.185627339401858e-05   -2.8018255179518292e-05   6.107393436843487e-05
-7.558983981557613e-05   2.90127823741361e-06   6.736377049331669e-06
-7.558983981557613e-05   2.90127823741361e-06   6.736377049331669e-06
-7.558983981557613e-05   2.90127823741361e-06   6.736377049331669e-06
-7.558983981557613e-05   2.90127823741361e-06   6.736377049331669e-06
-7.802281406015046e-05   -2.5589091015545268e-05   8.144405958521086e-05
-7.802281406015046e-05   -2.5589091015545268e-05   8.144405958521086e-05
-7.802281406015046e-05   -2.5589091015545268e-05   8.144405958521086e-05
-7.802281406015046e-05   -2.5589091015545268e-05   8.144405958521086e-05
-3.407432880338131e-05   2.4572982963611163e-06   -8.631249429881906e-06
-3.407432880338131e-05   2.4572982963611163e-06   -8.631249429881906e-06
-3.407432880338131e-05   2.4572982963611163e-06   -8.631249429881906e-06
-3.407432880338131e-05   2.4572982963611163e-06   -8.631249429881906e-06
-5.414152099214173e-05   -1.2045298569504214e-05   3.351562900423847e-05
-5.414152099214173e-05   -1.2045298569504214e-05   3.351562900423847e-05
-5.414152099214173e-05   -1.2045298569504214e-05   3.351562900423847e-05
-5.414152099214173e-05   -1.2045298569504214e-05   3.351562900423847e-05
-6.962632696295594e-05   -9.830099697201864e-20   5.913138696589837e-05
-6.962632696295594e-05   -9.830099697201864e-20   5.913138696589837e-05
-6.962632696295594e-05   -9.830099697201864e-20   5.913138696589837e-05
-6.962632696295594e-05   -9.830099697201864e-20   5.913138696589837e-05
-0.00012269829284448447   1.6080030360108872e-05   -1.9673871287250897e-05
-0.00012269829284448447   1.6080030360108872e-05   -1.9673871287250897e-05
-0.00012269829284448447   1.6080030360108872e-05   -1.9673871287250897e-05
-0.00012269829284448447   1.6080030360108872e-05   -1.9673871287250897e-05
-0.00012781324146948243   0.0   8.574081358665503e-05
-0.00012781324146948243   0.0   8.574081358665503e-05
-0.00012781324146948243   0.0   8.574081358665503e-05
-0.00012781324146948243   0.0   8.574081358665503e-05
-7.333112910524502e-05   1.5513134523409324e-05   -1.4370587734452672e-05
-7.333112910524502e-05   1.5513134523409324e-05   -1.4370587734452672e-05
-7.333112910524502e-05   1.5513134523409324e-05   -1.4370587734452672e-05
-7.333112910524502e-05   1.5513134523409324e-05   -1.4370587734452672e-05
-9.41715770621033e-05   9.540613422530809e-06   2.39470048541715e-05
-9.41715770621033e-05   9.540613422530809e-06   2.39470048541715e-05
-9.41715770621033e-05   9.540613422530809e-06   2.39470048541715e-05
-9.41715770621033e-05   9.540613422530809e-06   2.39470048541715e-05
-7.333112910524496e-05   1.6190752442450208e-19   7.643293287260986e-05
-7.333112910524496e-05   1.6190752442450208e-19   7.643293287260986e-05
-7.333112910524496e-05   1.6190752442450208e-19   7.643293287260986e-05
-7.333112910524496e-05   1.6190752442450208e-19   7.643293287260986e-05
-0.00012781324146948265   1.5513134523409324e-05   -5.062707020407186e-06
-0.00012781324146948265   1.5513134523409324e-05   -5.062707020407186e-06
-0.00012781324146948265   1.5513134523409324e-05   -5.062707020407186e-06
-0.00012781324146948265   1.5513134523409324e-05   -5.062707020407186e-06
-0.0001303899862926567   0.0   9.519848439152722e-05
-0.0001303899862926567   0.0   9.519848439152722e-05
-0.0001303899862926567   0.0   9.519848439152722e-05
-0.0001303899862926567   0.0   9.519848439152722e-05
-7.558983981557611e-05   1.5112825881790758e-05   -5.20278859934847e-06
-7.558983981557611e-05   1.5112825881790758e-05   -5.20278859934847e-06
-7.558983981557611e-05   1.5112825881790758e-05   -5.20278859934847e-06
-7.558983981557611e-05   1.5112825881790758e-05   -5.20278859934847e-06
-9.909815007565483e-05   7.964605089942622e-06   3.826666097589296e-05
-9.909815007565483e-05   7.964605089942622e-06   3.826666097589296e-05
-9.909815007565483e-05   7.964605089942622e-06   3.826666097589296e-05
-9.909815007565483e-05   7.964605089942622e-06   3.826666097589296e-05
-7.558983981557613e-05   1.6190752442450208e-19   8.613078886245303e-05
-7.558983981557613e-05   1.6190752442450208e-19   8.613078886245303e-05
-7.558983981557613e-05   1.6190752442450208e-19   8.613078886245303e-05
-7.558983981557613e-05   1.6190752442450208e-19   8.613078886245303e-05
-0.00013038998629265694   1.5112825881790758e-05   3.864906929725888e-06
-0.00013038998629265694   1.5112825881790758e-05   3.864906929725888e-06
-0.00013038998629265694   1.5112825881790758e-05   3.864906929725888e-06
-0.00013038998629265694   1.5112825881790758e-05   3.864906929725888e-06
-0.0001332620057943635   0.0   0.00010781151397949067
-0.0001332620057943635   0.0   0.00010781151397949067
-0.0001332620057943635   0.0   0.00010781151397949067
-0.0001332620057943635   0.0   0.00010781151397949067
-7.802281406015039e-05   1.2575180374037667e-05   8.201086198046095e-06
-7.802281406015039e-05   1.2575180374037667e-05   8.201086198046095e-06
-7.802281406015039e-05   1.2575180374037667e-05   8.201086198046095e-06
-7.802281406015039e-05   1.2575180374037667e-05   8.201086198046095e-06
-9.993273655222753e-05   5.5861980065804485e-06   4.891101310531477e-05
-9.993273655222753e-05   5.5861980065804485e-06   4.891101310531477e-05
-9.993273655222753e-05   5.5861980065804485e-06   4.891101310531477e-05
-9.993273655222753e-05   5.5861980065804485e-06   4.891101310531477e-05
8.414042011758492e-05   -1.2663705813473279e-05   5.978249497624031e-05
8.414042011758492e-05   -1.2663705813473279e-05   5.978249497624031e-05
8.414042011758492e-05   -1.2663705813473279e-05   5.978249497624031e-05
8.414042011758492e-05   -1.2663705813473279e-05   5.978249497624031e-05
4.256580403046846e-05   -9.541044749458109e-06   -7.634935197211408e-06
4.256580403046846e-05   -9.541044749458109e-06   -7.634935197211408e-06
4.256580403046846e-05   -9.541044749458109e-06   -7.634935197211408e-06
4.256580403046846e-05   -9.541044749458109e-06   -7.634935197211408e-06
4.143941113279809e-05   -1.3925545888243164e-05   5.219278593256377e-05
4.143941113279809e-05   -1.3925545888243164e-05   5.219278593256377e-05
4.143941113279809e-05   -1.3925545888243164e-05   5.219278593256377e-05
4.143941113279809e-05   -1.3925545888243164e-05   5.219278593256377e-05
8.212805047267462e-05   -1.0816335868657403e-05   -1.7487138978981674e-05
8.212805047267462e-05   -1.0816335868657403e-05   -1.7487138978981674e-05
8.212805047267462e-05   -1.0816335868657403e-05   -1.7487138978981674e-05
8.212805047267462e-05   -1.0816335868657403e-05   -1.7487138978981674e-05
5.9782971686855345e-05   -1.126676133632147e-05   2.002491427798223e-05
5.9782971686855345e-05   -1.126676133632147e-05   2.002491427798223e-05
5.9782971686855345e-05   -1.126676133632147e-05   2.002491427798223e-05
5.9782971686855345e-05   -1.126676133632147e-05   2.002491427798223e-05
8.212805047267449e-05   -1.3925545888243352e-05   5.032725992081227e-05
8.212805047267449e-05   -1.3925545888243352e-05   5.032725992081227e-05
8.212805047267449e-05   -1.3925545888243352e-05   5.032725992081227e-05
8.212805047267449e-05   -1.3925545888243352e-05   5.032725992081227e-05
4.143941113279817e-05   -1.0816335868657403e-05   -1.562161296723031e-05
4.143941113279817e-05   -1.0816335868657403e-05   -1.562161296723031e-05
4.143941113279817e-05   -1.0816335868657403e-05   -1.562161296723031e-05
4.143941113279817e-05   -1.0816335868657403e-05   -1.562161296723031e-05
3.998792525684836e-05   -1.4042546712493553e-05   4.6854472318618064e-05
3.998792525684836e-05   -1.4042546712493553e-05   4.6854472318618064e-05
3.998792525684836e-05   -1.4042546712493553e-05   4.6854472318618064e-05
3.998792525684836e-05   -1.4042546712493553e-05   4.6854472318618064e-05
8.009343881299371e-05   -1.1006548360947832e-05   -2.1809649285885413e-05
8.009343881299371e-05   -1.1006548360947832e-05   -2.1809649285885413e-05
8.009343881299371e-05   -1.1006548360947832e-05   -2.1809649285885413e-05
8.009343881299371e-05   -1.1006548360947832e-05   -2.1809649285885413e-05
5.9215265687375713e-05   -1.1759363253904028e-05   1.3438994859251406e-05
5.9215265687375713e-05   -1.1759363253904028e-05   1.3438994859251406e-05
5.9215265687375713e-05   -1.1759363253904028e-05   1.3438994859251406e-05
5.9215265687375713e-05   -1.1759363253904028e-05   1.3438994859251406e-05
8.009343881299372e-05   -1.4042546712493563e-05   4.503287330769046e-05
8.009343881299372e-05   -1.4042546712493563e-05   4.503287330769046e-05
8.009343881299372e-05   -1.4042546712493563e-05   4.503287330769046e-05
8.009343881299372e-05   -1.4042546712493563e-05   4.503287330769046e-05
3.998792525684836e-05   -1.1006548360947832e-05   -1.998805027495789e-05
3.998792525684836e-05   -1.1006548360947832e-05   -1.998805027495789e-05
3.998792525684836e-05   -1.1006548360947832e-05   -1.998805027495789e-05
3.998792525684836e-05   -1.1006548360947832e-05   -1.998805027495789e-05
3.846529303658392e-05   -1.3752565289047464e-05   3.893836753977864e-05
3.846529303658392e-05   -1.3752565289047464e-05   3.893836753977864e-05
3.846529303658392e-05   -1.3752565289047464e-05   3.893836753977864e-05
3.846529303658392e-05   -1.3752565289047464e-05   3.893836753977864e-05
7.754673477036778e-05   -1.0939831205401991e-05   -2.7885009133381404e-05
7.754673477036778e-05   -1.0939831205401991e-05   -2.7885009133381404e-05
7.754673477036778e-05   -1.0939831205401991e-05   -2.7885009133381404e-05
7.754673477036778e-05   -1.0939831205401991e-05   -2.7885009133381404e-05
5.657079476715676e-05   -1.1452502036161678e-05   7.382493370427037e-06
5.657079476715676e-05   -1.1452502036161678e-05   7.382493370427037e-06
5.657079476715676e-05   -1.1452502036161678e-05   7.382493370427037e-06
5.657079476715676e-05   -1.1452502036161678e-05   7.382493370427037e-06
4.256580403046846e-05   -7.844135294557487e-06   5.660723831933017e-05
4.256580403046846e-05   -7.844135294557487e-06   5.660723831933017e-05
4.256580403046846e-05   -7.844135294557487e-06   5.660723831933017e-05
4.256580403046846e-05   -7.844135294557487e-06   5.660723831933017e-05
4.69343458013016e-06   -3.3699562004300618e-06   -3.828869974757372e-06
4.69343458013016e-06   -3.3699562004300618e-06   -3.828869974757372e-06
4.69343458013016e-06   -3.3699562004300618e-06   -3.828869974757372e-06
4.69343458013016e-06   -3.3699562004300618e-06   -3.828869974757372e-06
3.5748055786745717e-06   -8.320772591870283e-06   5.8983403295285054e-05
3.5748055786745717e-06   -8.320772591870283e-06   5.8983403295285054e-05
3.5748055786745717e-06   -8.320772591870283e-06   5.8983403295285054e-05
3.5748055786745717e-06   -8.320772591870283e-06   5.8983403295285054e-05
4.143941113279817e-05   -4.055883057775111e-06   -6.683206348711694e-06
4.143941113279817e-05   -4.055883057775111e-06   -6.683206348711694e-06
4.143941113279817e-05   -4.055883057775111e-06   -6.683206348711694e-06
4.143941113279817e-05   -4.055883057775111e-06   -6.683206348711694e-06
2.284752194751013e-05   -5.483475193637181e-06   2.5159830908285313e-05
2.284752194751013e-05   -5.483475193637181e-06   2.5159830908285313e-05
2.284752194751013e-05   -5.483475193637181e-06   2.5159830908285313e-05
2.284752194751013e-05   -5.483475193637181e-06   2.5159830908285313e-05
4.143941113279813e-05   -8.320772591870476e-06   5.6424469574827604e-05
4.143941113279813e-05   -8.320772591870476e-06   5.6424469574827604e-05
4.143941113279813e-05   -8.320772591870476e-06   5.6424469574827604e-05
4.143941113279813e-05   -8.320772591870476e-06   5.6424469574827604e-05
3.5748055786745717e-06   -4.055883057775111e-06   -4.124272628254488e-06
3.5748055786745717e-06   -4.055883057775111e-06   -4.124272628254488e-06
3.5748055786745717e-06   -4.055883057775111e-06   -4.124272628254488e-06
3.5748055786745717e-06   -4.055883057775111e-06   -4.124272628254488e-06
2.1465034369767203e-06   -8.533881255317656e-06   5.843359496874017e-05
2.1465034369767203e-06   -8.533881255317656e-06   5.843359496874017e-05
2.1465034369767203e-06   -8.533881255317656e-06   5.843359496874017e-05
2.1465034369767203e-06   -8.533881255317656e-06   5.843359496874017e-05
3.998792525684836e-05   -4.506523263386655e-06   -7.051856192870804e-06
3.998792525684836e-05   -4.506523263386655e-06   -7.051856192870804e-06
3.998792525684836e-05   -4.506523263386655e-06   -7.051856192870804e-06
3.998792525684836e-05   -4.506523263386655e-06   -7.051856192870804e-06
2.1429542371311994e-05   -5.7435698909572355e-06   2.462100992623294e-05
2.1429542371311994e-05   -5.7435698909572355e-06   2.462100992623294e-05
2.1429542371311994e-05   -5.7435698909572355e-06   2.462100992623294e-05
2.1429542371311994e-05   -5.7435698909572355e-06   2.462100992623294e-05
3.998792525684829e-05   -8.533881255317648e-06   5.6017180173581786e-05
3.998792525684829e-05   -8.533881255317648e-06   5.6017180173581786e-05
3.998792525684829e-05   -8.533881255317648e-06   5.6017180173581786e-05
3.998792525684829e-05   -8.533881255317648e-06   5.6017180173581786e-05
2.1465034369767203e-06   -4.506523263386655e-06   -4.63544139771223e-06
2.1465034369767203e-06   -4.506523263386655e-06   -4.63544139771223e-06
2.1465034369767203e-06   -4.506523263386655e-06   -4.63544139771223e-06
2.1465034369767203e-06   -4.506523263386655e-06   -4.63544139771223e-06
5.686385189223589e-07   -8.343525818408845e-06   5.9297858532725636e-05
5.686385189223589e-07   -8.343525818408845e-06   5.9297858532725636e-05
5.686385189223589e-07   -8.343525818408845e-06   5.9297858532725636e-05
5.686385189223589e-07   -8.343525818408845e-06   5.9297858532725636e-05
3.8465293036583875e-05   -4.70082054010966e-06   -6.048855497023706e-06
3.8465293036583875e-05   -4.70082054010966e-06   -6.048855497023706e-06
3.8465293036583875e-05   -4.70082054010966e-06   -6.048855497023706e-06
3.8465293036583875e-05   -4.70082054010966e-06   -6.048855497023706e-06
2.0273058721554058e-05   -5.6902961088774705e-06   2.486522036928811e-05
2.0273058721554058e-05   -5.6902961088774705e-06   2.486522036928811e-05
2.0273058721554058e-05   -5.6902961088774705e-06   2.486522036928811e-05
2.0273058721554058e-05   -5.6902961088774705e-06   2.486522036928811e-05
4.693434580130187e-06   -3.319898532096828e-06   5.789506025698091e-05
4.693434580130187e-06   -3.319898532096828e-06   5.789506025698091e-05
4.693434580130187e-06   -3.319898532096828e-06   5.789506025698091e-05
4.693434580130187e-06   -3.319898532096828e-06   5.789506025698091e-05
-3.1994034743108976e-05   2.987577847477201e-06   5.337638793265903e-07
-3.1994034743108976e-05   2.987577847477201e-06   5.337638793265903e-07
-3.1994034743108976e-05   2.987577847477201e-06   5.337638793265903e-07
-3.1994034743108976e-05   2.987577847477201e-06   5.337638793265903e-07
-3.3254286627046564e-05   -3.506312298669472e-06   6.211555865954718e-05
-3.3254286627046564e-05   -3.506312298669472e-06   6.211555865954718e-05
-3.3254286627046564e-05   -3.506312298669472e-06   6.211555865954718e-05
-3.3254286627046564e-05   -3.506312298669472e-06   6.211555865954718e-05
3.5748055786745658e-06   2.46152970194511e-06   -2.8469668836899535e-06
3.5748055786745658e-06   2.46152970194511e-06   -2.8469668836899535e-06
3.5748055786745658e-06   2.46152970194511e-06   -2.8469668836899535e-06
3.5748055786745658e-06   2.46152970194511e-06   -2.8469668836899535e-06
-1.4218768175703693e-05   -6.729521256215731e-08   2.8326284322311476e-05
-1.4218768175703693e-05   -6.729521256215731e-08   2.8326284322311476e-05
-1.4218768175703693e-05   -6.729521256215731e-08   2.8326284322311476e-05
-1.4218768175703693e-05   -6.729521256215731e-08   2.8326284322311476e-05
3.5748055786745717e-06   -3.506312298669406e-06   5.8534853459178606e-05
3.5748055786745717e-06   -3.506312298669406e-06   5.8534853459178606e-05
3.5748055786745717e-06   -3.506312298669406e-06   5.8534853459178606e-05
3.5748055786745717e-06   -3.506312298669406e-06   5.8534853459178606e-05
-3.3254286627046564e-05   2.46152970194511e-06   7.33738316678785e-07
-3.3254286627046564e-05   2.46152970194511e-06   7.33738316678785e-07
-3.3254286627046564e-05   2.46152970194511e-06   7.33738316678785e-07
-3.3254286627046564e-05   2.46152970194511e-06   7.33738316678785e-07
-3.494458609265566e-05   -3.734320461193201e-06   6.336277514837297e-05
-3.494458609265566e-05   -3.734320461193201e-06   6.336277514837297e-05
-3.494458609265566e-05   -3.734320461193201e-06   6.336277514837297e-05
-3.494458609265566e-05   -3.734320461193201e-06   6.336277514837297e-05
2.14650343697673e-06   1.9718305259851417e-06   -1.8793979933213914e-06
2.14650343697673e-06   1.9718305259851417e-06   -1.8793979933213914e-06
2.14650343697673e-06   1.9718305259851417e-06   -1.8793979933213914e-06
2.14650343697673e-06   1.9718305259851417e-06   -1.8793979933213914e-06
-1.5462093343536485e-05   -2.1592862075236682e-07   2.878091879557679e-05
-1.5462093343536485e-05   -2.1592862075236682e-07   2.878091879557679e-05
-1.5462093343536485e-05   -2.1592862075236682e-07   2.878091879557679e-05
-1.5462093343536485e-05   -2.1592862075236682e-07   2.878091879557679e-05
2.1465034369767203e-06   -3.734320461192974e-06   5.993908455606588e-05
2.1465034369767203e-06   -3.734320461192974e-06   5.993908455606588e-05
2.1465034369767203e-06   -3.734320461192974e-06   5.993908455606588e-05
2.1465034369767203e-06   -3.734320461192974e-06   5.993908455606588e-05
-3.494458609265566e-05   1.9718305259851417e-06   1.5442925989856467e-06
-3.494458609265566e-05   1.9718305259851417e-06   1.5442925989856467e-06
-3.494458609265566e-05   1.9718305259851417e-06   1.5442925989856467e-06
-3.494458609265566e-05   1.9718305259851417e-06   1.5442925989856467e-06
-3.674549705274239e-05   -3.713972547372303e-06   6.485885714097419e-05
-3.674549705274239e-05   -3.713972547372303e-06   6.485885714097419e-05
-3.674549705274239e-05   -3.713972547372303e-06   6.485885714097419e-05
-3.674549705274239e-05   -3.713972547372303e-06   6.485885714097419e-05
5.686385189223562e-07   1.6188421904923637e-06   -5.310576545193547e-07
5.686385189223562e-07   1.6188421904923637e-06   -5.310576545193547e-07
5.686385189223562e-07   1.6188421904923637e-06   -5.310576545193547e-07
5.686385189223562e-07   1.6188421904923637e-06   -5.310576545193547e-07
-1.7047973920752945e-05   -3.2301070332970555e-07   2.9995074814567085e-05
-1.7047973920752945e-05   -3.2301070332970555e-07   2.9995074814567085e-05
-1.7047973920752945e-05   -3.2301070332970555e-07   2.9995074814567085e-05
-1.7047973920752945e-05   -3.2301070332970555e-07   2.9995074814567085e-05
-3.199403474310887e-05   3.50891485107084e-06   5.230762467476019e-05
-3.199403474310887e-05   3.50891485107084e-06   5.230762467476019e-05
-3.199403474310887e-05   3.50891485107084e-06   5.230762467476019e-05
-3.199403474310887e-05   3.50891485107084e-06   5.230762467476019e-05
-6.792716957106898e-05   9.742269564303688e-06   -3.8409205439004016e-06
-6.792716957106898e-05   9.742269564303688e-06   -3.8409205439004016e-06
-6.792716957106898e-05   9.742269564303688e-06   -3.8409205439004016e-06
-6.792716957106898e-05   9.742269564303688e-06   -3.8409205439004016e-06
-6.976419828921864e-05   3.293852744212615e-06   5.790832096322276e-05
-6.976419828921864e-05   3.293852744212615e-06   5.790832096322276e-05
-6.976419828921864e-05   3.293852744212615e-06   5.790832096322276e-05
-6.976419828921864e-05   3.293852744212615e-06   5.790832096322276e-05
-3.32542866270465e-05   9.214313671933923e-06   -6.493808363696883e-06
-3.32542866270465e-05   9.214313671933923e-06   -6.493808363696883e-06
-3.32542866270465e-05   9.214313671933923e-06   -6.493808363696883e-06
-3.32542866270465e-05   9.214313671933923e-06   -6.493808363696883e-06
-5.0333736521307045e-05   6.553686274536185e-06   2.3568317898509127e-05
-5.0333736521307045e-05   6.553686274536185e-06   2.3568317898509127e-05
-5.0333736521307045e-05   6.553686274536185e-06   2.3568317898509127e-05
-5.0333736521307045e-05   6.553686274536185e-06   2.3568317898509127e-05
-3.3254286627046564e-05   3.293852744212856e-06   5.435604440658971e-05
-3.3254286627046564e-05   3.293852744212856e-06   5.435604440658971e-05
-3.3254286627046564e-05   3.293852744212856e-06   5.435604440658971e-05
-3.3254286627046564e-05   3.293852744212856e-06   5.435604440658971e-05
-6.976419828921853e-05   9.214313671933923e-06   -2.941531807064326e-06
-6.976419828921853e-05   9.214313671933923e-06   -2.941531807064326e-06
-6.976419828921853e-05   9.214313671933923e-06   -2.941531807064326e-06
-6.976419828921853e-05   9.214313671933923e-06   -2.941531807064326e-06
-7.201495104134487e-05   2.90127823741361e-06   6.146078661733827e-05
-7.201495104134487e-05   2.90127823741361e-06   6.146078661733827e-05
-7.201495104134487e-05   2.90127823741361e-06   6.146078661733827e-05
-7.201495104134487e-05   2.90127823741361e-06   6.146078661733827e-05
-3.494458609265567e-05   8.726572518445545e-06   -3.818331532429544e-06
-3.494458609265567e-05   8.726572518445545e-06   -3.818331532429544e-06
-3.494458609265567e-05   8.726572518445545e-06   -3.818331532429544e-06
-3.494458609265567e-05   8.726572518445545e-06   -3.818331532429544e-06
-5.170311717475067e-05   6.430679390200325e-06   2.549008948134234e-05
-5.170311717475067e-05   6.430679390200325e-06   2.549008948134234e-05
-5.170311717475067e-05   6.430679390200325e-06   2.549008948134234e-05
-5.170311717475067e-05   6.430679390200325e-06   2.549008948134234e-05
-3.494458609265566e-05   2.9012782374135175e-06   5.7965610048719106e-05
-3.494458609265566e-05   2.9012782374135175e-06   5.7965610048719106e-05
-3.494458609265566e-05   2.9012782374135175e-06   5.7965610048719106e-05
-3.494458609265566e-05   2.9012782374135175e-06   5.7965610048719106e-05
-7.201495104134474e-05   8.726572518445545e-06   -3.231549638104368e-07
-7.201495104134474e-05   8.726572518445545e-06   -3.231549638104368e-07
-7.201495104134474e-05   8.726572518445545e-06   -3.231549638104368e-07
-7.201495104134474e-05   8.726572518445545e-06   -3.231549638104368e-07
-7.439703649375555e-05   2.4572982963606826e-06   6.429368839438315e-05
-7.439703649375555e-05   2.4572982963606826e-06   6.429368839438315e-05
-7.439703649375555e-05   2.4572982963606826e-06   6.429368839438315e-05
-7.439703649375555e-05   2.4572982963606826e-06   6.429368839438315e-05
-3.674549705274226e-05   8.071512050315897e-06   -1.8274055930116314e-06
-3.674549705274226e-05   8.071512050315897e-06   -1.8274055930116314e-06
-3.674549705274226e-05   8.071512050315897e-06   -1.8274055930116314e-06
-3.674549705274226e-05   8.071512050315897e-06   -1.8274055930116314e-06
-5.3980247975868594e-05   6.0344554512286284e-06   2.8119413238318787e-05
-5.3980247975868594e-05   6.0344554512286284e-06   2.8119413238318787e-05
-5.3980247975868594e-05   6.0344554512286284e-06   2.8119413238318787e-05
-5.3980247975868594e-05   6.0344554512286284e-06   2.8119413238318787e-05
-6.792716957106898e-05   1.6080030360108564e-05   2.7542995769572025e-05
-6.792716957106898e-05   1.6080030360108564e-05   2.7542995769572025e-05
-6.792716957106898e-05   1.6080030360108564e-05   2.7542995769572025e-05
-6.792716957106898e-05   1.6080030360108564e-05   2.7542995769572025e-05
-0.00010233009586670493   1.584406336147589e-05   -2.993679492233406e-05
-0.00010233009586670493   1.584406336147589e-05   -2.993679492233406e-05
-0.00010233009586670493   1.584406336147589e-05   -2.993679492233406e-05
-0.00010233009586670493   1.584406336147589e-05   -2.993679492233406e-05
-0.00010562687626970455   1.5513134523409324e-05   4.077548186297297e-05
-0.00010562687626970455   1.5513134523409324e-05   4.077548186297297e-05
-0.00010562687626970455   1.5513134523409324e-05   4.077548186297297e-05
-0.00010562687626970455   1.5513134523409324e-05   4.077548186297297e-05
-6.976419828921853e-05   1.614528381206886e-05   -1.9374937677699383e-05
-6.976419828921853e-05   1.614528381206886e-05   -1.9374937677699383e-05
-6.976419828921853e-05   1.614528381206886e-05   -1.9374937677699383e-05
-6.976419828921853e-05   1.614528381206886e-05   -1.9374937677699383e-05
-8.293388900762537e-05   1.61482822063669e-05   2.57274781640006e-06
-8.293388900762537e-05   1.61482822063669e-05   2.57274781640006e-06
-8.293388900762537e-05   1.61482822063669e-05   2.57274781640006e-06
-8.293388900762537e-05   1.61482822063669e-05   2.57274781640006e-06
-6.976419828921848e-05   1.5513134523409226e-05   4.039619228977747e-05
-6.976419828921848e-05   1.5513134523409226e-05   4.039619228977747e-05
-6.976419828921848e-05   1.5513134523409226e-05   4.039619228977747e-05
-6.976419828921848e-05   1.5513134523409226e-05   4.039619228977747e-05
-0.00010562687626970455   1.614528381206886e-05   -1.8995648104503608e-05
-0.00010562687626970455   1.614528381206886e-05   -1.8995648104503608e-05
-0.00010562687626970455   1.614528381206886e-05   -1.8995648104503608e-05
-0.00010562687626970455   1.614528381206886e-05   -1.8995648104503608e-05
-0.00010885992732830415   1.5112825881790758e-05   5.007077115192155e-05
-0.00010885992732830415   1.5112825881790758e-05   5.007077115192155e-05
-0.00010885992732830415   1.5112825881790758e-05   5.007077115192155e-05
-0.00010885992732830415   1.5112825881790758e-05   5.007077115192155e-05
-7.201495104134475e-05   1.6028076187230532e-05   -1.1886672842941533e-05
-7.201495104134475e-05   1.6028076187230532e-05   -1.1886672842941533e-05
-7.201495104134475e-05   1.6028076187230532e-05   -1.1886672842941533e-05
-7.201495104134475e-05   1.6028076187230532e-05   -1.1886672842941533e-05
-8.670867224188681e-05   1.6143488790846486e-05   1.2533614929126618e-05
-8.670867224188681e-05   1.6143488790846486e-05   1.2533614929126618e-05
-8.670867224188681e-05   1.6143488790846486e-05   1.2533614929126618e-05
-8.670867224188681e-05   1.6143488790846486e-05   1.2533614929126618e-05
-7.201495104134474e-05   1.5112825881790631e-05   4.952162096865764e-05
-7.201495104134474e-05   1.5112825881790631e-05   4.952162096865764e-05
-7.201495104134474e-05   1.5112825881790631e-05   4.952162096865764e-05
-7.201495104134474e-05   1.5112825881790631e-05   4.952162096865764e-05
-0.00010885992732830434   1.6028076187230532e-05   -1.1337522659677626e-05
-0.00010885992732830434   1.6028076187230532e-05   -1.1337522659677626e-05
-0.00010885992732830434   1.6028076187230532e-05   -1.1337522659677626e-05
-0.00010885992732830434   1.6028076187230532e-05   -1.1337522659677626e-05
-0.00011267237781987708   1.2575180374037667e-05   6.560441370627099e-05
-0.00011267237781987708   1.2575180374037667e-05   6.560441370627099e-05
-0.00011267237781987708   1.2575180374037667e-05   6.560441370627099e-05
-0.00011267237781987708   1.2575180374037667e-05   6.560441370627099e-05
-7.439703649375549e-05   1.47522191592123e-05   5.059548916302135e-07
-7.439703649375549e-05   1.47522191592123e-05   5.059548916302135e-07
-7.439703649375549e-05   1.47522191592123e-05   5.059548916302135e-07
-7.439703649375549e-05   1.47522191592123e-05   5.059548916302135e-07
-8.807000080643496e-05   1.5375042564326393e-05   2.2920534703027465e-05
-8.807000080643496e-05   1.5375042564326393e-05   2.2920534703027465e-05
-8.807000080643496e-05   1.5375042564326393e-05   2.2920534703027465e-05
-8.807000080643496e-05   1.5375042564326393e-05   2.2920534703027465e-05
6.81813491589156e-05   -9.541044749458095e-06   5.266045297724832e-05
6.81813491589156e-05   -9.541044749458095e-06   5.266045297724832e-05
6.81813491589156e-05   -9.541044749458095e-06   5.266045297724832e-05
6.81813491589156e-05   -9.541044749458095e-06   5.266045297724832e-05
3.376520264124188e-05   -6.9874551650197896e-06   -3.167637468211781e-06
3.376520264124188e-05   -6.9874551650197896e-06   -3.167637468211781e-06
3.376520264124188e-05   -6.9874551650197896e-06   -3.167637468211781e-06
3.376520264124188e-05   -6.9874551650197896e-06   -3.167637468211781e-06
3.246786083276629e-05   -1.0816335868657403e-05   4.5800598770329246e-05
3.246786083276629e-05   -1.0816335868657403e-05   4.5800598770329246e-05
3.246786083276629e-05   -1.0816335868657403e-05   4.5800598770329246e-05
3.246786083276629e-05   -1.0816335868657403e-05   4.5800598770329246e-05
6.579495651005852e-05   -8.109821974571808e-06   -1.1368469028275901e-05
6.579495651005852e-05   -8.109821974571808e-06   -1.1368469028275901e-05
6.579495651005852e-05   -8.109821974571808e-06   -1.1368469028275901e-05
6.579495651005852e-05   -8.109821974571808e-06   -1.1368469028275901e-05
4.776064943112471e-05   -8.773136690612068e-06   1.9086698266237827e-05
4.776064943112471e-05   -8.773136690612068e-06   1.9086698266237827e-05
4.776064943112471e-05   -8.773136690612068e-06   1.9086698266237827e-05
4.776064943112471e-05   -8.773136690612068e-06   1.9086698266237827e-05
6.57949565100584e-05   -1.0816335868657525e-05   4.417669043387754e-05
6.57949565100584e-05   -1.0816335868657525e-05   4.417669043387754e-05
6.57949565100584e-05   -1.0816335868657525e-05   4.417669043387754e-05
6.57949565100584e-05   -1.0816335868657525e-05   4.417669043387754e-05
3.24678608327664e-05   -8.109821974571808e-06   -9.744560691824248e-06
3.24678608327664e-05   -8.109821974571808e-06   -9.744560691824248e-06
3.24678608327664e-05   -8.109821974571808e-06   -9.744560691824248e-06
3.24678608327664e-05   -8.109821974571808e-06   -9.744560691824248e-06
3.102653703595485e-05   -1.1006548360947832e-05   4.105041457913312e-05
3.102653703595485e-05   -1.1006548360947832e-05   4.105041457913312e-05
3.102653703595485e-05   -1.1006548360947832e-05   4.105041457913312e-05
3.102653703595485e-05   -1.1006548360947832e-05   4.105041457913312e-05
6.363456747310255e-05   -8.335757976674855e-06   -1.4898777046676568e-05
6.363456747310255e-05   -8.335757976674855e-06   -1.4898777046676568e-05
6.363456747310255e-05   -8.335757976674855e-06   -1.4898777046676568e-05
6.363456747310255e-05   -8.335757976674855e-06   -1.4898777046676568e-05
4.685958748748651e-05   -9.207896200644737e-06   1.3582805863731885e-05
4.685958748748651e-05   -9.207896200644737e-06   1.3582805863731885e-05
4.685958748748651e-05   -9.207896200644737e-06   1.3582805863731885e-05
4.685958748748651e-05   -9.207896200644737e-06   1.3582805863731885e-05
6.363456747310233e-05   -1.1006548360947636e-05   3.9447940348569374e-05
6.363456747310233e-05   -1.1006548360947636e-05   3.9447940348569374e-05
6.363456747310233e-05   -1.1006548360947636e-05   3.9447940348569374e-05
6.363456747310233e-05   -1.1006548360947636e-05   3.9447940348569374e-05
3.102653703595489e-05   -8.335757976674855e-06   -1.3296302816112777e-05
3.102653703595489e-05   -8.335757976674855e-06   -1.3296302816112777e-05
3.102653703595489e-05   -8.335757976674855e-06   -1.3296302816112777e-05
3.102653703595489e-05   -8.335757976674855e-06   -1.3296302816112777e-05
2.9640524263885824e-05   -1.0939831205401991e-05   3.443010052718554e-05
2.9640524263885824e-05   -1.0939831205401991e-05   3.443010052718554e-05
2.9640524263885824e-05   -1.0939831205401991e-05   3.443010052718554e-05
2.9640524263885824e-05   -1.0939831205401991e-05   3.443010052718554e-05
6.118827959605845e-05   -8.429415933469426e-06   -1.9655740856261458e-05
6.118827959605845e-05   -8.429415933469426e-06   -1.9655740856261458e-05
6.118827959605845e-05   -8.429415933469426e-06   -1.9655740856261458e-05
6.118827959605845e-05   -8.429415933469426e-06   -1.9655740856261458e-05
4.444101062204277e-05   -9.053236171961947e-06   8.630666243527568e-06
4.444101062204277e-05   -9.053236171961947e-06   8.630666243527568e-06
4.444101062204277e-05   -9.053236171961947e-06   8.630666243527568e-06
4.444101062204277e-05   -9.053236171961947e-06   8.630666243527568e-06
3.376520264124188e-05   -3.3699562004302265e-06   5.531416449388888e-05
3.376520264124188e-05   -3.3699562004302265e-06   5.531416449388888e-05
3.376520264124188e-05   -3.3699562004302265e-06   5.531416449388888e-05
3.376520264124188e-05   -3.3699562004302265e-06   5.531416449388888e-05
1.4609000819874613e-06   -1.3355629506907156e-06   2.694296178308575e-06
1.4609000819874613e-06   -1.3355629506907156e-06   2.694296178308575e-06
1.4609000819874613e-06   -1.3355629506907156e-06   2.694296178308575e-06
1.4609000819874613e-06   -1.3355629506907156e-06   2.694296178308575e-06
2.1577539748135455e-07   -4.055883057775111e-06   5.589333200052733e-05
2.1577539748135455e-07   -4.055883057775111e-06   5.589333200052733e-05
2.1577539748135455e-07   -4.055883057775111e-06   5.589333200052733e-05
2.1577539748135455e-07   -4.055883057775111e-06   5.589333200052733e-05
3.24678608327664e-05   -2.1320053716421088e-06   9.855296633726283e-07
3.24678608327664e-05   -2.1320053716421088e-06   9.855296633726283e-07
3.24678608327664e-05   -2.1320053716421088e-06   9.855296633726283e-07
3.24678608327664e-05   -2.1320053716421088e-06   9.855296633726283e-07
1.677158811040759e-05   -2.6222219598093406e-06   2.7440114153537583e-05
1.677158811040759e-05   -2.6222219598093406e-06   2.7440114153537583e-05
1.677158811040759e-05   -2.6222219598093406e-06   2.7440114153537583e-05
1.677158811040759e-05   -2.6222219598093406e-06   2.7440114153537583e-05
3.246786083276637e-05   -4.055883057775241e-06   5.473900538884762e-05
3.246786083276637e-05   -4.055883057775241e-06   5.473900538884762e-05
3.246786083276637e-05   -4.055883057775241e-06   5.473900538884762e-05
3.246786083276637e-05   -4.055883057775241e-06   5.473900538884762e-05
2.1577539748135455e-07   -2.1320053716421088e-06   2.1398562750525596e-06
2.1577539748135455e-07   -2.1320053716421088e-06   2.1398562750525596e-06
2.1577539748135455e-07   -2.1320053716421088e-06   2.1398562750525596e-06
2.1577539748135455e-07   -2.1320053716421088e-06   2.1398562750525596e-06
-1.0784313053690566e-06   -4.506523263386655e-06   5.505589693591663e-05
-1.0784313053690566e-06   -4.506523263386655e-06   5.505589693591663e-05
-1.0784313053690566e-06   -4.506523263386655e-06   5.505589693591663e-05
-1.0784313053690566e-06   -4.506523263386655e-06   5.505589693591663e-05
3.1026537035954895e-05   -2.7243761388925578e-06   4.783280923469421e-07
3.1026537035954895e-05   -2.7243761388925578e-06   4.783280923469421e-07
3.1026537035954895e-05   -2.7243761388925578e-06   4.783280923469421e-07
3.1026537035954895e-05   -2.7243761388925578e-06   4.783280923469421e-07
1.534289171724918e-05   -3.0398406312194017e-06   2.6807015652253286e-05
1.534289171724918e-05   -3.0398406312194017e-06   2.6807015652253286e-05
1.534289171724918e-05   -3.0398406312194017e-06   2.6807015652253286e-05
1.534289171724918e-05   -3.0398406312194017e-06   2.6807015652253286e-05
3.102653703595489e-05   -4.506523263386601e-06   5.398660866122039e-05
3.102653703595489e-05   -4.506523263386601e-06   5.398660866122039e-05
3.102653703595489e-05   -4.506523263386601e-06   5.398660866122039e-05
3.102653703595489e-05   -4.506523263386601e-06   5.398660866122039e-05
-1.0784313053690566e-06   -2.7243761388925578e-06   1.5476163670435222e-06
-1.0784313053690566e-06   -2.7243761388925578e-06   1.5476163670435222e-06
-1.0784313053690566e-06   -2.7243761388925578e-06   1.5476163670435222e-06
-1.0784313053690566e-06   -2.7243761388925578e-06   1.5476163670435222e-06
-2.425783065057287e-06   -4.70082054010966e-06   5.548357417273697e-05
-2.425783065057287e-06   -4.70082054010966e-06   5.548357417273697e-05
-2.425783065057287e-06   -4.70082054010966e-06   5.548357417273697e-05
-2.425783065057287e-06   -4.70082054010966e-06   5.548357417273697e-05
2.9640524263885902e-05   -3.192553107808204e-06   1.134768165117581e-06
2.9640524263885902e-05   -3.192553107808204e-06   1.134768165117581e-06
2.9640524263885902e-05   -3.192553107808204e-06   1.134768165117581e-06
2.9640524263885902e-05   -3.192553107808204e-06   1.134768165117581e-06
1.4267537470222456e-05   -3.2649797665211706e-06   2.6799868816451737e-05
1.4267537470222456e-05   -3.2649797665211706e-06   2.6799868816451737e-05
1.4267537470222456e-05   -3.2649797665211706e-06   2.6799868816451737e-05
1.4267537470222456e-05   -3.2649797665211706e-06   2.6799868816451737e-05
1.4609000819874613e-06   2.987577847477548e-06   5.711294847007202e-05
1.4609000819874613e-06   2.987577847477548e-06   5.711294847007202e-05
1.4609000819874613e-06   2.987577847477548e-06   5.711294847007202e-05
1.4609000819874613e-06   2.987577847477548e-06   5.711294847007202e-05
-2.9897873554714162e-05   4.342447513124275e-06   5.661247541624255e-06
-2.9897873554714162e-05   4.342447513124275e-06   5.661247541624255e-06
-2.9897873554714162e-05   4.342447513124275e-06   5.661247541624255e-06
-2.9897873554714162e-05   4.342447513124275e-06   5.661247541624255e-06
-3.119866873969499e-05   2.46152970194511e-06   5.7901037260989826e-05
-3.119866873969499e-05   2.46152970194511e-06   5.7901037260989826e-05
-3.119866873969499e-05   2.46152970194511e-06   5.7901037260989826e-05
-3.119866873969499e-05   2.46152970194511e-06   5.7901037260989826e-05
2.1577539748136538e-07   3.6788622284423048e-06   4.813230849797824e-06
2.1577539748136538e-07   3.6788622284423048e-06   4.813230849797824e-06
2.1577539748136538e-07   3.6788622284423048e-06   4.813230849797824e-06
2.1577539748136538e-07   3.6788622284423048e-06   4.813230849797824e-06
-1.487803792234028e-05   3.4067210823835424e-06   3.013287107046916e-05
-1.487803792234028e-05   3.4067210823835424e-06   3.013287107046916e-05
-1.487803792234028e-05   3.4067210823835424e-06   3.013287107046916e-05
-1.487803792234028e-05   3.4067210823835424e-06   3.013287107046916e-05
2.1577539748135455e-07   2.461529701945076e-06   5.717063774509181e-05
2.1577539748135455e-07   2.461529701945076e-06   5.717063774509181e-05
2.1577539748135455e-07   2.461529701945076e-06   5.717063774509181e-05
2.1577539748135455e-07   2.461529701945076e-06   5.717063774509181e-05
-3.119866873969499e-05   3.678862228441871e-06   5.543630365696054e-06
-3.119866873969499e-05   3.678862228441871e-06   5.543630365696054e-06
-3.119866873969499e-05   3.678862228441871e-06   5.543630365696054e-06
-3.119866873969499e-05   3.678862228441871e-06   5.543630365696054e-06
-3.2572495984961136e-05   1.9718305259851417e-06   5.844953194924021e-05
-3.2572495984961136e-05   1.9718305259851417e-06   5.844953194924021e-05
-3.2572495984961136e-05   1.9718305259851417e-06   5.844953194924021e-05
-3.2572495984961136e-05   1.9718305259851417e-06   5.844953194924021e-05
-1.0784313053690875e-06   3.0344832075398023e-06   5.3218325409875645e-06
-1.0784313053690875e-06   3.0344832075398023e-06   5.3218325409875645e-06
-1.0784313053690875e-06   3.0344832075398023e-06   5.3218325409875645e-06
-1.0784313053690875e-06   3.0344832075398023e-06   5.3218325409875645e-06
-1.608656204224145e-05   3.0274301410374363e-06   3.0339615609009348e-05
-1.608656204224145e-05   3.0274301410374363e-06   3.0339615609009348e-05
-1.608656204224145e-05   3.0274301410374363e-06   3.0339615609009348e-05
-1.608656204224145e-05   3.0274301410374363e-06   3.0339615609009348e-05
-1.0784313053690566e-06   1.971830525985256e-06   5.781194034030785e-05
-1.0784313053690566e-06   1.971830525985256e-06   5.781194034030785e-05
-1.0784313053690566e-06   1.971830525985256e-06   5.781194034030785e-05
-1.0784313053690566e-06   1.971830525985256e-06   5.781194034030785e-05
-3.2572495984961136e-05   3.0344832075398023e-06   5.959424149920307e-06
-3.2572495984961136e-05   3.0344832075398023e-06   5.959424149920307e-06
-3.2572495984961136e-05   3.0344832075398023e-06   5.959424149920307e-06
-3.2572495984961136e-05   3.0344832075398023e-06   5.959424149920307e-06
-3.399029644783055e-05   1.6188421904923637e-06   5.9320956992479044e-05
-3.399029644783055e-05   1.6188421904923637e-06   5.9320956992479044e-05
-3.399029644783055e-05   1.6188421904923637e-06   5.9320956992479044e-05
-3.399029644783055e-05   1.6188421904923637e-06   5.9320956992479044e-05
-2.4257830650573026e-06   2.4608557641888143e-06   6.208226543639322e-06
-2.4257830650573026e-06   2.4608557641888143e-06   6.208226543639322e-06
-2.4257830650573026e-06   2.4608557641888143e-06   6.208226543639322e-06
-2.4257830650573026e-06   2.4608557641888143e-06   6.208226543639322e-06
-1.739436401048613e-05   2.663961718067133e-06   3.1033997880361376e-05
-1.739436401048613e-05   2.663961718067133e-06   3.1033997880361376e-05
-1.739436401048613e-05   2.663961718067133e-06   3.1033997880361376e-05
-1.739436401048613e-05   2.663961718067133e-06   3.1033997880361376e-05
-2.989787355471427e-05   9.742269564303887e-06   4.9811173018294e-05
-2.989787355471427e-05   9.742269564303887e-06   4.9811173018294e-05
-2.989787355471427e-05   9.742269564303887e-06   4.9811173018294e-05
-2.989787355471427e-05   9.742269564303887e-06   4.9811173018294e-05
-6.026033538057826e-05   9.865372813232503e-06   -7.190680754555825e-07
-6.026033538057826e-05   9.865372813232503e-06   -7.190680754555825e-07
-6.026033538057826e-05   9.865372813232503e-06   -7.190680754555825e-07
-6.026033538057826e-05   9.865372813232503e-06   -7.190680754555825e-07
-6.177058126121109e-05   9.214313671933923e-06   5.0683463157954415e-05
-6.177058126121109e-05   9.214313671933923e-06   5.0683463157954415e-05
-6.177058126121109e-05   9.214313671933923e-06   5.0683463157954415e-05
-6.177058126121109e-05   9.214313671933923e-06   5.0683463157954415e-05
-3.119866873969504e-05   9.230934634167198e-06   -2.796969552454711e-07
-3.119866873969504e-05   9.230934634167198e-06   -2.796969552454711e-07
-3.119866873969504e-05   9.230934634167198e-06   -2.796969552454711e-07
-3.119866873969504e-05   9.230934634167198e-06   -2.796969552454711e-07
-4.557723583021182e-05   9.491334574084076e-06   2.3528341564999086e-05
-4.557723583021182e-05   9.491334574084076e-06   2.3528341564999086e-05
-4.557723583021182e-05   9.491334574084076e-06   2.3528341564999086e-05
-4.557723583021182e-05   9.491334574084076e-06   2.3528341564999086e-05
-3.1198668739695044e-05   9.214313671933722e-06   5.067349058061432e-05
-3.1198668739695044e-05   9.214313671933722e-06   5.067349058061432e-05
-3.1198668739695044e-05   9.214313671933722e-06   5.067349058061432e-05
-3.1198668739695044e-05   9.214313671933722e-06   5.067349058061432e-05
-6.177058126121098e-05   9.230934634167198e-06   -2.6972437790553916e-07
-6.177058126121098e-05   9.230934634167198e-06   -2.6972437790553916e-07
-6.177058126121098e-05   9.230934634167198e-06   -2.6972437790553916e-07
-6.177058126121098e-05   9.230934634167198e-06   -2.6972437790553916e-07
-6.344482625077918e-05   8.726572518445545e-06   5.303899126675275e-05
-6.344482625077918e-05   8.726572518445545e-06   5.303899126675275e-05
-6.344482625077918e-05   8.726572518445545e-06   5.303899126675275e-05
-6.344482625077918e-05   8.726572518445545e-06   5.303899126675275e-05
-3.25724959849612e-05   8.646711599991346e-06   1.6330240414617631e-06
-3.25724959849612e-05   8.646711599991346e-06   1.6330240414617631e-06
-3.25724959849612e-05   8.646711599991346e-06   1.6330240414617631e-06
-3.25724959849612e-05   8.646711599991346e-06   1.6330240414617631e-06
-4.667047247905059e-05   9.132596399786998e-06   2.4838120651733675e-05
-4.667047247905059e-05   9.132596399786998e-06   2.4838120651733675e-05
-4.667047247905059e-05   9.132596399786998e-06   2.4838120651733675e-05
-4.667047247905059e-05   9.132596399786998e-06   2.4838120651733675e-05
-3.257249598496119e-05   8.726572518445803e-06   5.308690781782497e-05
-3.257249598496119e-05   8.726572518445803e-06   5.308690781782497e-05
-3.257249598496119e-05   8.726572518445803e-06   5.308690781782497e-05
-3.257249598496119e-05   8.726572518445803e-06   5.308690781782497e-05
-6.344482625077918e-05   8.646711599991346e-06   1.5851074903893304e-06
-6.344482625077918e-05   8.646711599991346e-06   1.5851074903893304e-06
-6.344482625077918e-05   8.646711599991346e-06   1.5851074903893304e-06
-6.344482625077918e-05   8.646711599991346e-06   1.5851074903893304e-06
-6.504070271990715e-05   8.071512050315463e-06   5.474231472446436e-05
-6.504070271990715e-05   8.071512050315463e-06   5.474231472446436e-05
-6.504070271990715e-05   8.071512050315463e-06   5.474231472446436e-05
-6.504070271990715e-05   8.071512050315463e-06   5.474231472446436e-05
-3.399029644783059e-05   7.933836238975967e-06   3.0742430911407954e-06
-3.399029644783059e-05   7.933836238975967e-06   3.0742430911407954e-06
-3.399029644783059e-05   7.933836238975967e-06   3.0742430911407954e-06
-3.399029644783059e-05   7.933836238975967e-06   3.0742430911407954e-06
-4.8406623281259216e-05   8.66750339776224e-06   2.6661254184917778e-05
-4.8406623281259216e-05   8.66750339776224e-06   2.6661254184917778e-05
-4.8406623281259216e-05   8.66750339776224e-06   2.6661254184917778e-05
-4.8406623281259216e-05   8.66750339776224e-06   2.6661254184917778e-05
-6.0260335380578095e-05   1.5844063361475615e-05   2.393074078839647e-05
-6.0260335380578095e-05   1.5844063361475615e-05   2.393074078839647e-05
-6.0260335380578095e-05   1.5844063361475615e-05   2.393074078839647e-05
-6.0260335380578095e-05   1.5844063361475615e-05   2.393074078839647e-05
-8.909544045652783e-05   1.4196112495412899e-05   -2.5116538191157162e-05
-8.909544045652783e-05   1.4196112495412899e-05   -2.5116538191157162e-05
-8.909544045652783e-05   1.4196112495412899e-05   -2.5116538191157162e-05
-8.909544045652783e-05   1.4196112495412899e-05   -2.5116538191157162e-05
-9.147355330079972e-05   1.614528381206886e-05   3.3169404928106664e-05
-9.147355330079972e-05   1.614528381206886e-05   3.3169404928106664e-05
-9.147355330079972e-05   1.614528381206886e-05   3.3169404928106664e-05
-9.147355330079972e-05   1.614528381206886e-05   3.3169404928106664e-05
-6.177058126121109e-05   1.434419654671457e-05   -1.5254896111995724e-05
-6.177058126121109e-05   1.434419654671457e-05   -1.5254896111995724e-05
-6.177058126121109e-05   1.434419654671457e-05   -1.5254896111995724e-05
-6.177058126121109e-05   1.434419654671457e-05   -1.5254896111995724e-05
-7.275368627035256e-05   1.5045621285596309e-05   2.6294240599115124e-06
-7.275368627035256e-05   1.5045621285596309e-05   2.6294240599115124e-06
-7.275368627035256e-05   1.5045621285596309e-05   2.6294240599115124e-06
-7.275368627035256e-05   1.5045621285596309e-05   2.6294240599115124e-06
-6.177058126121093e-05   1.6145283812068843e-05   3.425005728731898e-05
-6.177058126121093e-05   1.6145283812068843e-05   3.425005728731898e-05
-6.177058126121093e-05   1.6145283812068843e-05   3.425005728731898e-05
-6.177058126121093e-05   1.6145283812068843e-05   3.425005728731898e-05
-9.147355330079988e-05   1.4344196546715003e-05   -1.6335548471208255e-05
-9.147355330079988e-05   1.4344196546715003e-05   -1.6335548471208255e-05
-9.147355330079988e-05   1.4344196546715003e-05   -1.6335548471208255e-05
-9.147355330079988e-05   1.4344196546715003e-05   -1.6335548471208255e-05
-9.379627553802311e-05   1.6028076187230098e-05   4.0370001893777745e-05
-9.379627553802311e-05   1.6028076187230098e-05   4.0370001893777745e-05
-9.379627553802311e-05   1.6028076187230098e-05   4.0370001893777745e-05
-9.379627553802311e-05   1.6028076187230098e-05   4.0370001893777745e-05
-6.344482625077919e-05   1.4185623697490681e-05   -9.110275424452125e-06
-6.344482625077919e-05   1.4185623697490681e-05   -9.110275424452125e-06
-6.344482625077919e-05   1.4185623697490681e-05   -9.110275424452125e-06
-6.344482625077919e-05   1.4185623697490681e-05   -9.110275424452125e-06
-7.567118698597903e-05   1.5319296578259964e-05   1.0586788739087318e-05
-7.567118698597903e-05   1.5319296578259964e-05   1.0586788739087318e-05
-7.567118698597903e-05   1.5319296578259964e-05   1.0586788739087318e-05
-7.567118698597903e-05   1.5319296578259964e-05   1.0586788739087318e-05
-6.344482625077918e-05   1.60280761872303e-05   4.1475473387621656e-05
-6.344482625077918e-05   1.60280761872303e-05   4.1475473387621656e-05
-6.344482625077918e-05   1.60280761872303e-05   4.1475473387621656e-05
-6.344482625077918e-05   1.60280761872303e-05   4.1475473387621656e-05
-9.379627553802344e-05   1.4185623697490681e-05   -1.0215746918295927e-05
-9.379627553802344e-05   1.4185623697490681e-05   -1.0215746918295927e-05
-9.379627553802344e-05   1.4185623697490681e-05   -1.0215746918295927e-05
-9.379627553802344e-05   1.4185623697490681e-05   -1.0215746918295927e-05
-9.650955680966347e-05   1.4752219159211866e-05   5.270983098244796e-05
-9.650955680966347e-05   1.4752219159211866e-05   5.270983098244796e-05
-9.650955680966347e-05   1.4752219159211866e-05   5.270983098244796e-05
-9.650955680966347e-05   1.4752219159211866e-05   5.270983098244796e-05
-6.504070271990709e-05   1.3090025868737164e-05   1.2590568071389448e-06
-6.504070271990709e-05   1.3090025868737164e-05   1.2590568071389448e-06
-6.504070271990709e-05   1.3090025868737164e-05   1.2590568071389448e-06
-6.504070271990709e-05   1.3090025868737164e-05   1.2590568071389448e-06
-7.641871042562637e-05   1.4867442600592033e-05   1.9155952944225133e-05
-7.641871042562637e-05   1.4867442600592033e-05   1.9155952944225133e-05
-7.641871042562637e-05   1.4867442600592033e-05   1.9155952944225133e-05
-7.641871042562637e-05   1.4867442600592033e-05   1.9155952944225133e-05
5.1700408022574355e-05   -6.9874551650199556e-06   4.392502062489957e-05
5.1700408022574355e-05   -6.9874551650199556e-06   4.392502062489957e-05
5.1700408022574355e-05   -6.9874551650199556e-06   4.392502062489957e-05
5.1700408022574355e-05   -6.9874551650199556e-06   4.392502062489957e-05
2.4344592712867918e-05   -4.610560420565801e-06   -2.418680446053794e-07
2.4344592712867918e-05   -4.610560420565801e-06   -2.418680446053794e-07
2.4344592712867918e-05   -4.610560420565801e-06   -2.418680446053794e-07
2.4344592712867918e-05   -4.610560420565801e-06   -2.418680446053794e-07
2.318640138665484e-05   -8.109821974571375e-06   3.860152809710281e-05
2.318640138665484e-05   -8.109821974571375e-06   3.860152809710281e-05
2.318640138665484e-05   -8.109821974571375e-06   3.860152809710281e-05
2.318640138665484e-05   -8.109821974571375e-06   3.860152809710281e-05
4.945997847875079e-05   -5.598690310740749e-06   -6.6944460546887235e-06
4.945997847875079e-05   -5.598690310740749e-06   -6.6944460546887235e-06
4.945997847875079e-05   -5.598690310740749e-06   -6.6944460546887235e-06
4.945997847875079e-05   -5.598690310740749e-06   -6.6944460546887235e-06
3.5423974560089214e-05   -6.375354163722525e-06   1.716489212153626e-05
3.5423974560089214e-05   -6.375354163722525e-06   1.716489212153626e-05
3.5423974560089214e-05   -6.375354163722525e-06   1.716489212153626e-05
3.5423974560089214e-05   -6.375354163722525e-06   1.716489212153626e-05
4.945997847875071e-05   -8.10982197457154e-06   3.709484909880439e-05
4.945997847875071e-05   -8.10982197457154e-06   3.709484909880439e-05
4.945997847875071e-05   -8.10982197457154e-06   3.709484909880439e-05
4.945997847875071e-05   -8.10982197457154e-06   3.709484909880439e-05
2.3186401386654882e-05   -5.598690310740749e-06   -5.18776705639044e-06
2.3186401386654882e-05   -5.598690310740749e-06   -5.18776705639044e-06
2.3186401386654882e-05   -5.598690310740749e-06   -5.18776705639044e-06
2.3186401386654882e-05   -5.598690310740749e-06   -5.18776705639044e-06
2.1908471710904245e-05   -8.335757976674855e-06   3.485886702510083e-05
2.1908471710904245e-05   -8.335757976674855e-06   3.485886702510083e-05
2.1908471710904245e-05   -8.335757976674855e-06   3.485886702510083e-05
2.1908471710904245e-05   -8.335757976674855e-06   3.485886702510083e-05
4.7497026335714726e-05   -5.863076117238863e-06   -9.272333131911747e-06
4.7497026335714726e-05   -5.863076117238863e-06   -9.272333131911747e-06
4.7497026335714726e-05   -5.863076117238863e-06   -9.272333131911747e-06
4.7497026335714726e-05   -5.863076117238863e-06   -9.272333131911747e-06
3.449259842937959e-05   -6.776034299685926e-06   1.294948828811603e-05
3.449259842937959e-05   -6.776034299685926e-06   1.294948828811603e-05
3.449259842937959e-05   -6.776034299685926e-06   1.294948828811603e-05
3.449259842937959e-05   -6.776034299685926e-06   1.294948828811603e-05
4.749702633571465e-05   -8.335757976674846e-06   3.3375257909439016e-05
4.749702633571465e-05   -8.335757976674846e-06   3.3375257909439016e-05
4.749702633571465e-05   -8.335757976674846e-06   3.3375257909439016e-05
4.749702633571465e-05   -8.335757976674846e-06   3.3375257909439016e-05
2.1908471710904293e-05   -5.863076117238863e-06   -7.788724016250057e-06
2.1908471710904293e-05   -5.863076117238863e-06   -7.788724016250057e-06
2.1908471710904293e-05   -5.863076117238863e-06   -7.788724016250057e-06
2.1908471710904293e-05   -5.863076117238863e-06   -7.788724016250057e-06
2.0728718877921907e-05   -8.429415933469426e-06   2.979383253025542e-05
2.0728718877921907e-05   -8.429415933469426e-06   2.979383253025542e-05
2.0728718877921907e-05   -8.429415933469426e-06   2.979383253025542e-05
2.0728718877921907e-05   -8.429415933469426e-06   2.979383253025542e-05
4.530462948392224e-05   -6.112052422505964e-06   -1.255643658632313e-05
4.530462948392224e-05   -6.112052422505964e-06   -1.255643658632313e-05
4.530462948392224e-05   -6.112052422505964e-06   -1.255643658632313e-05
4.530462948392224e-05   -6.112052422505964e-06   -1.255643658632313e-05
3.244647491285446e-05   -6.738225621158965e-06   9.249524951314847e-06
3.244647491285446e-05   -6.738225621158965e-06   9.249524951314847e-06
3.244647491285446e-05   -6.738225621158965e-06   9.249524951314847e-06
3.244647491285446e-05   -6.738225621158965e-06   9.249524951314847e-06
2.4344592712867837e-05   -1.3355629506904916e-06   4.999245516824858e-05
2.4344592712867837e-05   -1.3355629506904916e-06   4.999245516824858e-05
2.4344592712867837e-05   -1.3355629506904916e-06   4.999245516824858e-05
2.4344592712867837e-05   -1.3355629506904916e-06   4.999245516824858e-05
-1.5512229978890068e-06   -1.9768232856643558e-08   7.6222391476876445e-06
-1.5512229978890068e-06   -1.9768232856643558e-08   7.6222391476876445e-06
-1.5512229978890068e-06   -1.9768232856643558e-08   7.6222391476876445e-06
-1.5512229978890068e-06   -1.9768232856643558e-08   7.6222391476876445e-06
-2.6398430507305166e-06   -2.1320053716421088e-06   5.008282682248473e-05
-2.6398430507305166e-06   -2.1320053716421088e-06   5.008282682248473e-05
-2.6398430507305166e-06   -2.1320053716421088e-06   5.008282682248473e-05
-2.6398430507305166e-06   -2.1320053716421088e-06   5.008282682248473e-05
2.318640138665488e-05   -8.79991421333555e-07   6.287877723323943e-06
2.318640138665488e-05   -8.79991421333555e-07   6.287877723323943e-06
2.318640138665488e-05   -8.79991421333555e-07   6.287877723323943e-06
2.318640138665488e-05   -8.79991421333555e-07   6.287877723323943e-06
1.0659582484099368e-05   -1.1229401521662893e-06   2.7311678466082574e-05
1.0659582484099368e-05   -1.1229401521662893e-06   2.7311678466082574e-05
1.0659582484099368e-05   -1.1229401521662893e-06   2.7311678466082574e-05
1.0659582484099368e-05   -1.1229401521662893e-06   2.7311678466082574e-05
2.318640138665478e-05   -2.132005371642156e-06   4.9331618452299686e-05
2.318640138665478e-05   -2.132005371642156e-06   4.9331618452299686e-05
2.318640138665478e-05   -2.132005371642156e-06   4.9331618452299686e-05
2.318640138665478e-05   -2.132005371642156e-06   4.9331618452299686e-05
-2.6398430507305166e-06   -8.79991421333555e-07   7.039086093509192e-06
-2.6398430507305166e-06   -8.79991421333555e-07   7.039086093509192e-06
-2.6398430507305166e-06   -8.79991421333555e-07   7.039086093509192e-06
-2.6398430507305166e-06   -8.79991421333555e-07   7.039086093509192e-06
-3.75152595582441e-06   -2.7243761388925578e-06   4.9332861079769575e-05
-3.75152595582441e-06   -2.7243761388925578e-06   4.9332861079769575e-05
-3.75152595582441e-06   -2.7243761388925578e-06   4.9332861079769575e-05
-3.75152595582441e-06   -2.7243761388925578e-06   4.9332861079769575e-05
2.1908471710904296e-05   -1.5587708952109758e-06   5.866835155679626e-06
2.1908471710904296e-05   -1.5587708952109758e-06   5.866835155679626e-06
2.1908471710904296e-05   -1.5587708952109758e-06   5.866835155679626e-06
2.1908471710904296e-05   -1.5587708952109758e-06   5.866835155679626e-06
9.439173215946312e-06   -1.654198289404666e-06   2.6706255750460968e-05
9.439173215946312e-06   -1.654198289404666e-06   2.6706255750460968e-05
9.439173215946312e-06   -1.654198289404666e-06   2.6706255750460968e-05
9.439173215946312e-06   -1.654198289404666e-06   2.6706255750460968e-05
2.1908471710904245e-05   -2.72437613889249e-06   4.863349793356045e-05
2.1908471710904245e-05   -2.72437613889249e-06   4.863349793356045e-05
2.1908471710904245e-05   -2.72437613889249e-06   4.863349793356045e-05
2.1908471710904245e-05   -2.72437613889249e-06   4.863349793356045e-05
-3.75152595582441e-06   -1.5587708952109758e-06   6.566198301888532e-06
-3.75152595582441e-06   -1.5587708952109758e-06   6.566198301888532e-06
-3.75152595582441e-06   -1.5587708952109758e-06   6.566198301888532e-06
-3.75152595582441e-06   -1.5587708952109758e-06   6.566198301888532e-06
-4.869179427586352e-06   -3.192553107808204e-06   4.968064587829017e-05
-4.869179427586352e-06   -3.192553107808204e-06   4.968064587829017e-05
-4.869179427586352e-06   -3.192553107808204e-06   4.968064587829017e-05
-4.869179427586352e-06   -3.192553107808204e-06   4.968064587829017e-05
2.0728718877921917e-05   -2.188297291449027e-06   6.414928545961214e-06
2.0728718877921917e-05   -2.188297291449027e-06   6.414928545961214e-06
2.0728718877921917e-05   -2.188297291449027e-06   6.414928545961214e-06
2.0728718877921917e-05   -2.188297291449027e-06   6.414928545961214e-06
8.506137132623e-06   -2.048316310975396e-06   2.6701909533175298e-05
8.506137132623e-06   -2.048316310975396e-06   2.6701909533175298e-05
8.506137132623e-06   -2.048316310975396e-06   2.6701909533175298e-05
8.506137132623e-06   -2.048316310975396e-06   2.6701909533175298e-05
-1.5512229978890068e-06   4.3424475131243444e-06   5.2935961562876246e-05
-1.5512229978890068e-06   4.3424475131243444e-06   5.2935961562876246e-05
-1.5512229978890068e-06   4.3424475131243444e-06   5.2935961562876246e-05
-1.5512229978890068e-06   4.3424475131243444e-06   5.2935961562876246e-05
-2.69038324825788e-05   4.468091050777688e-06   1.0756998544318849e-05
-2.69038324825788e-05   4.468091050777688e-06   1.0756998544318849e-05
-2.69038324825788e-05   4.468091050777688e-06   1.0756998544318849e-05
-2.69038324825788e-05   4.468091050777688e-06   1.0756998544318849e-05
-2.7998071454927396e-05   3.678862228441871e-06   5.2775742277549886e-05
-2.7998071454927396e-05   3.678862228441871e-06   5.2775742277549886e-05
-2.7998071454927396e-05   3.678862228441871e-06   5.2775742277549886e-05
-2.7998071454927396e-05   3.678862228441871e-06   5.2775742277549886e-05
-2.63984305073053e-06   3.7114303623078486e-06   1.0492487390235668e-05
-2.63984305073053e-06   3.7114303623078486e-06   1.0492487390235668e-05
-2.63984305073053e-06   3.7114303623078486e-06   1.0492487390235668e-05
-2.63984305073053e-06   3.7114303623078486e-06   1.0492487390235668e-05
-1.4811636070132045e-05   3.979885587799149e-06   3.061773595394306e-05
-1.4811636070132045e-05   3.979885587799149e-06   3.061773595394306e-05
-1.4811636070132045e-05   3.979885587799149e-06   3.061773595394306e-05
-1.4811636070132045e-05   3.979885587799149e-06   3.061773595394306e-05
-2.6398430507305166e-06   3.6788622284421146e-06   5.275620139723065e-05
-2.6398430507305166e-06   3.6788622284421146e-06   5.275620139723065e-05
-2.6398430507305166e-06   3.6788622284421146e-06   5.275620139723065e-05
-2.6398430507305166e-06   3.6788622284421146e-06   5.275620139723065e-05
-2.7998071454927396e-05   3.7114303623078486e-06   1.0512028270554799e-05
-2.7998071454927396e-05   3.7114303623078486e-06   1.0512028270554799e-05
-2.7998071454927396e-05   3.7114303623078486e-06   1.0512028270554799e-05
-2.7998071454927396e-05   3.7114303623078486e-06   1.0512028270554799e-05
-2.9119766911783025e-05   3.0344832075393686e-06   5.306643227034804e-05
-2.9119766911783025e-05   3.0344832075393686e-06   5.306643227034804e-05
-2.9119766911783025e-05   3.0344832075393686e-06   5.306643227034804e-05
-2.9119766911783025e-05   3.0344832075393686e-06   5.306643227034804e-05
-3.751525955824403e-06   2.9667415685969735e-06   1.0826675660449215e-05
-3.751525955824403e-06   2.9667415685969735e-06   1.0826675660449215e-05
-3.751525955824403e-06   2.9667415685969735e-06   1.0826675660449215e-05
-3.751525955824403e-06   2.9667415685969735e-06   1.0826675660449215e-05
-1.582781700096622e-05   3.470787389227379e-06   3.065139990997485e-05
-1.582781700096622e-05   3.470787389227379e-06   3.065139990997485e-05
-1.582781700096622e-05   3.470787389227379e-06   3.065139990997485e-05
-1.582781700096622e-05   3.470787389227379e-06   3.065139990997485e-05
-3.75152595582441e-06   3.03448320753962e-06   5.310707725371356e-05
-3.75152595582441e-06   3.03448320753962e-06   5.310707725371356e-05
-3.75152595582441e-06   3.03448320753962e-06   5.310707725371356e-05
-3.75152595582441e-06   3.03448320753962e-06   5.310707725371356e-05
-2.911976691178308e-05   2.9667415685969735e-06   1.0786030677083528e-05
-2.911976691178308e-05   2.9667415685969735e-06   1.0786030677083528e-05
-2.911976691178308e-05   2.9667415685969735e-06   1.0786030677083528e-05
-2.911976691178308e-05   2.9667415685969735e-06   1.0786030677083528e-05
-3.0241135947198727e-05   2.4608557641888143e-06   5.3728649839056546e-05
-3.0241135947198727e-05   2.4608557641888143e-06   5.3728649839056546e-05
-3.0241135947198727e-05   2.4608557641888143e-06   5.3728649839056546e-05
-3.0241135947198727e-05   2.4608557641888143e-06   5.3728649839056546e-05
-4.869179427586362e-06   2.2600325002308276e-06   1.1562549598077344e-05
-4.869179427586362e-06   2.2600325002308276e-06   1.1562549598077344e-05
-4.869179427586362e-06   2.2600325002308276e-06   1.1562549598077344e-05
-4.869179427586362e-06   2.2600325002308276e-06   1.1562549598077344e-05
-1.6891555436988495e-05   2.974603544419075e-06   3.1171100320567964e-05
-1.6891555436988495e-05   2.974603544419075e-06   3.1171100320567964e-05
-1.6891555436988495e-05   2.974603544419075e-06   3.1171100320567964e-05
-1.6891555436988495e-05   2.974603544419075e-06   3.1171100320567964e-05
-2.6903832482578718e-05   9.865372813232394e-06   4.6557170119031514e-05
-2.6903832482578718e-05   9.865372813232394e-06   4.6557170119031514e-05
-2.6903832482578718e-05   9.865372813232394e-06   4.6557170119031514e-05
-2.6903832482578718e-05   9.865372813232394e-06   4.6557170119031514e-05
-5.168962236239675e-05   8.785759847663391e-06   4.599752539993524e-06
-5.168962236239675e-05   8.785759847663391e-06   4.599752539993524e-06
-5.168962236239675e-05   8.785759847663391e-06   4.599752539993524e-06
-5.168962236239675e-05   8.785759847663391e-06   4.599752539993524e-06
-5.286684129710749e-05   9.230934634167198e-06   4.625009847348226e-05
-5.286684129710749e-05   9.230934634167198e-06   4.625009847348226e-05
-5.286684129710749e-05   9.230934634167198e-06   4.625009847348226e-05
-5.286684129710749e-05   9.230934634167198e-06   4.625009847348226e-05
-2.799807145492744e-05   8.0604071622907e-06   5.504465219641544e-06
-2.799807145492744e-05   8.0604071622907e-06   5.504465219641544e-06
-2.799807145492744e-05   8.0604071622907e-06   5.504465219641544e-06
-2.799807145492744e-05   8.0604071622907e-06   5.504465219641544e-06
-3.973307065991832e-05   8.86929893595097e-06   2.4577462163763387e-05
-3.973307065991832e-05   8.86929893595097e-06   2.4577462163763387e-05
-3.973307065991832e-05   8.86929893595097e-06   2.4577462163763387e-05
-3.973307065991832e-05   8.86929893595097e-06   2.4577462163763387e-05
-2.7998071454927396e-05   9.230934634167045e-06   4.69524149566082e-05
-2.7998071454927396e-05   9.230934634167045e-06   4.69524149566082e-05
-2.7998071454927396e-05   9.230934634167045e-06   4.69524149566082e-05
-2.7998071454927396e-05   9.230934634167045e-06   4.69524149566082e-05
-5.286684129710738e-05   8.0604071622907e-06   4.802148736515657e-06
-5.286684129710738e-05   8.0604071622907e-06   4.802148736515657e-06
-5.286684129710738e-05   8.0604071622907e-06   4.802148736515657e-06
-5.286684129710738e-05   8.0604071622907e-06   4.802148736515657e-06
-5.416311271069676e-05   8.646711599991346e-06   4.7983136764704736e-05
-5.416311271069676e-05   8.646711599991346e-06   4.7983136764704736e-05
-5.416311271069676e-05   8.646711599991346e-06   4.7983136764704736e-05
-5.416311271069676e-05   8.646711599991346e-06   4.7983136764704736e-05
-2.9119766911783102e-05   7.385219271349719e-06   7.001122497033536e-06
-2.9119766911783102e-05   7.385219271349719e-06   7.001122497033536e-06
-2.9119766911783102e-05   7.385219271349719e-06   7.001122497033536e-06
-2.9119766911783102e-05   7.385219271349719e-06   7.001122497033536e-06
-4.0579525938776544e-05   8.405907557062445e-06   2.548830790392951e-05
-4.0579525938776544e-05   8.405907557062445e-06   2.548830790392951e-05
-4.0579525938776544e-05   8.405907557062445e-06   2.548830790392951e-05
-4.0579525938776544e-05   8.405907557062445e-06   2.548830790392951e-05
-2.911976691178308e-05   8.646711599991377e-06   4.874003216188971e-05
-2.911976691178308e-05   8.646711599991377e-06   4.874003216188971e-05
-2.911976691178308e-05   8.646711599991377e-06   4.874003216188971e-05
-2.911976691178308e-05   8.646711599991377e-06   4.874003216188971e-05
-5.416311271069676e-05   7.385219271349719e-06   6.244227099848126e-06
-5.416311271069676e-05   7.385219271349719e-06   6.244227099848126e-06
-5.416311271069676e-05   7.385219271349719e-06   6.244227099848126e-06
-5.416311271069676e-05   7.385219271349719e-06   6.244227099848126e-06
-5.53487651585493e-05   7.933836238975967e-06   4.928889566666126e-05
-5.53487651585493e-05   7.933836238975967e-06   4.928889566666126e-05
-5.53487651585493e-05   7.933836238975967e-06   4.928889566666126e-05
-5.53487651585493e-05   7.933836238975967e-06   4.928889566666126e-05
-3.0241135947198815e-05   6.599565279511062e-06   8.243409556756031e-06
-3.0241135947198815e-05   6.599565279511062e-06   8.243409556756031e-06
-3.0241135947198815e-05   6.599565279511062e-06   8.243409556756031e-06
-3.0241135947198815e-05   6.599565279511062e-06   8.243409556756031e-06
-4.1923327967120446e-05   7.883943317777819e-06   2.6943102766998934e-05
-4.1923327967120446e-05   7.883943317777819e-06   2.6943102766998934e-05
-4.1923327967120446e-05   7.883943317777819e-06   2.6943102766998934e-05
-4.1923327967120446e-05   7.883943317777819e-06   2.6943102766998934e-05
-5.168962236239675e-05   1.4196112495412987e-05   2.250070274362648e-05
-5.168962236239675e-05   1.4196112495412987e-05   2.250070274362648e-05
-5.168962236239675e-05   1.4196112495412987e-05   2.250070274362648e-05
-5.168962236239675e-05   1.4196112495412987e-05   2.250070274362648e-05
-7.521031969334166e-05   1.2099408545049144e-05   -1.7958481844833557e-05
-7.521031969334166e-05   1.2099408545049144e-05   -1.7958481844833557e-05
-7.521031969334166e-05   1.2099408545049144e-05   -1.7958481844833557e-05
-7.521031969334166e-05   1.2099408545049144e-05   -1.7958481844833557e-05
-7.732519457539816e-05   1.4344196546715003e-05   2.988019552281878e-05
-7.732519457539816e-05   1.4344196546715003e-05   2.988019552281878e-05
-7.732519457539816e-05   1.4344196546715003e-05   2.988019552281878e-05
-7.732519457539816e-05   1.4344196546715003e-05   2.988019552281878e-05
-5.286684129710749e-05   1.203631118575901e-05   -9.498995391092396e-06
-5.286684129710749e-05   1.203631118575901e-05   -9.498995391092396e-06
-5.286684129710749e-05   1.203631118575901e-05   -9.498995391092396e-06
-5.286684129710749e-05   1.203631118575901e-05   -9.498995391092396e-06
-6.182808388038067e-05   1.2977163535622064e-05   4.871897504445154e-06
-6.182808388038067e-05   1.2977163535622064e-05   4.871897504445154e-06
-6.182808388038067e-05   1.2977163535622064e-05   4.871897504445154e-06
-6.182808388038067e-05   1.2977163535622064e-05   4.871897504445154e-06
-5.286684129710744e-05   1.4344196546715164e-05   3.1264926739392506e-05
-5.286684129710744e-05   1.4344196546715164e-05   3.1264926739392506e-05
-5.286684129710744e-05   1.4344196546715164e-05   3.1264926739392506e-05
-5.286684129710744e-05   1.4344196546715164e-05   3.1264926739392506e-05
-7.732519457539832e-05   1.203631118575901e-05   -1.0883726607666014e-05
-7.732519457539832e-05   1.203631118575901e-05   -1.0883726607666014e-05
-7.732519457539832e-05   1.203631118575901e-05   -1.0883726607666014e-05
-7.732519457539832e-05   1.203631118575901e-05   -1.0883726607666014e-05
-7.921949992446722e-05   1.4185623697490681e-05   3.585048164486335e-05
-7.921949992446722e-05   1.4185623697490681e-05   3.585048164486335e-05
-7.921949992446722e-05   1.4185623697490681e-05   3.585048164486335e-05
-7.921949992446722e-05   1.4185623697490681e-05   3.585048164486335e-05
-5.416311271069689e-05   1.1790170022491983e-05   -4.4728915064211425e-06
-5.416311271069689e-05   1.1790170022491983e-05   -4.4728915064211425e-06
-5.416311271069689e-05   1.1790170022491983e-05   -4.4728915064211425e-06
-5.416311271069689e-05   1.1790170022491983e-05   -4.4728915064211425e-06
-6.425516782097706e-05   1.3119531460524698e-05   1.1549583481228524e-05
-6.425516782097706e-05   1.3119531460524698e-05   1.1549583481228524e-05
-6.425516782097706e-05   1.3119531460524698e-05   1.1549583481228524e-05
-6.425516782097706e-05   1.3119531460524698e-05   1.1549583481228524e-05
-5.416311271069676e-05   1.4185623697490854e-05   3.728775384986317e-05
-5.416311271069676e-05   1.4185623697490854e-05   3.728775384986317e-05
-5.416311271069676e-05   1.4185623697490854e-05   3.728775384986317e-05
-5.416311271069676e-05   1.4185623697490854e-05   3.728775384986317e-05
-7.921949992446738e-05   1.1790170022491983e-05   -5.910163711420535e-06
-7.921949992446738e-05   1.1790170022491983e-05   -5.910163711420535e-06
-7.921949992446738e-05   1.1790170022491983e-05   -5.910163711420535e-06
-7.921949992446738e-05   1.1790170022491983e-05   -5.910163711420535e-06
-8.139686760255536e-05   1.309002586873673e-05   4.612618301814151e-05
-8.139686760255536e-05   1.309002586873673e-05   4.612618301814151e-05
-8.139686760255536e-05   1.309002586873673e-05   4.612618301814151e-05
-8.139686760255536e-05   1.309002586873673e-05   4.612618301814151e-05
-5.5348765158549245e-05   1.0706472783200693e-05   4.142810796119319e-06
-5.5348765158549245e-05   1.0706472783200693e-05   4.142810796119319e-06
-5.5348765158549245e-05   1.0706472783200693e-05   4.142810796119319e-06
-5.5348765158549245e-05   1.0706472783200693e-05   4.142810796119319e-06
-6.478021145328751e-05   1.2670463802960663e-05   1.86834933421599e-05
-6.478021145328751e-05   1.2670463802960663e-05   1.86834933421599e-05
-6.478021145328751e-05   1.2670463802960663e-05   1.86834933421599e-05
-6.478021145328751e-05   1.2670463802960663e-05   1.86834933421599e-05
3.556362421356464e-05   -4.610560420565597e-06   3.57196636692383e-05
3.556362421356464e-05   -4.610560420565597e-06   3.57196636692383e-05
3.556362421356464e-05   -4.610560420565597e-06   3.57196636692383e-05
3.556362421356464e-05   -4.610560420565597e-06   3.57196636692383e-05
1.4753191303128584e-05   -2.258306951949309e-06   2.4469608996813535e-06
1.4753191303128584e-05   -2.258306951949309e-06   2.4469608996813535e-06
1.4753191303128584e-05   -2.258306951949309e-06   2.4469608996813535e-06
1.4753191303128584e-05   -2.258306951949309e-06   2.4469608996813535e-06
1.3822407446440347e-05   -5.598690310740749e-06   3.212171511711697e-05
1.3822407446440347e-05   -5.598690310740749e-06   3.212171511711697e-05
1.3822407446440347e-05   -5.598690310740749e-06   3.212171511711697e-05
1.3822407446440347e-05   -5.598690310740749e-06   3.212171511711697e-05
3.358330204364375e-05   -3.1411881673995383e-06   -2.2876104975602337e-06
3.358330204364375e-05   -3.1411881673995383e-06   -2.2876104975602337e-06
3.358330204364375e-05   -3.1411881673995383e-06   -2.2876104975602337e-06
3.358330204364375e-05   -3.1411881673995383e-06   -2.2876104975602337e-06
2.321470479428237e-05   -3.996496282086207e-06   1.550656978685488e-05
2.321470479428237e-05   -3.996496282086207e-06   1.550656978685488e-05
2.321470479428237e-05   -3.996496282086207e-06   1.550656978685488e-05
2.321470479428237e-05   -3.996496282086207e-06   1.550656978685488e-05
3.3583302043643806e-05   -5.598690310740707e-06   3.064721383111229e-05
3.3583302043643806e-05   -5.598690310740707e-06   3.064721383111229e-05
3.3583302043643806e-05   -5.598690310740707e-06   3.064721383111229e-05
3.3583302043643806e-05   -5.598690310740707e-06   3.064721383111229e-05
1.38224074464403e-05   -3.1411881673995383e-06   -8.131092115552796e-07
1.38224074464403e-05   -3.1411881673995383e-06   -8.131092115552796e-07
1.38224074464403e-05   -3.1411881673995383e-06   -8.131092115552796e-07
1.38224074464403e-05   -3.1411881673995383e-06   -8.131092115552796e-07
1.2777494595772185e-05   -5.863076117238863e-06   2.9448938197597797e-05
1.2777494595772185e-05   -5.863076117238863e-06   2.9448938197597797e-05
1.2777494595772185e-05   -5.863076117238863e-06   2.9448938197597797e-05
1.2777494595772185e-05   -5.863076117238863e-06   2.9448938197597797e-05
3.188383660234003e-05   -3.4456538318809217e-06   -3.845418517896596e-06
3.188383660234003e-05   -3.4456538318809217e-06   -3.845418517896596e-06
3.188383660234003e-05   -3.4456538318809217e-06   -3.845418517896596e-06
3.188383660234003e-05   -3.4456538318809217e-06   -3.845418517896596e-06
2.2331282887902848e-05   -4.370792264680144e-06   1.2630587399179437e-05
2.2331282887902848e-05   -4.370792264680144e-06   1.2630587399179437e-05
2.2331282887902848e-05   -4.370792264680144e-06   1.2630587399179437e-05
2.2331282887902848e-05   -4.370792264680144e-06   1.2630587399179437e-05
3.188383660234008e-05   -5.863076117239046e-06   2.799848482638325e-05
3.188383660234008e-05   -5.863076117239046e-06   2.799848482638325e-05
3.188383660234008e-05   -5.863076117239046e-06   2.799848482638325e-05
3.188383660234008e-05   -5.863076117239046e-06   2.799848482638325e-05
1.2777494595772165e-05   -3.4456538318809217e-06   -2.394965146681723e-06
1.2777494595772165e-05   -3.4456538318809217e-06   -2.394965146681723e-06
1.2777494595772165e-05   -3.4456538318809217e-06   -2.394965146681723e-06
1.2777494595772165e-05   -3.4456538318809217e-06   -2.394965146681723e-06
1.1841046944848742e-05   -6.112052422505964e-06   2.5982260636554138e-05
1.1841046944848742e-05   -6.112052422505964e-06   2.5982260636554138e-05
1.1841046944848742e-05   -6.112052422505964e-06   2.5982260636554138e-05
1.1841046944848742e-05   -6.112052422505964e-06   2.5982260636554138e-05
2.9957143733915474e-05   -3.849851882509626e-06   -5.568554335888402e-06
2.9957143733915474e-05   -3.849851882509626e-06   -5.568554335888402e-06
2.9957143733915474e-05   -3.849851882509626e-06   -5.568554335888402e-06
2.9957143733915474e-05   -3.849851882509626e-06   -5.568554335888402e-06
2.0702366089035652e-05   -4.445318637623721e-06   1.0213355125312388e-05
2.0702366089035652e-05   -4.445318637623721e-06   1.0213355125312388e-05
2.0702366089035652e-05   -4.445318637623721e-06   1.0213355125312388e-05
2.0702366089035652e-05   -4.445318637623721e-06   1.0213355125312388e-05
1.4753191303128638e-05   -1.9768232856485474e-08   4.4205646112000776e-05
1.4753191303128638e-05   -1.9768232856485474e-08   4.4205646112000776e-05
1.4753191303128638e-05   -1.9768232856485474e-08   4.4205646112000776e-05
1.4753191303128638e-05   -1.9768232856485474e-08   4.4205646112000776e-05
-4.779644160890267e-06   1.172951738490774e-06   1.2366552321444206e-05
-4.779644160890267e-06   1.172951738490774e-06   1.2366552321444206e-05
-4.779644160890267e-06   1.172951738490774e-06   1.2366552321444206e-05
-4.779644160890267e-06   1.172951738490774e-06   1.2366552321444206e-05
-5.634689327537888e-06   -8.79991421333555e-07   4.429228112928264e-05
-5.634689327537888e-06   -8.79991421333555e-07   4.429228112928264e-05
-5.634689327537888e-06   -8.79991421333555e-07   4.429228112928264e-05
-5.634689327537888e-06   -8.79991421333555e-07   4.429228112928264e-05
1.38224074464403e-05   2.782106327523827e-07   1.1168865273534408e-05
1.38224074464403e-05   2.782106327523827e-07   1.1168865273534408e-05
1.38224074464403e-05   2.782106327523827e-07   1.1168865273534408e-05
1.38224074464403e-05   2.782106327523827e-07   1.1168865273534408e-05
4.401244277511814e-06   6.122354920690826e-08   2.7000996138543403e-05
4.401244277511814e-06   6.122354920690826e-08   2.7000996138543403e-05
4.401244277511814e-06   6.122354920690826e-08   2.7000996138543403e-05
4.401244277511814e-06   6.122354920690826e-08   2.7000996138543403e-05
1.3822407446440334e-05   -8.799914213333381e-07   4.359735989683134e-05
1.3822407446440334e-05   -8.799914213333381e-07   4.359735989683134e-05
1.3822407446440334e-05   -8.799914213333381e-07   4.359735989683134e-05
1.3822407446440334e-05   -8.799914213333381e-07   4.359735989683134e-05
-5.6346893275379154e-06   2.782106327523827e-07   1.1863786505985968e-05
-5.6346893275379154e-06   2.782106327523827e-07   1.1863786505985968e-05
-5.6346893275379154e-06   2.782106327523827e-07   1.1863786505985968e-05
-5.6346893275379154e-06   2.782106327523827e-07   1.1863786505985968e-05
-6.508798500317096e-06   -1.5587708952109758e-06   4.376698599262976e-05
-6.508798500317096e-06   -1.5587708952109758e-06   4.376698599262976e-05
-6.508798500317096e-06   -1.5587708952109758e-06   4.376698599262976e-05
-6.508798500317096e-06   -1.5587708952109758e-06   4.376698599262976e-05
1.2777494595772166e-05   -4.5462319003992946e-07   1.0960675542712044e-05
1.2777494595772166e-05   -4.5462319003992946e-07   1.0960675542712044e-05
1.2777494595772166e-05   -4.5462319003992946e-07   1.0960675542712044e-05
1.2777494595772166e-05   -4.5462319003992946e-07   1.0960675542712044e-05
3.461663358921049e-06   -5.359674280485532e-07   2.6535867480270155e-05
3.461663358921049e-06   -5.359674280485532e-07   2.6535867480270155e-05
3.461663358921049e-06   -5.359674280485532e-07   2.6535867480270155e-05
3.461663358921049e-06   -5.359674280485532e-07   2.6535867480270155e-05
1.2777494595772212e-05   -1.5587708952109211e-06   4.31044973695277e-05
1.2777494595772212e-05   -1.5587708952109211e-06   4.31044973695277e-05
1.2777494595772212e-05   -1.5587708952109211e-06   4.31044973695277e-05
1.2777494595772212e-05   -1.5587708952109211e-06   4.31044973695277e-05
-6.508798500317123e-06   -4.5462319003992946e-07   1.1623164165814508e-05
-6.508798500317123e-06   -4.5462319003992946e-07   1.1623164165814508e-05
-6.508798500317123e-06   -4.5462319003992946e-07   1.1623164165814508e-05
-6.508798500317123e-06   -4.5462319003992946e-07   1.1623164165814508e-05
-7.375478286974238e-06   -2.188297291449027e-06   4.4169577327282704e-05
-7.375478286974238e-06   -2.188297291449027e-06   4.4169577327282704e-05
-7.375478286974238e-06   -2.188297291449027e-06   4.4169577327282704e-05
-7.375478286974238e-06   -2.188297291449027e-06   4.4169577327282704e-05
1.1841046944848688e-05   -1.177681183078469e-06   1.1535665609222026e-05
1.1841046944848688e-05   -1.177681183078469e-06   1.1535665609222026e-05
1.1841046944848688e-05   -1.177681183078469e-06   1.1535665609222026e-05
1.1841046944848688e-05   -1.177681183078469e-06   1.1535665609222026e-05
2.7185488259732246e-06   -1.0346915495745672e-06   2.6654035360578024e-05
2.7185488259732246e-06   -1.0346915495745672e-06   2.6654035360578024e-05
2.7185488259732246e-06   -1.0346915495745672e-06   2.6654035360578024e-05
2.7185488259732246e-06   -1.0346915495745672e-06   2.6654035360578024e-05
-4.77964416089024e-06   4.46809105077779e-06   4.7980651368848166e-05
-4.77964416089024e-06   4.46809105077779e-06   4.7980651368848166e-05
-4.77964416089024e-06   4.46809105077779e-06   4.7980651368848166e-05
-4.77964416089024e-06   4.46809105077779e-06   4.7980651368848166e-05
-2.399246044684707e-05   4.394613407612477e-06   1.591520430635463e-05
-2.399246044684707e-05   4.394613407612477e-06   1.591520430635463e-05
-2.399246044684707e-05   4.394613407612477e-06   1.591520430635463e-05
-2.399246044684707e-05   4.394613407612477e-06   1.591520430635463e-05
-2.483578627963983e-05   3.7114303623078486e-06   4.766729821264592e-05
-2.483578627963983e-05   3.7114303623078486e-06   4.766729821264592e-05
-2.483578627963983e-05   3.7114303623078486e-06   4.766729821264592e-05
-2.483578627963983e-05   3.7114303623078486e-06   4.766729821264592e-05
-5.634689327537882e-06   3.5807900067024064e-06   1.5743854172506138e-05
-5.634689327537882e-06   3.5807900067024064e-06   1.5743854172506138e-05
-5.634689327537882e-06   3.5807900067024064e-06   1.5743854172506138e-05
-5.634689327537882e-06   3.5807900067024064e-06   1.5743854172506138e-05
-1.4847513523742462e-05   3.939183919368129e-06   3.0883524818581655e-05
-1.4847513523742462e-05   3.939183919368129e-06   3.0883524818581655e-05
-1.4847513523742462e-05   3.939183919368129e-06   3.0883524818581655e-05
-1.4847513523742462e-05   3.939183919368129e-06   3.0883524818581655e-05
-5.634689327537888e-06   3.711430362307366e-06   4.774568242600923e-05
-5.634689327537888e-06   3.711430362307366e-06   4.774568242600923e-05
-5.634689327537888e-06   3.711430362307366e-06   4.774568242600923e-05
-5.634689327537888e-06   3.711430362307366e-06   4.774568242600923e-05
-2.4835786279639883e-05   3.5807900067024064e-06   1.5665469959142992e-05
-2.4835786279639883e-05   3.5807900067024064e-06   1.5665469959142992e-05
-2.4835786279639883e-05   3.5807900067024064e-06   1.5665469959142992e-05
-2.4835786279639883e-05   3.5807900067024064e-06   1.5665469959142992e-05
-2.5699496882692447e-05   2.9667415685969735e-06   4.7913184831254374e-05
-2.5699496882692447e-05   2.9667415685969735e-06   4.7913184831254374e-05
-2.5699496882692447e-05   2.9667415685969735e-06   4.7913184831254374e-05
-2.5699496882692447e-05   2.9667415685969735e-06   4.7913184831254374e-05
-6.508798500317093e-06   2.7762773687029993e-06   1.604296604723192e-05
-6.508798500317093e-06   2.7762773687029993e-06   1.604296604723192e-05
-6.508798500317093e-06   2.7762773687029993e-06   1.604296604723192e-05
-6.508798500317093e-06   2.7762773687029993e-06   1.604296604723192e-05
-1.5620111400705483e-05   3.348166568686601e-06   3.0885354027889984e-05
-1.5620111400705483e-05   3.348166568686601e-06   3.0885354027889984e-05
-1.5620111400705483e-05   3.348166568686601e-06   3.0885354027889984e-05
-1.5620111400705483e-05   3.348166568686601e-06   3.0885354027889984e-05
-6.508798500317123e-06   2.966741568596945e-06   4.80274633511905e-05
-6.508798500317123e-06   2.966741568596945e-06   4.80274633511905e-05
-6.508798500317123e-06   2.966741568596945e-06   4.80274633511905e-05
-6.508798500317123e-06   2.966741568596945e-06   4.80274633511905e-05
-2.56994968826925e-05   2.7762773687029993e-06   1.5928687527295635e-05
-2.56994968826925e-05   2.7762773687029993e-06   1.5928687527295635e-05
-2.56994968826925e-05   2.7762773687029993e-06   1.5928687527295635e-05
-2.56994968826925e-05   2.7762773687029993e-06   1.5928687527295635e-05
-2.6553254660119992e-05   2.2600325002308276e-06   4.855960661991521e-05
-2.6553254660119992e-05   2.2600325002308276e-06   4.855960661991521e-05
-2.6553254660119992e-05   2.2600325002308276e-06   4.855960661991521e-05
-2.6553254660119992e-05   2.2600325002308276e-06   4.855960661991521e-05
-7.375478286974204e-06   2.0016353841174547e-06   1.675168426767379e-05
-7.375478286974204e-06   2.0016353841174547e-06   1.675168426767379e-05
-7.375478286974204e-06   2.0016353841174547e-06   1.675168426767379e-05
-7.375478286974204e-06   2.0016353841174547e-06   1.675168426767379e-05
-1.642810884752231e-05   2.770957167527125e-06   3.137780879854059e-05
-1.642810884752231e-05   2.770957167527125e-06   3.137780879854059e-05
-1.642810884752231e-05   2.770957167527125e-06   3.137780879854059e-05
-1.642810884752231e-05   2.770957167527125e-06   3.137780879854059e-05
-2.399246044684707e-05   8.785759847663625e-06   4.242708655796505e-05
-2.399246044684707e-05   8.785759847663625e-06   4.242708655796505e-05
-2.399246044684707e-05   8.785759847663625e-06   4.242708655796505e-05
-2.399246044684707e-05   8.785759847663625e-06   4.242708655796505e-05
-4.287704557244369e-05   7.528164520967731e-06   1.0198220819286575e-05
-4.287704557244369e-05   7.528164520967731e-06   1.0198220819286575e-05
-4.287704557244369e-05   7.528164520967731e-06   1.0198220819286575e-05
-4.287704557244369e-05   7.528164520967731e-06   1.0198220819286575e-05
-4.378136085321266e-05   8.0604071622907e-06   4.186304271814722e-05
-4.378136085321266e-05   8.0604071622907e-06   4.186304271814722e-05
-4.378136085321266e-05   8.0604071622907e-06   4.186304271814722e-05
-4.378136085321266e-05   8.0604071622907e-06   4.186304271814722e-05
-2.4835786279639805e-05   6.732586422982401e-06   1.1083777539111278e-05
-2.4835786279639805e-05   6.732586422982401e-06   1.1083777539111278e-05
-2.4835786279639805e-05   6.732586422982401e-06   1.1083777539111278e-05
-2.4835786279639805e-05   6.732586422982401e-06   1.1083777539111278e-05
-3.377613440128609e-05   7.645335169731513e-06   2.5436708493806908e-05
-3.377613440128609e-05   7.645335169731513e-06   2.5436708493806908e-05
-3.377613440128609e-05   7.645335169731513e-06   2.5436708493806908e-05
-3.377613440128609e-05   7.645335169731513e-06   2.5436708493806908e-05
-2.4835786279639883e-05   8.06040716229089e-06   4.265973516173272e-05
-2.4835786279639883e-05   8.06040716229089e-06   4.265973516173272e-05
-2.4835786279639883e-05   8.06040716229089e-06   4.265973516173272e-05
-2.4835786279639883e-05   8.06040716229089e-06   4.265973516173272e-05
-4.3781360853212606e-05   6.732586422982401e-06   1.028708509552632e-05
-4.3781360853212606e-05   6.732586422982401e-06   1.028708509552632e-05
-4.3781360853212606e-05   6.732586422982401e-06   1.028708509552632e-05
-4.3781360853212606e-05   6.732586422982401e-06   1.028708509552632e-05
-4.479938348526523e-05   7.385219271349719e-06   4.329537244060163e-05
-4.479938348526523e-05   7.385219271349719e-06   4.329537244060163e-05
-4.479938348526523e-05   7.385219271349719e-06   4.329537244060163e-05
-4.479938348526523e-05   7.385219271349719e-06   4.329537244060163e-05
-2.569949688269238e-05   5.9970455870126706e-06   1.2295132313583e-05
-2.569949688269238e-05   5.9970455870126706e-06   1.2295132313583e-05
-2.569949688269238e-05   5.9970455870126706e-06   1.2295132313583e-05
-2.569949688269238e-05   5.9970455870126706e-06   1.2295132313583e-05
-3.4403806716783824e-05   7.10312715568838e-06   2.6138666429197403e-05
-3.4403806716783824e-05   7.10312715568838e-06   2.6138666429197403e-05
-3.4403806716783824e-05   7.10312715568838e-06   2.6138666429197403e-05
-3.4403806716783824e-05   7.10312715568838e-06   2.6138666429197403e-05
-2.56994968826925e-05   7.385219271349699e-06   4.4128276651204165e-05
-2.56994968826925e-05   7.385219271349699e-06   4.4128276651204165e-05
-2.56994968826925e-05   7.385219271349699e-06   4.4128276651204165e-05
-2.56994968826925e-05   7.385219271349699e-06   4.4128276651204165e-05
-4.479938348526518e-05   5.997045587012237e-06   1.1462228102980792e-05
-4.479938348526518e-05   5.997045587012237e-06   1.1462228102980792e-05
-4.479938348526518e-05   5.997045587012237e-06   1.1462228102980792e-05
-4.479938348526518e-05   5.997045587012237e-06   1.1462228102980792e-05
-4.570494686951436e-05   6.599565279511062e-06   4.4506463310688355e-05
-4.570494686951436e-05   6.599565279511062e-06   4.4506463310688355e-05
-4.570494686951436e-05   6.599565279511062e-06   4.4506463310688355e-05
-4.570494686951436e-05   6.599565279511062e-06   4.4506463310688355e-05
-2.655325466011993e-05   5.175403235710505e-06   1.3441473521311567e-05
-2.655325466011993e-05   5.175403235710505e-06   1.3441473521311567e-05
-2.655325466011993e-05   5.175403235710505e-06   1.3441473521311567e-05
-2.655325466011993e-05   5.175403235710505e-06   1.3441473521311567e-05
-3.542342551427604e-05   6.533113486590324e-06   2.741046546104282e-05
-3.542342551427604e-05   6.533113486590324e-06   2.741046546104282e-05
-3.542342551427604e-05   6.533113486590324e-06   2.741046546104282e-05
-3.542342551427604e-05   6.533113486590324e-06   2.741046546104282e-05
-4.287704557244369e-05   1.2099408545048637e-05   2.0372317347339217e-05
-4.287704557244369e-05   1.2099408545048637e-05   2.0372317347339217e-05
-4.287704557244369e-05   1.2099408545048637e-05   2.0372317347339217e-05
-4.287704557244369e-05   1.2099408545048637e-05   2.0372317347339217e-05
-6.056786186181974e-05   9.865779215789943e-06   -1.0452554065843323e-05
-6.056786186181974e-05   9.865779215789943e-06   -1.0452554065843323e-05
-6.056786186181974e-05   9.865779215789943e-06   -1.0452554065843323e-05
-6.056786186181974e-05   9.865779215789943e-06   -1.0452554065843323e-05
-6.245746865764365e-05   1.203631118575901e-05   2.6105495409647125e-05
-6.245746865764365e-05   1.203631118575901e-05   2.6105495409647125e-05
-6.245746865764365e-05   1.203631118575901e-05   2.6105495409647125e-05
-6.245746865764365e-05   1.203631118575901e-05   2.6105495409647125e-05
-4.378136085321254e-05   9.608972550939014e-06   -3.5649477501786386e-06
-4.378136085321254e-05   9.608972550939014e-06   -3.5649477501786386e-06
-4.378136085321254e-05   9.608972550939014e-06   -3.5649477501786386e-06
-4.378136085321254e-05   9.608972550939014e-06   -3.5649477501786386e-06
-5.0456760500199733e-05   1.0705239876095726e-05   6.902957933040111e-06
-5.0456760500199733e-05   1.0705239876095726e-05   6.902957933040111e-06
-5.0456760500199733e-05   1.0705239876095726e-05   6.902957933040111e-06
-5.0456760500199733e-05   1.0705239876095726e-05   6.902957933040111e-06
-4.378136085321266e-05   1.203631118575929e-05   2.7561898590539383e-05
-4.378136085321266e-05   1.203631118575929e-05   2.7561898590539383e-05
-4.378136085321266e-05   1.203631118575929e-05   2.7561898590539383e-05
-4.378136085321266e-05   1.203631118575929e-05   2.7561898590539383e-05
-6.245746865764343e-05   9.608972550939014e-06   -5.02135093107068e-06
-6.245746865764343e-05   9.608972550939014e-06   -5.02135093107068e-06
-6.245746865764343e-05   9.608972550939014e-06   -5.02135093107068e-06
-6.245746865764343e-05   9.608972550939014e-06   -5.02135093107068e-06
-6.410691082747028e-05   1.1790170022491983e-05   3.108252486995738e-05
-6.410691082747028e-05   1.1790170022491983e-05   3.108252486995738e-05
-6.410691082747028e-05   1.1790170022491983e-05   3.108252486995738e-05
-6.410691082747028e-05   1.1790170022491983e-05   3.108252486995738e-05
-4.4799383485265044e-05   9.297288415200267e-06   3.9904159732410353e-07
-4.4799383485265044e-05   9.297288415200267e-06   3.9904159732410353e-07
-4.4799383485265044e-05   9.297288415200267e-06   3.9904159732410353e-07
-4.4799383485265044e-05   9.297288415200267e-06   3.9904159732410353e-07
-5.245515001827091e-05   1.0711024109001741e-05   1.2310411069387916e-05
-5.245515001827091e-05   1.0711024109001741e-05   1.2310411069387916e-05
-5.245515001827091e-05   1.0711024109001741e-05   1.2310411069387916e-05
-5.245515001827091e-05   1.0711024109001741e-05   1.2310411069387916e-05
-4.479938348526518e-05   1.179017002249182e-05   3.2578253834332146e-05
-4.479938348526518e-05   1.179017002249182e-05   3.2578253834332146e-05
-4.479938348526518e-05   1.179017002249182e-05   3.2578253834332146e-05
-4.479938348526518e-05   1.179017002249182e-05   3.2578253834332146e-05
-6.410691082747017e-05   9.297288415200267e-06   -1.0966873670507742e-06
-6.410691082747017e-05   9.297288415200267e-06   -1.0966873670507742e-06
-6.410691082747017e-05   9.297288415200267e-06   -1.0966873670507742e-06
-6.410691082747017e-05   9.297288415200267e-06   -1.0966873670507742e-06
-6.602095240014759e-05   1.0706472783200693e-05   3.973439284964521e-05
-6.602095240014759e-05   1.0706472783200693e-05   3.973439284964521e-05
-6.602095240014759e-05   1.0706472783200693e-05   3.973439284964521e-05
-6.602095240014759e-05   1.0706472783200693e-05   3.973439284964521e-05
-4.570494686951416e-05   8.253082323057392e-06   7.346417908008851e-06
-4.570494686951416e-05   8.253082323057392e-06   7.346417908008851e-06
-4.570494686951416e-05   8.253082323057392e-06   7.346417908008851e-06
-4.570494686951416e-05   8.253082323057392e-06   7.346417908008851e-06
-5.290624685448554e-05   1.0256434226102711e-05   1.8146573407798374e-05
-5.290624685448554e-05   1.0256434226102711e-05   1.8146573407798374e-05
-5.290624685448554e-05   1.0256434226102711e-05   1.8146573407798374e-05
-5.290624685448554e-05   1.0256434226102711e-05   1.8146573407798374e-05
1.968625347411896e-05   -2.2583069519495247e-06   2.806869908271296e-05
1.968625347411896e-05   -2.2583069519495247e-06   2.806869908271296e-05
1.968625347411896e-05   -2.2583069519495247e-06   2.806869908271296e-05
1.968625347411896e-05   -2.2583069519495247e-06   2.806869908271296e-05
5.122786237906875e-06   6.685239476215098e-08   5.1913492970529634e-06
5.122786237906875e-06   6.685239476215098e-08   5.1913492970529634e-06
5.122786237906875e-06   6.685239476215098e-08   5.1913492970529634e-06
5.122786237906875e-06   6.685239476215098e-08   5.1913492970529634e-06
4.4276036819258696e-06   -3.1411881673991046e-06   2.617873398550949e-05
4.4276036819258696e-06   -3.1411881673991046e-06   2.617873398550949e-05
4.4276036819258696e-06   -3.1411881673991046e-06   2.617873398550949e-05
4.4276036819258696e-06   -3.1411881673991046e-06   2.617873398550949e-05
1.796863411823951e-05   -7.23654188964501e-07   2.1598295379263643e-06
1.796863411823951e-05   -7.23654188964501e-07   2.1598295379263643e-06
1.796863411823951e-05   -7.23654188964501e-07   2.1598295379263643e-06
1.796863411823951e-05   -7.23654188964501e-07   2.1598295379263643e-06
1.110338669891859e-05   -1.6259910320531867e-06   1.4143310675982251e-05
1.110338669891859e-05   -1.6259910320531867e-06   1.4143310675982251e-05
1.110338669891859e-05   -1.6259910320531867e-06   1.4143310675982251e-05
1.110338669891859e-05   -1.6259910320531867e-06   1.4143310675982251e-05
1.796863411823954e-05   -3.1411881673993884e-06   2.4728213598448944e-05
1.796863411823954e-05   -3.1411881673993884e-06   2.4728213598448944e-05
1.796863411823954e-05   -3.1411881673993884e-06   2.4728213598448944e-05
1.796863411823954e-05   -3.1411881673993884e-06   2.4728213598448944e-05
4.427603681925863e-06   -7.23654188964501e-07   3.610349924987235e-06
4.427603681925863e-06   -7.23654188964501e-07   3.610349924987235e-06
4.427603681925863e-06   -7.23654188964501e-07   3.610349924987235e-06
4.427603681925863e-06   -7.23654188964501e-07   3.610349924987235e-06
3.617935572945263e-06   -3.445653831880488e-06   2.4575686011251482e-05
3.617935572945263e-06   -3.445653831880488e-06   2.4575686011251482e-05
3.617935572945263e-06   -3.445653831880488e-06   2.4575686011251482e-05
3.617935572945263e-06   -3.445653831880488e-06   2.4575686011251482e-05
1.6514937052905456e-05   -1.0652628061444316e-06   1.6524489292093624e-06
1.6514937052905456e-05   -1.0652628061444316e-06   1.6524489292093624e-06
1.6514937052905456e-05   -1.0652628061444316e-06   1.6524489292093624e-06
1.6514937052905456e-05   -1.0652628061444316e-06   1.6524489292093624e-06
1.0271445709105046e-05   -1.9709741653950626e-06   1.2601694651093934e-05
1.0271445709105046e-05   -1.9709741653950626e-06   1.2601694651093934e-05
1.0271445709105046e-05   -1.9709741653950626e-06   1.2601694651093934e-05
1.0271445709105046e-05   -1.9709741653950626e-06   1.2601694651093934e-05
1.6514937052905483e-05   -3.4456538318808315e-06   2.3147451395809674e-05
1.6514937052905483e-05   -3.4456538318808315e-06   2.3147451395809674e-05
1.6514937052905483e-05   -3.4456538318808315e-06   2.3147451395809674e-05
1.6514937052905483e-05   -3.4456538318808315e-06   2.3147451395809674e-05
3.617935572945256e-06   -1.0652628061444316e-06   3.0806835446513595e-06
3.617935572945256e-06   -1.0652628061444316e-06   3.0806835446513595e-06
3.617935572945256e-06   -1.0652628061444316e-06   3.0806835446513595e-06
3.617935572945256e-06   -1.0652628061444316e-06   3.0806835446513595e-06
2.9166940086389117e-06   -3.849851882509626e-06   2.2727813871757695e-05
2.9166940086389117e-06   -3.849851882509626e-06   2.2727813871757695e-05
2.9166940086389117e-06   -3.849851882509626e-06   2.2727813871757695e-05
2.9166940086389117e-06   -3.849851882509626e-06   2.2727813871757695e-05
1.4813508488326115e-05   -1.6357513886796227e-06   1.5713294426477926e-06
1.4813508488326115e-05   -1.6357513886796227e-06   1.5713294426477926e-06
1.4813508488326115e-05   -1.6357513886796227e-06   1.5713294426477926e-06
1.4813508488326115e-05   -1.6357513886796227e-06   1.5713294426477926e-06
9.050862454963993e-06   -2.1503589166600896e-06   1.1484504015039821e-05
9.050862454963993e-06   -2.1503589166600896e-06   1.1484504015039821e-05
9.050862454963993e-06   -2.1503589166600896e-06   1.1484504015039821e-05
9.050862454963993e-06   -2.1503589166600896e-06   1.1484504015039821e-05
5.122786237906885e-06   1.172951738490505e-06   3.8667754129694714e-05
5.122786237906885e-06   1.172951738490505e-06   3.8667754129694714e-05
5.122786237906885e-06   1.172951738490505e-06   3.8667754129694714e-05
5.122786237906885e-06   1.172951738490505e-06   3.8667754129694714e-05
-8.149357883950793e-06   2.2241973027116013e-06   1.717826126513113e-05
-8.149357883950793e-06   2.2241973027116013e-06   1.717826126513113e-05
-8.149357883950793e-06   2.2241973027116013e-06   1.717826126513113e-05
-8.149357883950793e-06   2.2241973027116013e-06   1.717826126513113e-05
-8.759774297754333e-06   2.782106327523827e-07   3.879171621455862e-05
-8.759774297754333e-06   2.782106327523827e-07   3.879171621455862e-05
-8.759774297754333e-06   2.782106327523827e-07   3.879171621455862e-05
-8.759774297754333e-06   2.782106327523827e-07   3.879171621455862e-05
4.427603681925862e-06   1.3298902060174082e-06   1.6181745171132827e-05
4.427603681925862e-06   1.3298902060174082e-06   1.6181745171132827e-05
4.427603681925862e-06   1.3298902060174082e-06   1.6181745171132827e-05
4.427603681925862e-06   1.3298902060174082e-06   1.6181745171132827e-05
-1.93863139518695e-06   1.162597826519056e-06   2.689251239402089e-05
-1.93863139518695e-06   1.162597826519056e-06   2.689251239402089e-05
-1.93863139518695e-06   1.162597826519056e-06   2.689251239402089e-05
-1.93863139518695e-06   1.162597826519056e-06   2.689251239402089e-05
4.427603681925863e-06   2.7821063275244585e-07   3.8160708470599434e-05
4.427603681925863e-06   2.7821063275244585e-07   3.8160708470599434e-05
4.427603681925863e-06   2.7821063275244585e-07   3.8160708470599434e-05
4.427603681925863e-06   2.7821063275244585e-07   3.8160708470599434e-05
-8.759774297754333e-06   1.3298902060174082e-06   1.681275291509198e-05
-8.759774297754333e-06   1.3298902060174082e-06   1.681275291509198e-05
-8.759774297754333e-06   1.3298902060174082e-06   1.681275291509198e-05
-8.759774297754333e-06   1.3298902060174082e-06   1.681275291509198e-05
-9.38789603782152e-06   -4.5462319003992946e-07   3.854682535899012e-05
-9.38789603782152e-06   -4.5462319003992946e-07   3.854682535899012e-05
-9.38789603782152e-06   -4.5462319003992946e-07   3.854682535899012e-05
-9.38789603782152e-06   -4.5462319003992946e-07   3.854682535899012e-05
3.6179355729452557e-06   5.712079072014292e-07   1.6254940682700907e-05
3.6179355729452557e-06   5.712079072014292e-07   1.6254940682700907e-05
3.6179355729452557e-06   5.712079072014292e-07   1.6254940682700907e-05
3.6179355729452557e-06   5.712079072014292e-07   1.6254940682700907e-05
-2.5898854531439283e-06   5.38389115004121e-07   2.662100033483497e-05
-2.5898854531439283e-06   5.38389115004121e-07   2.662100033483497e-05
-2.5898854531439283e-06   5.38389115004121e-07   2.662100033483497e-05
-2.5898854531439283e-06   5.38389115004121e-07   2.662100033483497e-05
3.617935572945263e-06   -4.5462319004019305e-07   3.793132670064543e-05
3.617935572945263e-06   -4.5462319004019305e-07   3.793132670064543e-05
3.617935572945263e-06   -4.5462319004019305e-07   3.793132670064543e-05
3.617935572945263e-06   -4.5462319004019305e-07   3.793132670064543e-05
-9.38789603782152e-06   5.712079072012124e-07   1.687043934104574e-05
-9.38789603782152e-06   5.712079072012124e-07   1.687043934104574e-05
-9.38789603782152e-06   5.712079072012124e-07   1.687043934104574e-05
-9.38789603782152e-06   5.712079072012124e-07   1.687043934104574e-05
-1.0006510151856101e-05   -1.177681183078469e-06   3.905830154337362e-05
-1.0006510151856101e-05   -1.177681183078469e-06   3.905830154337362e-05
-1.0006510151856101e-05   -1.177681183078469e-06   3.905830154337362e-05
-1.0006510151856101e-05   -1.177681183078469e-06   3.905830154337362e-05
2.9166940086389075e-06   -2.0503443223926152e-07   1.6936039892045378e-05
2.9166940086389075e-06   -2.0503443223926152e-07   1.6936039892045378e-05
2.9166940086389075e-06   -2.0503443223926152e-07   1.6936039892045378e-05
2.9166940086389075e-06   -2.0503443223926152e-07   1.6936039892045378e-05
-3.1418626857480178e-06   -2.2630383472548032e-08   2.6924191953430285e-05
-3.1418626857480178e-06   -2.2630383472548032e-08   2.6924191953430285e-05
-3.1418626857480178e-06   -2.2630383472548032e-08   2.6924191953430285e-05
-3.1418626857480178e-06   -2.2630383472548032e-08   2.6924191953430285e-05
-8.149357883950793e-06   4.3946134076125194e-06   4.289124003903637e-05
-8.149357883950793e-06   4.3946134076125194e-06   4.289124003903637e-05
-8.149357883950793e-06   4.3946134076125194e-06   4.289124003903637e-05
-8.149357883950793e-06   4.3946134076125194e-06   4.289124003903637e-05
-2.1199599770631175e-05   4.140265782249424e-06   2.0988228319351377e-05
-2.1199599770631175e-05   4.140265782249424e-06   2.0988228319351377e-05
-2.1199599770631175e-05   4.140265782249424e-06   2.0988228319351377e-05
-2.1199599770631175e-05   4.140265782249424e-06   2.0988228319351377e-05
-2.178503184863085e-05   3.5807900067024064e-06   4.251231135158251e-05
-2.178503184863085e-05   3.5807900067024064e-06   4.251231135158251e-05
-2.178503184863085e-05   3.5807900067024064e-06   4.251231135158251e-05
-2.178503184863085e-05   3.5807900067024064e-06   4.251231135158251e-05
-8.759774297754315e-06   3.3150024575424614e-06   2.0963021296284813e-05
-8.759774297754315e-06   3.3150024575424614e-06   2.0963021296284813e-05
-8.759774297754315e-06   3.3150024575424614e-06   2.0963021296284813e-05
-8.759774297754315e-06   3.3150024575424614e-06   2.0963021296284813e-05
-1.5001133502840812e-05   3.766201791364533e-06   3.1094567037803496e-05
-1.5001133502840812e-05   3.766201791364533e-06   3.1094567037803496e-05
-1.5001133502840812e-05   3.766201791364533e-06   3.1094567037803496e-05
-1.5001133502840812e-05   3.766201791364533e-06   3.1094567037803496e-05
-8.759774297754333e-06   3.580790006702497e-06   4.267178388107874e-05
-8.759774297754333e-06   3.580790006702497e-06   4.267178388107874e-05
-8.759774297754333e-06   3.580790006702497e-06   4.267178388107874e-05
-8.759774297754333e-06   3.580790006702497e-06   4.267178388107874e-05
-2.178503184863085e-05   3.3150024575424614e-06   2.080354876678875e-05
-2.178503184863085e-05   3.3150024575424614e-06   2.080354876678875e-05
-2.178503184863085e-05   3.3150024575424614e-06   2.080354876678875e-05
-2.178503184863085e-05   3.3150024575424614e-06   2.080354876678875e-05
-2.2389757821014863e-05   2.7762773687029993e-06   4.279722595469052e-05
-2.2389757821014863e-05   2.7762773687029993e-06   4.279722595469052e-05
-2.2389757821014863e-05   2.7762773687029993e-06   4.279722595469052e-05
-2.2389757821014863e-05   2.7762773687029993e-06   4.279722595469052e-05
-9.387896037821494e-06   2.493941892508112e-06   2.1296857601752113e-05
-9.387896037821494e-06   2.493941892508112e-06   2.1296857601752113e-05
-9.387896037821494e-06   2.493941892508112e-06   2.1296857601752113e-05
-9.387896037821494e-06   2.493941892508112e-06   2.1296857601752113e-05
-1.5522585070111623e-05   3.1381215566208577e-06   3.113483152376796e-05
-1.5522585070111623e-05   3.1381215566208577e-06   3.113483152376796e-05
-1.5522585070111623e-05   3.1381215566208577e-06   3.113483152376796e-05
-1.5522585070111623e-05   3.1381215566208577e-06   3.113483152376796e-05
-9.38789603782152e-06   2.776277368703346e-06   4.2966627240407585e-05
-9.38789603782152e-06   2.776277368703346e-06   4.2966627240407585e-05
-9.38789603782152e-06   2.776277368703346e-06   4.2966627240407585e-05
-9.38789603782152e-06   2.776277368703346e-06   4.2966627240407585e-05
-2.2389757821014863e-05   2.493941892508112e-06   2.1127456316035105e-05
-2.2389757821014863e-05   2.493941892508112e-06   2.1127456316035105e-05
-2.2389757821014863e-05   2.493941892508112e-06   2.1127456316035105e-05
-2.2389757821014863e-05   2.493941892508112e-06   2.1127456316035105e-05
-2.2985106638485637e-05   2.0016353841178884e-06   4.349149806569361e-05
-2.2985106638485637e-05   2.0016353841178884e-06   4.349149806569361e-05
-2.2985106638485637e-05   2.0016353841178884e-06   4.349149806569361e-05
-2.2985106638485637e-05   2.0016353841178884e-06   4.349149806569361e-05
-1.0006510151856086e-05   1.7075479322686653e-06   2.203695639242068e-05
-1.0006510151856086e-05   1.7075479322686653e-06   2.203695639242068e-05
-1.0006510151856086e-05   1.7075479322686653e-06   2.203695639242068e-05
-1.0006510151856086e-05   1.7075479322686653e-06   2.203695639242068e-05
-1.6077122600842553e-05   2.5225189049515873e-06   3.166566122378818e-05
-1.6077122600842553e-05   2.5225189049515873e-06   3.166566122378818e-05
-1.6077122600842553e-05   2.5225189049515873e-06   3.166566122378818e-05
-1.6077122600842553e-05   2.5225189049515873e-06   3.166566122378818e-05
-2.1199599770631175e-05   7.5281645209678785e-06   3.7776205172768314e-05
-2.1199599770631175e-05   7.5281645209678785e-06   3.7776205172768314e-05
-2.1199599770631175e-05   7.5281645209678785e-06   3.7776205172768314e-05
-2.1199599770631175e-05   7.5281645209678785e-06   3.7776205172768314e-05
-3.40081460900336e-05   6.144607668127217e-06   1.5598493862059777e-05
-3.40081460900336e-05   6.144607668127217e-06   1.5598493862059777e-05
-3.40081460900336e-05   6.144607668127217e-06   1.5598493862059777e-05
-3.40081460900336e-05   6.144607668127217e-06   1.5598493862059777e-05
-3.464596647722749e-05   6.732586422982401e-06   3.7078251435799115e-05
-3.464596647722749e-05   6.732586422982401e-06   3.7078251435799115e-05
-3.464596647722749e-05   6.732586422982401e-06   3.7078251435799115e-05
-3.464596647722749e-05   6.732586422982401e-06   3.7078251435799115e-05
-2.1785031848630814e-05   5.311973930062714e-06   1.6495727883890365e-05
-2.1785031848630814e-05   5.311973930062714e-06   1.6495727883890365e-05
-2.1785031848630814e-05   5.311973930062714e-06   1.6495727883890365e-05
-2.1785031848630814e-05   5.311973930062714e-06   1.6495727883890365e-05
-2.7842501599173634e-05   6.325743122403624e-06   2.5983249286058523e-05
-2.7842501599173634e-05   6.325743122403624e-06   2.5983249286058523e-05
-2.7842501599173634e-05   6.325743122403624e-06   2.5983249286058523e-05
-2.7842501599173634e-05   6.325743122403624e-06   2.5983249286058523e-05
-2.178503184863085e-05   6.732586422982518e-06   3.793061893155123e-05
-2.178503184863085e-05   6.732586422982518e-06   3.793061893155123e-05
-2.178503184863085e-05   6.732586422982518e-06   3.793061893155123e-05
-2.178503184863085e-05   6.732586422982518e-06   3.793061893155123e-05
-3.4645966477227436e-05   5.311973930062714e-06   1.5643360388138574e-05
-3.4645966477227436e-05   5.311973930062714e-06   1.5643360388138574e-05
-3.4645966477227436e-05   5.311973930062714e-06   1.5643360388138574e-05
-3.4645966477227436e-05   5.311973930062714e-06   1.5643360388138574e-05
-3.540167271781625e-05   5.9970455870126706e-06   3.829875617037998e-05
-3.540167271781625e-05   5.9970455870126706e-06   3.829875617037998e-05
-3.540167271781625e-05   5.9970455870126706e-06   3.829875617037998e-05
-3.540167271781625e-05   5.9970455870126706e-06   3.829875617037998e-05
-2.238975782101479e-05   4.555521302682499e-06   1.7477145912975938e-05
-2.238975782101479e-05   4.555521302682499e-06   1.7477145912975938e-05
-2.238975782101479e-05   4.555521302682499e-06   1.7477145912975938e-05
-2.238975782101479e-05   4.555521302682499e-06   1.7477145912975938e-05
-2.8256730132054834e-05   5.736535506330794e-06   2.6546824575853683e-05
-2.8256730132054834e-05   5.736535506330794e-06   2.6546824575853683e-05
-2.8256730132054834e-05   5.736535506330794e-06   2.6546824575853683e-05
-2.8256730132054834e-05   5.736535506330794e-06   2.6546824575853683e-05
-2.2389757821014863e-05   5.997045587012728e-06   3.9163670740977995e-05
-2.2389757821014863e-05   5.997045587012728e-06   3.9163670740977995e-05
-2.2389757821014863e-05   5.997045587012728e-06   3.9163670740977995e-05
-2.2389757821014863e-05   5.997045587012728e-06   3.9163670740977995e-05
-3.5401672717816194e-05   4.555521302682499e-06   1.6612231342377813e-05
-3.5401672717816194e-05   4.555521302682499e-06   1.6612231342377813e-05
-3.5401672717816194e-05   4.555521302682499e-06   1.6612231342377813e-05
-3.5401672717816194e-05   4.555521302682499e-06   1.6612231342377813e-05
-3.605060052965425e-05   5.175403235710505e-06   3.947971092459028e-05
-3.605060052965425e-05   5.175403235710505e-06   3.947971092459028e-05
-3.605060052965425e-05   5.175403235710505e-06   3.947971092459028e-05
-3.605060052965425e-05   5.175403235710505e-06   3.947971092459028e-05
-2.2985106638485576e-05   3.7477121283611796e-06   1.8560502437051964e-05
-2.2985106638485576e-05   3.7477121283611796e-06   1.8560502437051964e-05
-2.2985106638485576e-05   3.7477121283611796e-06   1.8560502437051964e-05
-2.2985106638485576e-05   3.7477121283611796e-06   1.8560502437051964e-05
-2.8967285616918018e-05   5.147109124325946e-06   2.7691162536860642e-05
-2.8967285616918018e-05   5.147109124325946e-06   2.7691162536860642e-05
-2.8967285616918018e-05   5.147109124325946e-06   2.7691162536860642e-05
-2.8967285616918018e-05   5.147109124325946e-06   2.7691162536860642e-05
-3.400814609003371e-05   9.8657792157896e-06   1.7635473773489627e-05
-3.400814609003371e-05   9.8657792157896e-06   1.7635473773489627e-05
-3.400814609003371e-05   9.8657792157896e-06   1.7635473773489627e-05
-3.400814609003371e-05   9.8657792157896e-06   1.7635473773489627e-05
-4.554175935186499e-05   7.550680853633286e-06   -2.9762740135229923e-06
-4.554175935186499e-05   7.550680853633286e-06   -2.9762740135229923e-06
-4.554175935186499e-05   7.550680853633286e-06   -2.9762740135229923e-06
-4.554175935186499e-05   7.550680853633286e-06   -2.9762740135229923e-06
-4.717609366492511e-05   9.608972550939014e-06   2.173459006057834e-05
-4.717609366492511e-05   9.608972550939014e-06   2.173459006057834e-05
-4.717609366492511e-05   9.608972550939014e-06   2.173459006057834e-05
-4.717609366492511e-05   9.608972550939014e-06   2.173459006057834e-05
-3.464596647722735e-05   7.122925001746671e-06   2.3426732772648985e-06
-3.464596647722735e-05   7.122925001746671e-06   2.3426732772648985e-06
-3.464596647722735e-05   7.122925001746671e-06   2.3426732772648985e-06
-3.464596647722735e-05   7.122925001746671e-06   2.3426732772648985e-06
-3.887426902016296e-05   8.381498185617339e-06   8.63470027183703e-06
-3.887426902016296e-05   8.381498185617339e-06   8.63470027183703e-06
-3.887426902016296e-05   8.381498185617339e-06   8.63470027183703e-06
-3.887426902016296e-05   8.381498185617339e-06   8.63470027183703e-06
-3.4645966477227436e-05   9.608972550939271e-06   2.3226218590094048e-05
-3.4645966477227436e-05   9.608972550939271e-06   2.3226218590094048e-05
-3.4645966477227436e-05   9.608972550939271e-06   2.3226218590094048e-05
-3.4645966477227436e-05   9.608972550939271e-06   2.3226218590094048e-05
-4.717609366492522e-05   7.122925001746888e-06   8.510447477496773e-07
-4.717609366492522e-05   7.122925001746888e-06   8.510447477496773e-07
-4.717609366492522e-05   7.122925001746888e-06   8.510447477496773e-07
-4.717609366492522e-05   7.122925001746888e-06   8.510447477496773e-07
-4.858401063064302e-05   9.297288415200267e-06   2.571719743232892e-05
-4.858401063064302e-05   9.297288415200267e-06   2.571719743232892e-05
-4.858401063064302e-05   9.297288415200267e-06   2.571719743232892e-05
-4.858401063064302e-05   9.297288415200267e-06   2.571719743232892e-05
-3.5401672717816174e-05   6.766668027876786e-06   5.265006476678526e-06
-3.5401672717816174e-05   6.766668027876786e-06   5.265006476678526e-06
-3.5401672717816174e-05   6.766668027876786e-06   5.265006476678526e-06
-3.5401672717816174e-05   6.766668027876786e-06   5.265006476678526e-06
-4.044171250075183e-05   8.269846037200785e-06   1.276316597597759e-05
-4.044171250075183e-05   8.269846037200785e-06   1.276316597597759e-05
-4.044171250075183e-05   8.269846037200785e-06   1.276316597597759e-05
-4.044171250075183e-05   8.269846037200785e-06   1.276316597597759e-05
-3.5401672717816194e-05   9.29728841520035e-06   2.7235569664723182e-05
-3.5401672717816194e-05   9.29728841520035e-06   2.7235569664723182e-05
-3.5401672717816194e-05   9.29728841520035e-06   2.7235569664723182e-05
-3.5401672717816194e-05   9.29728841520035e-06   2.7235569664723182e-05
-4.858401063064313e-05   6.766668027876786e-06   3.7466342442844802e-06
-4.858401063064313e-05   6.766668027876786e-06   3.7466342442844802e-06
-4.858401063064313e-05   6.766668027876786e-06   3.7466342442844802e-06
-4.858401063064313e-05   6.766668027876786e-06   3.7466342442844802e-06
-5.026992587204562e-05   8.253082323057392e-06   3.276703061214038e-05
-5.026992587204562e-05   8.253082323057392e-06   3.276703061214038e-05
-5.026992587204562e-05   8.253082323057392e-06   3.276703061214038e-05
-5.026992587204562e-05   8.253082323057392e-06   3.276703061214038e-05
-3.6050600529654144e-05   5.799545780678589e-06   1.0540276966915403e-05
-3.6050600529654144e-05   5.799545780678589e-06   1.0540276966915403e-05
-3.6050600529654144e-05   5.799545780678589e-06   1.0540276966915403e-05
-3.6050600529654144e-05   5.799545780678589e-06   1.0540276966915403e-05
-4.0836117300924264e-05   7.830063953068438e-06   1.729782734893068e-05
-4.0836117300924264e-05   7.830063953068438e-06   1.729782734893068e-05
-4.0836117300924264e-05   7.830063953068438e-06   1.729782734893068e-05
-4.0836117300924264e-05   7.830063953068438e-06   1.729782734893068e-05
3.83635068324535e-06   6.685239476205117e-08   2.09089930726799e-05
3.83635068324535e-06   6.685239476205117e-08   2.09089930726799e-05
3.83635068324535e-06   6.685239476205117e-08   2.09089930726799e-05
3.83635068324535e-06   6.685239476205117e-08   2.09089930726799e-05
-4.464642151945767e-06   2.296513280979507e-06   8.411801545758638e-06
-4.464642151945767e-06   2.296513280979507e-06   8.411801545758638e-06
-4.464642151945767e-06   2.296513280979507e-06   8.411801545758638e-06
-4.464642151945767e-06   2.296513280979507e-06   8.411801545758638e-06
-4.955325619281453e-06   -7.23654188964501e-07   2.063734597350321e-05
-4.955325619281453e-06   -7.23654188964501e-07   2.063734597350321e-05
-4.955325619281453e-06   -7.23654188964501e-07   2.063734597350321e-05
-4.955325619281453e-06   -7.23654188964501e-07   2.063734597350321e-05
2.3416403252397626e-06   1.5591845686270273e-06   7.106032811412925e-06
2.3416403252397626e-06   1.5591845686270273e-06   7.106032811412925e-06
2.3416403252397626e-06   1.5591845686270273e-06   7.106032811412925e-06
2.3416403252397626e-06   1.5591845686270273e-06   7.106032811412925e-06
-1.0018109471726714e-06   6.739028512365609e-07   1.3209620629201258e-05
-1.0018109471726714e-06   6.739028512365609e-07   1.3209620629201258e-05
-1.0018109471726714e-06   6.739028512365609e-07   1.3209620629201258e-05
-1.0018109471726714e-06   6.739028512365609e-07   1.3209620629201258e-05
2.341640325239768e-06   -7.236541889645307e-07   1.926764271894827e-05
2.341640325239768e-06   -7.236541889645307e-07   1.926764271894827e-05
2.341640325239768e-06   -7.236541889645307e-07   1.926764271894827e-05
2.341640325239768e-06   -7.236541889645307e-07   1.926764271894827e-05
-4.955325619281453e-06   1.5591845686270273e-06   8.475736065967701e-06
-4.955325619281453e-06   1.5591845686270273e-06   8.475736065967701e-06
-4.955325619281453e-06   1.5591845686270273e-06   8.475736065967701e-06
-4.955325619281453e-06   1.5591845686270273e-06   8.475736065967701e-06
-5.561196980405155e-06   -1.0652628061442147e-06   2.010647886086013e-05
-5.561196980405155e-06   -1.0652628061442147e-06   2.010647886086013e-05
-5.561196980405155e-06   -1.0652628061442147e-06   2.010647886086013e-05
-5.561196980405155e-06   -1.0652628061442147e-06   2.010647886086013e-05
1.0453442069432807e-06   1.1522003932964986e-06   7.76509896228153e-06
1.0453442069432807e-06   1.1522003932964986e-06   7.76509896228153e-06
1.0453442069432807e-06   1.1522003932964986e-06   7.76509896228153e-06
1.0453442069432807e-06   1.1522003932964986e-06   7.76509896228153e-06
-1.8096029858933211e-06   3.596401160128361e-07   1.2998880450046149e-05
-1.8096029858933211e-06   3.596401160128361e-07   1.2998880450046149e-05
-1.8096029858933211e-06   3.596401160128361e-07   1.2998880450046149e-05
-1.8096029858933211e-06   3.596401160128361e-07   1.2998880450046149e-05
1.0453442069432767e-06   -1.065262806144209e-06   1.877600094119555e-05
1.0453442069432767e-06   -1.065262806144209e-06   1.877600094119555e-05
1.0453442069432767e-06   -1.065262806144209e-06   1.877600094119555e-05
1.0453442069432767e-06   -1.065262806144209e-06   1.877600094119555e-05
-5.561196980405148e-06   1.1522003932964986e-06   9.095576881946055e-06
-5.561196980405148e-06   1.1522003932964986e-06   9.095576881946055e-06
-5.561196980405148e-06   1.1522003932964986e-06   9.095576881946055e-06
-5.561196980405148e-06   1.1522003932964986e-06   9.095576881946055e-06
-6.067087145249148e-06   -1.6357513886794059e-06   1.9931006753002504e-05
-6.067087145249148e-06   -1.6357513886794059e-06   1.9931006753002504e-05
-6.067087145249148e-06   -1.6357513886794059e-06   1.9931006753002504e-05
-6.067087145249148e-06   -1.6357513886794059e-06   1.9931006753002504e-05
-5.803678344716007e-07   2.879277657952522e-07   9.63226707568842e-06
-5.803678344716007e-07   2.879277657952522e-07   9.63226707568842e-06
-5.803678344716007e-07   2.879277657952522e-07   9.63226707568842e-06
-5.803678344716007e-07   2.879277657952522e-07   9.63226707568842e-06
-2.675731044824647e-06   6.994101151513131e-08   1.3255331145511532e-05
-2.675731044824647e-06   6.994101151513131e-08   1.3255331145511532e-05
-2.675731044824647e-06   6.994101151513131e-08   1.3255331145511532e-05
-2.675731044824647e-06   6.994101151513131e-08   1.3255331145511532e-05
-4.464642151945767e-06   2.2241973027115437e-06   3.3602954233955505e-05
-4.464642151945767e-06   2.2241973027115437e-06   3.3602954233955505e-05
-4.464642151945767e-06   2.2241973027115437e-06   3.3602954233955505e-05
-4.464642151945767e-06   2.2241973027115437e-06   3.3602954233955505e-05
-1.1414879050994955e-05   2.6619852000798767e-06   2.2281898807294514e-05
-1.1414879050994955e-05   2.6619852000798767e-06   2.2281898807294514e-05
-1.1414879050994955e-05   2.6619852000798767e-06   2.2281898807294514e-05
-1.1414879050994955e-05   2.6619852000798767e-06   2.2281898807294514e-05
-1.1784342621769017e-05   1.3298902060174082e-06   3.3513594001613294e-05
-1.1784342621769017e-05   1.3298902060174082e-06   3.3513594001613294e-05
-1.1784342621769017e-05   1.3298902060174082e-06   3.3513594001613294e-05
-1.1784342621769017e-05   1.3298902060174082e-06   3.3513594001613294e-05
-4.9553256192814535e-06   1.8379781759581774e-06   2.1827046215503056e-05
-4.9553256192814535e-06   1.8379781759581774e-06   2.1827046215503056e-05
-4.9553256192814535e-06   1.8379781759581774e-06   2.1827046215503056e-05
-4.9553256192814535e-06   1.8379781759581774e-06   2.1827046215503056e-05
-8.20224668103189e-06   1.918561044563947e-06   2.719023159725693e-05
-8.20224668103189e-06   1.918561044563947e-06   2.719023159725693e-05
-8.20224668103189e-06   1.918561044563947e-06   2.719023159725693e-05
-8.20224668103189e-06   1.918561044563947e-06   2.719023159725693e-05
-4.955325619281439e-06   1.3298902060172727e-06   3.320874121964866e-05
-4.955325619281439e-06   1.3298902060172727e-06   3.320874121964866e-05
-4.955325619281439e-06   1.3298902060172727e-06   3.320874121964866e-05
-4.955325619281439e-06   1.3298902060172727e-06   3.320874121964866e-05
-1.1784342621769017e-05   1.8379781759581774e-06   2.21318989974675e-05
-1.1784342621769017e-05   1.8379781759581774e-06   2.21318989974675e-05
-1.1784342621769017e-05   1.8379781759581774e-06   2.21318989974675e-05
-1.1784342621769017e-05   1.8379781759581774e-06   2.21318989974675e-05
-1.2165339060524086e-05   5.712079072012124e-07   3.358380586222635e-05
-1.2165339060524086e-05   5.712079072012124e-07   3.358380586222635e-05
-1.2165339060524086e-05   5.712079072012124e-07   3.358380586222635e-05
-1.2165339060524086e-05   5.712079072012124e-07   3.358380586222635e-05
-5.561196980405147e-06   1.076324346062623e-06   2.227383253204473e-05
-5.561196980405147e-06   1.076324346062623e-06   2.227383253204473e-05
-5.561196980405147e-06   1.076324346062623e-06   2.227383253204473e-05
-5.561196980405147e-06   1.076324346062623e-06   2.227383253204473e-05
-8.579298430642147e-06   1.315786510811337e-06   2.7160324316924313e-05
-8.579298430642147e-06   1.315786510811337e-06   2.7160324316924313e-05
-8.579298430642147e-06   1.315786510811337e-06   2.7160324316924313e-05
-8.579298430642147e-06   1.315786510811337e-06   2.7160324316924313e-05
-5.561196980405148e-06   5.712079072012945e-07   3.32807359989095e-05
-5.561196980405148e-06   5.712079072012945e-07   3.32807359989095e-05
-5.561196980405148e-06   5.712079072012945e-07   3.32807359989095e-05
-5.561196980405148e-06   5.712079072012945e-07   3.32807359989095e-05
-1.2165339060524086e-05   1.076324346062623e-06   2.2576902395361406e-05
-1.2165339060524086e-05   1.076324346062623e-06   2.2576902395361406e-05
-1.2165339060524086e-05   1.076324346062623e-06   2.2576902395361406e-05
-1.2165339060524086e-05   1.076324346062623e-06   2.2576902395361406e-05
-1.2538853160055713e-05   -2.0503443223926152e-07   3.424032523496575e-05
-1.2538853160055713e-05   -2.0503443223926152e-07   3.424032523496575e-05
-1.2538853160055713e-05   -2.0503443223926152e-07   3.424032523496575e-05
-1.2538853160055713e-05   -2.0503443223926152e-07   3.424032523496575e-05
-6.06708714524915e-06   2.5007944920007324e-07   2.318098021475787e-05
-6.06708714524915e-06   2.5007944920007324e-07   2.318098021475787e-05
-6.06708714524915e-06   2.5007944920007324e-07   2.318098021475787e-05
-6.06708714524915e-06   2.5007944920007324e-07   2.318098021475787e-05
-8.95628674138716e-06   7.223601874077699e-07   2.7712944432063284e-05
-8.95628674138716e-06   7.223601874077699e-07   2.7712944432063284e-05
-8.95628674138716e-06   7.223601874077699e-07   2.7712944432063284e-05
-8.95628674138716e-06   7.223601874077699e-07   2.7712944432063284e-05
-1.1414879050994955e-05   4.140265782249462e-06   3.7828202601814616e-05
-1.1414879050994955e-05   4.140265782249462e-06   3.7828202601814616e-05
-1.1414879050994955e-05   4.140265782249462e-06   3.7828202601814616e-05
-1.1414879050994955e-05   4.140265782249462e-06   3.7828202601814616e-05
-1.8346988643618283e-05   3.1855126648519267e-06   2.5701834743670606e-05
-1.8346988643618283e-05   3.1855126648519267e-06   2.5701834743670606e-05
-1.8346988643618283e-05   3.1855126648519267e-06   2.5701834743670606e-05
-1.8346988643618283e-05   3.1855126648519267e-06   2.5701834743670606e-05
-1.865929465882292e-05   3.3150024575422446e-06   3.7127520754855984e-05
-1.865929465882292e-05   3.3150024575422446e-06   3.7127520754855984e-05
-1.865929465882292e-05   3.3150024575422446e-06   3.7127520754855984e-05
-1.865929465882292e-05   3.3150024575422446e-06   3.7127520754855984e-05
-1.1784342621769012e-05   2.421099744291666e-06   2.6205608987716386e-05
-1.1784342621769012e-05   2.421099744291666e-06   2.6205608987716386e-05
-1.1784342621769012e-05   2.421099744291666e-06   2.6205608987716386e-05
-1.1784342621769012e-05   2.421099744291666e-06   2.6205608987716386e-05
-1.5058533323557006e-05   3.2033061047860665e-06   3.119326967439983e-05
-1.5058533323557006e-05   3.2033061047860665e-06   3.119326967439983e-05
-1.5058533323557006e-05   3.2033061047860665e-06   3.119326967439983e-05
-1.5058533323557006e-05   3.2033061047860665e-06   3.119326967439983e-05
-1.1784342621769017e-05   3.3150024575422416e-06   3.766386238280629e-05
-1.1784342621769017e-05   3.3150024575422416e-06   3.766386238280629e-05
-1.1784342621769017e-05   3.3150024575422416e-06   3.766386238280629e-05
-1.1784342621769017e-05   3.3150024575422416e-06   3.766386238280629e-05
-1.865929465882292e-05   2.421099744291666e-06   2.5669267359766028e-05
-1.865929465882292e-05   2.421099744291666e-06   2.5669267359766028e-05
-1.865929465882292e-05   2.421099744291666e-06   2.5669267359766028e-05
-1.865929465882292e-05   2.421099744291666e-06   2.5669267359766028e-05
-1.8994101897004982e-05   2.493941892508112e-06   3.750032280544491e-05
-1.8994101897004982e-05   2.493941892508112e-06   3.750032280544491e-05
-1.8994101897004982e-05   2.493941892508112e-06   3.750032280544491e-05
-1.8994101897004982e-05   2.493941892508112e-06   3.750032280544491e-05
-1.216533906052409e-05   1.6441063633617758e-06   2.662895272879793e-05
-1.216533906052409e-05   1.6441063633617758e-06   2.662895272879793e-05
-1.216533906052409e-05   1.6441063633617758e-06   2.662895272879793e-05
-1.216533906052409e-05   1.6441063633617758e-06   2.662895272879793e-05
-1.5325343386272416e-05   2.590747879683544e-06   3.132764169525205e-05
-1.5325343386272416e-05   2.590747879683544e-06   3.132764169525205e-05
-1.5325343386272416e-05   2.590747879683544e-06   3.132764169525205e-05
-1.5325343386272416e-05   2.590747879683544e-06   3.132764169525205e-05
-1.2165339060524086e-05   2.4939418925082243e-06   3.8010224122932666e-05
-1.2165339060524086e-05   2.4939418925082243e-06   3.8010224122932666e-05
-1.2165339060524086e-05   2.4939418925082243e-06   3.8010224122932666e-05
-1.2165339060524086e-05   2.4939418925082243e-06   3.8010224122932666e-05
-1.8994101897004982e-05   1.6441063633617758e-06   2.6119051411310117e-05
-1.8994101897004982e-05   1.6441063633617758e-06   2.6119051411310117e-05
-1.8994101897004982e-05   1.6441063633617758e-06   2.6119051411310117e-05
-1.8994101897004982e-05   1.6441063633617758e-06   2.6119051411310117e-05
-1.9321986755512248e-05   1.7075479322686653e-06   3.8277393373820686e-05
-1.9321986755512248e-05   1.7075479322686653e-06   3.8277393373820686e-05
-1.9321986755512248e-05   1.7075479322686653e-06   3.8277393373820686e-05
-1.9321986755512248e-05   1.7075479322686653e-06   3.8277393373820686e-05
-1.2538853160055743e-05   9.071140805738415e-07   2.7452431025743764e-05
-1.2538853160055743e-05   9.071140805738415e-07   2.7452431025743764e-05
-1.2538853160055743e-05   9.071140805738415e-07   2.7452431025743764e-05
-1.2538853160055743e-05   9.071140805738415e-07   2.7452431025743764e-05
-1.562265152242521e-05   1.9872432170369575e-06   3.19440174811481e-05
-1.562265152242521e-05   1.9872432170369575e-06   3.19440174811481e-05
-1.562265152242521e-05   1.9872432170369575e-06   3.19440174811481e-05
-1.562265152242521e-05   1.9872432170369575e-06   3.19440174811481e-05
-1.8346988643618337e-05   6.1446076681271116e-06   3.2695750385789e-05
-1.8346988643618337e-05   6.1446076681271116e-06   3.2695750385789e-05
-1.8346988643618337e-05   6.1446076681271116e-06   3.2695750385789e-05
-1.8346988643618337e-05   6.1446076681271116e-06   3.2695750385789e-05
-2.516228836836067e-05   4.302137243368878e-06   2.0231435256363398e-05
-2.516228836836067e-05   4.302137243368878e-06   2.0231435256363398e-05
-2.516228836836067e-05   4.302137243368878e-06   2.0231435256363398e-05
-2.516228836836067e-05   4.302137243368878e-06   2.0231435256363398e-05
-2.550531053974284e-05   5.311973930062714e-06   3.1731202762475116e-05
-2.550531053974284e-05   5.311973930062714e-06   3.1731202762475116e-05
-2.550531053974284e-05   5.311973930062714e-06   3.1731202762475116e-05
-2.550531053974284e-05   5.311973930062714e-06   3.1731202762475116e-05
-1.8659294658822907e-05   3.4978120809247334e-06   2.1409673403757898e-05
-1.8659294658822907e-05   3.4978120809247334e-06   2.1409673403757898e-05
-1.8659294658822907e-05   3.4978120809247334e-06   2.1409673403757898e-05
-1.8659294658822907e-05   3.4978120809247334e-06   2.1409673403757898e-05
-2.1872062221521958e-05   4.774258418114739e-06   2.5998418205942266e-05
-2.1872062221521958e-05   4.774258418114739e-06   2.5998418205942266e-05
-2.1872062221521958e-05   4.774258418114739e-06   2.5998418205942266e-05
-2.1872062221521958e-05   4.774258418114739e-06   2.5998418205942266e-05
-1.865929465882292e-05   5.311973930062723e-06   3.28196998719576e-05
-1.865929465882292e-05   5.311973930062723e-06   3.28196998719576e-05
-1.865929465882292e-05   5.311973930062723e-06   3.28196998719576e-05
-1.865929465882292e-05   5.311973930062723e-06   3.28196998719576e-05
-2.550531053974273e-05   3.4978120809247334e-06   2.032117629427498e-05
-2.550531053974273e-05   3.4978120809247334e-06   2.032117629427498e-05
-2.550531053974273e-05   3.4978120809247334e-06   2.032117629427498e-05
-2.550531053974273e-05   3.4978120809247334e-06   2.032117629427498e-05
-2.5980134966478903e-05   4.555521302682499e-06   3.278630930272507e-05
-2.5980134966478903e-05   4.555521302682499e-06   3.278630930272507e-05
-2.5980134966478903e-05   4.555521302682499e-06   3.278630930272507e-05
-2.5980134966478903e-05   4.555521302682499e-06   3.278630930272507e-05
-1.8994101897005e-05   2.7826828032477546e-06   2.2206623953262847e-05
-1.8994101897005e-05   2.7826828032477546e-06   2.2206623953262847e-05
-1.8994101897005e-05   2.7826828032477546e-06   2.2206623953262847e-05
-1.8994101897005e-05   2.7826828032477546e-06   2.2206623953262847e-05
-2.205858279558456e-05   4.1805554279389975e-06   2.6475368542747298e-05
-2.205858279558456e-05   4.1805554279389975e-06   2.6475368542747298e-05
-2.205858279558456e-05   4.1805554279389975e-06   2.6475368542747298e-05
-2.205858279558456e-05   4.1805554279389975e-06   2.6475368542747298e-05
-1.8994101897004982e-05   4.555521302682468e-06   3.385001240238574e-05
-1.8994101897004982e-05   4.555521302682468e-06   3.385001240238574e-05
-1.8994101897004982e-05   4.555521302682468e-06   3.385001240238574e-05
-1.8994101897004982e-05   4.555521302682468e-06   3.385001240238574e-05
-2.5980134966478794e-05   2.7826828032477546e-06   2.114292085360185e-05
-2.5980134966478794e-05   2.7826828032477546e-06   2.114292085360185e-05
-2.5980134966478794e-05   2.7826828032477546e-06   2.114292085360185e-05
-2.5980134966478794e-05   2.7826828032477546e-06   2.114292085360185e-05
-2.636097065125475e-05   3.7477121283613964e-06   3.396154367994752e-05
-2.636097065125475e-05   3.7477121283613964e-06   3.396154367994752e-05
-2.636097065125475e-05   3.7477121283613964e-06   3.396154367994752e-05
-2.636097065125475e-05   3.7477121283613964e-06   3.396154367994752e-05
-1.932198675551221e-05   2.054631779004794e-06   2.3245752063324023e-05
-1.932198675551221e-05   2.054631779004794e-06   2.3245752063324023e-05
-1.932198675551221e-05   2.054631779004794e-06   2.3245752063324023e-05
-1.932198675551221e-05   2.054631779004794e-06   2.3245752063324023e-05
-2.2451432212896985e-05   3.616492610065492e-06   2.752437799366221e-05
-2.2451432212896985e-05   3.616492610065492e-06   2.752437799366221e-05
-2.2451432212896985e-05   3.616492610065492e-06   2.752437799366221e-05
-2.2451432212896985e-05   3.616492610065492e-06   2.752437799366221e-05
-2.516228836836067e-05   7.550680853633004e-06   1.4404559272644885e-05
-2.516228836836067e-05   7.550680853633004e-06   1.4404559272644885e-05
-2.516228836836067e-05   7.550680853633004e-06   1.4404559272644885e-05
-2.516228836836067e-05   7.550680853633004e-06   1.4404559272644885e-05
-3.0491927382184396e-05   5.075270102505251e-06   4.036581132262053e-06
-3.0491927382184396e-05   5.075270102505251e-06   4.036581132262053e-06
-3.0491927382184396e-05   5.075270102505251e-06   4.036581132262053e-06
-3.0491927382184396e-05   5.075270102505251e-06   4.036581132262053e-06
-3.179620417828458e-05   7.122925001746671e-06   1.688072167036988e-05
-3.179620417828458e-05   7.122925001746671e-06   1.688072167036988e-05
-3.179620417828458e-05   7.122925001746671e-06   1.688072167036988e-05
-3.179620417828458e-05   7.122925001746671e-06   1.688072167036988e-05
-2.5505310539742766e-05   4.539935033027803e-06   7.945692920698012e-06
-2.5505310539742766e-05   4.539935033027803e-06   7.945692920698012e-06
-2.5505310539742766e-05   4.539935033027803e-06   7.945692920698012e-06
-2.5505310539742766e-05   4.539935033027803e-06   7.945692920698012e-06
-2.725965237893945e-05   6.012510774729488e-06   9.98605054100478e-06
-2.725965237893945e-05   6.012510774729488e-06   9.98605054100478e-06
-2.725965237893945e-05   6.012510774729488e-06   9.98605054100478e-06
-2.725965237893945e-05   6.012510774729488e-06   9.98605054100478e-06
-2.550531053974273e-05   7.122925001746879e-06   1.8430515651600898e-05
-2.550531053974273e-05   7.122925001746879e-06   1.8430515651600898e-05
-2.550531053974273e-05   7.122925001746879e-06   1.8430515651600898e-05
-2.550531053974273e-05   7.122925001746879e-06   1.8430515651600898e-05
-3.179620417828458e-05   4.539935033027803e-06   6.395898939466612e-06
-3.179620417828458e-05   4.539935033027803e-06   6.395898939466612e-06
-3.179620417828458e-05   4.539935033027803e-06   6.395898939466612e-06
-3.179620417828458e-05   4.539935033027803e-06   6.395898939466612e-06
-3.2916574210250116e-05   6.766668027876786e-06   1.988271245568856e-05
-3.2916574210250116e-05   6.766668027876786e-06   1.988271245568856e-05
-3.2916574210250116e-05   6.766668027876786e-06   1.988271245568856e-05
-3.2916574210250116e-05   6.766668027876786e-06   1.988271245568856e-05
-2.5980134966478852e-05   4.172714725648443e-06   9.878352364073415e-06
-2.5980134966478852e-05   4.172714725648443e-06   9.878352364073415e-06
-2.5980134966478852e-05   4.172714725648443e-06   9.878352364073415e-06
-2.5980134966478852e-05   4.172714725648443e-06   9.878352364073415e-06
-2.8363771684377575e-05   5.801708599833047e-06   1.2873683902728012e-05
-2.8363771684377575e-05   5.801708599833047e-06   1.2873683902728012e-05
-2.8363771684377575e-05   5.801708599833047e-06   1.2873683902728012e-05
-2.8363771684377575e-05   5.801708599833047e-06   1.2873683902728012e-05
-2.598013496647885e-05   6.766668027876686e-06   2.1439084437025347e-05
-2.598013496647885e-05   6.766668027876686e-06   2.1439084437025347e-05
-2.598013496647885e-05   6.766668027876686e-06   2.1439084437025347e-05
-2.598013496647885e-05   6.766668027876686e-06   2.1439084437025347e-05
-3.2916574210250225e-05   4.1727147256482265e-06   8.321980382736358e-06
-3.2916574210250225e-05   4.1727147256482265e-06   8.321980382736358e-06
-3.2916574210250225e-05   4.1727147256482265e-06   8.321980382736358e-06
-3.2916574210250225e-05   4.1727147256482265e-06   8.321980382736358e-06
-3.434449094174804e-05   5.799545780678589e-06   2.5317168349214304e-05
-3.434449094174804e-05   5.799545780678589e-06   2.5317168349214304e-05
-3.434449094174804e-05   5.799545780678589e-06   2.5317168349214304e-05
-3.434449094174804e-05   5.799545780678589e-06   2.5317168349214304e-05
-2.6360970651254656e-05   3.3316049056683877e-06   1.34920657233979e-05
-2.6360970651254656e-05   3.3316049056683877e-06   1.34920657233979e-05
-2.6360970651254656e-05   3.3316049056683877e-06   1.34920657233979e-05
-2.6360970651254656e-05   3.3316049056683877e-06   1.34920657233979e-05
-2.8681124674889172e-05   5.400431611033395e-06   1.611769307290241e-05
-2.8681124674889172e-05   5.400431611033395e-06   1.611769307290241e-05
-2.8681124674889172e-05   5.400431611033395e-06   1.611769307290241e-05
-2.8681124674889172e-05   5.400431611033395e-06   1.611769307290241e-05
-1.2681481884954746e-05   2.2965132809796053e-06   1.4881041418570297e-05
-1.2681481884954746e-05   2.2965132809796053e-06   1.4881041418570297e-05
-1.2681481884954746e-05   2.2965132809796053e-06   1.4881041418570297e-05
-1.2681481884954746e-05   2.2965132809796053e-06   1.4881041418570297e-05
-1.3781593263347454e-05   4.321814382741312e-06   1.4262703115639408e-05
-1.3781593263347454e-05   4.321814382741312e-06   1.4262703115639408e-05
-1.3781593263347454e-05   4.321814382741312e-06   1.4262703115639408e-05
-1.3781593263347454e-05   4.321814382741312e-06   1.4262703115639408e-05
-1.4131668501433562e-05   1.5591845686270273e-06   1.6009267901020583e-05
-1.4131668501433562e-05   1.5591845686270273e-06   1.6009267901020583e-05
-1.4131668501433562e-05   1.5591845686270273e-06   1.6009267901020583e-05
-1.4131668501433562e-05   1.5591845686270273e-06   1.6009267901020583e-05
-1.4163323693463221e-05   3.37964076209743e-06   1.4969752838321182e-05
-1.4163323693463221e-05   3.37964076209743e-06   1.4969752838321182e-05
-1.4163323693463221e-05   3.37964076209743e-06   1.4969752838321182e-05
-1.4163323693463221e-05   3.37964076209743e-06   1.4969752838321182e-05
-1.3346885227013824e-05   2.702232198566624e-06   1.4015467199024036e-05
-1.3346885227013824e-05   2.702232198566624e-06   1.4015467199024036e-05
-1.3346885227013824e-05   2.702232198566624e-06   1.4015467199024036e-05
-1.3346885227013824e-05   2.702232198566624e-06   1.4015467199024036e-05
-1.4163323693463235e-05   1.5591845686271182e-06   1.4916994184938494e-05
-1.4163323693463235e-05   1.5591845686271182e-06   1.4916994184938494e-05
-1.4163323693463235e-05   1.5591845686271182e-06   1.4916994184938494e-05
-1.4163323693463235e-05   1.5591845686271182e-06   1.4916994184938494e-05
-1.4131668501433562e-05   3.37964076209743e-06   1.606202655440327e-05
-1.4131668501433562e-05   3.37964076209743e-06   1.606202655440327e-05
-1.4131668501433562e-05   3.37964076209743e-06   1.606202655440327e-05
-1.4131668501433562e-05   3.37964076209743e-06   1.606202655440327e-05
-1.458619903523059e-05   1.1522003932964986e-06   1.6529365638783726e-05
-1.458619903523059e-05   1.1522003932964986e-06   1.6529365638783726e-05
-1.458619903523059e-05   1.1522003932964986e-06   1.6529365638783726e-05
-1.458619903523059e-05   1.1522003932964986e-06   1.6529365638783726e-05
-1.560354499070199e-05   2.727077221088576e-06   1.7280016134560753e-05
-1.560354499070199e-05   2.727077221088576e-06   1.7280016134560753e-05
-1.560354499070199e-05   2.727077221088576e-06   1.7280016134560753e-05
-1.560354499070199e-05   2.727077221088576e-06   1.7280016134560753e-05
-1.4229373644071162e-05   2.2954805806224207e-06   1.524868854112242e-05
-1.4229373644071162e-05   2.2954805806224207e-06   1.524868854112242e-05
-1.4229373644071162e-05   2.2954805806224207e-06   1.524868854112242e-05
-1.4229373644071162e-05   2.2954805806224207e-06   1.524868854112242e-05
-1.5603544990701988e-05   1.1522003932964363e-06   1.5584439542108133e-05
-1.5603544990701988e-05   1.1522003932964363e-06   1.5584439542108133e-05
-1.5603544990701988e-05   1.1522003932964363e-06   1.5584439542108133e-05
-1.5603544990701988e-05   1.1522003932964363e-06   1.5584439542108133e-05
-1.458619903523059e-05   2.727077221088576e-06   1.822494223123602e-05
-1.458619903523059e-05   2.727077221088576e-06   1.822494223123602e-05
-1.458619903523059e-05   2.727077221088576e-06   1.822494223123602e-05
-1.458619903523059e-05   2.727077221088576e-06   1.822494223123602e-05
-1.487390919652983e-05   2.879277657952522e-07   1.819086247328524e-05
-1.487390919652983e-05   2.879277657952522e-07   1.819086247328524e-05
-1.487390919652983e-05   2.879277657952522e-07   1.819086247328524e-05
-1.487390919652983e-05   2.879277657952522e-07   1.819086247328524e-05
-1.7136347669759975e-05   1.1213511860937468e-06   2.146153920982267e-05
-1.7136347669759975e-05   1.1213511860937468e-06   2.146153920982267e-05
-1.7136347669759975e-05   1.1213511860937468e-06   2.146153920982267e-05
-1.7136347669759975e-05   1.1213511860937468e-06   2.146153920982267e-05
-1.4843675731002164e-05   1.794718292709007e-06   1.723639904792314e-05
-1.4843675731002164e-05   1.794718292709007e-06   1.723639904792314e-05
-1.4843675731002164e-05   1.794718292709007e-06   1.723639904792314e-05
-1.4843675731002164e-05   1.794718292709007e-06   1.723639904792314e-05
-1.3781593263347454e-05   2.661985200079815e-06   2.9703646602742225e-05
-1.3781593263347454e-05   2.661985200079815e-06   2.9703646602742225e-05
-1.3781593263347454e-05   2.661985200079815e-06   2.9703646602742225e-05
-1.3781593263347454e-05   2.661985200079815e-06   2.9703646602742225e-05
-1.3916466354412166e-05   1.1178549587774088e-06   2.8552379972853034e-05
-1.3916466354412166e-05   1.1178549587774088e-06   2.8552379972853034e-05
-1.3916466354412166e-05   1.1178549587774088e-06   2.8552379972853034e-05
-1.3916466354412166e-05   1.1178549587774088e-06   2.8552379972853034e-05
-1.4022335828881206e-05   1.8379781759581774e-06   2.858066748872895e-05
-1.4022335828881206e-05   1.8379781759581774e-06   2.858066748872895e-05
-1.4022335828881206e-05   1.8379781759581774e-06   2.858066748872895e-05
-1.4022335828881206e-05   1.8379781759581774e-06   2.858066748872895e-05
-1.4131668501433559e-05   5.381272395802144e-07   2.9542799171476252e-05
-1.4131668501433559e-05   5.381272395802144e-07   2.9542799171476252e-05
-1.4131668501433559e-05   5.381272395802144e-07   2.9542799171476252e-05
-1.4131668501433559e-05   5.381272395802144e-07   2.9542799171476252e-05
-1.3919108892008027e-05   1.3617889427124455e-06   2.8694336133887766e-05
-1.3919108892008027e-05   1.3617889427124455e-06   2.8694336133887766e-05
-1.3919108892008027e-05   1.3617889427124455e-06   2.8694336133887766e-05
-1.3919108892008027e-05   1.3617889427124455e-06   2.8694336133887766e-05
-1.4131668501433569e-05   1.8379781759582847e-06   2.9360578050555532e-05
-1.4131668501433569e-05   1.8379781759582847e-06   2.9360578050555532e-05
-1.4131668501433569e-05   1.8379781759582847e-06   2.9360578050555532e-05
-1.4131668501433569e-05   1.8379781759582847e-06   2.9360578050555532e-05
-1.4022335828881206e-05   5.381272395802144e-07   2.8762888609649398e-05
-1.4022335828881206e-05   5.381272395802144e-07   2.8762888609649398e-05
-1.4022335828881206e-05   5.381272395802144e-07   2.8762888609649398e-05
-1.4022335828881206e-05   5.381272395802144e-07   2.8762888609649398e-05
-1.4153969695424094e-05   1.076324346062623e-06   2.8980192692061916e-05
-1.4153969695424094e-05   1.076324346062623e-06   2.8980192692061916e-05
-1.4153969695424094e-05   1.076324346062623e-06   2.8980192692061916e-05
-1.4153969695424094e-05   1.076324346062623e-06   2.8980192692061916e-05
-1.458619903523059e-05   -1.360566486383356e-07   3.0428003521893288e-05
-1.458619903523059e-05   -1.360566486383356e-07   3.0428003521893288e-05
-1.458619903523059e-05   -1.360566486383356e-07   3.0428003521893288e-05
-1.458619903523059e-05   -1.360566486383356e-07   3.0428003521893288e-05
-1.4049347727983882e-05   8.805207665852147e-07   2.892330489401491e-05
-1.4049347727983882e-05   8.805207665852147e-07   2.892330489401491e-05
-1.4049347727983882e-05   8.805207665852147e-07   2.892330489401491e-05
-1.4049347727983882e-05   8.805207665852147e-07   2.892330489401491e-05
-1.458619903523059e-05   1.076324346062533e-06   2.9707621288882014e-05
-1.458619903523059e-05   1.076324346062533e-06   2.9707621288882014e-05
-1.458619903523059e-05   1.076324346062533e-06   2.9707621288882014e-05
-1.458619903523059e-05   1.076324346062533e-06   2.9707621288882014e-05
-1.4153969695424067e-05   -1.360566486383356e-07   2.9700574925072736e-05
-1.4153969695424067e-05   -1.360566486383356e-07   2.9700574925072736e-05
-1.4153969695424067e-05   -1.360566486383356e-07   2.9700574925072736e-05
-1.4153969695424067e-05   -1.360566486383356e-07   2.9700574925072736e-05
-1.4248399013615243e-05   2.500794492002901e-07   2.9821406642163164e-05
-1.4248399013615243e-05   2.500794492002901e-07   2.9821406642163164e-05
-1.4248399013615243e-05   2.500794492002901e-07   2.9821406642163164e-05
-1.4248399013615243e-05   2.500794492002901e-07   2.9821406642163164e-05
-1.4873909196529797e-05   -1.0231896799770815e-06   3.1627885091193595e-05
-1.4873909196529797e-05   -1.0231896799770815e-06   3.1627885091193595e-05
-1.4873909196529797e-05   -1.0231896799770815e-06   3.1627885091193595e-05
-1.4873909196529797e-05   -1.0231896799770815e-06   3.1627885091193595e-05
-1.4257372662923482e-05   3.13783132309918e-07   2.9798140514476426e-05
-1.4257372662923482e-05   3.13783132309918e-07   2.9798140514476426e-05
-1.4257372662923482e-05   3.13783132309918e-07   2.9798140514476426e-05
-1.4257372662923482e-05   3.13783132309918e-07   2.9798140514476426e-05
-1.3916466354412194e-05   3.185512664851936e-06   3.276995626477557e-05
-1.3916466354412194e-05   3.185512664851936e-06   3.276995626477557e-05
-1.3916466354412194e-05   3.185512664851936e-06   3.276995626477557e-05
-1.3916466354412194e-05   3.185512664851936e-06   3.276995626477557e-05
-1.4944063805174114e-05   3.0986951860543285e-07   2.9331907959091004e-05
-1.4944063805174114e-05   3.0986951860543285e-07   2.9331907959091004e-05
-1.4944063805174114e-05   3.0986951860543285e-07   2.9331907959091004e-05
-1.4944063805174114e-05   3.0986951860543285e-07   2.9331907959091004e-05
-1.4977233485949436e-05   2.421099744291666e-06   3.1093095872000926e-05
-1.4977233485949436e-05   2.421099744291666e-06   3.1093095872000926e-05
-1.4977233485949436e-05   2.421099744291666e-06   3.1093095872000926e-05
-1.4977233485949436e-05   2.421099744291666e-06   3.1093095872000926e-05
-1.4022335828881214e-05   -1.8103626733660411e-07   3.106288138386427e-05
-1.4022335828881214e-05   -1.8103626733660411e-07   3.106288138386427e-05
-1.4022335828881214e-05   -1.8103626733660411e-07   3.106288138386427e-05
-1.4022335828881214e-05   -1.8103626733660411e-07   3.106288138386427e-05
-1.4439717611044144e-05   1.3861105741023137e-06   3.0818229582605804e-05
-1.4439717611044144e-05   1.3861105741023137e-06   3.0818229582605804e-05
-1.4439717611044144e-05   1.3861105741023137e-06   3.0818229582605804e-05
-1.4439717611044144e-05   1.3861105741023137e-06   3.0818229582605804e-05
-1.4022335828881206e-05   2.421099744291659e-06   3.265437747897789e-05
-1.4022335828881206e-05   2.421099744291659e-06   3.265437747897789e-05
-1.4022335828881206e-05   2.421099744291659e-06   3.265437747897789e-05
-1.4022335828881206e-05   2.421099744291659e-06   3.265437747897789e-05
-1.4977233485949436e-05   -1.8103626733660411e-07   2.9501599776887228e-05
-1.4977233485949436e-05   -1.8103626733660411e-07   2.9501599776887228e-05
-1.4977233485949436e-05   -1.8103626733660411e-07   2.9501599776887228e-05
-1.4977233485949436e-05   -1.8103626733660411e-07   2.9501599776887228e-05
-1.5040299140324292e-05   1.6441063633617758e-06   3.1584396162793625e-05
-1.5040299140324292e-05   1.6441063633617758e-06   3.1584396162793625e-05
-1.5040299140324292e-05   1.6441063633617758e-06   3.1584396162793625e-05
-1.5040299140324292e-05   1.6441063633617758e-06   3.1584396162793625e-05
-1.4153969695424074e-05   -7.689717411461577e-07   3.1555027283997875e-05
-1.4153969695424074e-05   -7.689717411461577e-07   3.1555027283997875e-05
-1.4153969695424074e-05   -7.689717411461577e-07   3.1555027283997875e-05
-1.4153969695424074e-05   -7.689717411461577e-07   3.1555027283997875e-05
-1.4444344011201706e-05   8.993589753366043e-07   3.103798604707096e-05
-1.4444344011201706e-05   8.993589753366043e-07   3.103798604707096e-05
-1.4444344011201706e-05   8.993589753366043e-07   3.103798604707096e-05
-1.4444344011201706e-05   8.993589753366043e-07   3.103798604707096e-05
-1.4153969695424067e-05   1.6441063633617313e-06   3.303224302549784e-05
-1.4153969695424067e-05   1.6441063633617313e-06   3.303224302549784e-05
-1.4153969695424067e-05   1.6441063633617313e-06   3.303224302549784e-05
-1.4153969695424067e-05   1.6441063633617313e-06   3.303224302549784e-05
-1.5040299140324292e-05   -7.689717411461577e-07   3.0107180421293087e-05
-1.5040299140324292e-05   -7.689717411461577e-07   3.0107180421293087e-05
-1.5040299140324292e-05   -7.689717411461577e-07   3.0107180421293087e-05
-1.5040299140324292e-05   -7.689717411461577e-07   3.0107180421293087e-05
-1.5079270093366003e-05   9.071140805736247e-07   3.245945648460108e-05
-1.5079270093366003e-05   9.071140805736247e-07   3.245945648460108e-05
-1.5079270093366003e-05   9.071140805736247e-07   3.245945648460108e-05
-1.5079270093366003e-05   9.071140805736247e-07   3.245945648460108e-05
-1.4248399013615241e-05   -1.3601069855670531e-06   3.243500399136717e-05
-1.4248399013615241e-05   -1.3601069855670531e-06   3.243500399136717e-05
-1.4248399013615241e-05   -1.3601069855670531e-06   3.243500399136717e-05
-1.4248399013615241e-05   -1.3601069855670531e-06   3.243500399136717e-05
-1.4472793888289866e-05   3.9877142092624787e-07   3.175366840526075e-05
-1.4472793888289866e-05   3.9877142092624787e-07   3.175366840526075e-05
-1.4472793888289866e-05   3.9877142092624787e-07   3.175366840526075e-05
-1.4472793888289866e-05   3.9877142092624787e-07   3.175366840526075e-05
-1.4944063805174114e-05   4.30213724336877e-06   2.6679653144575472e-05
-1.4944063805174114e-05   4.30213724336877e-06   2.6679653144575472e-05
-1.4944063805174114e-05   4.30213724336877e-06   2.6679653144575472e-05
-1.4944063805174114e-05   4.30213724336877e-06   2.6679653144575472e-05
-1.6447563118442718e-05   1.4106618344368388e-06   2.2438935710435354e-05
-1.6447563118442718e-05   1.4106618344368388e-06   2.2438935710435354e-05
-1.6447563118442718e-05   1.4106618344368388e-06   2.2438935710435354e-05
-1.6447563118442718e-05   1.4106618344368388e-06   2.2438935710435354e-05
-1.6470983977022078e-05   3.4978120809245165e-06   2.519340524146773e-05
-1.6470983977022078e-05   3.4978120809245165e-06   2.519340524146773e-05
-1.6470983977022078e-05   3.4978120809245165e-06   2.519340524146773e-05
-1.6470983977022078e-05   3.4978120809245165e-06   2.519340524146773e-05
-1.497723348594942e-05   7.643176233829933e-07   2.434391776420504e-05
-1.497723348594942e-05   7.643176233829933e-07   2.434391776420504e-05
-1.497723348594942e-05   7.643176233829933e-07   2.434391776420504e-05
-1.497723348594942e-05   7.643176233829933e-07   2.434391776420504e-05
-1.5668794599028292e-05   2.5538533760295374e-06   2.442279816774833e-05
-1.5668794599028292e-05   2.5538533760295374e-06   2.442279816774833e-05
-1.5668794599028292e-05   2.5538533760295374e-06   2.442279816774833e-05
-1.5668794599028292e-05   2.5538533760295374e-06   2.442279816774833e-05
-1.4977233485949436e-05   3.4978120809247105e-06   2.6833501915992796e-05
-1.4977233485949436e-05   3.4978120809247105e-06   2.6833501915992796e-05
-1.4977233485949436e-05   3.4978120809247105e-06   2.6833501915992796e-05
-1.4977233485949436e-05   3.4978120809247105e-06   2.6833501915992796e-05
-1.6470983977022078e-05   7.643176233831017e-07   2.2703821089680083e-05
-1.6470983977022078e-05   7.643176233831017e-07   2.2703821089680083e-05
-1.6470983977022078e-05   7.643176233831017e-07   2.2703821089680083e-05
-1.6470983977022078e-05   7.643176233831017e-07   2.2703821089680083e-05
-1.664667193821247e-05   2.7826828032477546e-06   2.6129021636038833e-05
-1.664667193821247e-05   2.7826828032477546e-06   2.6129021636038833e-05
-1.664667193821247e-05   2.7826828032477546e-06   2.6129021636038833e-05
-1.664667193821247e-05   2.7826828032477546e-06   2.6129021636038833e-05
-1.5040299140324314e-05   2.1110435540221042e-07   2.4994680708265984e-05
-1.5040299140324314e-05   2.1110435540221042e-07   2.4994680708265984e-05
-1.5040299140324314e-05   2.1110435540221042e-07   2.4994680708265984e-05
-1.5040299140324314e-05   2.1110435540221042e-07   2.4994680708265984e-05
-1.5620829289291608e-05   2.022282145487707e-06   2.4875524282493553e-05
-1.5620829289291608e-05   2.022282145487707e-06   2.4875524282493553e-05
-1.5620829289291608e-05   2.022282145487707e-06   2.4875524282493553e-05
-1.5620829289291608e-05   2.022282145487707e-06   2.4875524282493553e-05
-1.5040299140324292e-05   2.7826828032477136e-06   2.7671968704745704e-05
-1.5040299140324292e-05   2.7826828032477136e-06   2.7671968704745704e-05
-1.5040299140324292e-05   2.7826828032477136e-06   2.7671968704745704e-05
-1.5040299140324292e-05   2.7826828032477136e-06   2.7671968704745704e-05
-1.664667193821247e-05   2.11104355402102e-07   2.3451733639558727e-05
-1.664667193821247e-05   2.11104355402102e-07   2.3451733639558727e-05
-1.664667193821247e-05   2.11104355402102e-07   2.3451733639558727e-05
-1.664667193821247e-05   2.11104355402102e-07   2.3451733639558727e-05
-1.6750427720981897e-05   2.054631779004794e-06   2.7292410677951006e-05
-1.6750427720981897e-05   2.054631779004794e-06   2.7292410677951006e-05
-1.6750427720981897e-05   2.054631779004794e-06   2.7292410677951006e-05
-1.6750427720981897e-05   2.054631779004794e-06   2.7292410677951006e-05
-1.5079270093366012e-05   -3.464134797407075e-07   2.5947775120504905e-05
-1.5079270093366012e-05   -3.464134797407075e-07   2.5947775120504905e-05
-1.5079270093366012e-05   -3.464134797407075e-07   2.5947775120504905e-05
-1.5079270093366012e-05   -3.464134797407075e-07   2.5947775120504905e-05
-1.5695734782554525e-05   1.5478349129659837e-06   2.5838667233526492e-05
-1.5695734782554525e-05   1.5478349129659837e-06   2.5838667233526492e-05
-1.5695734782554525e-05   1.5478349129659837e-06   2.5838667233526492e-05
-1.5695734782554525e-05   1.5478349129659837e-06   2.5838667233526492e-05
-1.6447563118442718e-05   5.0752701025052845e-06   1.0235160225791659e-05
-1.6447563118442718e-05   5.0752701025052845e-06   1.0235160225791659e-05
-1.6447563118442718e-05   5.0752701025052845e-06   1.0235160225791659e-05
-1.6447563118442718e-05   5.0752701025052845e-06   1.0235160225791659e-05
-1.619366720719223e-05   2.319095869854457e-06   9.00461553828523e-06
-1.619366720719223e-05   2.319095869854457e-06   9.00461553828523e-06
-1.619366720719223e-05   2.319095869854457e-06   9.00461553828523e-06
-1.619366720719223e-05   2.319095869854457e-06   9.00461553828523e-06
-1.7026130611649164e-05   4.539935033027803e-06   1.1211419044362915e-05
-1.7026130611649164e-05   4.539935033027803e-06   1.1211419044362915e-05
-1.7026130611649164e-05   4.539935033027803e-06   1.1211419044362915e-05
-1.7026130611649164e-05   4.539935033027803e-06   1.1211419044362915e-05
-1.6470983977022085e-05   1.8624303271479832e-06   1.1892677476845674e-05
-1.6470983977022085e-05   1.8624303271479832e-06   1.1892677476845674e-05
-1.6470983977022085e-05   1.8624303271479832e-06   1.1892677476845674e-05
-1.6470983977022085e-05   1.8624303271479832e-06   1.1892677476845674e-05
-1.599788028302177e-05   3.5684666331754766e-06   1.0080549536561857e-05
-1.599788028302177e-05   3.5684666331754766e-06   1.0080549536561857e-05
-1.599788028302177e-05   3.5684666331754766e-06   1.0080549536561857e-05
-1.599788028302177e-05   3.5684666331754766e-06   1.0080549536561857e-05
-1.6470983977022078e-05   4.539935033027698e-06   1.2817921867890546e-05
-1.6470983977022078e-05   4.539935033027698e-06   1.2817921867890546e-05
-1.6470983977022078e-05   4.539935033027698e-06   1.2817921867890546e-05
-1.6470983977022078e-05   4.539935033027698e-06   1.2817921867890546e-05
-1.7026130611649164e-05   1.8624303271479832e-06   1.0286174653317609e-05
-1.7026130611649164e-05   1.8624303271479832e-06   1.0286174653317609e-05
-1.7026130611649164e-05   1.8624303271479832e-06   1.0286174653317609e-05
-1.7026130611649164e-05   1.8624303271479832e-06   1.0286174653317609e-05
-1.7757489858213427e-05   4.1727147256482265e-06   1.3299007541875798e-05
-1.7757489858213427e-05   4.1727147256482265e-06   1.3299007541875798e-05
-1.7757489858213427e-05   4.1727147256482265e-06   1.3299007541875798e-05
-1.7757489858213427e-05   4.1727147256482265e-06   1.3299007541875798e-05
-1.6646671938212383e-05   1.563638717924469e-06   1.3013089946508553e-05
-1.6646671938212383e-05   1.563638717924469e-06   1.3013089946508553e-05
-1.6646671938212383e-05   1.563638717924469e-06   1.3013089946508553e-05
-1.6646671938212383e-05   1.563638717924469e-06   1.3013089946508553e-05
-1.658983902961362e-05   3.3005688076482523e-06   1.187621037834351e-05
-1.658983902961362e-05   3.3005688076482523e-06   1.187621037834351e-05
-1.658983902961362e-05   3.3005688076482523e-06   1.187621037834351e-05
-1.658983902961362e-05   3.3005688076482523e-06   1.187621037834351e-05
-1.6646671938212417e-05   4.172714725648277e-06   1.4864453146509857e-05
-1.6646671938212417e-05   4.172714725648277e-06   1.4864453146509857e-05
-1.6646671938212417e-05   4.172714725648277e-06   1.4864453146509857e-05
-1.6646671938212417e-05   4.172714725648277e-06   1.4864453146509857e-05
-1.7757489858213535e-05   1.563638717924469e-06   1.1447644341874223e-05
-1.7757489858213535e-05   1.563638717924469e-06   1.1447644341874223e-05
-1.7757489858213535e-05   1.563638717924469e-06   1.1447644341874223e-05
-1.7757489858213535e-05   1.563638717924469e-06   1.1447644341874223e-05
-1.8847971721841126e-05   3.3316049056686045e-06   1.7134535161853447e-05
-1.8847971721841126e-05   3.3316049056686045e-06   1.7134535161853447e-05
-1.8847971721841126e-05   3.3316049056686045e-06   1.7134535161853447e-05
-1.8847971721841126e-05   3.3316049056686045e-06   1.7134535161853447e-05
-1.675042772098185e-05   9.64875929358993e-07   1.5058665879539852e-05
-1.675042772098185e-05   9.64875929358993e-07   1.5058665879539852e-05
-1.675042772098185e-05   9.64875929358993e-07   1.5058665879539852e-05
-1.675042772098185e-05   9.64875929358993e-07   1.5058665879539852e-05
-1.678967407416346e-05   2.9837621732661454e-06   1.391274472182884e-05
-1.678967407416346e-05   2.9837621732661454e-06   1.391274472182884e-05
-1.678967407416346e-05   2.9837621732661454e-06   1.391274472182884e-05
-1.678967407416346e-05   2.9837621732661454e-06   1.391274472182884e-05
-3.264625115345715e-05   4.321814382741294e-06   1.2415059827764049e-05
-3.264625115345715e-05   4.321814382741294e-06   1.2415059827764049e-05
-3.264625115345715e-05   4.321814382741294e-06   1.2415059827764049e-05
-3.264625115345715e-05   4.321814382741294e-06   1.2415059827764049e-05
-2.199559045101938e-05   5.98979691699954e-06   3.116695051904862e-05
-2.199559045101938e-05   5.98979691699954e-06   3.116695051904862e-05
-2.199559045101938e-05   5.98979691699954e-06   3.116695051904862e-05
-2.199559045101938e-05   5.98979691699954e-06   3.116695051904862e-05
-2.198194822899051e-05   3.37964076209743e-06   1.4145137542176129e-05
-2.198194822899051e-05   3.37964076209743e-06   1.4145137542176129e-05
-2.198194822899051e-05   3.37964076209743e-06   1.4145137542176129e-05
-2.198194822899051e-05   3.37964076209743e-06   1.4145137542176129e-05
-3.5934876867329695e-05   2.449313509517029e-06   3.795821495762298e-05
-3.5934876867329695e-05   2.449313509517029e-06   3.795821495762298e-05
-3.5934876867329695e-05   2.449313509517029e-06   3.795821495762298e-05
-3.5934876867329695e-05   2.449313509517029e-06   3.795821495762298e-05
-2.6688526439832346e-05   3.5547555250085633e-06   2.1884365702499146e-05
-2.6688526439832346e-05   3.5547555250085633e-06   2.1884365702499146e-05
-2.6688526439832346e-05   3.5547555250085633e-06   2.1884365702499146e-05
-2.6688526439832346e-05   3.5547555250085633e-06   2.1884365702499146e-05
-3.593487686732975e-05   3.379640762097426e-06   1.470333389372411e-05
-3.593487686732975e-05   3.379640762097426e-06   1.470333389372411e-05
-3.593487686732975e-05   3.379640762097426e-06   1.470333389372411e-05
-3.593487686732975e-05   3.379640762097426e-06   1.470333389372411e-05
-2.1981948228990463e-05   2.449313509517029e-06   3.740001860607484e-05
-2.1981948228990463e-05   2.449313509517029e-06   3.740001860607484e-05
-2.1981948228990463e-05   2.449313509517029e-06   3.740001860607484e-05
-2.1981948228990463e-05   2.449313509517029e-06   3.740001860607484e-05
-2.227386658521361e-05   2.727077221088576e-06   1.584179095704037e-05
-2.227386658521361e-05   2.727077221088576e-06   1.584179095704037e-05
-2.227386658521361e-05   2.727077221088576e-06   1.584179095704037e-05
-2.227386658521361e-05   2.727077221088576e-06   1.584179095704037e-05
-3.6054145373580175e-05   1.7656735328059519e-06   3.93857644839542e-05
-3.6054145373580175e-05   1.7656735328059519e-06   3.93857644839542e-05
-3.6054145373580175e-05   1.7656735328059519e-06   3.93857644839542e-05
-3.6054145373580175e-05   1.7656735328059519e-06   3.93857644839542e-05
-2.8466138624275045e-05   2.2292034832544112e-06   2.6460968598176404e-05
-2.8466138624275045e-05   2.2292034832544112e-06   2.6460968598176404e-05
-2.8466138624275045e-05   2.2292034832544112e-06   2.6460968598176404e-05
-2.8466138624275045e-05   2.2292034832544112e-06   2.6460968598176404e-05
-3.605414537358024e-05   2.7270772210885014e-06   1.6418633170010052e-05
-3.605414537358024e-05   2.7270772210885014e-06   1.6418633170010052e-05
-3.605414537358024e-05   2.7270772210885014e-06   1.6418633170010052e-05
-3.605414537358024e-05   2.7270772210885014e-06   1.6418633170010052e-05
-2.2273866585213563e-05   1.7656735328059519e-06   3.880892227098472e-05
-2.2273866585213563e-05   1.7656735328059519e-06   3.880892227098472e-05
-2.2273866585213563e-05   1.7656735328059519e-06   3.880892227098472e-05
-2.2273866585213563e-05   1.7656735328059519e-06   3.880892227098472e-05
-2.2028272134586356e-05   1.1213511860937468e-06   1.8810941533182655e-05
-2.2028272134586356e-05   1.1213511860937468e-06   1.8810941533182655e-05
-2.2028272134586356e-05   1.1213511860937468e-06   1.8810941533182655e-05
-2.2028272134586356e-05   1.1213511860937468e-06   1.8810941533182655e-05
-3.6431923286834035e-05   -1.1368060341696907e-06   4.417192111908675e-05
-3.6431923286834035e-05   -1.1368060341696907e-06   4.417192111908675e-05
-3.6431923286834035e-05   -1.1368060341696907e-06   4.417192111908675e-05
-3.6431923286834035e-05   -1.1368060341696907e-06   4.417192111908675e-05
-2.8023611132590178e-05   1.0911444465319317e-06   2.8821297240259377e-05
-2.8023611132590178e-05   1.0911444465319317e-06   2.8821297240259377e-05
-2.8023611132590178e-05   1.0911444465319317e-06   2.8821297240259377e-05
-2.8023611132590178e-05   1.0911444465319317e-06   2.8821297240259377e-05
-2.1995590451019412e-05   1.1178549587774109e-06   2.863200435031406e-05
-2.1995590451019412e-05   1.1178549587774109e-06   2.863200435031406e-05
-2.1995590451019412e-05   1.1178549587774109e-06   2.863200435031406e-05
-2.1995590451019412e-05   1.1178549587774109e-06   2.863200435031406e-05
-1.347494570766081e-05   -6.690439499401233e-06   3.814810224767116e-05
-1.347494570766081e-05   -6.690439499401233e-06   3.814810224767116e-05
-1.347494570766081e-05   -6.690439499401233e-06   3.814810224767116e-05
-1.347494570766081e-05   -6.690439499401233e-06   3.814810224767116e-05
-1.3497242287682928e-05   5.381272395802144e-07   2.4019649041550663e-05
-1.3497242287682928e-05   5.381272395802144e-07   2.4019649041550663e-05
-1.3497242287682928e-05   5.381272395802144e-07   2.4019649041550663e-05
-1.3497242287682928e-05   5.381272395802144e-07   2.4019649041550663e-05
-2.1981948228990467e-05   -5.472307956583592e-06   4.176708672809494e-05
-2.1981948228990467e-05   -5.472307956583592e-06   4.176708672809494e-05
-2.1981948228990467e-05   -5.472307956583592e-06   4.176708672809494e-05
-2.1981948228990467e-05   -5.472307956583592e-06   4.176708672809494e-05
-1.7641457833436293e-05   -3.307189813442986e-06   3.3233865182953626e-05
-1.7641457833436293e-05   -3.307189813442986e-06   3.3233865182953626e-05
-1.7641457833436293e-05   -3.307189813442986e-06   3.3233865182953626e-05
-1.7641457833436293e-05   -3.307189813442986e-06   3.3233865182953626e-05
-2.198194822899049e-05   5.381272395802543e-07   2.7625910159248513e-05
-2.198194822899049e-05   5.381272395802543e-07   2.7625910159248513e-05
-2.198194822899049e-05   5.381272395802543e-07   2.7625910159248513e-05
-2.198194822899049e-05   5.381272395802543e-07   2.7625910159248513e-05
-1.34972422876829e-05   -5.472307956583592e-06   3.816082561039667e-05
-1.34972422876829e-05   -5.472307956583592e-06   3.816082561039667e-05
-1.34972422876829e-05   -5.472307956583592e-06   3.816082561039667e-05
-1.34972422876829e-05   -5.472307956583592e-06   3.816082561039667e-05
-1.354316107936331e-05   -1.360566486383356e-07   2.476743667464878e-05
-1.354316107936331e-05   -1.360566486383356e-07   2.476743667464878e-05
-1.354316107936331e-05   -1.360566486383356e-07   2.476743667464878e-05
-1.354316107936331e-05   -1.360566486383356e-07   2.476743667464878e-05
-2.2273866585213563e-05   -5.598415937052863e-06   4.259602809078141e-05
-2.2273866585213563e-05   -5.598415937052863e-06   4.259602809078141e-05
-2.2273866585213563e-05   -5.598415937052863e-06   4.259602809078141e-05
-2.2273866585213563e-05   -5.598415937052863e-06   4.259602809078141e-05
-1.750763495010487e-05   -2.889136230784851e-06   3.302674087517262e-05
-1.750763495010487e-05   -2.889136230784851e-06   3.302674087517262e-05
-1.750763495010487e-05   -2.889136230784851e-06   3.302674087517262e-05
-1.750763495010487e-05   -2.889136230784851e-06   3.302674087517262e-05
-2.227386658521361e-05   -1.3605664863840313e-07   2.8044852247697725e-05
-2.227386658521361e-05   -1.3605664863840313e-07   2.8044852247697725e-05
-2.227386658521361e-05   -1.3605664863840313e-07   2.8044852247697725e-05
-2.227386658521361e-05   -1.3605664863840313e-07   2.8044852247697725e-05
-1.3543161079363283e-05   -5.598415937052863e-06   3.9318612517732625e-05
-1.3543161079363283e-05   -5.598415937052863e-06   3.9318612517732625e-05
-1.3543161079363283e-05   -5.598415937052863e-06   3.9318612517732625e-05
-1.3543161079363283e-05   -5.598415937052863e-06   3.9318612517732625e-05
-1.3402447674807142e-05   -1.0231896799770815e-06   2.5698232824274288e-05
-1.3402447674807142e-05   -1.0231896799770815e-06   2.5698232824274288e-05
-1.3402447674807142e-05   -1.0231896799770815e-06   2.5698232824274288e-05
-1.3402447674807142e-05   -1.0231896799770815e-06   2.5698232824274288e-05
-2.20282721345863e-05   -5.6548572434772775e-06   4.28536074620062e-05
-2.20282721345863e-05   -5.6548572434772775e-06   4.28536074620062e-05
-2.20282721345863e-05   -5.6548572434772775e-06   4.28536074620062e-05
-2.20282721345863e-05   -5.6548572434772775e-06   4.28536074620062e-05
-1.758159034695689e-05   -3.2478248589757784e-06   3.399825171858969e-05
-1.758159034695689e-05   -3.2478248589757784e-06   3.399825171858969e-05
-1.758159034695689e-05   -3.2478248589757784e-06   3.399825171858969e-05
-1.758159034695689e-05   -3.2478248589757784e-06   3.399825171858969e-05
-1.347494570766081e-05   3.098695186054568e-07   2.645194154939274e-05
-1.347494570766081e-05   3.098695186054568e-07   2.645194154939274e-05
-1.347494570766081e-05   3.098695186054568e-07   2.645194154939274e-05
-1.347494570766081e-05   3.098695186054568e-07   2.645194154939274e-05
-9.891684684522882e-06   -5.225882392797859e-06   2.9102592107780673e-05
-9.891684684522882e-06   -5.225882392797859e-06   2.9102592107780673e-05
-9.891684684522882e-06   -5.225882392797859e-06   2.9102592107780673e-05
-9.891684684522882e-06   -5.225882392797859e-06   2.9102592107780673e-05
-9.797918017645491e-06   -1.8103626733660411e-07   2.3348824403407594e-05
-9.797918017645491e-06   -1.8103626733660411e-07   2.3348824403407594e-05
-9.797918017645491e-06   -1.8103626733660411e-07   2.3348824403407594e-05
-9.797918017645491e-06   -1.8103626733660411e-07   2.3348824403407594e-05
-1.3497242287682889e-05   -5.132398621266344e-06   3.248518226582777e-05
-1.3497242287682889e-05   -5.132398621266344e-06   3.248518226582777e-05
-1.3497242287682889e-05   -5.132398621266344e-06   3.248518226582777e-05
-1.3497242287682889e-05   -5.132398621266344e-06   3.248518226582777e-05
-1.1592949656669629e-05   -2.6422982348629862e-06   2.7817300982296996e-05
-1.1592949656669629e-05   -2.6422982348629862e-06   2.7817300982296996e-05
-1.1592949656669629e-05   -2.6422982348629862e-06   2.7817300982296996e-05
-1.1592949656669629e-05   -2.6422982348629862e-06   2.7817300982296996e-05
-1.34972422876829e-05   -1.8103626733657926e-07   2.6319641815765156e-05
-1.34972422876829e-05   -1.8103626733657926e-07   2.6319641815765156e-05
-1.34972422876829e-05   -1.8103626733657926e-07   2.6319641815765156e-05
-1.34972422876829e-05   -1.8103626733657926e-07   2.6319641815765156e-05
-9.797918017645491e-06   -5.132398621266344e-06   2.951436485346994e-05
-9.797918017645491e-06   -5.132398621266344e-06   2.951436485346994e-05
-9.797918017645491e-06   -5.132398621266344e-06   2.951436485346994e-05
-9.797918017645491e-06   -5.132398621266344e-06   2.951436485346994e-05
-9.71567157917805e-06   -7.689717411460493e-07   2.3909111292190325e-05
-9.71567157917805e-06   -7.689717411460493e-07   2.3909111292190325e-05
-9.71567157917805e-06   -7.689717411460493e-07   2.3909111292190325e-05
-9.71567157917805e-06   -7.689717411460493e-07   2.3909111292190325e-05
-1.3543161079363271e-05   -5.290267976785536e-06   3.3001038200549445e-05
-1.3543161079363271e-05   -5.290267976785536e-06   3.3001038200549445e-05
-1.3543161079363271e-05   -5.290267976785536e-06   3.3001038200549445e-05
-1.3543161079363271e-05   -5.290267976785536e-06   3.3001038200549445e-05
-1.148519935394542e-05   -2.8206060502347944e-06   2.8089304835588922e-05
-1.148519935394542e-05   -2.8206060502347944e-06   2.8089304835588922e-05
-1.148519935394542e-05   -2.8206060502347944e-06   2.8089304835588922e-05
-1.148519935394542e-05   -2.8206060502347944e-06   2.8089304835588922e-05
-1.3543161079363283e-05   -7.689717411460648e-07   2.662188903357419e-05
-1.3543161079363283e-05   -7.689717411460648e-07   2.662188903357419e-05
-1.3543161079363283e-05   -7.689717411460648e-07   2.662188903357419e-05
-1.3543161079363283e-05   -7.689717411460648e-07   2.662188903357419e-05
-9.71567157917805e-06   -5.290267976785536e-06   3.0288260459165824e-05
-9.71567157917805e-06   -5.290267976785536e-06   3.0288260459165824e-05
-9.71567157917805e-06   -5.290267976785536e-06   3.0288260459165824e-05
-9.71567157917805e-06   -5.290267976785536e-06   3.0288260459165824e-05
-9.517608234641103e-06   -1.3601069855670531e-06   2.477589658440502e-05
-9.517608234641103e-06   -1.3601069855670531e-06   2.477589658440502e-05
-9.517608234641103e-06   -1.3601069855670531e-06   2.477589658440502e-05
-9.517608234641103e-06   -1.3601069855670531e-06   2.477589658440502e-05
-1.3402447674807125e-05   -5.5158013481491235e-06   3.37440456022307e-05
-1.3402447674807125e-05   -5.5158013481491235e-06   3.37440456022307e-05
-1.3402447674807125e-05   -5.5158013481491235e-06   3.37440456022307e-05
-1.3402447674807125e-05   -5.5158013481491235e-06   3.37440456022307e-05
-1.1358829468322302e-05   -3.0794085951083927e-06   2.8876179606265027e-05
-1.1358829468322302e-05   -3.0794085951083927e-06   2.8876179606265027e-05
-1.1358829468322302e-05   -3.0794085951083927e-06   2.8876179606265027e-05
-1.1358829468322302e-05   -3.0794085951083927e-06   2.8876179606265027e-05
-9.891684684522882e-06   1.410661834436885e-06   1.797240339925421e-05
-9.891684684522882e-06   1.410661834436885e-06   1.797240339925421e-05
-9.891684684522882e-06   1.410661834436885e-06   1.797240339925421e-05
-9.891684684522882e-06   1.410661834436885e-06   1.797240339925421e-05
-8.221538818667623e-06   -2.142159469156312e-06   1.8624287060190414e-05
-8.221538818667623e-06   -2.142159469156312e-06   1.8624287060190414e-05
-8.221538818667623e-06   -2.142159469156312e-06   1.8624287060190414e-05
-8.221538818667623e-06   -2.142159469156312e-06   1.8624287060190414e-05
-8.038748236184525e-06   7.643176233829933e-07   1.622675687700556e-05
-8.038748236184525e-06   7.643176233829933e-07   1.622675687700556e-05
-8.038748236184525e-06   7.643176233829933e-07   1.622675687700556e-05
-8.038748236184525e-06   7.643176233829933e-07   1.622675687700556e-05
-9.797918017645477e-06   -2.509658232816383e-06   2.1123092026493692e-05
-9.797918017645477e-06   -2.509658232816383e-06   2.1123092026493692e-05
-9.797918017645477e-06   -2.509658232816383e-06   2.1123092026493692e-05
-9.797918017645477e-06   -2.509658232816383e-06   2.1123092026493692e-05
-8.921612757185934e-06   -4.883371039855538e-07   1.8449790581762408e-05
-8.921612757185934e-06   -4.883371039855538e-07   1.8449790581762408e-05
-8.921612757185934e-06   -4.883371039855538e-07   1.8449790581762408e-05
-8.921612757185934e-06   -4.883371039855538e-07   1.8449790581762408e-05
-9.797918017645491e-06   7.643176233830322e-07   1.8191142390725054e-05
-9.797918017645491e-06   7.643176233830322e-07   1.8191142390725054e-05
-9.797918017645491e-06   7.643176233830322e-07   1.8191142390725054e-05
-9.797918017645491e-06   7.643176233830322e-07   1.8191142390725054e-05
-8.038748236184525e-06   -2.509658232816383e-06   1.915870651277398e-05
-8.038748236184525e-06   -2.509658232816383e-06   1.915870651277398e-05
-8.038748236184525e-06   -2.509658232816383e-06   1.915870651277398e-05
-8.038748236184525e-06   -2.509658232816383e-06   1.915870651277398e-05
-7.952821996986409e-06   2.11104355402102e-07   1.6995662872045566e-05
-7.952821996986409e-06   2.11104355402102e-07   1.6995662872045566e-05
-7.952821996986409e-06   2.11104355402102e-07   1.6995662872045566e-05
-7.952821996986409e-06   2.11104355402102e-07   1.6995662872045566e-05
-9.715671579178032e-06   -2.7904768231270627e-06   2.1734694216149226e-05
-9.715671579178032e-06   -2.7904768231270627e-06   2.1734694216149226e-05
-9.715671579178032e-06   -2.7904768231270627e-06   2.1734694216149226e-05
-9.715671579178032e-06   -2.7904768231270627e-06   2.1734694216149226e-05
-8.740557737934368e-06   -8.830004689007681e-07   1.8965018668206757e-05
-8.740557737934368e-06   -8.830004689007681e-07   1.8965018668206757e-05
-8.740557737934368e-06   -8.830004689007681e-07   1.8965018668206757e-05
-8.740557737934368e-06   -8.830004689007681e-07   1.8965018668206757e-05
-9.71567157917805e-06   2.111043554022009e-07   1.8796611579163466e-05
-9.71567157917805e-06   2.111043554022009e-07   1.8796611579163466e-05
-9.71567157917805e-06   2.111043554022009e-07   1.8796611579163466e-05
-9.71567157917805e-06   2.111043554022009e-07   1.8796611579163466e-05
-7.952821996986409e-06   -2.7904768231270627e-06   1.993374550903176e-05
-7.952821996986409e-06   -2.7904768231270627e-06   1.993374550903176e-05
-7.952821996986409e-06   -2.7904768231270627e-06   1.993374550903176e-05
-7.952821996986409e-06   -2.7904768231270627e-06   1.993374550903176e-05
-7.814823329587751e-06   -3.464134797408159e-07   1.79612741835779e-05
-7.814823329587751e-06   -3.464134797408159e-07   1.79612741835779e-05
-7.814823329587751e-06   -3.464134797408159e-07   1.79612741835779e-05
-7.814823329587751e-06   -3.464134797408159e-07   1.79612741835779e-05
-9.517608234641105e-06   -3.1592904291561762e-06   2.2486975194982656e-05
-9.517608234641105e-06   -3.1592904291561762e-06   2.2486975194982656e-05
-9.517608234641105e-06   -3.1592904291561762e-06   2.2486975194982656e-05
-9.517608234641105e-06   -3.1592904291561762e-06   2.2486975194982656e-05
-8.598011221148205e-06   -1.2283141508091355e-06   1.9795727738819587e-05
-8.598011221148205e-06   -1.2283141508091355e-06   1.9795727738819587e-05
-8.598011221148205e-06   -1.2283141508091355e-06   1.9795727738819587e-05
-8.598011221148205e-06   -1.2283141508091355e-06   1.9795727738819587e-05
-8.221538818667623e-06   2.319095869854475e-06   4.060094984538747e-06
-8.221538818667623e-06   2.319095869854475e-06   4.060094984538747e-06
-8.221538818667623e-06   2.319095869854475e-06   4.060094984538747e-06
-8.221538818667623e-06   2.319095869854475e-06   4.060094984538747e-06
-4.715205096840415e-06   -2.433124866343104e-07   8.366539507024336e-06
-4.715205096840415e-06   -2.433124866343104e-07   8.366539507024336e-06
-4.715205096840415e-06   -2.433124866343104e-07   8.366539507024336e-06
-4.715205096840415e-06   -2.433124866343104e-07   8.366539507024336e-06
-4.9781561912545834e-06   1.8624303271479832e-06   4.095516950403675e-06
-4.9781561912545834e-06   1.8624303271479832e-06   4.095516950403675e-06
-4.9781561912545834e-06   1.8624303271479832e-06   4.095516950403675e-06
-4.9781561912545834e-06   1.8624303271479832e-06   4.095516950403675e-06
-8.03874823618449e-06   -3.3773019579797165e-07   1.0516600005721233e-05
-8.03874823618449e-06   -3.3773019579797165e-07   1.0516600005721233e-05
-8.03874823618449e-06   -3.3773019579797165e-07   1.0516600005721233e-05
-8.03874823618449e-06   -3.3773019579797165e-07   1.0516600005721233e-05
-6.265402195875708e-06   1.1912666559294295e-06   6.643625160836805e-06
-6.265402195875708e-06   1.1912666559294295e-06   6.643625160836805e-06
-6.265402195875708e-06   1.1912666559294295e-06   6.643625160836805e-06
-6.265402195875708e-06   1.1912666559294295e-06   6.643625160836805e-06
-8.038748236184525e-06   1.8624303271478597e-06   5.415613264170716e-06
-8.038748236184525e-06   1.8624303271478597e-06   5.415613264170716e-06
-8.038748236184525e-06   1.8624303271478597e-06   5.415613264170716e-06
-8.038748236184525e-06   1.8624303271478597e-06   5.415613264170716e-06
-4.9781561912545834e-06   -3.3773019579797165e-07   9.19650369195365e-06
-4.9781561912545834e-06   -3.3773019579797165e-07   9.19650369195365e-06
-4.9781561912545834e-06   -3.3773019579797165e-07   9.19650369195365e-06
-4.9781561912545834e-06   -3.3773019579797165e-07   9.19650369195365e-06
-5.193181332947263e-06   1.5636387179243606e-06   5.339207260260858e-06
-5.193181332947263e-06   1.5636387179243606e-06   5.339207260260858e-06
-5.193181332947263e-06   1.5636387179243606e-06   5.339207260260858e-06
-5.193181332947263e-06   1.5636387179243606e-06   5.339207260260858e-06
-7.952821996986367e-06   -4.6604781329988776e-07   1.1156420285727349e-05
-7.952821996986367e-06   -4.6604781329988776e-07   1.1156420285727349e-05
-7.952821996986367e-06   -4.6604781329988776e-07   1.1156420285727349e-05
-7.952821996986367e-06   -4.6604781329988776e-07   1.1156420285727349e-05
-6.369402539248685e-06   9.64467726730393e-07   7.659078532146419e-06
-6.369402539248685e-06   9.64467726730393e-07   7.659078532146419e-06
-6.369402539248685e-06   9.64467726730393e-07   7.659078532146419e-06
-6.369402539248685e-06   9.64467726730393e-07   7.659078532146419e-06
-7.952821996986409e-06   1.5636387179243553e-06   6.557019178995657e-06
-7.952821996986409e-06   1.5636387179243553e-06   6.557019178995657e-06
-7.952821996986409e-06   1.5636387179243553e-06   6.557019178995657e-06
-7.952821996986409e-06   1.5636387179243553e-06   6.557019178995657e-06
-5.193181332947263e-06   -4.6604781329988776e-07   9.938608366992768e-06
-5.193181332947263e-06   -4.6604781329988776e-07   9.938608366992768e-06
-5.193181332947263e-06   -4.6604781329988776e-07   9.938608366992768e-06
-5.193181332947263e-06   -4.6604781329988776e-07   9.938608366992768e-06
-5.732934900231279e-06   9.64875929358993e-07   7.561830348032416e-06
-5.732934900231279e-06   9.64875929358993e-07   7.561830348032416e-06
-5.732934900231279e-06   9.64875929358993e-07   7.561830348032416e-06
-5.732934900231279e-06   9.64875929358993e-07   7.561830348032416e-06
-7.814823329587707e-06   -6.200603203544014e-07   1.1982606146787177e-05
-7.814823329587707e-06   -6.200603203544014e-07   1.1982606146787177e-05
-7.814823329587707e-06   -6.200603203544014e-07   1.1982606146787177e-05
-7.814823329587707e-06   -6.200603203544014e-07   1.1982606146787177e-05
-6.3785937331747e-06   8.119201994098105e-07   8.729701840906644e-06
-6.3785937331747e-06   8.119201994098105e-07   8.729701840906644e-06
-6.3785937331747e-06   8.119201994098105e-07   8.729701840906644e-06
-6.3785937331747e-06   8.119201994098105e-07   8.729701840906644e-06
-7.62224042544986e-05   5.9897969169995515e-06   3.2358965807878704e-05
-7.62224042544986e-05   5.9897969169995515e-06   3.2358965807878704e-05
-7.62224042544986e-05   5.9897969169995515e-06   3.2358965807878704e-05
-7.62224042544986e-05   5.9897969169995515e-06   3.2358965807878704e-05
-1.7954142484370207e-05   -3.6872923032559384e-05   0.00010375510345502407
-1.7954142484370207e-05   -3.6872923032559384e-05   0.00010375510345502407
-1.7954142484370207e-05   -3.6872923032559384e-05   0.00010375510345502407
-1.7954142484370207e-05   -3.6872923032559384e-05   0.00010375510345502407
-2.104958518988412e-05   2.449313509517029e-06   1.779349152875308e-05
-2.104958518988412e-05   2.449313509517029e-06   1.779349152875308e-05
-2.104958518988412e-05   2.449313509517029e-06   1.779349152875308e-05
-2.104958518988412e-05   2.449313509517029e-06   1.779349152875308e-05
-6.951679165300082e-05   -2.8603057977214084e-05   0.00011720359185931943
-6.951679165300082e-05   -2.8603057977214084e-05   0.00011720359185931943
-6.951679165300082e-05   -2.8603057977214084e-05   0.00011720359185931943
-6.951679165300082e-05   -2.8603057977214084e-05   0.00011720359185931943
-4.635928750284906e-05   -1.4242526739741617e-05   6.9991432866583e-05
-4.635928750284906e-05   -1.4242526739741617e-05   6.9991432866583e-05
-4.635928750284906e-05   -1.4242526739741617e-05   6.9991432866583e-05
-4.635928750284906e-05   -1.4242526739741617e-05   6.9991432866583e-05
-6.95167916530007e-05   2.4493135095170393e-06   3.642491442079176e-05
-6.95167916530007e-05   2.4493135095170393e-06   3.642491442079176e-05
-6.95167916530007e-05   2.4493135095170393e-06   3.642491442079176e-05
-6.95167916530007e-05   2.4493135095170393e-06   3.642491442079176e-05
-2.1049585189884148e-05   -2.8603057977214084e-05   9.857216896728076e-05
-2.1049585189884148e-05   -2.8603057977214084e-05   9.857216896728076e-05
-2.1049585189884148e-05   -2.8603057977214084e-05   9.857216896728076e-05
-2.1049585189884148e-05   -2.8603057977214084e-05   9.857216896728076e-05
-2.1513564833416213e-05   1.7656735328059519e-06   1.9550792418689925e-05
-2.1513564833416213e-05   1.7656735328059519e-06   1.9550792418689925e-05
-2.1513564833416213e-05   1.7656735328059519e-06   1.9550792418689925e-05
-2.1513564833416213e-05   1.7656735328059519e-06   1.9550792418689925e-05
-6.558837394788733e-05   -2.461065621649577e-05   0.00010883460545905596
-6.558837394788733e-05   -2.461065621649577e-05   0.00010883460545905596
-6.558837394788733e-05   -2.461065621649577e-05   0.00010883460545905596
-6.558837394788733e-05   -2.461065621649577e-05   0.00010883460545905596
-4.496327006619812e-05   -1.348735308339652e-05   6.77854504430478e-05
-4.496327006619812e-05   -1.348735308339652e-05   6.77854504430478e-05
-4.496327006619812e-05   -1.348735308339652e-05   6.77854504430478e-05
-4.496327006619812e-05   -1.348735308339652e-05   6.77854504430478e-05
-6.55883739478872e-05   1.765673532805942e-06   3.537659026827089e-05
-6.55883739478872e-05   1.765673532805942e-06   3.537659026827089e-05
-6.55883739478872e-05   1.765673532805942e-06   3.537659026827089e-05
-6.55883739478872e-05   1.765673532805942e-06   3.537659026827089e-05
-2.1513564833416254e-05   -2.461065621649577e-05   9.30088076094749e-05
-2.1513564833416254e-05   -2.461065621649577e-05   9.30088076094749e-05
-2.1513564833416254e-05   -2.461065621649577e-05   9.30088076094749e-05
-2.1513564833416254e-05   -2.461065621649577e-05   9.30088076094749e-05
-2.3541244147795348e-05   -1.1368060341696907e-06   2.449336104611084e-05
-2.3541244147795348e-05   -1.1368060341696907e-06   2.449336104611084e-05
-2.3541244147795348e-05   -1.1368060341696907e-06   2.449336104611084e-05
-2.3541244147795348e-05   -1.1368060341696907e-06   2.449336104611084e-05
-6.0556788719414935e-05   -1.9313597777289348e-05   9.709201037801507e-05
-6.0556788719414935e-05   -1.9313597777289348e-05   9.709201037801507e-05
-6.0556788719414935e-05   -1.9313597777289348e-05   9.709201037801507e-05
-6.0556788719414935e-05   -1.9313597777289348e-05   9.709201037801507e-05
-4.323552524440758e-05   -1.2447378945353298e-05   6.410350662050795e-05
-4.323552524440758e-05   -1.2447378945353298e-05   6.410350662050795e-05
-4.323552524440758e-05   -1.2447378945353298e-05   6.410350662050795e-05
-4.323552524440758e-05   -1.2447378945353298e-05   6.410350662050795e-05
-1.795414248437018e-05   -6.690439499401213e-06   1.830746224167301e-05
-1.795414248437018e-05   -6.690439499401213e-06   1.830746224167301e-05
-1.795414248437018e-05   -6.690439499401213e-06   1.830746224167301e-05
-1.795414248437018e-05   -6.690439499401213e-06   1.830746224167301e-05
-6.2644288523203205e-06   -1.1327389614068284e-05   3.500814822628929e-05
-6.2644288523203205e-06   -1.1327389614068284e-05   3.500814822628929e-05
-6.2644288523203205e-06   -1.1327389614068284e-05   3.500814822628929e-05
-6.2644288523203205e-06   -1.1327389614068284e-05   3.500814822628929e-05
-6.983904119748751e-06   -5.472307956583592e-06   1.6407179799983245e-05
-6.983904119748751e-06   -5.472307956583592e-06   1.6407179799983245e-05
-6.983904119748751e-06   -5.472307956583592e-06   1.6407179799983245e-05
-6.983904119748751e-06   -5.472307956583592e-06   1.6407179799983245e-05
-2.1049585189884155e-05   -1.5061274374566968e-05   4.560336143433212e-05
-2.1049585189884155e-05   -1.5061274374566968e-05   4.560336143433212e-05
-2.1049585189884155e-05   -1.5061274374566968e-05   4.560336143433212e-05
-2.1049585189884155e-05   -1.5061274374566968e-05   4.560336143433212e-05
-1.2382034167170091e-05   -7.906578915204527e-06   2.6864625787524426e-05
-1.2382034167170091e-05   -7.906578915204527e-06   2.6864625787524426e-05
-1.2382034167170091e-05   -7.906578915204527e-06   2.6864625787524426e-05
-1.2382034167170091e-05   -7.906578915204527e-06   2.6864625787524426e-05
-2.1049585189884107e-05   -5.472307956583601e-06   2.2160559650773008e-05
-2.1049585189884107e-05   -5.472307956583601e-06   2.2160559650773008e-05
-2.1049585189884107e-05   -5.472307956583601e-06   2.2160559650773008e-05
-2.1049585189884107e-05   -5.472307956583601e-06   2.2160559650773008e-05
-6.983904119748751e-06   -1.5061274374566968e-05   3.984998158354213e-05
-6.983904119748751e-06   -1.5061274374566968e-05   3.984998158354213e-05
-6.983904119748751e-06   -1.5061274374566968e-05   3.984998158354213e-05
-6.983904119748751e-06   -1.5061274374566968e-05   3.984998158354213e-05
-7.599232080116307e-06   -5.598415937052917e-06   1.8446507002159527e-05
-7.599232080116307e-06   -5.598415937052917e-06   1.8446507002159527e-05
-7.599232080116307e-06   -5.598415937052917e-06   1.8446507002159527e-05
-7.599232080116307e-06   -5.598415937052917e-06   1.8446507002159527e-05
-2.1513564833416254e-05   -1.3750734664264674e-05   4.652845282731964e-05
-2.1513564833416254e-05   -1.3750734664264674e-05   4.652845282731964e-05
-2.1513564833416254e-05   -1.3750734664264674e-05   4.652845282731964e-05
-2.1513564833416254e-05   -1.3750734664264674e-05   4.652845282731964e-05
-1.3946489148656821e-05   -9.680182171616634e-06   3.1474328523798664e-05
-1.3946489148656821e-05   -9.680182171616634e-06   3.1474328523798664e-05
-1.3946489148656821e-05   -9.680182171616634e-06   3.1474328523798664e-05
-1.3946489148656821e-05   -9.680182171616634e-06   3.1474328523798664e-05
-2.1513564833416254e-05   -5.59841593705292e-06   2.3337898238486585e-05
-2.1513564833416254e-05   -5.59841593705292e-06   2.3337898238486585e-05
-2.1513564833416254e-05   -5.59841593705292e-06   2.3337898238486585e-05
-2.1513564833416254e-05   -5.59841593705292e-06   2.3337898238486585e-05
-7.599232080116307e-06   -1.3750734664264674e-05   4.163706159099261e-05
-7.599232080116307e-06   -1.3750734664264674e-05   4.163706159099261e-05
-7.599232080116307e-06   -1.3750734664264674e-05   4.163706159099261e-05
-7.599232080116307e-06   -1.3750734664264674e-05   4.163706159099261e-05
-8.597808681099189e-06   -5.6548572434772775e-06   2.016685388607053e-05
-8.597808681099189e-06   -5.6548572434772775e-06   2.016685388607053e-05
-8.597808681099189e-06   -5.6548572434772775e-06   2.016685388607053e-05
-8.597808681099189e-06   -5.6548572434772775e-06   2.016685388607053e-05
-2.354124414779533e-05   -1.2926670302006952e-05   4.943566749901505e-05
-2.354124414779533e-05   -1.2926670302006952e-05   4.943566749901505e-05
-2.354124414779533e-05   -1.2926670302006952e-05   4.943566749901505e-05
-2.354124414779533e-05   -1.2926670302006952e-05   4.943566749901505e-05
-1.4851560497239756e-05   -8.836190939550542e-06   3.249857379728196e-05
-1.4851560497239756e-05   -8.836190939550542e-06   3.249857379728196e-05
-1.4851560497239756e-05   -8.836190939550542e-06   3.249857379728196e-05
-1.4851560497239756e-05   -8.836190939550542e-06   3.249857379728196e-05
-6.2644288523203205e-06   -5.225882392797837e-06   9.801233179824228e-06
-6.2644288523203205e-06   -5.225882392797837e-06   9.801233179824228e-06
-6.2644288523203205e-06   -5.225882392797837e-06   9.801233179824228e-06
-6.2644288523203205e-06   -5.225882392797837e-06   9.801233179824228e-06
-3.4887347729255593e-06   -3.1063396755869746e-06   1.5699115609142038e-05
-3.4887347729255593e-06   -3.1063396755869746e-06   1.5699115609142038e-05
-3.4887347729255593e-06   -3.1063396755869746e-06   1.5699115609142038e-05
-3.4887347729255593e-06   -3.1063396755869746e-06   1.5699115609142038e-05
-3.346097599549473e-06   -5.132398621266344e-06   1.1359840222330579e-05
-3.346097599549473e-06   -5.132398621266344e-06   1.1359840222330579e-05
-3.346097599549473e-06   -5.132398621266344e-06   1.1359840222330579e-05
-3.346097599549473e-06   -5.132398621266344e-06   1.1359840222330579e-05
-6.983904119748744e-06   -4.085225676406286e-06   1.679454732241302e-05
-6.983904119748744e-06   -4.085225676406286e-06   1.679454732241302e-05
-6.983904119748744e-06   -4.085225676406286e-06   1.679454732241302e-05
-6.983904119748744e-06   -4.085225676406286e-06   1.679454732241302e-05
-4.703749396501612e-06   -4.162284164480729e-06   1.3040524543178936e-05
-4.703749396501612e-06   -4.162284164480729e-06   1.3040524543178936e-05
-4.703749396501612e-06   -4.162284164480729e-06   1.3040524543178936e-05
-4.703749396501612e-06   -4.162284164480729e-06   1.3040524543178936e-05
-6.983904119748724e-06   -5.132398621266323e-06   1.0731536455414422e-05
-6.983904119748724e-06   -5.132398621266323e-06   1.0731536455414422e-05
-6.983904119748724e-06   -5.132398621266323e-06   1.0731536455414422e-05
-6.983904119748724e-06   -5.132398621266323e-06   1.0731536455414422e-05
-3.346097599549473e-06   -4.085225676406286e-06   1.7422851089329014e-05
-3.346097599549473e-06   -4.085225676406286e-06   1.7422851089329014e-05
-3.346097599549473e-06   -4.085225676406286e-06   1.7422851089329014e-05
-3.346097599549473e-06   -4.085225676406286e-06   1.7422851089329014e-05
-3.344798600298806e-06   -5.290267976785536e-06   1.2141341397491024e-05
-3.344798600298806e-06   -5.290267976785536e-06   1.2141341397491024e-05
-3.344798600298806e-06   -5.290267976785536e-06   1.2141341397491024e-05
-3.344798600298806e-06   -5.290267976785536e-06   1.2141341397491024e-05
-7.59923208011632e-06   -5.269586789261156e-06   1.9219655151338786e-05
-7.59923208011632e-06   -5.269586789261156e-06   1.9219655151338786e-05
-7.59923208011632e-06   -5.269586789261156e-06   1.9219655151338786e-05
-7.59923208011632e-06   -5.269586789261156e-06   1.9219655151338786e-05
-4.979011165464782e-06   -4.5513297210704245e-06   1.442166605267176e-05
-4.979011165464782e-06   -4.5513297210704245e-06   1.442166605267176e-05
-4.979011165464782e-06   -4.5513297210704245e-06   1.442166605267176e-05
-4.979011165464782e-06   -4.5513297210704245e-06   1.442166605267176e-05
-7.599232080116307e-06   -5.290267976785541e-06   1.2128932684976374e-05
-7.599232080116307e-06   -5.290267976785541e-06   1.2128932684976374e-05
-7.599232080116307e-06   -5.290267976785541e-06   1.2128932684976374e-05
-7.599232080116307e-06   -5.290267976785541e-06   1.2128932684976374e-05
-3.344798600298806e-06   -5.269586789261156e-06   1.9232063863853382e-05
-3.344798600298806e-06   -5.269586789261156e-06   1.9232063863853382e-05
-3.344798600298806e-06   -5.269586789261156e-06   1.9232063863853382e-05
-3.344798600298806e-06   -5.269586789261156e-06   1.9232063863853382e-05
-3.383120905114999e-06   -5.515801348149178e-06   1.330804568651367e-05
-3.383120905114999e-06   -5.515801348149178e-06   1.330804568651367e-05
-3.383120905114999e-06   -5.515801348149178e-06   1.330804568651367e-05
-3.383120905114999e-06   -5.515801348149178e-06   1.330804568651367e-05
-8.597808681099192e-06   -6.396212811285031e-06   2.2527438857701857e-05
-8.597808681099192e-06   -6.396212811285031e-06   2.2527438857701857e-05
-8.597808681099192e-06   -6.396212811285031e-06   2.2527438857701857e-05
-8.597808681099192e-06   -6.396212811285031e-06   2.2527438857701857e-05
-5.290946333945399e-06   -4.976635379714812e-06   1.6164255153503513e-05
-5.290946333945399e-06   -4.976635379714812e-06   1.6164255153503513e-05
-5.290946333945399e-06   -4.976635379714812e-06   1.6164255153503513e-05
-5.290946333945399e-06   -4.976635379714812e-06   1.6164255153503513e-05
-3.4887347729255593e-06   -2.14215946915634e-06   2.726346544716467e-06
-3.4887347729255593e-06   -2.14215946915634e-06   2.726346544716467e-06
-3.4887347729255593e-06   -2.14215946915634e-06   2.726346544716467e-06
-3.4887347729255593e-06   -2.14215946915634e-06   2.726346544716467e-06
-2.5774324178011367e-06   6.011249000016807e-07   5.891154424752013e-06
-2.5774324178011367e-06   6.011249000016807e-07   5.891154424752013e-06
-2.5774324178011367e-06   6.011249000016807e-07   5.891154424752013e-06
-2.5774324178011367e-06   6.011249000016807e-07   5.891154424752013e-06
-2.080025849021498e-06   -2.509658232816383e-06   4.6276026491448834e-06
-2.080025849021498e-06   -2.509658232816383e-06   4.6276026491448834e-06
-2.080025849021498e-06   -2.509658232816383e-06   4.6276026491448834e-06
-2.080025849021498e-06   -2.509658232816383e-06   4.6276026491448834e-06
-3.3460975995494833e-06   2.554005235017853e-07   5.0786869795670314e-06
-3.3460975995494833e-06   2.554005235017853e-07   5.0786869795670314e-06
-3.3460975995494833e-06   2.554005235017853e-07   5.0786869795670314e-06
-3.3460975995494833e-06   2.554005235017853e-07   5.0786869795670314e-06
-2.6962646500029377e-06   -9.862944888812722e-07   4.7406490710857636e-06
-2.6962646500029377e-06   -9.862944888812722e-07   4.7406490710857636e-06
-2.6962646500029377e-06   -9.862944888812722e-07   4.7406490710857636e-06
-2.6962646500029377e-06   -9.862944888812722e-07   4.7406490710857636e-06
-3.346097599549473e-06   -2.5096582328164114e-06   2.968567395354011e-06
-3.346097599549473e-06   -2.5096582328164114e-06   2.968567395354011e-06
-3.346097599549473e-06   -2.5096582328164114e-06   2.968567395354011e-06
-3.346097599549473e-06   -2.5096582328164114e-06   2.968567395354011e-06
-2.080025849021498e-06   2.554005235017853e-07   6.737722233357904e-06
-2.080025849021498e-06   2.554005235017853e-07   6.737722233357904e-06
-2.080025849021498e-06   2.554005235017853e-07   6.737722233357904e-06
-2.080025849021498e-06   2.554005235017853e-07   6.737722233357904e-06
-1.8047500006836267e-06   -2.7904768231270627e-06   5.083047744405887e-06
-1.8047500006836267e-06   -2.7904768231270627e-06   5.083047744405887e-06
-1.8047500006836267e-06   -2.7904768231270627e-06   5.083047744405887e-06
-1.8047500006836267e-06   -2.7904768231270627e-06   5.083047744405887e-06
-3.3447986002988207e-06   -2.9835583990791e-07   6.154522820499427e-06
-3.3447986002988207e-06   -2.9835583990791e-07   6.154522820499427e-06
-3.3447986002988207e-06   -2.9835583990791e-07   6.154522820499427e-06
-3.3447986002988207e-06   -2.9835583990791e-07   6.154522820499427e-06
-2.4387716303696156e-06   -1.267589930836711e-06   5.226018325174813e-06
-2.4387716303696156e-06   -1.267589930836711e-06   5.226018325174813e-06
-2.4387716303696156e-06   -1.267589930836711e-06   5.226018325174813e-06
-2.4387716303696156e-06   -1.267589930836711e-06   5.226018325174813e-06
-3.344798600298806e-06   -2.7904768231270864e-06   3.5877751544744537e-06
-3.344798600298806e-06   -2.7904768231270864e-06   3.5877751544744537e-06
-3.344798600298806e-06   -2.7904768231270864e-06   3.5877751544744537e-06
-3.344798600298806e-06   -2.7904768231270864e-06   3.5877751544744537e-06
-1.8047500006836267e-06   -2.9835583990791e-07   7.64979541043086e-06
-1.8047500006836267e-06   -2.9835583990791e-07   7.64979541043086e-06
-1.8047500006836267e-06   -2.9835583990791e-07   7.64979541043086e-06
-1.8047500006836267e-06   -2.9835583990791e-07   7.64979541043086e-06
-1.3821727769985134e-06   -3.159290429156122e-06   5.5742673531973585e-06
-1.3821727769985134e-06   -3.159290429156122e-06   5.5742673531973585e-06
-1.3821727769985134e-06   -3.159290429156122e-06   5.5742673531973585e-06
-1.3821727769985134e-06   -3.159290429156122e-06   5.5742673531973585e-06
-3.3831209051150116e-06   -1.4428313351850494e-06   7.879305443675368e-06
-3.3831209051150116e-06   -1.4428313351850494e-06   7.879305443675368e-06
-3.3831209051150116e-06   -1.4428313351850494e-06   7.879305443675368e-06
-3.3831209051150116e-06   -1.4428313351850494e-06   7.879305443675368e-06
-2.2262817939831017e-06   -1.7005953901657591e-06   6.105898691443918e-06
-2.2262817939831017e-06   -1.7005953901657591e-06   6.105898691443918e-06
-2.2262817939831017e-06   -1.7005953901657591e-06   6.105898691443918e-06
-2.2262817939831017e-06   -1.7005953901657591e-06   6.105898691443918e-06
-2.5774324178011367e-06   -2.433124866342884e-07   -4.347985373061552e-06
-2.5774324178011367e-06   -2.433124866342884e-07   -4.347985373061552e-06
-2.5774324178011367e-06   -2.433124866342884e-07   -4.347985373061552e-06
-2.5774324178011367e-06   -2.433124866342884e-07   -4.347985373061552e-06
-4.6537342412132643e-07   3.7470917153750033e-07   -4.5707405535845656e-07
-4.6537342412132643e-07   3.7470917153750033e-07   -4.5707405535845656e-07
-4.6537342412132643e-07   3.7470917153750033e-07   -4.5707405535845656e-07
-4.6537342412132643e-07   3.7470917153750033e-07   -4.5707405535845656e-07
2.3585510127615075e-08   -3.3773019579797165e-07   -3.4215698423258663e-06
2.3585510127615075e-08   -3.3773019579797165e-07   -3.4215698423258663e-06
2.3585510127615075e-08   -3.3773019579797165e-07   -3.4215698423258663e-06
2.3585510127615075e-08   -3.3773019579797165e-07   -3.4215698423258663e-06
-2.080025849021504e-06   6.504931635052474e-07   -5.084849259925656e-07
-2.080025849021504e-06   6.504931635052474e-07   -5.084849259925656e-07
-2.080025849021504e-06   6.504931635052474e-07   -5.084849259925656e-07
-2.080025849021504e-06   6.504931635052474e-07   -5.084849259925656e-07
-1.165348983200076e-06   1.7156251596147287e-07   -1.745587980502548e-06
-1.165348983200076e-06   1.7156251596147287e-07   -1.745587980502548e-06
-1.165348983200076e-06   1.7156251596147287e-07   -1.745587980502548e-06
-1.165348983200076e-06   1.7156251596147287e-07   -1.745587980502548e-06
-2.080025849021498e-06   -3.377301957979208e-07   -4.014503857907863e-06
-2.080025849021498e-06   -3.377301957979208e-07   -4.014503857907863e-06
-2.080025849021498e-06   -3.377301957979208e-07   -4.014503857907863e-06
-2.080025849021498e-06   -3.377301957979208e-07   -4.014503857907863e-06
2.3585510127723495e-08   6.504931635052474e-07   8.44490895893224e-08
2.3585510127723495e-08   6.504931635052474e-07   8.44490895893224e-08
2.3585510127723495e-08   6.504931635052474e-07   8.44490895893224e-08
2.3585510127723495e-08   6.504931635052474e-07   8.44490895893224e-08
2.82151549634165e-07   -4.6604781329988776e-07   -3.0769120883010134e-06
2.82151549634165e-07   -4.6604781329988776e-07   -3.0769120883010134e-06
2.82151549634165e-07   -4.6604781329988776e-07   -3.0769120883010134e-06
2.82151549634165e-07   -4.6604781329988776e-07   -3.0769120883010134e-06
-1.8047500006836515e-06   5.628945043624324e-07   -2.161082283689067e-07
-1.8047500006836515e-06   5.628945043624324e-07   -2.161082283689067e-07
-1.8047500006836515e-06   5.628945043624324e-07   -2.161082283689067e-07
-1.8047500006836515e-06   5.628945043624324e-07   -2.161082283689067e-07
-8.028505948218972e-07   1.1253037325819866e-07   -1.615722092808674e-06
-8.028505948218972e-07   1.1253037325819866e-07   -1.615722092808674e-06
-8.028505948218972e-07   1.1253037325819866e-07   -1.615722092808674e-06
-8.028505948218972e-07   1.1253037325819866e-07   -1.615722092808674e-06
-1.8047500006836267e-06   -4.6604781329987966e-07   -3.694277478898469e-06
-1.8047500006836267e-06   -4.6604781329987966e-07   -3.694277478898469e-06
-1.8047500006836267e-06   -4.6604781329987966e-07   -3.694277478898469e-06
-1.8047500006836267e-06   -4.6604781329987966e-07   -3.694277478898469e-06
2.82151549634165e-07   5.628945043624324e-07   4.012571622286033e-07
2.82151549634165e-07   5.628945043624324e-07   4.012571622286033e-07
2.82151549634165e-07   5.628945043624324e-07   4.012571622286033e-07
2.82151549634165e-07   5.628945043624324e-07   4.012571622286033e-07
6.055125315900705e-07   -6.200603203544556e-07   -2.5739068534944964e-06
6.055125315900705e-07   -6.200603203544556e-07   -2.5739068534944964e-06
6.055125315900705e-07   -6.200603203544556e-07   -2.5739068534944964e-06
6.055125315900705e-07   -6.200603203544556e-07   -2.5739068534944964e-06
-1.3821727769984918e-06   4.940541327356465e-07   7.043332229885076e-08
-1.3821727769984918e-06   4.940541327356465e-07   7.043332229885076e-08
-1.3821727769984918e-06   4.940541327356465e-07   7.043332229885076e-08
-1.3821727769984918e-06   4.940541327356465e-07   7.043332229885076e-08
-4.7421013645394303e-07   4.223090408416678e-08   -1.1717438080849005e-06
-4.7421013645394303e-07   4.223090408416678e-08   -1.1717438080849005e-06
-4.7421013645394303e-07   4.223090408416678e-08   -1.1717438080849005e-06
-4.7421013645394303e-07   4.223090408416678e-08   -1.1717438080849005e-06
              </DataArray>   
             <DataArray type="Float64" NumberOfComponents="3" Name="Stress" format="ascii">   
-3.951506273634246   -0.9878765684085615   -0.9878765684085615
-3.951506273634246   -0.9878765684085615   -0.9878765684085615
-3.951506273634246   -0.9878765684085615   -0.9878765684085615
-3.951506273634246   -0.9878765684085615   -0.9878765684085615
-2.286813556984155   -0.07221399656855454   -0.04575624221109709
-2.286813556984155   -0.07221399656855454   -0.04575624221109709
-2.286813556984155   -0.07221399656855454   -0.04575624221109709
-2.286813556984155   -0.07221399656855454   -0.04575624221109709
-2.4651488037846696   -0.6162872009461674   -0.6162872009461674
-2.4651488037846696   -0.6162872009461674   -0.6162872009461674
-2.4651488037846696   -0.6162872009461674   -0.6162872009461674
-2.4651488037846696   -0.6162872009461674   -0.6162872009461674
-3.8085198077230857   -0.3125743011695511   -0.11947907127348897
-3.8085198077230857   -0.3125743011695511   -0.11947907127348897
-3.8085198077230857   -0.3125743011695511   -0.11947907127348897
-3.8085198077230857   -0.3125743011695511   -0.11947907127348897
-2.9870618471900503   -0.489600093022713   -0.008235218735003023
-2.9870618471900503   -0.489600093022713   -0.008235218735003023
-2.9870618471900503   -0.489600093022713   -0.008235218735003023
-2.9870618471900503   -0.489600093022713   -0.008235218735003023
-4.135676814704983   -1.0339192036762457   -1.0339192036762457
-4.135676814704983   -1.0339192036762457   -1.0339192036762457
-4.135676814704983   -1.0339192036762457   -1.0339192036762457
-4.135676814704983   -1.0339192036762457   -1.0339192036762457
-2.21555846471905   0.027491033644256202   -0.012113740208492707
-2.21555846471905   0.027491033644256202   -0.012113740208492707
-2.21555846471905   0.027491033644256202   -0.012113740208492707
-2.21555846471905   0.027491033644256202   -0.012113740208492707
-2.472309502117712   -0.618077375529428   -0.618077375529428
-2.472309502117712   -0.618077375529428   -0.618077375529428
-2.472309502117712   -0.618077375529428   -0.618077375529428
-2.472309502117712   -0.618077375529428   -0.618077375529428
-3.9367510875924436   -0.3156379790748445   -0.17510572403193725
-3.9367510875924436   -0.3156379790748445   -0.17510572403193725
-3.9367510875924436   -0.3156379790748445   -0.17510572403193725
-3.9367510875924436   -0.3156379790748445   -0.17510572403193725
-3.098696172098971   -0.46104131690190353   -0.16447033074191147
-3.098696172098971   -0.46104131690190353   -0.16447033074191147
-3.098696172098971   -0.46104131690190353   -0.16447033074191147
-3.098696172098971   -0.46104131690190353   -0.16447033074191147
-4.26511371885677   -1.0662784297141925   -1.0662784297141925
-4.26511371885677   -1.0662784297141925   -1.0662784297141925
-4.26511371885677   -1.0662784297141925   -1.0662784297141925
-4.26511371885677   -1.0662784297141925   -1.0662784297141925
-2.209313447356002   0.0671964986073052   0.01162902414236977
-2.209313447356002   0.0671964986073052   0.01162902414236977
-2.209313447356002   0.0671964986073052   0.01162902414236977
-2.209313447356002   0.0671964986073052   0.01162902414236977
-2.4712450872649647   -0.6178112718162412   -0.6178112718162412
-2.4712450872649647   -0.6178112718162412   -0.6178112718162412
-2.4712450872649647   -0.6178112718162412   -0.6178112718162412
-2.4712450872649647   -0.6178112718162412   -0.6178112718162412
-4.165763784856296   -0.27700027177777664   -0.10494584091726344
-4.165763784856296   -0.27700027177777664   -0.10494584091726344
-4.165763784856296   -0.27700027177777664   -0.10494584091726344
-4.165763784856296   -0.27700027177777664   -0.10494584091726344
-3.1816055579014533   -0.45393057792221136   -0.297289897811175
-3.1816055579014533   -0.45393057792221136   -0.297289897811175
-3.1816055579014533   -0.45393057792221136   -0.297289897811175
-3.1816055579014533   -0.45393057792221136   -0.297289897811175
-2.5146883435869203   -0.6286720858967301   -0.6286720858967301
-2.5146883435869203   -0.6286720858967301   -0.6286720858967301
-2.5146883435869203   -0.6286720858967301   -0.6286720858967301
-2.5146883435869203   -0.6286720858967301   -0.6286720858967301
-1.0489220313705487   -0.06963737933503   -0.02264600106639786
-1.0489220313705487   -0.06963737933503   -0.02264600106639786
-1.0489220313705487   -0.06963737933503   -0.02264600106639786
-1.0489220313705487   -0.06963737933503   -0.02264600106639786
-1.101411031799657   -0.27535275794991426   -0.27535275794991426
-1.101411031799657   -0.27535275794991426   -0.27535275794991426
-1.101411031799657   -0.27535275794991426   -0.27535275794991426
-1.101411031799657   -0.27535275794991426   -0.27535275794991426
-2.2896163925207644   -0.2691986129734184   -0.08571373259939088
-2.2896163925207644   -0.2691986129734184   -0.08571373259939088
-2.2896163925207644   -0.2691986129734184   -0.08571373259939088
-2.2896163925207644   -0.2691986129734184   -0.08571373259939088
-1.6885636026231472   -0.3198237997262189   0.013229381230272123
-1.6885636026231472   -0.3198237997262189   0.013229381230272123
-1.6885636026231472   -0.3198237997262189   0.013229381230272123
-1.6885636026231472   -0.3198237997262189   0.013229381230272123
-2.4651488037846674   -0.6162872009461668   -0.6162872009461668
-2.4651488037846674   -0.6162872009461668   -0.6162872009461668
-2.4651488037846674   -0.6162872009461668   -0.6162872009461668
-2.4651488037846674   -0.6162872009461668   -0.6162872009461668
-0.9898149761714776   0.00779947438710904   -0.0005247121460405374
-0.9898149761714776   0.00779947438710904   -0.0005247121460405374
-0.9898149761714776   0.00779947438710904   -0.0005247121460405374
-0.9898149761714776   0.00779947438710904   -0.0005247121460405374
-1.0770369915768447   -0.2692592478942112   -0.2692592478942112
-1.0770369915768447   -0.2692592478942112   -0.2692592478942112
-1.0770369915768447   -0.2692592478942112   -0.2692592478942112
-1.0770369915768447   -0.2692592478942112   -0.2692592478942112
-2.2840605076654166   -0.21966451939230097   -0.07524525940507755
-2.2840605076654166   -0.21966451939230097   -0.07524525940507755
-2.2840605076654166   -0.21966451939230097   -0.07524525940507755
-2.2840605076654166   -0.21966451939230097   -0.07524525940507755
-1.6652598463146102   -0.2692922035854677   -0.0870889884241754
-1.6652598463146102   -0.2692922035854677   -0.0870889884241754
-1.6652598463146102   -0.2692922035854677   -0.0870889884241754
-1.6652598463146102   -0.2692922035854677   -0.0870889884241754
-2.472309502117712   -0.618077375529428   -0.618077375529428
-2.472309502117712   -0.618077375529428   -0.618077375529428
-2.472309502117712   -0.618077375529428   -0.618077375529428
-2.472309502117712   -0.618077375529428   -0.618077375529428
-0.9507132982520049   0.06722830711546166   0.025871663720324033
-0.9507132982520049   0.06722830711546166   0.025871663720324033
-0.9507132982520049   0.06722830711546166   0.025871663720324033
-0.9507132982520049   0.06722830711546166   0.025871663720324033
-1.0548769688251585   -0.2637192422062896   -0.2637192422062896
-1.0548769688251585   -0.2637192422062896   -0.2637192422062896
-1.0548769688251585   -0.2637192422062896   -0.2637192422062896
-1.0548769688251585   -0.2637192422062896   -0.2637192422062896
-2.267503945006651   -0.1695570476931022   -0.04735978464784156
-2.267503945006651   -0.1695570476931022   -0.04735978464784156
-2.267503945006651   -0.1695570476931022   -0.04735978464784156
-2.267503945006651   -0.1695570476931022   -0.04735978464784156
-1.6737194715157069   -0.23836648598363416   -0.19406131197344462
-1.6737194715157069   -0.23836648598363416   -0.19406131197344462
-1.6737194715157069   -0.23836648598363416   -0.19406131197344462
-1.6737194715157069   -0.23836648598363416   -0.19406131197344462
-1.144961505878072   -0.286240376469518   -0.286240376469518
-1.144961505878072   -0.286240376469518   -0.286240376469518
-1.144961505878072   -0.286240376469518   -0.286240376469518
-1.144961505878072   -0.286240376469518   -0.286240376469518
0.13644242056756137   0.009022211417211962   0.001109166779289461
0.13644242056756137   0.009022211417211962   0.001109166779289461
0.13644242056756137   0.009022211417211962   0.001109166779289461
0.13644242056756137   0.009022211417211962   0.001109166779289461
0.17705279682296615   0.04426319920574154   0.04426319920574154
0.17705279682296615   0.04426319920574154   0.04426319920574154
0.17705279682296615   0.04426319920574154   0.04426319920574154
0.17705279682296615   0.04426319920574154   0.04426319920574154
-1.0354269796483844   -0.17897145024042105   -0.041813804903043206
-1.0354269796483844   -0.17897145024042105   -0.041813804903043206
-1.0354269796483844   -0.17897145024042105   -0.041813804903043206
-1.0354269796483844   -0.17897145024042105   -0.041813804903043206
-0.442968480209152   -0.11238331072089765   0.07533550504912068
-0.442968480209152   -0.11238331072089765   0.07533550504912068
-0.442968480209152   -0.11238331072089765   0.07533550504912068
-0.442968480209152   -0.11238331072089765   0.07533550504912068
-1.1014110317996588   -0.2753527579499147   -0.2753527579499147
-1.1014110317996588   -0.2753527579499147   -0.2753527579499147
-1.1014110317996588   -0.2753527579499147   -0.2753527579499147
-1.1014110317996588   -0.2753527579499147   -0.2753527579499147
0.18017882390022302   0.07778648184121853   0.02637005195654753
0.18017882390022302   0.07778648184121853   0.02637005195654753
0.18017882390022302   0.07778648184121853   0.02637005195654753
0.18017882390022302   0.07778648184121853   0.02637005195654753
0.19888903207560407   0.04972225801890102   0.04972225801890102
0.19888903207560407   0.04972225801890102   0.04972225801890102
0.19888903207560407   0.04972225801890102   0.04972225801890102
0.19888903207560407   0.04972225801890102   0.04972225801890102
-0.9990528349380311   -0.12055461151465795   -0.028043101079704872
-0.9990528349380311   -0.12055461151465795   -0.028043101079704872
-0.9990528349380311   -0.12055461151465795   -0.028043101079704872
-0.9990528349380311   -0.12055461151465795   -0.028043101079704872
-0.42516723228332404   -0.06949136140228108   -0.02567030063522001
-0.42516723228332404   -0.06949136140228108   -0.02567030063522001
-0.42516723228332404   -0.06949136140228108   -0.02567030063522001
-0.42516723228332404   -0.06949136140228108   -0.02567030063522001
-1.0770369915768467   -0.2692592478942117   -0.2692592478942117
-1.0770369915768467   -0.2692592478942117   -0.2692592478942117
-1.0770369915768467   -0.2692592478942117   -0.2692592478942117
-1.0770369915768467   -0.2692592478942117   -0.2692592478942117
0.2152798461737768   0.13683355185781454   0.044565034670849546
0.2152798461737768   0.13683355185781454   0.044565034670849546
0.2152798461737768   0.13683355185781454   0.044565034670849546
0.2152798461737768   0.13683355185781454   0.044565034670849546
0.2283390178874972   0.0570847544718743   0.0570847544718743
0.2283390178874972   0.0570847544718743   0.0570847544718743
0.2283390178874972   0.0570847544718743   0.0570847544718743
0.2283390178874972   0.0570847544718743   0.0570847544718743
-0.9594631128799103   -0.05087103671499291   0.0005018320286519981
-0.9594631128799103   -0.05087103671499291   0.0005018320286519981
-0.9594631128799103   -0.05087103671499291   0.0005018320286519981
-0.9594631128799103   -0.05087103671499291   0.0005018320286519981
-0.41269749657809696   -0.02814245358548588   -0.12577458850396647
-0.41269749657809696   -0.02814245358548588   -0.12577458850396647
-0.41269749657809696   -0.02814245358548588   -0.12577458850396647
-0.41269749657809696   -0.02814245358548588   -0.12577458850396647
0.1493512721425126   0.03733781803562815   0.03733781803562815
0.1493512721425126   0.03733781803562815   0.03733781803562815
0.1493512721425126   0.03733781803562815   0.03733781803562815
0.1493512721425126   0.03733781803562815   0.03733781803562815
1.4338406583697911   0.13153064264403488   0.044084112483384154
1.4338406583697911   0.13153064264403488   0.044084112483384154
1.4338406583697911   0.13153064264403488   0.044084112483384154
1.4338406583697911   0.13153064264403488   0.044084112483384154
1.5566085718300189   0.3891521429575047   0.3891521429575047
1.5566085718300189   0.3891521429575047   0.3891521429575047
1.5566085718300189   0.3891521429575047   0.3891521429575047
1.5566085718300189   0.3891521429575047   0.3891521429575047
0.13491060107215455   -0.10098578411611822   -0.021198796226458018
0.13491060107215455   -0.10098578411611822   -0.021198796226458018
0.13491060107215455   -0.10098578411611822   -0.021198796226458018
0.13491060107215455   -0.10098578411611822   -0.021198796226458018
0.8177635405271897   0.10179798636628958   0.14861006733146337
0.8177635405271897   0.10179798636628958   0.14861006733146337
0.8177635405271897   0.10179798636628958   0.14861006733146337
0.8177635405271897   0.10179798636628958   0.14861006733146337
0.17705279682296676   0.04426319920574169   0.04426319920574169
0.17705279682296676   0.04426319920574169   0.04426319920574169
0.17705279682296676   0.04426319920574169   0.04426319920574169
0.17705279682296676   0.04426319920574169   0.04426319920574169
1.450578600226858   0.1800153837832978   0.06813904411591863
1.450578600226858   0.1800153837832978   0.06813904411591863
1.450578600226858   0.1800153837832978   0.06813904411591863
1.450578600226858   0.1800153837832978   0.06813904411591863
1.5496956148976573   0.3874239037244143   0.3874239037244143
1.5496956148976573   0.3874239037244143   0.3874239037244143
1.5496956148976573   0.3874239037244143   0.3874239037244143
1.5496956148976573   0.3874239037244143   0.3874239037244143
0.17023544970693533   -0.04387289712932458   4.950132378117242e-05
0.17023544970693533   -0.04387289712932458   4.950132378117242e-05
0.17023544970693533   -0.04387289712932458   4.950132378117242e-05
0.17023544970693533   -0.04387289712932458   4.950132378117242e-05
0.8114777096373411   0.13350776205774165   0.03869685975756017
0.8114777096373411   0.13350776205774165   0.03869685975756017
0.8114777096373411   0.13350776205774165   0.03869685975756017
0.8114777096373411   0.13350776205774165   0.03869685975756017
0.19888903207560443   0.04972225801890111   0.04972225801890111
0.19888903207560443   0.04972225801890111   0.04972225801890111
0.19888903207560443   0.04972225801890111   0.04972225801890111
0.19888903207560443   0.04972225801890111   0.04972225801890111
1.457766842591783   0.2305535586389851   0.08465038728048399
1.457766842591783   0.2305535586389851   0.08465038728048399
1.457766842591783   0.2305535586389851   0.08465038728048399
1.457766842591783   0.2305535586389851   0.08465038728048399
1.5794719632865788   0.3948679908216447   0.3948679908216447
1.5794719632865788   0.3948679908216447   0.3948679908216447
1.5794719632865788   0.3948679908216447   0.3948679908216447
1.5794719632865788   0.3948679908216447   0.3948679908216447
0.21660807470219326   0.03170901917688097   0.023805773840346177
0.21660807470219326   0.03170901917688097   0.023805773840346177
0.21660807470219326   0.03170901917688097   0.023805773840346177
0.21660807470219326   0.03170901917688097   0.023805773840346177
0.8238297265289384   0.1810550202020103   -0.0632186271222312
0.8238297265289384   0.1810550202020103   -0.0632186271222312
0.8238297265289384   0.1810550202020103   -0.0632186271222312
0.8238297265289384   0.1810550202020103   -0.0632186271222312
1.5541307859381246   0.38853269648453115   0.38853269648453115
1.5541307859381246   0.38853269648453115   0.38853269648453115
1.5541307859381246   0.38853269648453115   0.38853269648453115
1.5541307859381246   0.38853269648453115   0.38853269648453115
3.222339121189866   0.24554808361857233   0.0839209421923472
3.222339121189866   0.24554808361857233   0.0839209421923472
3.222339121189866   0.24554808361857233   0.0839209421923472
3.222339121189866   0.24554808361857233   0.0839209421923472
3.2934194640246424   0.8233548660061606   0.8233548660061606
3.2934194640246424   0.8233548660061606   0.8233548660061606
3.2934194640246424   0.8233548660061606   0.8233548660061606
3.2934194640246424   0.8233548660061606   0.8233548660061606
1.3836019438831269   -0.07871591239723574   -0.00801294142220313
1.3836019438831269   -0.07871591239723574   -0.00801294142220313
1.3836019438831269   -0.07871591239723574   -0.00801294142220313
1.3836019438831269   -0.07871591239723574   -0.00801294142220313
2.2983482462265687   0.32521153925148893   0.2595416294651305
2.2983482462265687   0.32521153925148893   0.2595416294651305
2.2983482462265687   0.32521153925148893   0.2595416294651305
2.2983482462265687   0.32521153925148893   0.2595416294651305
1.5566085718300176   0.3891521429575044   0.3891521429575044
1.5566085718300176   0.3891521429575044   0.3891521429575044
1.5566085718300176   0.3891521429575044   0.3891521429575044
1.5566085718300176   0.3891521429575044   0.3891521429575044
3.051940823325734   0.28701479789940093   0.15230173061837687
3.051940823325734   0.28701479789940093   0.15230173061837687
3.051940823325734   0.28701479789940093   0.15230173061837687
3.051940823325734   0.28701479789940093   0.15230173061837687
3.194743263491595   0.7986858158728988   0.7986858158728988
3.194743263491595   0.7986858158728988   0.7986858158728988
3.194743263491595   0.7986858158728988   0.7986858158728988
3.194743263491595   0.7986858158728988   0.7986858158728988
1.388208868260104   -0.0435399555873624   0.010954029848435937
1.388208868260104   -0.0435399555873624   0.010954029848435937
1.388208868260104   -0.0435399555873624   0.010954029848435937
1.388208868260104   -0.0435399555873624   0.010954029848435937
2.229906668364344   0.33452527438278523   0.12446643796531039
2.229906668364344   0.33452527438278523   0.12446643796531039
2.229906668364344   0.33452527438278523   0.12446643796531039
2.229906668364344   0.33452527438278523   0.12446643796531039
1.5496956148976573   0.3874239037244143   0.3874239037244143
1.5496956148976573   0.3874239037244143   0.3874239037244143
1.5496956148976573   0.3874239037244143   0.3874239037244143
1.5496956148976573   0.3874239037244143   0.3874239037244143
2.953422486466848   0.2878879261739304   0.10287982044815593
2.953422486466848   0.2878879261739304   0.10287982044815593
2.953422486466848   0.2878879261739304   0.10287982044815593
2.953422486466848   0.2878879261739304   0.10287982044815593
3.048014256154954   0.7620035640387385   0.7620035640387385
3.048014256154954   0.7620035640387385   0.7620035640387385
3.048014256154954   0.7620035640387385   0.7620035640387385
3.048014256154954   0.7620035640387385   0.7620035640387385
1.4393313350006653   0.045150221816063096   0.043882618397676376
1.4393313350006653   0.045150221816063096   0.043882618397676376
1.4393313350006653   0.045150221816063096   0.043882618397676376
1.4393313350006653   0.045150221816063096   0.043882618397676376
2.1349744506028414   0.3626261319219485   -0.032601088776100906
2.1349744506028414   0.3626261319219485   -0.032601088776100906
2.1349744506028414   0.3626261319219485   -0.032601088776100906
2.1349744506028414   0.3626261319219485   -0.032601088776100906
-3.1252127200466653   -0.2237532702496851   0.034946552445767165
-3.1252127200466653   -0.2237532702496851   0.034946552445767165
-3.1252127200466653   -0.2237532702496851   0.034946552445767165
-3.1252127200466653   -0.2237532702496851   0.034946552445767165
-1.9890134777286734   -0.04566221640074691   -0.012780718532795013
-1.9890134777286734   -0.04566221640074691   -0.012780718532795013
-1.9890134777286734   -0.04566221640074691   -0.012780718532795013
-1.9890134777286734   -0.04566221640074691   -0.012780718532795013
-2.0026835476748954   0.08082424675799776   0.04167740831606474
-2.0026835476748954   0.08082424675799776   0.04167740831606474
-2.0026835476748954   0.08082424675799776   0.04167740831606474
-2.0026835476748954   0.08082424675799776   0.04167740831606474
-3.171840123977359   -0.21624185428374604   -0.03745415878451615
-3.171840123977359   -0.21624185428374604   -0.03745415878451615
-3.171840123977359   -0.21624185428374604   -0.03745415878451615
-3.171840123977359   -0.21624185428374604   -0.03745415878451615
-2.470945655109216   -0.08431372013938321   -0.009674099431922725
-2.470945655109216   -0.08431372013938321   -0.009674099431922725
-2.470945655109216   -0.08431372013938321   -0.009674099431922725
-2.470945655109216   -0.08431372013938321   -0.009674099431922725
-3.148890589312095   -0.15378525931753628   0.01483691957559305
-3.148890589312095   -0.15378525931753628   0.01483691957559305
-3.148890589312095   -0.15378525931753628   0.01483691957559305
-3.148890589312095   -0.15378525931753628   0.01483691957559305
-2.0289725270710752   0.015028207060879595   -0.023971448967679748
-2.0289725270710752   0.015028207060879595   -0.023971448967679748
-2.0289725270710752   0.015028207060879595   -0.023971448967679748
-2.0289725270710752   0.015028207060879595   -0.023971448967679748
-2.005206555144203   0.11519141585074522   0.04749671814777366
-2.005206555144203   0.11519141585074522   0.04749671814777366
-2.005206555144203   0.11519141585074522   0.04749671814777366
-2.005206555144203   0.11519141585074522   0.04749671814777366
-3.191258338271825   -0.19052163489488694   -0.04945715383441893
-3.191258338271825   -0.19052163489488694   -0.04945715383441893
-3.191258338271825   -0.19052163489488694   -0.04945715383441893
-3.191258338271825   -0.19052163489488694   -0.04945715383441893
-2.5405048759723114   -0.05649907049364822   -0.024034014191030656
-2.5405048759723114   -0.05649907049364822   -0.024034014191030656
-2.5405048759723114   -0.05649907049364822   -0.024034014191030656
-2.5405048759723114   -0.05649907049364822   -0.024034014191030656
-3.1340861023456252   -0.09242279919896768   0.1383051901006311
-3.1340861023456252   -0.09242279919896768   0.1383051901006311
-3.1340861023456252   -0.09242279919896768   0.1383051901006311
-3.1340861023456252   -0.09242279919896768   0.1383051901006311
-2.0385328232288016   0.04093854799642366   -0.04488175442088152
-2.0385328232288016   0.04093854799642366   -0.04488175442088152
-2.0385328232288016   0.04093854799642366   -0.04488175442088152
-2.0385328232288016   0.04093854799642366   -0.04488175442088152
-1.9688858755861744   0.20064533959861897   0.08640430669459782
-1.9688858755861744   0.20064533959861897   0.08640430669459782
-1.9688858755861744   0.20064533959861897   0.08640430669459782
-1.9688858755861744   0.20064533959861897   0.08640430669459782
-3.1033489094646924   -0.1538455527347785   -0.08096410309057156
-3.1033489094646924   -0.1538455527347785   -0.08096410309057156
-3.1033489094646924   -0.1538455527347785   -0.08096410309057156
-3.1033489094646924   -0.1538455527347785   -0.08096410309057156
-2.4435592071652334   0.022663983360518558   0.054110472456095945
-2.4435592071652334   0.022663983360518558   0.054110472456095945
-2.4435592071652334   0.022663983360518558   0.054110472456095945
-2.4435592071652334   0.022663983360518558   0.054110472456095945
-2.0384927964766826   -0.2701585315647451   -0.035680997108841365
-2.0384927964766826   -0.2701585315647451   -0.035680997108841365
-2.0384927964766826   -0.2701585315647451   -0.035680997108841365
-2.0384927964766826   -0.2701585315647451   -0.035680997108841365
-0.9388230081264333   -0.020722197381647267   0.010000182813500916
-0.9388230081264333   -0.020722197381647267   0.010000182813500916
-0.9388230081264333   -0.020722197381647267   0.010000182813500916
-0.9388230081264333   -0.020722197381647267   0.010000182813500916
-0.9527111823888139   0.018156150512750963   0.014154874699505396
-0.9527111823888139   0.018156150512750963   0.014154874699505396
-0.9527111823888139   0.018156150512750963   0.014154874699505396
-0.9527111823888139   0.018156150512750963   0.014154874699505396
-2.078977913781091   -0.19777417749482157   -0.06119599796209285
-2.078977913781091   -0.19777417749482157   -0.06119599796209285
-2.078977913781091   -0.19777417749482157   -0.06119599796209285
-2.078977913781091   -0.19777417749482157   -0.06119599796209285
-1.502198546052286   -0.1218970321409357   -0.034374604808778055
-1.502198546052286   -0.1218970321409357   -0.034374604808778055
-1.502198546052286   -0.1218970321409357   -0.034374604808778055
-1.502198546052286   -0.1218970321409357   -0.034374604808778055
-2.077046765750485   -0.21617069013355347   -0.03314374517034258
-2.077046765750485   -0.21617069013355347   -0.03314374517034258
-2.077046765750485   -0.21617069013355347   -0.03314374517034258
-2.077046765750485   -0.21617069013355347   -0.03314374517034258
-0.9509345480242932   0.040260445546605544   0.0009337514882454129
-0.9509345480242932   0.040260445546605544   0.0009337514882454129
-0.9509345480242932   0.040260445546605544   0.0009337514882454129
-0.9509345480242932   0.040260445546605544   0.0009337514882454129
-0.9492469748682638   0.06620108093289712   0.019269209423760238
-0.9492469748682638   0.06620108093289712   0.019269209423760238
-0.9492469748682638   0.06620108093289712   0.019269209423760238
-0.9492469748682638   0.06620108093289712   0.019269209423760238
-2.0799799941053365   -0.1450003975170362   -0.06617866329011625
-2.0799799941053365   -0.1450003975170362   -0.06617866329011625
-2.0799799941053365   -0.1450003975170362   -0.06617866329011625
-2.0799799941053365   -0.1450003975170362   -0.06617866329011625
-1.499412746369712   -0.06786715366093043   -0.01633746086504187
-1.499412746369712   -0.06786715366093043   -0.01633746086504187
-1.499412746369712   -0.06786715366093043   -0.01633746086504187
-1.499412746369712   -0.06786715366093043   -0.01633746086504187
-2.071868799961589   -0.16358478665683585   -0.007038303431576132
-2.071868799961589   -0.16358478665683585   -0.007038303431576132
-2.071868799961589   -0.16358478665683585   -0.007038303431576132
-2.071868799961589   -0.16358478665683585   -0.007038303431576132
-0.9504749619125658   0.09166867717214339   -0.0123383220369893
-0.9504749619125658   0.09166867717214339   -0.0123383220369893
-0.9504749619125658   0.09166867717214339   -0.0123383220369893
-0.9504749619125658   0.09166867717214339   -0.0123383220369893
-0.9334699882663318   0.11447565983687841   0.038769796261741984
-0.9334699882663318   0.11447565983687841   0.038769796261741984
-0.9334699882663318   0.11447565983687841   0.038769796261741984
-0.9334699882663318   0.11447565983687841   0.038769796261741984
-2.057848639440021   -0.08402628809467644   -0.07373788488134597
-2.057848639440021   -0.08402628809467644   -0.07373788488134597
-2.057848639440021   -0.08402628809467644   -0.07373788488134597
-2.057848639440021   -0.08402628809467644   -0.07373788488134597
-1.4932861498542627   -0.0167406461818837   0.007502932712863258
-1.4932861498542627   -0.0167406461818837   0.007502932712863258
-1.4932861498542627   -0.0167406461818837   0.007502932712863258
-1.4932861498542627   -0.0167406461818837   0.007502932712863258
-0.9900379571746247   -0.22487920787408813   -0.04191755193502472
-0.9900379571746247   -0.22487920787408813   -0.04191755193502472
-0.9900379571746247   -0.22487920787408813   -0.04191755193502472
-0.9900379571746247   -0.22487920787408813   -0.04191755193502472
0.10327062977789667   0.023481148796426064   0.038569560415060516
0.10327062977789667   0.023481148796426064   0.038569560415060516
0.10327062977789667   0.023481148796426064   0.038569560415060516
0.10327062977789667   0.023481148796426064   0.038569560415060516
0.09847427110571372   0.05678518730385734   0.0030681320642489494
0.09847427110571372   0.05678518730385734   0.0030681320642489494
0.09847427110571372   0.05678518730385734   0.0030681320642489494
0.09847427110571372   0.05678518730385734   0.0030681320642489494
-0.9943299098207353   -0.14902154491527442   -0.0267610670320852
-0.9943299098207353   -0.14902154491527442   -0.0267610670320852
-0.9943299098207353   -0.14902154491527442   -0.0267610670320852
-0.9943299098207353   -0.14902154491527442   -0.0267610670320852
-0.44996355456193404   -0.07451646573984817   -0.014203675972639801
-0.44996355456193404   -0.07451646573984817   -0.014203675972639801
-0.44996355456193404   -0.07451646573984817   -0.014203675972639801
-0.44996355456193404   -0.07451646573984817   -0.014203675972639801
-1.0012051263456543   -0.17149671459471433   -0.038661979977240794
-1.0012051263456543   -0.17149671459471433   -0.038661979977240794
-1.0012051263456543   -0.17149671459471433   -0.038661979977240794
-1.0012051263456543   -0.17149671459471433   -0.038661979977240794
0.10917870979499693   0.08308957914765988   0.03028593366686165
0.10917870979499693   0.08308957914765988   0.03028593366686165
0.10917870979499693   0.08308957914765988   0.03028593366686165
0.10917870979499693   0.08308957914765988   0.03028593366686165
0.1061323252998121   0.10967888741926668   0.017939233352074892
0.1061323252998121   0.10967888741926668   0.017939233352074892
0.1061323252998121   0.10967888741926668   0.017939233352074892
0.1061323252998121   0.10967888741926668   0.017939233352074892
-0.9912213157825976   -0.09102143586857037   -0.03337997834645033
-0.9912213157825976   -0.09102143586857037   -0.03337997834645033
-0.9912213157825976   -0.09102143586857037   -0.03337997834645033
-0.9912213157825976   -0.09102143586857037   -0.03337997834645033
-0.44301957232567124   -0.01829758187466536   0.005321497143505324
-0.44301957232567124   -0.01829758187466536   0.005321497143505324
-0.44301957232567124   -0.01829758187466536   0.005321497143505324
-0.44301957232567124   -0.01829758187466536   0.005321497143505324
-0.9938696928116256   -0.11786501895455655   -0.019778280405604188
-0.9938696928116256   -0.11786501895455655   -0.019778280405604188
-0.9938696928116256   -0.11786501895455655   -0.019778280405604188
-0.9938696928116256   -0.11786501895455655   -0.019778280405604188
0.11289993816833717   0.14064170634475   0.0208144787692168
0.11289993816833717   0.14064170634475   0.0208144787692168
0.11289993816833717   0.14064170634475   0.0208144787692168
0.11289993816833717   0.14064170634475   0.0208144787692168
0.1084997107764514   0.16853085526511846   0.029548468272845307
0.1084997107764514   0.16853085526511846   0.029548468272845307
0.1084997107764514   0.16853085526511846   0.029548468272845307
0.1084997107764514   0.16853085526511846   0.029548468272845307
-0.9783299976818471   -0.029009605294737895   -0.042044985684222436
-0.9783299976818471   -0.029009605294737895   -0.042044985684222436
-0.9783299976818471   -0.029009605294737895   -0.042044985684222436
-0.9783299976818471   -0.029009605294737895   -0.042044985684222436
-0.4320098397384109   0.040494805876945345   0.02669654572237417
-0.4320098397384109   0.040494805876945345   0.02669654572237417
-0.4320098397384109   0.040494805876945345   0.02669654572237417
-0.4320098397384109   0.040494805876945345   0.02669654572237417
0.04761218905503656   -0.16481681049679667   -0.051424683906017316
0.04761218905503656   -0.16481681049679667   -0.051424683906017316
0.04761218905503656   -0.16481681049679667   -0.051424683906017316
0.04761218905503656   -0.16481681049679667   -0.051424683906017316
1.1802150547806936   0.08151971901243679   0.0707515931508112
1.1802150547806936   0.08151971901243679   0.0707515931508112
1.1802150547806936   0.08151971901243679   0.0707515931508112
1.1802150547806936   0.08151971901243679   0.0707515931508112
1.1787219334940364   0.1097573848014951   -0.011294284060275193
1.1787219334940364   0.1097573848014951   -0.011294284060275193
1.1787219334940364   0.1097573848014951   -0.011294284060275193
1.1787219334940364   0.1097573848014951   -0.011294284060275193
0.06809241479797933   -0.09907804152529877   0.007022079354732258
0.06809241479797933   -0.09907804152529877   0.007022079354732258
0.06809241479797933   -0.09907804152529877   0.007022079354732258
0.06809241479797933   -0.09907804152529877   0.007022079354732258
0.6110429002711001   -0.014081910123773883   0.0013253205500540072
0.6110429002711001   -0.014081910123773883   0.0013253205500540072
0.6110429002711001   -0.014081910123773883   0.0013253205500540072
0.6110429002711001   -0.014081910123773883   0.0013253205500540072
0.054739798514270015   -0.12045332841685458   -0.038365715172257696
0.054739798514270015   -0.12045332841685458   -0.038365715172257696
0.054739798514270015   -0.12045332841685458   -0.038365715172257696
0.054739798514270015   -0.12045332841685458   -0.038365715172257696
1.1989509232859146   0.13800904520121876   0.061599004499392346
1.1989509232859146   0.13800904520121876   0.061599004499392346
1.1989509232859146   0.13800904520121876   0.061599004499392346
1.1989509232859146   0.13800904520121876   0.061599004499392346
1.1879539724696688   0.16206574533336382   0.012024190874493714
1.1879539724696688   0.16206574533336382   0.012024190874493714
1.1879539724696688   0.16206574533336382   0.012024190874493714
1.1879539724696688   0.16206574533336382   0.012024190874493714
0.07045409710564077   -0.04724676291581133   -0.0035262572837038222
0.07045409710564077   -0.04724676291581133   -0.0035262572837038222
0.07045409710564077   -0.04724676291581133   -0.0035262572837038222
0.07045409710564077   -0.04724676291581133   -0.0035262572837038222
0.619131226647118   0.03592166194720528   0.02532117255415845
0.619131226647118   0.03592166194720528   0.02532117255415845
0.619131226647118   0.03592166194720528   0.02532117255415845
0.619131226647118   0.03592166194720528   0.02532117255415845
0.060735353419788515   -0.07138013698105458   -0.027986601647721883
0.060735353419788515   -0.07138013698105458   -0.027986601647721883
0.060735353419788515   -0.07138013698105458   -0.027986601647721883
0.060735353419788515   -0.07138013698105458   -0.027986601647721883
1.2026477967116493   0.191174199954736   0.05638485746302435
1.2026477967116493   0.191174199954736   0.05638485746302435
1.2026477967116493   0.191174199954736   0.05638485746302435
1.2026477967116493   0.191174199954736   0.05638485746302435
1.1688269550652535   0.22243956259468795   0.025239610566319053
1.1688269550652535   0.22243956259468795   0.025239610566319053
1.1688269550652535   0.22243956259468795   0.025239610566319053
1.1688269550652535   0.22243956259468795   0.025239610566319053
0.06976618146565584   0.01696024235354634   -0.012548565369560241
0.06976618146565584   0.01696024235354634   -0.012548565369560241
0.06976618146565584   0.01696024235354634   -0.012548565369560241
0.06976618146565584   0.01696024235354634   -0.012548565369560241
0.6282204708348619   0.09309054202183743   0.047527942407664184
0.6282204708348619   0.09309054202183743   0.047527942407664184
0.6282204708348619   0.09309054202183743   0.047527942407664184
0.6282204708348619   0.09309054202183743   0.047527942407664184
1.0873191923930348   -0.21723474211189298   -0.0949732576631528
1.0873191923930348   -0.21723474211189298   -0.0949732576631528
1.0873191923930348   -0.21723474211189298   -0.0949732576631528
1.0873191923930348   -0.21723474211189298   -0.0949732576631528
2.2384406781965827   0.14784735678397926   0.06882763763821201
2.2384406781965827   0.14784735678397926   0.06882763763821201
2.2384406781965827   0.14784735678397926   0.06882763763821201
2.2384406781965827   0.14784735678397926   0.06882763763821201
2.2636834859780848   0.07033231665776207   -0.1428533382421721
2.2636834859780848   0.07033231665776207   -0.1428533382421721
2.2636834859780848   0.07033231665776207   -0.1428533382421721
2.2636834859780848   0.07033231665776207   -0.1428533382421721
1.1583110201870748   -0.04471525685266742   0.041123791059066356
1.1583110201870748   -0.04471525685266742   0.041123791059066356
1.1583110201870748   -0.04471525685266742   0.041123791059066356
1.1583110201870748   -0.04471525685266742   0.041123791059066356
1.6030923241297916   -0.02789358337497916   -0.040021488313060426
1.6030923241297916   -0.02789358337497916   -0.040021488313060426
1.6030923241297916   -0.02789358337497916   -0.040021488313060426
1.6030923241297916   -0.02789358337497916   -0.040021488313060426
1.1178621632798986   -0.1428570252494446   -0.06297872508002135
1.1178621632798986   -0.1428570252494446   -0.06297872508002135
1.1178621632798986   -0.1428570252494446   -0.06297872508002135
1.1178621632798986   -0.1428570252494446   -0.06297872508002135
2.324665356849887   0.18900709901917262   0.0433812337554465
2.324665356849887   0.18900709901917262   0.0433812337554465
2.324665356849887   0.18900709901917262   0.0433812337554465
2.324665356849887   0.18900709901917262   0.0433812337554465
2.2884989016339574   0.12788471089348918   -0.032212671121159574
2.2884989016339574   0.12788471089348918   -0.032212671121159574
2.2884989016339574   0.12788471089348918   -0.032212671121159574
2.2884989016339574   0.12788471089348918   -0.032212671121159574
1.1535892404891048   -0.018882152162290722   0.021148428467328034
1.1535892404891048   -0.018882152162290722   0.021148428467328034
1.1535892404891048   -0.018882152162290722   0.021148428467328034
1.1535892404891048   -0.018882152162290722   0.021148428467328034
1.6868685724368777   0.0421281163025215   0.02769752642019603
1.6868685724368777   0.0421281163025215   0.02769752642019603
1.6868685724368777   0.0421281163025215   0.02769752642019603
1.6868685724368777   0.0421281163025215   0.02769752642019603
1.1211549202049003   -0.10926884682607074   -0.05063647828990301
1.1211549202049003   -0.10926884682607074   -0.05063647828990301
1.1211549202049003   -0.10926884682607074   -0.05063647828990301
1.1211549202049003   -0.10926884682607074   -0.05063647828990301
2.318203475028201   0.21554165866731162   0.028653248076235704
2.318203475028201   0.21554165866731162   0.028653248076235704
2.318203475028201   0.21554165866731162   0.028653248076235704
2.318203475028201   0.21554165866731162   0.028653248076235704
2.2845319395203596   0.19554025438050154   -0.04936782329982782
2.2845319395203596   0.19554025438050154   -0.04936782329982782
2.2845319395203596   0.19554025438050154   -0.04936782329982782
2.2845319395203596   0.19554025438050154   -0.04936782329982782
1.12977377362611   0.04069837759193107   0.01171488837335552
1.12977377362611   0.04069837759193107   0.01171488837335552
1.12977377362611   0.04069837759193107   0.01171488837335552
1.12977377362611   0.04069837759193107   0.01171488837335552
1.643638843361046   0.07377938159526898   0.02046828926165288
1.643638843361046   0.07377938159526898   0.02046828926165288
1.643638843361046   0.07377938159526898   0.02046828926165288
1.643638843361046   0.07377938159526898   0.02046828926165288
-2.458007490346842   -0.11165909110224265   0.12622892057788856
-2.458007490346842   -0.11165909110224265   0.12622892057788856
-2.458007490346842   -0.11165909110224265   0.12622892057788856
-2.458007490346842   -0.11165909110224265   0.12622892057788856
-1.6319293904954546   -0.06180242290372412   -0.03284538887028586
-1.6319293904954546   -0.06180242290372412   -0.03284538887028586
-1.6319293904954546   -0.06180242290372412   -0.03284538887028586
-1.6319293904954546   -0.06180242290372412   -0.03284538887028586
-1.5732524482343646   0.1321534361989593   0.10593461788600872
-1.5732524482343646   0.1321534361989593   0.10593461788600872
-1.5732524482343646   0.1321534361989593   0.10593461788600872
-1.5732524482343646   0.1321534361989593   0.10593461788600872
-2.4693862340552446   -0.1762269936083914   -0.05148500283184197
-2.4693862340552446   -0.1762269936083914   -0.05148500283184197
-2.4693862340552446   -0.1762269936083914   -0.05148500283184197
-2.4693862340552446   -0.1762269936083914   -0.05148500283184197
-1.9505556719762611   -0.03016357425429761   -0.003460071683088581
-1.9505556719762611   -0.03016357425429761   -0.003460071683088581
-1.9505556719762611   -0.03016357425429761   -0.003460071683088581
-1.9505556719762611   -0.03016357425429761   -0.003460071683088581
-2.400794304444789   -0.02624360691493155   0.1414912585269787
-2.400794304444789   -0.02624360691493155   0.1414912585269787
-2.400794304444789   -0.02624360691493155   0.1414912585269787
-2.400794304444789   -0.02624360691493155   0.1414912585269787
-1.6310380803683016   -0.007023653017981524   -0.04381645356673507
-1.6310380803683016   -0.007023653017981524   -0.04381645356673507
-1.6310380803683016   -0.007023653017981524   -0.04381645356673507
-1.6310380803683016   -0.007023653017981524   -0.04381645356673507
-1.566883714662923   0.1638883906397191   0.09821835022971746
-1.566883714662923   0.1638883906397191   0.09821835022971746
-1.566883714662923   0.1638883906397191   0.09821835022971746
-1.566883714662923   0.1638883906397191   0.09821835022971746
-2.4312586676914267   -0.147465906869503   -0.07051339062425249
-2.4312586676914267   -0.147465906869503   -0.07051339062425249
-2.4312586676914267   -0.147465906869503   -0.07051339062425249
-2.4312586676914267   -0.147465906869503   -0.07051339062425249
-1.954804954921136   0.00712374542124905   0.02259887112078003
-1.954804954921136   0.00712374542124905   0.02259887112078003
-1.954804954921136   0.00712374542124905   0.02259887112078003
-1.954804954921136   0.00712374542124905   0.02259887112078003
-2.3673763833041717   0.0036938431283585205   0.0977382813141596
-2.3673763833041717   0.0036938431283585205   0.0977382813141596
-2.3673763833041717   0.0036938431283585205   0.0977382813141596
-2.3673763833041717   0.0036938431283585205   0.0977382813141596
-1.627203827502651   0.016290812189387216   -0.055784635518577375
-1.627203827502651   0.016290812189387216   -0.055784635518577375
-1.627203827502651   0.016290812189387216   -0.055784635518577375
-1.627203827502651   0.016290812189387216   -0.055784635518577375
-1.5684430152850761   0.18491473565934868   0.07793144470044824
-1.5684430152850761   0.18491473565934868   0.07793144470044824
-1.5684430152850761   0.18491473565934868   0.07793144470044824
-1.5684430152850761   0.18491473565934868   0.07793144470044824
-2.381735820309371   -0.11693589881485245   -0.08993866450648774
-2.381735820309371   -0.11693589881485245   -0.08993866450648774
-2.381735820309371   -0.11693589881485245   -0.08993866450648774
-2.381735820309371   -0.11693589881485245   -0.08993866450648774
-1.8987048647643476   0.040499889360875285   0.04690602672561575
-1.8987048647643476   0.040499889360875285   0.04690602672561575
-1.8987048647643476   0.040499889360875285   0.04690602672561575
-1.8987048647643476   0.040499889360875285   0.04690602672561575
-1.6368895901634952   -0.1551877603121696   0.035738950197956615
-1.6368895901634952   -0.1551877603121696   0.035738950197956615
-1.6368895901634952   -0.1551877603121696   0.035738950197956615
-1.6368895901634952   -0.1551877603121696   0.035738950197956615
-0.8262003314364581   -0.029762551499529222   0.0016050049131852984
-0.8262003314364581   -0.029762551499529222   0.0016050049131852984
-0.8262003314364581   -0.029762551499529222   0.0016050049131852984
-0.8262003314364581   -0.029762551499529222   0.0016050049131852984
-0.8028384090805832   0.081209616101561   0.05758346531931259
-0.8028384090805832   0.081209616101561   0.05758346531931259
-0.8028384090805832   0.081209616101561   0.05758346531931259
-0.8028384090805832   0.081209616101561   0.05758346531931259
-1.662937755342566   -0.15304325349756112   -0.05729522795847517
-1.662937755342566   -0.15304325349756112   -0.05729522795847517
-1.662937755342566   -0.15304325349756112   -0.05729522795847517
-1.662937755342566   -0.15304325349756112   -0.05729522795847517
-1.2278243309408026   -0.06025010948736376   -0.02481452789769184
-1.2278243309408026   -0.06025010948736376   -0.02481452789769184
-1.2278243309408026   -0.06025010948736376   -0.02481452789769184
-1.2278243309408026   -0.06025010948736376   -0.02481452789769184
-1.63177839342146   -0.0891695068338158   0.03462783498330278
-1.63177839342146   -0.0891695068338158   0.03462783498330278
-1.63177839342146   -0.0891695068338158   0.03462783498330278
-1.63177839342146   -0.0891695068338158   0.03462783498330278
-0.8276782696291252   0.023655370810380355   -0.009061592132208765
-0.8276782696291252   0.023655370810380355   -0.009061592132208765
-0.8276782696291252   0.023655370810380355   -0.009061592132208765
-0.8276782696291252   0.023655370810380355   -0.009061592132208765
-0.8003293858522993   0.13413124557735495   0.049828943928794486
-0.8003293858522993   0.13413124557735495   0.049828943928794486
-0.8003293858522993   0.13413124557735495   0.049828943928794486
-0.8003293858522993   0.13413124557735495   0.049828943928794486
-1.6535613359828056   -0.10363749303661357   -0.067643872693362
-1.6535613359828056   -0.10363749303661357   -0.067643872693362
-1.6535613359828056   -0.10363749303661357   -0.067643872693362
-1.6535613359828056   -0.10363749303661357   -0.067643872693362
-1.214457493819192   -0.006689610078174535   -5.395812091618657e-05
-1.214457493819192   -0.006689610078174535   -5.395812091618657e-05
-1.214457493819192   -0.006689610078174535   -5.395812091618657e-05
-1.214457493819192   -0.006689610078174535   -5.395812091618657e-05
-1.6217643935443313   -0.03548406287860972   0.0231874093410053
-1.6217643935443313   -0.03548406287860972   0.0231874093410053
-1.6217643935443313   -0.03548406287860972   0.0231874093410053
-1.6217643935443313   -0.03548406287860972   0.0231874093410053
-0.826980137832726   0.07112400587740256   -0.020417576273376467
-0.826980137832726   0.07112400587740256   -0.020417576273376467
-0.826980137832726   0.07112400587740256   -0.020417576273376467
-0.826980137832726   0.07112400587740256   -0.020417576273376467
-0.8001250104424082   0.18973500129754103   0.03734493308212125
-0.8001250104424082   0.18973500129754103   0.03734493308212125
-0.8001250104424082   0.18973500129754103   0.03734493308212125
-0.8001250104424082   0.18973500129754103   0.03734493308212125
-1.6456392129185478   -0.050337443973278995   -0.07279736383429063
-1.6456392129185478   -0.050337443973278995   -0.07279736383429063
-1.6456392129185478   -0.050337443973278995   -0.07279736383429063
-1.6456392129185478   -0.050337443973278995   -0.07279736383429063
-1.2152879959852552   0.04241258793071684   0.018863523872137453
-1.2152879959852552   0.04241258793071684   0.018863523872137453
-1.2152879959852552   0.04241258793071684   0.018863523872137453
-1.2152879959852552   0.04241258793071684   0.018863523872137453
-0.8570147093899446   -0.17727976532575956   -0.0049496710280240745
-0.8570147093899446   -0.17727976532575956   -0.0049496710280240745
-0.8570147093899446   -0.17727976532575956   -0.0049496710280240745
-0.8570147093899446   -0.17727976532575956   -0.0049496710280240745
-0.027965534790165083   0.00891365689939876   0.03660263220198198
-0.027965534790165083   0.00891365689939876   0.03660263220198198
-0.027965534790165083   0.00891365689939876   0.03660263220198198
-0.027965534790165083   0.00891365689939876   0.03660263220198198
-0.031132150332751064   0.05246747428694654   0.017486269491035236
-0.031132150332751064   0.05246747428694654   0.017486269491035236
-0.031132150332751064   0.05246747428694654   0.017486269491035236
-0.031132150332751064   0.05246747428694654   0.017486269491035236
-0.857623588675937   -0.11367140026757973   -0.021461416288321166
-0.857623588675937   -0.11367140026757973   -0.021461416288321166
-0.857623588675937   -0.11367140026757973   -0.021461416288321166
-0.857623588675937   -0.11367140026757973   -0.021461416288321166
-0.4447911041214162   -0.05553494098159114   -0.013875894248630135
-0.4447911041214162   -0.05553494098159114   -0.013875894248630135
-0.4447911041214162   -0.05553494098159114   -0.013875894248630135
-0.4447911041214162   -0.05553494098159114   -0.013875894248630135
-0.8567007997277665   -0.11853940321106057   -0.01197946860398217
-0.8567007997277665   -0.11853940321106057   -0.01197946860398217
-0.8567007997277665   -0.11853940321106057   -0.01197946860398217
-0.8567007997277665   -0.11853940321106057   -0.01197946860398217
-0.027342942711913   0.062047473799433865   0.02685230808273823
-0.027342942711913   0.062047473799433865   0.02685230808273823
-0.027342942711913   0.062047473799433865   0.02685230808273823
-0.027342942711913   0.062047473799433865   0.02685230808273823
-0.027257113245271962   0.11012871974379168   0.008406597178034242
-0.027257113245271962   0.11012871974379168   0.008406597178034242
-0.027257113245271962   0.11012871974379168   0.008406597178034242
-0.027257113245271962   0.11012871974379168   0.008406597178034242
-0.8555008165970442   -0.06044982377475519   -0.03144714044281985
-0.8555008165970442   -0.06044982377475519   -0.03144714044281985
-0.8555008165970442   -0.06044982377475519   -0.03144714044281985
-0.8555008165970442   -0.06044982377475519   -0.03144714044281985
-0.44050292075100067   -0.002211425488805041   0.006128039348229416
-0.44050292075100067   -0.002211425488805041   0.006128039348229416
-0.44050292075100067   -0.002211425488805041   0.006128039348229416
-0.44050292075100067   -0.002211425488805041   0.006128039348229416
-0.8542122047627174   -0.0616953325037434   -0.023758572542197577
-0.8542122047627174   -0.0616953325037434   -0.023758572542197577
-0.8542122047627174   -0.0616953325037434   -0.023758572542197577
-0.8542122047627174   -0.0616953325037434   -0.023758572542197577
-0.024654562073366658   0.11526539147901489   0.016282681302337534
-0.024654562073366658   0.11526539147901489   0.016282681302337534
-0.024654562073366658   0.11526539147901489   0.016282681302337534
-0.024654562073366658   0.11526539147901489   0.016282681302337534
-0.026459887944176037   0.16951692525540846   -0.0012824426711541964
-0.026459887944176037   0.16951692525540846   -0.0012824426711541964
-0.026459887944176037   0.16951692525540846   -0.0012824426711541964
-0.026459887944176037   0.16951692525540846   -0.0012824426711541964
-0.8551114175338005   -0.006319556406852861   -0.041532544670442866
-0.8551114175338005   -0.006319556406852861   -0.041532544670442866
-0.8551114175338005   -0.006319556406852861   -0.041532544670442866
-0.8551114175338005   -0.006319556406852861   -0.041532544670442866
-0.43718024134970346   0.051162470408752714   0.024471447819216025
-0.43718024134970346   0.051162470408752714   0.024471447819216025
-0.43718024134970346   0.051162470408752714   0.024471447819216025
-0.43718024134970346   0.051162470408752714   0.024471447819216025
-0.08436932675428713   -0.1940400083904728   -0.04246266232875622
-0.08436932675428713   -0.1940400083904728   -0.04246266232875622
-0.08436932675428713   -0.1940400083904728   -0.04246266232875622
-0.08436932675428713   -0.1940400083904728   -0.04246266232875622
0.7673348995346644   0.05420114137577048   0.06957923785252956
0.7673348995346644   0.05420114137577048   0.06957923785252956
0.7673348995346644   0.05420114137577048   0.06957923785252956
0.7673348995346644   0.05420114137577048   0.06957923785252956
0.7422483462573269   0.02887457335870089   -0.027370777684609292
0.7422483462573269   0.02887457335870089   -0.027370777684609292
0.7422483462573269   0.02887457335870089   -0.027370777684609292
0.7422483462573269   0.02887457335870089   -0.027370777684609292
-0.05636169023462939   -0.07111218788718275   0.014918232155772902
-0.05636169023462939   -0.07111218788718275   0.014918232155772902
-0.05636169023462939   -0.07111218788718275   0.014918232155772902
-0.05636169023462939   -0.07111218788718275   0.014918232155772902
0.3373723171449341   -0.0448301447868885   -0.007815347747488564
0.3373723171449341   -0.0448301447868885   -0.007815347747488564
0.3373723171449341   -0.0448301447868885   -0.007815347747488564
0.3373723171449341   -0.0448301447868885   -0.007815347747488564
-0.08410007245302811   -0.14158177350927376   -0.0533040933141297
-0.08410007245302811   -0.14158177350927376   -0.0533040933141297
-0.08410007245302811   -0.14158177350927376   -0.0533040933141297
-0.08410007245302811   -0.14158177350927376   -0.0533040933141297
0.7753454822147937   0.10470291271986189   0.062286562741557694
0.7753454822147937   0.10470291271986189   0.062286562741557694
0.7753454822147937   0.10470291271986189   0.062286562741557694
0.7753454822147937   0.10470291271986189   0.062286562741557694
0.7541781796745591   0.08251232750217566   -0.0384548877626872
0.7541781796745591   0.08251232750217566   -0.0384548877626872
0.7541781796745591   0.08251232750217566   -0.0384548877626872
0.7541781796745591   0.08251232750217566   -0.0384548877626872
-0.054797007555303485   -0.023430129152086934   0.004265974523755826
-0.054797007555303485   -0.023430129152086934   0.004265974523755826
-0.054797007555303485   -0.023430129152086934   0.004265974523755826
-0.054797007555303485   -0.023430129152086934   0.004265974523755826
0.34027585480340045   0.003395320369528193   0.012056209545806877
0.34027585480340045   0.003395320369528193   0.012056209545806877
0.34027585480340045   0.003395320369528193   0.012056209545806877
0.34027585480340045   0.003395320369528193   0.012056209545806877
-0.08177302431448544   -0.08982981952328642   -0.06421441890095506
-0.08177302431448544   -0.08982981952328642   -0.06421441890095506
-0.08177302431448544   -0.08982981952328642   -0.06421441890095506
-0.08177302431448544   -0.08982981952328642   -0.06421441890095506
0.7869935476296914   0.15475136906932707   0.05338291044581557
0.7869935476296914   0.15475136906932707   0.05338291044581557
0.7869935476296914   0.15475136906932707   0.05338291044581557
0.7869935476296914   0.15475136906932707   0.05338291044581557
0.7615092987935672   0.14979483590701334   -0.04011871493013675
0.7615092987935672   0.14979483590701334   -0.04011871493013675
0.7615092987935672   0.14979483590701334   -0.04011871493013675
0.7615092987935672   0.14979483590701334   -0.04011871493013675
-0.0549159292306146   0.03231412214748046   -0.006359845995418688
-0.0549159292306146   0.03231412214748046   -0.006359845995418688
-0.0549159292306146   0.03231412214748046   -0.006359845995418688
-0.0549159292306146   0.03231412214748046   -0.006359845995418688
0.35196393293561606   0.05719586250268757   0.03566476575158772
0.35196393293561606   0.05719586250268757   0.03566476575158772
0.35196393293561606   0.05719586250268757   0.03566476575158772
0.35196393293561606   0.05719586250268757   0.03566476575158772
0.687531562990338   -0.19262271206964787   -0.08261359142367668
0.687531562990338   -0.19262271206964787   -0.08261359142367668
0.687531562990338   -0.19262271206964787   -0.08261359142367668
0.687531562990338   -0.19262271206964787   -0.08261359142367668
1.5109202855742765   0.11224667939561764   0.0772813808005186
1.5109202855742765   0.11224667939561764   0.0772813808005186
1.5109202855742765   0.11224667939561764   0.0772813808005186
1.5109202855742765   0.11224667939561764   0.0772813808005186
1.4991230290314108   -0.006769464589516272   -0.10995925646952187
1.4991230290314108   -0.006769464589516272   -0.10995925646952187
1.4991230290314108   -0.006769464589516272   -0.10995925646952187
1.4991230290314108   -0.006769464589516272   -0.10995925646952187
0.7490718193729159   -0.016221026910824388   0.05184218816286106
0.7490718193729159   -0.016221026910824388   0.05184218816286106
0.7490718193729159   -0.016221026910824388   0.05184218816286106
0.7490718193729159   -0.016221026910824388   0.05184218816286106
1.0577052238286209   -0.03749222070691954   -0.03463986317267484
1.0577052238286209   -0.03749222070691954   -0.03463986317267484
1.0577052238286209   -0.03749222070691954   -0.03463986317267484
1.0577052238286209   -0.03749222070691954   -0.03463986317267484
0.6881653167194735   -0.16729285513419506   -0.10161849688097829
0.6881653167194735   -0.16729285513419506   -0.10161849688097829
0.6881653167194735   -0.16729285513419506   -0.10161849688097829
0.6881653167194735   -0.16729285513419506   -0.10161849688097829
1.5644074894271194   0.148680321376121   0.06101325954338426
1.5644074894271194   0.148680321376121   0.06101325954338426
1.5644074894271194   0.148680321376121   0.06101325954338426
1.5644074894271194   0.148680321376121   0.06101325954338426
1.535717064186478   0.023824747882818298   -0.14744489500450764
1.535717064186478   0.023824747882818298   -0.14744489500450764
1.535717064186478   0.023824747882818298   -0.14744489500450764
1.535717064186478   0.023824747882818298   -0.14744489500450764
0.7545100434254444   0.007114888378503714   0.03860187011541647
0.7545100434254444   0.007114888378503714   0.03860187011541647
0.7545100434254444   0.007114888378503714   0.03860187011541647
0.7545100434254444   0.007114888378503714   0.03860187011541647
1.1054287806912855   -0.0044328710901797574   -0.010602957940713899
1.1054287806912855   -0.0044328710901797574   -0.010602957940713899
1.1054287806912855   -0.0044328710901797574   -0.010602957940713899
1.1054287806912855   -0.0044328710901797574   -0.010602957940713899
0.6959048719674494   -0.1367587760994146   -0.11055032269664535
0.6959048719674494   -0.1367587760994146   -0.11055032269664535
0.6959048719674494   -0.1367587760994146   -0.11055032269664535
0.6959048719674494   -0.1367587760994146   -0.11055032269664535
1.6039900500656492   0.177366226781912   0.04037855549226835
1.6039900500656492   0.177366226781912   0.04037855549226835
1.6039900500656492   0.177366226781912   0.04037855549226835
1.6039900500656492   0.177366226781912   0.04037855549226835
1.5938322336164592   0.1034387765910586   -0.13864157662136378
1.5938322336164592   0.1034387765910586   -0.13864157662136378
1.5938322336164592   0.1034387765910586   -0.13864157662136378
1.5938322336164592   0.1034387765910586   -0.13864157662136378
0.7569533003411267   0.05872628461704282   0.02816984409764601
0.7569533003411267   0.05872628461704282   0.02816984409764601
0.7569533003411267   0.05872628461704282   0.02816984409764601
0.7569533003411267   0.05872628461704282   0.02816984409764601
1.1134540596355365   0.033394446761239954   0.015969627376541666
1.1134540596355365   0.033394446761239954   0.015969627376541666
1.1134540596355365   0.033394446761239954   0.015969627376541666
1.1134540596355365   0.033394446761239954   0.015969627376541666
-1.7582985486347706   -0.057616239752858234   0.11445468502335937
-1.7582985486347706   -0.057616239752858234   0.11445468502335937
-1.7582985486347706   -0.057616239752858234   0.11445468502335937
-1.7582985486347706   -0.057616239752858234   0.11445468502335937
-1.2295451394793429   -0.08195734419329656   -0.04326954814398384
-1.2295451394793429   -0.08195734419329656   -0.04326954814398384
-1.2295451394793429   -0.08195734419329656   -0.04326954814398384
-1.2295451394793429   -0.08195734419329656   -0.04326954814398384
-1.1574025920226239   0.11599044421406884   0.09761854424783896
-1.1574025920226239   0.11599044421406884   0.09761854424783896
-1.1574025920226239   0.11599044421406884   0.09761854424783896
-1.1574025920226239   0.11599044421406884   0.09761854424783896
-1.758443272682758   -0.1447028288620678   -0.06328431913223322
-1.758443272682758   -0.1447028288620678   -0.06328431913223322
-1.758443272682758   -0.1447028288620678   -0.06328431913223322
-1.758443272682758   -0.1447028288620678   -0.06328431913223322
-1.4154199823024944   -0.022597792248977067   -0.0029799940795315893
-1.4154199823024944   -0.022597792248977067   -0.0029799940795315893
-1.4154199823024944   -0.022597792248977067   -0.0029799940795315893
-1.4154199823024944   -0.022597792248977067   -0.0029799940795315893
-1.692834609521842   0.011159637855593041   0.10889652995468369
-1.692834609521842   0.011159637855593041   0.10889652995468369
-1.692834609521842   0.011159637855593041   0.10889652995468369
-1.692834609521842   0.011159637855593041   0.10889652995468369
-1.2176766642531496   -0.03453743157319644   -0.05322394111751576
-1.2176766642531496   -0.03453743157319644   -0.05322394111751576
-1.2176766642531496   -0.03453743157319644   -0.05322394111751576
-1.2176766642531496   -0.03453743157319644   -0.05322394111751576
-1.1465088363123699   0.14008912781330063   0.08251195141070838
-1.1465088363123699   0.14008912781330063   0.08251195141070838
-1.1465088363123699   0.14008912781330063   0.08251195141070838
-1.1465088363123699   0.14008912781330063   0.08251195141070838
-1.7169157066075929   -0.11784420715275584   -0.08002368022571109
-1.7169157066075929   -0.11784420715275584   -0.08002368022571109
-1.7169157066075929   -0.11784420715275584   -0.08002368022571109
-1.7169157066075929   -0.11784420715275584   -0.08002368022571109
-1.405591777176829   0.009196755155056358   0.014946820101111286
-1.405591777176829   0.009196755155056358   0.014946820101111286
-1.405591777176829   0.009196755155056358   0.014946820101111286
-1.405591777176829   0.009196755155056358   0.014946820101111286
-1.6518567590043365   0.040002102600273426   0.0874247480375444
-1.6518567590043365   0.040002102600273426   0.0874247480375444
-1.6518567590043365   0.040002102600273426   0.0874247480375444
-1.6518567590043365   0.040002102600273426   0.0874247480375444
-1.2067420543273992   -0.012931452351500228   -0.0656335584996267
-1.2067420543273992   -0.012931452351500228   -0.0656335584996267
-1.2067420543273992   -0.012931452351500228   -0.0656335584996267
-1.2067420543273992   -0.012931452351500228   -0.0656335584996267
-1.1404738660679576   0.16350506645919216   0.07100420762232187
-1.1404738660679576   0.16350506645919216   0.07100420762232187
-1.1404738660679576   0.16350506645919216   0.07100420762232187
-1.1404738660679576   0.16350506645919216   0.07100420762232187
-1.661269078335624   -0.08235768882971523   -0.09582441466493465
-1.661269078335624   -0.08235768882971523   -0.09582441466493465
-1.661269078335624   -0.08235768882971523   -0.09582441466493465
-1.661269078335624   -0.08235768882971523   -0.09582441466493465
-1.3528939050998774   0.03896421375013143   0.04012619949433082
-1.3528939050998774   0.03896421375013143   0.04012619949433082
-1.3528939050998774   0.03896421375013143   0.04012619949433082
-1.3528939050998774   0.03896421375013143   0.04012619949433082
-1.2158170990091288   -0.09943686999495499   0.042850180008733495
-1.2158170990091288   -0.09943686999495499   0.042850180008733495
-1.2158170990091288   -0.09943686999495499   0.042850180008733495
-1.2158170990091288   -0.09943686999495499   0.042850180008733495
-0.7043901522776046   -0.05311126227555876   -0.006980982594765227
-0.7043901522776046   -0.05311126227555876   -0.006980982594765227
-0.7043901522776046   -0.05311126227555876   -0.006980982594765227
-0.7043901522776046   -0.05311126227555876   -0.006980982594765227
-0.6686148424240959   0.06780760133431316   0.05263613328242598
-0.6686148424240959   0.06780760133431316   0.05263613328242598
-0.6686148424240959   0.06780760133431316   0.05263613328242598
-0.6686148424240959   0.06780760133431316   0.05263613328242598
-1.2340709509537238   -0.11829130382782499   -0.051441502365766306
-1.2340709509537238   -0.11829130382782499   -0.051441502365766306
-1.2340709509537238   -0.11829130382782499   -0.051441502365766306
-1.2340709509537238   -0.11829130382782499   -0.051441502365766306
-0.9518599324392814   -0.04645720922594118   -0.01937426267955164
-0.9518599324392814   -0.04645720922594118   -0.01937426267955164
-0.9518599324392814   -0.04645720922594118   -0.01937426267955164
-0.9518599324392814   -0.04645720922594118   -0.01937426267955164
-1.2015828673852351   -0.042309756653859276   0.03501736830270295
-1.2015828673852351   -0.042309756653859276   0.03501736830270295
-1.2015828673852351   -0.042309756653859276   0.03501736830270295
-1.2015828673852351   -0.042309756653859276   0.03501736830270295
-0.6969367077042072   -0.00400772755128409   -0.017157864232547802
-0.6969367077042072   -0.00400772755128409   -0.017157864232547802
-0.6969367077042072   -0.00400772755128409   -0.017157864232547802
-0.6969367077042072   -0.00400772755128409   -0.017157864232547802
-0.6601083247832379   0.11721473778849051   0.04316427023259076
-0.6601083247832379   0.11721473778849051   0.04316427023259076
-0.6601083247832379   0.11721473778849051   0.04316427023259076
-0.6601083247832379   0.11721473778849051   0.04316427023259076
-1.217478999511343   -0.07164401243028681   -0.06060572434057306
-1.217478999511343   -0.07164401243028681   -0.06060572434057306
-1.217478999511343   -0.07164401243028681   -0.06060572434057306
-1.217478999511343   -0.07164401243028681   -0.06060572434057306
-0.9335864807701154   0.0021304203166442326   0.001497146481871818
-0.9335864807701154   0.0021304203166442326   0.001497146481871818
-0.9335864807701154   0.0021304203166442326   0.001497146481871818
-0.9335864807701154   0.0021304203166442326   0.001497146481871818
-1.1825318589961085   0.010495308383718038   0.03199065742159664
-1.1825318589961085   0.010495308383718038   0.03199065742159664
-1.1825318589961085   0.010495308383718038   0.03199065742159664
-1.1825318589961085   0.010495308383718038   0.03199065742159664
-0.689881659782145   0.04024922249081378   -0.028736889464268146
-0.689881659782145   0.04024922249081378   -0.028736889464268146
-0.689881659782145   0.04024922249081378   -0.028736889464268146
-0.689881659782145   0.04024922249081378   -0.028736889464268146
-0.6518902075666754   0.16984057456752838   0.03434372351785842
-0.6518902075666754   0.16984057456752838   0.03434372351785842
-0.6518902075666754   0.16984057456752838   0.03434372351785842
-0.6518902075666754   0.16984057456752838   0.03434372351785842
-1.2050523885224025   -0.02139500276865358   -0.06698833542205745
-1.2050523885224025   -0.02139500276865358   -0.06698833542205745
-1.2050523885224025   -0.02139500276865358   -0.06698833542205745
-1.2050523885224025   -0.02139500276865358   -0.06698833542205745
-0.9265171631368069   0.04782384228866657   0.02136254433232819
-0.9265171631368069   0.04782384228866657   0.02136254433232819
-0.9265171631368069   0.04782384228866657   0.02136254433232819
-0.9265171631368069   0.04782384228866657   0.02136254433232819
-0.7193063873046516   -0.13634143670417354   0.0016680166986171668
-0.7193063873046516   -0.13634143670417354   0.0016680166986171668
-0.7193063873046516   -0.13634143670417354   0.0016680166986171668
-0.7193063873046516   -0.13634143670417354   0.0016680166986171668
-0.18471414643601716   -0.01577037429967496   0.02934125322619716
-0.18471414643601716   -0.01577037429967496   0.02934125322619716
-0.18471414643601716   -0.01577037429967496   0.02934125322619716
-0.18471414643601716   -0.01577037429967496   0.02934125322619716
-0.18015223943274744   0.02811631751816296   0.010005823397218139
-0.18015223943274744   0.02811631751816296   0.010005823397218139
-0.18015223943274744   0.02811631751816296   0.010005823397218139
-0.18015223943274744   0.02811631751816296   0.010005823397218139
-0.7114135329441689   -0.07982192642555948   -0.013727791558078326
-0.7114135329441689   -0.07982192642555948   -0.013727791558078326
-0.7114135329441689   -0.07982192642555948   -0.013727791558078326
-0.7114135329441689   -0.07982192642555948   -0.013727791558078326
-0.4496589237905018   -0.048781442656784066   -0.01376210855845315
-0.4496589237905018   -0.048781442656784066   -0.01376210855845315
-0.4496589237905018   -0.048781442656784066   -0.01376210855845315
-0.4496589237905018   -0.048781442656784066   -0.01376210855845315
-0.710257158064711   -0.08121616633745082   -0.006551677248892326
-0.710257158064711   -0.08121616633745082   -0.006551677248892326
-0.710257158064711   -0.08121616633745082   -0.006551677248892326
-0.710257158064711   -0.08121616633745082   -0.006551677248892326
-0.17713201914218737   0.033687152600073975   0.019536089768107386
-0.17713201914218737   0.033687152600073975   0.019536089768107386
-0.17713201914218737   0.033687152600073975   0.019536089768107386
-0.17713201914218737   0.033687152600073975   0.019536089768107386
-0.16988194682126562   0.08348997996787572   0.0026330084945559995
-0.16988194682126562   0.08348997996787572   0.0026330084945559995
-0.16988194682126562   0.08348997996787572   0.0026330084945559995
-0.16988194682126562   0.08348997996787572   0.0026330084945559995
-0.7028993676861507   -0.030022796479002356   -0.02355341001447965
-0.7028993676861507   -0.030022796479002356   -0.02355341001447965
-0.7028993676861507   -0.030022796479002356   -0.02355341001447965
-0.7028993676861507   -0.030022796479002356   -0.02355341001447965
-0.4386903224424987   0.0009903011680751639   0.005903831782153344
-0.4386903224424987   0.0009903011680751639   0.005903831782153344
-0.4386903224424987   0.0009903011680751639   0.005903831782153344
-0.4386903224424987   0.0009903011680751639   0.005903831782153344
-0.7002897466108083   -0.026019834926914093   -0.014508266189856671
-0.7002897466108083   -0.026019834926914093   -0.014508266189856671
-0.7002897466108083   -0.026019834926914093   -0.014508266189856671
-0.7002897466108083   -0.026019834926914093   -0.014508266189856671
-0.16863543685905785   0.08334314945333854   0.009012388820132045
-0.16863543685905785   0.08334314945333854   0.009012388820132045
-0.16863543685905785   0.08334314945333854   0.009012388820132045
-0.16863543685905785   0.08334314945333854   0.009012388820132045
-0.16067221517966257   0.13966667445324513   -0.006040592724075491
-0.16067221517966257   0.13966667445324513   -0.006040592724075491
-0.16067221517966257   0.13966667445324513   -0.006040592724075491
-0.16067221517966257   0.13966667445324513   -0.006040592724075491
-0.6954206133684612   0.02035566146346321   -0.03382339238700202
-0.6954206133684612   0.02035566146346321   -0.03382339238700202
-0.6954206133684612   0.02035566146346321   -0.03382339238700202
-0.6954206133684612   0.02035566146346321   -0.03382339238700202
-0.42867514352548713   0.051000436718292144   0.024849930543188264
-0.42867514352548713   0.051000436718292144   0.024849930543188264
-0.42867514352548713   0.051000436718292144   0.024849930543188264
-0.42867514352548713   0.051000436718292144   0.024849930543188264
-0.22846721311300416   -0.16659501634662388   -0.03859943811179027
-0.22846721311300416   -0.16659501634662388   -0.03859943811179027
-0.22846721311300416   -0.16659501634662388   -0.03859943811179027
-0.22846721311300416   -0.16659501634662388   -0.03859943811179027
0.3282207081545252   0.026115209220139678   0.06363537106006177
0.3282207081545252   0.026115209220139678   0.06363537106006177
0.3282207081545252   0.026115209220139678   0.06363537106006177
0.3282207081545252   0.026115209220139678   0.06363537106006177
0.30550016077102704   -0.008801095575287916   -0.03538815729040939
0.30550016077102704   -0.008801095575287916   -0.03538815729040939
0.30550016077102704   -0.008801095575287916   -0.03538815729040939
0.30550016077102704   -0.008801095575287916   -0.03538815729040939
-0.1908159511434366   -0.038726153985595965   0.023529736347529445
-0.1908159511434366   -0.038726153985595965   0.023529736347529445
-0.1908159511434366   -0.038726153985595965   0.023529736347529445
-0.1908159511434366   -0.038726153985595965   0.023529736347529445
0.051530332844815646   -0.04569944648661333   -0.009790378853830484
0.051530332844815646   -0.04569944648661333   -0.009790378853830484
0.051530332844815646   -0.04569944648661333   -0.009790378853830484
0.051530332844815646   -0.04569944648661333   -0.009790378853830484
-0.2205607680192974   -0.11643312523228602   -0.047487376785082774
-0.2205607680192974   -0.11643312523228602   -0.047487376785082774
-0.2205607680192974   -0.11643312523228602   -0.047487376785082774
-0.2205607680192974   -0.11643312523228602   -0.047487376785082774
0.3402161264669586   0.07387702449147437   0.05551355112248597
0.3402161264669586   0.07387702449147437   0.05551355112248597
0.3402161264669586   0.07387702449147437   0.05551355112248597
0.3402161264669586   0.07387702449147437   0.05551355112248597
0.32459626951331105   0.04357766550869345   -0.04008832924097208
0.32459626951331105   0.04357766550869345   -0.04008832924097208
0.32459626951331105   0.04357766550869345   -0.04008832924097208
0.32459626951331105   0.04357766550869345   -0.04008832924097208
-0.18340339711941925   0.005809461099179826   0.012706275872482135
-0.18340339711941925   0.005809461099179826   0.012706275872482135
-0.18340339711941925   0.005809461099179826   0.012706275872482135
-0.18340339711941925   0.005809461099179826   0.012706275872482135
0.06167988781077779   -0.0005846706152225767   0.01021055518976766
0.06167988781077779   -0.0005846706152225767   0.01021055518976766
0.06167988781077779   -0.0005846706152225767   0.01021055518976766
0.06167988781077779   -0.0005846706152225767   0.01021055518976766
-0.21210821810543762   -0.06728936646545676   -0.057719001492971496
-0.21210821810543762   -0.06728936646545676   -0.057719001492971496
-0.21210821810543762   -0.06728936646545676   -0.057719001492971496
-0.21210821810543762   -0.06728936646545676   -0.057719001492971496
0.35761180633799317   0.12098720891199323   0.04757981147913676
0.35761180633799317   0.12098720891199323   0.04757981147913676
0.35761180633799317   0.12098720891199323   0.04757981147913676
0.35761180633799317   0.12098720891199323   0.04757981147913676
0.3399685044371   0.10330052466540995   -0.04631226707348584
0.3399685044371   0.10330052466540995   -0.04631226707348584
0.3399685044371   0.10330052466540995   -0.04631226707348584
0.3399685044371   0.10330052466540995   -0.04631226707348584
-0.17547993742418128   0.05717717640844746   0.002410294098128516
-0.17547993742418128   0.05717717640844746   0.002410294098128516
-0.17547993742418128   0.05717717640844746   0.002410294098128516
-0.17547993742418128   0.05717717640844746   0.002410294098128516
0.077385390196969   0.04852419451089583   0.030932717201824788
0.077385390196969   0.04852419451089583   0.030932717201824788
0.077385390196969   0.04852419451089583   0.030932717201824788
0.077385390196969   0.04852419451089583   0.030932717201824788
0.26137798449584404   -0.16834222048567826   -0.07612081752752409
0.26137798449584404   -0.16834222048567826   -0.07612081752752409
0.26137798449584404   -0.16834222048567826   -0.07612081752752409
0.26137798449584404   -0.16834222048567826   -0.07612081752752409
0.7846006807477497   0.07727056131368616   0.08232184758899526
0.7846006807477497   0.07727056131368616   0.08232184758899526
0.7846006807477497   0.07727056131368616   0.08232184758899526
0.7846006807477497   0.07727056131368616   0.08232184758899526
0.7768378311876435   -0.0410761993454557   -0.10019968582502314
0.7768378311876435   -0.0410761993454557   -0.10019968582502314
0.7768378311876435   -0.0410761993454557   -0.10019968582502314
0.7768378311876435   -0.0410761993454557   -0.10019968582502314
0.329392025485821   0.013852898354984322   0.06141717235328979
0.329392025485821   0.013852898354984322   0.06141717235328979
0.329392025485821   0.013852898354984322   0.06141717235328979
0.329392025485821   0.013852898354984322   0.06141717235328979
0.51001501509194   -0.03472772975779352   -0.026858746961865243
0.51001501509194   -0.03472772975779352   -0.026858746961865243
0.51001501509194   -0.03472772975779352   -0.026858746961865243
0.51001501509194   -0.03472772975779352   -0.026858746961865243
0.26867363908703135   -0.1402778940480898   -0.08804396723758408
0.26867363908703135   -0.1402778940480898   -0.08804396723758408
0.26867363908703135   -0.1402778940480898   -0.08804396723758408
0.26867363908703135   -0.1402778940480898   -0.08804396723758408
0.8426247059866385   0.11812308145782492   0.06953540736667525
0.8426247059866385   0.11812308145782492   0.06953540736667525
0.8426247059866385   0.11812308145782492   0.06953540736667525
0.8426247059866385   0.11812308145782492   0.06953540736667525
0.8190452496239098   -0.011726557232693807   -0.12014056413902116
0.8190452496239098   -0.011726557232693807   -0.12014056413902116
0.8190452496239098   -0.011726557232693807   -0.12014056413902116
0.8190452496239098   -0.011726557232693807   -0.12014056413902116
0.34054302967701894   0.03534967518337869   0.04787346190287889
0.34054302967701894   0.03534967518337869   0.04787346190287889
0.34054302967701894   0.03534967518337869   0.04787346190287889
0.34054302967701894   0.03534967518337869   0.04787346190287889
0.5527106203950206   -0.005149066970198415   -0.003280614223359544
0.5527106203950206   -0.005149066970198415   -0.003280614223359544
0.5527106203950206   -0.005149066970198415   -0.003280614223359544
0.5527106203950206   -0.005149066970198415   -0.003280614223359544
0.2803111227265024   -0.11586045776469547   -0.1020759399016265
0.2803111227265024   -0.11586045776469547   -0.1020759399016265
0.2803111227265024   -0.11586045776469547   -0.1020759399016265
0.2803111227265024   -0.11586045776469547   -0.1020759399016265
0.8845558775008117   0.14476229664176238   0.05092372137103533
0.8845558775008117   0.14476229664176238   0.05092372137103533
0.8845558775008117   0.14476229664176238   0.05092372137103533
0.8845558775008117   0.14476229664176238   0.05092372137103533
0.883821357796213   0.052750251692632755   -0.1285783779794752
0.883821357796213   0.052750251692632755   -0.1285783779794752
0.883821357796213   0.052750251692632755   -0.1285783779794752
0.883821357796213   0.052750251692632755   -0.1285783779794752
0.35195677842752227   0.07889855285782374   0.03803107468620882
0.35195677842752227   0.07889855285782374   0.03803107468620882
0.35195677842752227   0.07889855285782374   0.03803107468620882
0.35195677842752227   0.07889855285782374   0.03803107468620882
0.5739090060869428   0.027477241381160533   0.016986022252795385
0.5739090060869428   0.027477241381160533   0.016986022252795385
0.5739090060869428   0.027477241381160533   0.016986022252795385
0.5739090060869428   0.027477241381160533   0.016986022252795385
-1.0552749541842967   -0.01790772441407401   0.1027083654570578
-1.0552749541842967   -0.01790772441407401   0.1027083654570578
-1.0552749541842967   -0.01790772441407401   0.1027083654570578
-1.0552749541842967   -0.01790772441407401   0.1027083654570578
-0.8221963232729187   -0.1042015988944721   -0.0508865914801272
-0.8221963232729187   -0.1042015988944721   -0.0508865914801272
-0.8221963232729187   -0.1042015988944721   -0.0508865914801272
-0.8221963232729187   -0.1042015988944721   -0.0508865914801272
-0.7442709615678683   0.08835817546119865   0.08784839136920923
-0.7442709615678683   0.08835817546119865   0.08784839136920923
-0.7442709615678683   0.08835817546119865   0.08784839136920923
-0.7442709615678683   0.08835817546119865   0.08784839136920923
-1.0507712553542063   -0.11442698903822322   -0.0692333380109574
-1.0507712553542063   -0.11442698903822322   -0.0692333380109574
-1.0507712553542063   -0.11442698903822322   -0.0692333380109574
-1.0507712553542063   -0.11442698903822322   -0.0692333380109574
-0.8829450718460098   -0.024349615411818903   -0.012849235556605346
-0.8829450718460098   -0.024349615411818903   -0.012849235556605346
-0.8829450718460098   -0.024349615411818903   -0.012849235556605346
-0.8829450718460098   -0.024349615411818903   -0.012849235556605346
-0.9859960465972759   0.04207218627381054   0.09814353046166559
-0.9859960465972759   0.04207218627381054   0.09814353046166559
-0.9859960465972759   0.04207218627381054   0.09814353046166559
-0.9859960465972759   0.04207218627381054   0.09814353046166559
-0.8045543143646391   -0.06364914389066634   -0.061561053262771115
-0.8045543143646391   -0.06364914389066634   -0.061561053262771115
-0.8045543143646391   -0.06364914389066634   -0.061561053262771115
-0.8045543143646391   -0.06364914389066634   -0.061561053262771115
-0.725755643173615   0.11125634527269593   0.07431901846756961
-0.725755643173615   0.11125634527269593   0.07431901846756961
-0.725755643173615   0.11125634527269593   0.07431901846756961
-0.725755643173615   0.11125634527269593   0.07431901846756961
-1.002593462459177   -0.08848142380817284   -0.08652687077402554
-1.002593462459177   -0.08848142380817284   -0.08652687077402554
-1.002593462459177   -0.08848142380817284   -0.08652687077402554
-1.002593462459177   -0.08848142380817284   -0.08652687077402554
-0.8577614727825996   0.005634013923678544   0.006269550851464301
-0.8577614727825996   0.005634013923678544   0.006269550851464301
-0.8577614727825996   0.005634013923678544   0.006269550851464301
-0.8577614727825996   0.005634013923678544   0.006269550851464301
-0.9377562792191418   0.06985661557805783   0.0793210060399164
-0.9377562792191418   0.06985661557805783   0.0793210060399164
-0.9377562792191418   0.06985661557805783   0.0793210060399164
-0.9377562792191418   0.06985661557805783   0.0793210060399164
-0.7863377433502278   -0.0428266110501134   -0.0745085260926775
-0.7863377433502278   -0.0428266110501134   -0.0745085260926775
-0.7863377433502278   -0.0428266110501134   -0.0745085260926775
-0.7863377433502278   -0.0428266110501134   -0.0745085260926775
-0.7107428960887541   0.13973223257950645   0.0640990101343038
-0.7107428960887541   0.13973223257950645   0.0640990101343038
-0.7107428960887541   0.13973223257950645   0.0640990101343038
-0.7107428960887541   0.13973223257950645   0.0640990101343038
-0.9378606555436543   -0.04695201312191777   -0.1001451134339634
-0.9378606555436543   -0.04695201312191777   -0.1001451134339634
-0.9378606555436543   -0.04695201312191777   -0.1001451134339634
-0.9378606555436543   -0.04695201312191777   -0.1001451134339634
-0.8068947538431842   0.03517418675844561   0.030010078720463795
-0.8068947538431842   0.03517418675844561   0.030010078720463795
-0.8068947538431842   0.03517418675844561   0.030010078720463795
-0.8068947538431842   0.03517418675844561   0.030010078720463795
-0.7934780076395926   -0.05985996605882796   0.04836335385085935
-0.7934780076395926   -0.05985996605882796   0.04836335385085935
-0.7934780076395926   -0.05985996605882796   0.04836335385085935
-0.7934780076395926   -0.05985996605882796   0.04836335385085935
-0.5816989117240574   -0.07901585139526177   -0.01507135919038396
-0.5816989117240574   -0.07901585139526177   -0.01507135919038396
-0.5816989117240574   -0.07901585139526177   -0.01507135919038396
-0.5816989117240574   -0.07901585139526177   -0.01507135919038396
-0.538210866193785   0.04015045730492928   0.0449072185380967
-0.538210866193785   0.04015045730492928   0.0449072185380967
-0.538210866193785   0.04015045730492928   0.0449072185380967
-0.538210866193785   0.04015045730492928   0.0449072185380967
-0.8051180607504679   -0.08449859157153043   -0.04353033751104847
-0.8051180607504679   -0.08449859157153043   -0.04353033751104847
-0.8051180607504679   -0.08449859157153043   -0.04353033751104847
-0.8051180607504679   -0.08449859157153043   -0.04353033751104847
-0.6777287561015545   -0.04220911401062534   -0.01820399235162876
-0.6777287561015545   -0.04220911401062534   -0.01820399235162876
-0.6777287561015545   -0.04220911401062534   -0.01820399235162876
-0.6777287561015545   -0.04220911401062534   -0.01820399235162876
-0.7727830652366584   -0.007513513761643165   0.041159562248093376
-0.7727830652366584   -0.007513513761643165   0.041159562248093376
-0.7727830652366584   -0.007513513761643165   0.041159562248093376
-0.7727830652366584   -0.007513513761643165   0.041159562248093376
-0.5669227045190515   -0.033211463316415044   -0.02529005246688786
-0.5669227045190515   -0.033211463316415044   -0.02529005246688786
-0.5669227045190515   -0.033211463316415044   -0.02529005246688786
-0.5669227045190515   -0.033211463316415044   -0.02529005246688786
-0.5222393888274691   0.08671008706793121   0.03592516246664309
-0.5222393888274691   0.08671008706793121   0.03592516246664309
-0.5222393888274691   0.08671008706793121   0.03592516246664309
-0.5222393888274691   0.08671008706793121   0.03592516246664309
-0.78123404021842   -0.03970787652362687   -0.052108744960119295
-0.78123404021842   -0.03970787652362687   -0.052108744960119295
-0.78123404021842   -0.03970787652362687   -0.052108744960119295
-0.78123404021842   -0.03970787652362687   -0.052108744960119295
-0.6546598122713665   0.0027106562880488128   0.0019154334135144183
-0.6546598122713665   0.0027106562880488128   0.0019154334135144183
-0.6546598122713665   0.0027106562880488128   0.0019154334135144183
-0.6546598122713665   0.0027106562880488128   0.0019154334135144183
-0.7470024412528959   0.042033932298572246   0.03730744104528823
-0.7470024412528959   0.042033932298572246   0.03730744104528823
-0.7470024412528959   0.042033932298572246   0.03730744104528823
-0.7470024412528959   0.042033932298572246   0.03730744104528823
-0.5522880766534998   0.00915118938522036   -0.036759378980803455
-0.5522880766534998   0.00915118938522036   -0.036759378980803455
-0.5522880766534998   0.00915118938522036   -0.036759378980803455
-0.5522880766534998   0.00915118938522036   -0.036759378980803455
-0.5063197802001227   0.1372232441364673   0.027370290781267216
-0.5063197802001227   0.1372232441364673   0.027370290781267216
-0.5063197802001227   0.1372232441364673   0.027370290781267216
-0.5063197802001227   0.1372232441364673   0.027370290781267216
-0.7614989587793232   0.009188646857872185   -0.059137717596898724
-0.7614989587793232   0.009188646857872185   -0.059137717596898724
-0.7614989587793232   0.009188646857872185   -0.059137717596898724
-0.7614989587793232   0.009188646857872185   -0.059137717596898724
-0.6379689489263456   0.046716776984478375   0.021584070272886346
-0.6379689489263456   0.046716776984478375   0.021584070272886346
-0.6379689489263456   0.046716776984478375   0.021584070272886346
-0.6379689489263456   0.046716776984478375   0.021584070272886346
-0.5810284371582085   -0.09920704220053192   0.008472204444119266
-0.5810284371582085   -0.09920704220053192   0.008472204444119266
-0.5810284371582085   -0.09920704220053192   0.008472204444119266
-0.5810284371582085   -0.09920704220053192   0.008472204444119266
-0.3445109354060462   -0.04156772419832633   0.021371530967290997
-0.3445109354060462   -0.04156772419832633   0.021371530967290997
-0.3445109354060462   -0.04156772419832633   0.021371530967290997
-0.3445109354060462   -0.04156772419832633   0.021371530967290997
-0.3326015750741814   -0.0007608417377567844   0.002765674010947645
-0.3326015750741814   -0.0007608417377567844   0.002765674010947645
-0.3326015750741814   -0.0007608417377567844   0.002765674010947645
-0.3326015750741814   -0.0007608417377567844   0.002765674010947645
-0.5652914040996082   -0.045298605249707885   -0.005046408436383005
-0.5652914040996082   -0.045298605249707885   -0.005046408436383005
-0.5652914040996082   -0.045298605249707885   -0.005046408436383005
-0.5652914040996082   -0.045298605249707885   -0.005046408436383005
-0.456581441448721   -0.04452678728288463   -0.013249103305988864
-0.456581441448721   -0.04452678728288463   -0.013249103305988864
-0.456581441448721   -0.04452678728288463   -0.013249103305988864
-0.456581441448721   -0.04452678728288463   -0.013249103305988864
-0.5646256233766983   -0.04760167351229633   0.0005855634407512626
-0.5646256233766983   -0.04760167351229633   0.0005855634407512626
-0.5646256233766983   -0.04760167351229633   0.0005855634407512626
-0.5646256233766983   -0.04760167351229633   0.0005855634407512626
-0.32966487703108854   0.00514470529083591   0.011543617197816365
-0.32966487703108854   0.00514470529083591   0.011543617197816365
-0.32966487703108854   0.00514470529083591   0.011543617197816365
-0.32966487703108854   0.00514470529083591   0.011543617197816365
-0.3152605841932166   0.05130232444797689   -0.004566588872517444
-0.3152605841932166   0.05130232444797689   -0.004566588872517444
-0.3152605841932166   0.05130232444797689   -0.004566588872517444
-0.3152605841932166   0.05130232444797689   -0.004566588872517444
-0.54929168881921   0.0020794218662518738   -0.014705672290386183
-0.54929168881921   0.0020794218662518738   -0.014705672290386183
-0.54929168881921   0.0020794218662518738   -0.014705672290386183
-0.54929168881921   0.0020794218662518738   -0.014705672290386183
-0.4382939253097693   0.0022927051043720725   0.0062567601780539085
-0.4382939253097693   0.0022927051043720725   0.0062567601780539085
-0.4382939253097693   0.0022927051043720725   0.0062567601780539085
-0.4382939253097693   0.0022927051043720725   0.0062567601780539085
-0.5473912216340033   0.004303943195581861   -0.007427857693686708
-0.5473912216340033   0.004303943195581861   -0.007427857693686708
-0.5473912216340033   0.004303943195581861   -0.007427857693686708
-0.5473912216340033   0.004303943195581861   -0.007427857693686708
-0.31390355116799945   0.052335303329065996   0.001185597372473965
-0.31390355116799945   0.052335303329065996   0.001185597372473965
-0.31390355116799945   0.052335303329065996   0.001185597372473965
-0.31390355116799945   0.052335303329065996   0.001185597372473965
-0.29888260315758897   0.10384042408019115   -0.012937589514203936
-0.29888260315758897   0.10384042408019115   -0.012937589514203936
-0.29888260315758897   0.10384042408019115   -0.012937589514203936
-0.29888260315758897   0.10384042408019115   -0.012937589514203936
-0.5342783516169366   0.04982362473683902   -0.02502294690316726
-0.5342783516169366   0.04982362473683902   -0.02502294690316726
-0.5342783516169366   0.04982362473683902   -0.02502294690316726
-0.5342783516169366   0.04982362473683902   -0.02502294690316726
-0.4209915817579353   0.049279983851743356   0.024978185016656183
-0.4209915817579353   0.049279983851743356   0.024978185016656183
-0.4209915817579353   0.049279983851743356   0.024978185016656183
-0.4209915817579353   0.049279983851743356   0.024978185016656183
-0.3735290656357751   -0.13334932385488824   -0.03193752052479748
-0.3735290656357751   -0.13334932385488824   -0.03193752052479748
-0.3735290656357751   -0.13334932385488824   -0.03193752052479748
-0.3735290656357751   -0.13334932385488824   -0.03193752052479748
-0.11382320877073249   -0.0018030657288298068   0.056047534969536954
-0.11382320877073249   -0.0018030657288298068   0.056047534969536954
-0.11382320877073249   -0.0018030657288298068   0.056047534969536954
-0.11382320877073249   -0.0018030657288298068   0.056047534969536954
-0.1296197448684515   -0.03940001278938648   -0.0410357639464389
-0.1296197448684515   -0.03940001278938648   -0.0410357639464389
-0.1296197448684515   -0.03940001278938648   -0.0410357639464389
-0.1296197448684515   -0.03940001278938648   -0.0410357639464389
-0.3276128658794113   -0.005096926221037114   0.032045304468075554
-0.3276128658794113   -0.005096926221037114   0.032045304468075554
-0.3276128658794113   -0.005096926221037114   0.032045304468075554
-0.3276128658794113   -0.005096926221037114   0.032045304468075554
-0.23612267924216204   -0.042950036513735676   -0.009559322352131805
-0.23612267924216204   -0.042950036513735676   -0.009559322352131805
-0.23612267924216204   -0.042950036513735676   -0.009559322352131805
-0.23612267924216204   -0.042950036513735676   -0.009559322352131805
-0.35807055946254457   -0.08495920071054314   -0.04038088895808753
-0.35807055946254457   -0.08495920071054314   -0.04038088895808753
-0.35807055946254457   -0.08495920071054314   -0.04038088895808753
-0.35807055946254457   -0.08495920071054314   -0.04038088895808753
-0.09512446350815448   0.044499849477275914   0.04754078058838383
-0.09512446350815448   0.044499849477275914   0.04754078058838383
-0.09512446350815448   0.044499849477275914   0.04754078058838383
-0.09512446350815448   0.044499849477275914   0.04754078058838383
-0.10429533106077624   0.009851031333479997   -0.04619393901466005
-0.10429533106077624   0.009851031333479997   -0.04619393901466005
-0.10429533106077624   0.009851031333479997   -0.04619393901466005
-0.10429533106077624   0.009851031333479997   -0.04619393901466005
-0.312845039309008   0.037445680260361575   0.021367779736138653
-0.312845039309008   0.037445680260361575   0.021367779736138653
-0.312845039309008   0.037445680260361575   0.021367779736138653
-0.312845039309008   0.037445680260361575   0.021367779736138653
-0.21668386190012878   0.0006441035929381986   0.010314927136507546
-0.21668386190012878   0.0006441035929381986   0.010314927136507546
-0.21668386190012878   0.0006441035929381986   0.010314927136507546
-0.21668386190012878   0.0006441035929381986   0.010314927136507546
-0.3423364426620506   -0.038539262114651494   -0.05010429465406437
-0.3423364426620506   -0.038539262114651494   -0.05010429465406437
-0.3423364426620506   -0.038539262114651494   -0.05010429465406437
-0.3423364426620506   -0.038539262114651494   -0.05010429465406437
-0.07104574791121501   0.0895941535050147   0.04031085456161136
-0.07104574791121501   0.0895941535050147   0.04031085456161136
-0.07104574791121501   0.0895941535050147   0.04031085456161136
-0.07104574791121501   0.0895941535050147   0.04031085456161136
-0.08287110109429592   0.06486879426756359   -0.05174045293620687
-0.08287110109429592   0.06486879426756359   -0.05174045293620687
-0.08287110109429592   0.06486879426756359   -0.05174045293620687
-0.08287110109429592   0.06486879426756359   -0.05174045293620687
-0.2977271642350838   0.08560517923772462   0.011074849940788646
-0.2977271642350838   0.08560517923772462   0.011074849940788646
-0.2977271642350838   0.08560517923772462   0.011074849940788646
-0.2977271642350838   0.08560517923772462   0.011074849940788646
-0.19654557232936234   0.04611440801927022   0.030201369569657632
-0.19654557232936234   0.04611440801927022   0.030201369569657632
-0.19654557232936234   0.04611440801927022   0.030201369569657632
-0.19654557232936234   0.04611440801927022   0.030201369569657632
-0.1672317131233435   -0.14343324790233986   -0.06936480462000795
-0.1672317131233435   -0.14343324790233986   -0.06936480462000795
-0.1672317131233435   -0.14343324790233986   -0.06936480462000795
-0.1672317131233435   -0.14343324790233986   -0.06936480462000795
0.0609835162493087   0.042677294761606976   0.08537347347587977
0.0609835162493087   0.042677294761606976   0.08537347347587977
0.0609835162493087   0.042677294761606976   0.08537347347587977
0.0609835162493087   0.042677294761606976   0.08537347347587977
0.06149521129354349   -0.07037559444483935   -0.09182847745355102
0.06149521129354349   -0.07037559444483935   -0.09182847745355102
0.06149521129354349   -0.07037559444483935   -0.09182847745355102
0.06149521129354349   -0.07037559444483935   -0.09182847745355102
-0.09071680280703792   0.0442079202193352   0.06987101335190866
-0.09071680280703792   0.0442079202193352   0.06987101335190866
-0.09071680280703792   0.0442079202193352   0.06987101335190866
-0.09071680280703792   0.0442079202193352   0.06987101335190866
-0.0358781041792773   -0.030359616784591183   -0.016301738148568064
-0.0358781041792773   -0.030359616784591183   -0.016301738148568064
-0.0358781041792773   -0.030359616784591183   -0.016301738148568064
-0.0358781041792773   -0.030359616784591183   -0.016301738148568064
-0.15159566065755095   -0.11057595373384643   -0.07973940194748011
-0.15159566065755095   -0.11057595373384643   -0.07973940194748011
-0.15159566065755095   -0.11057595373384643   -0.07973940194748011
-0.15159566065755095   -0.11057595373384643   -0.07973940194748011
0.12669200241264916   0.08872621277693335   0.07505367092021235
0.12669200241264916   0.08872621277693335   0.07505367092021235
0.12669200241264916   0.08872621277693335   0.07505367092021235
0.12669200241264916   0.08872621277693335   0.07505367092021235
0.10992776331805079   -0.04216019787574836   -0.10906063703375753
0.10992776331805079   -0.04216019787574836   -0.10906063703375753
0.10992776331805079   -0.04216019787574836   -0.10906063703375753
0.10992776331805079   -0.04216019787574836   -0.10906063703375753
-0.07288569704308015   0.06468058201779876   0.05602468038950298
-0.07288569704308015   0.06468058201779876   0.05602468038950298
-0.07288569704308015   0.06468058201779876   0.05602468038950298
-0.07288569704308015   0.06468058201779876   0.05602468038950298
0.004002013879311828   -0.0013425235154462438   0.005249984000447051
0.004002013879311828   -0.0013425235154462438   0.005249984000447051
0.004002013879311828   -0.0013425235154462438   0.005249984000447051
0.004002013879311828   -0.0013425235154462438   0.005249984000447051
-0.13293905911156345   -0.08736145378495253   -0.09220009415016357
-0.13293905911156345   -0.08736145378495253   -0.09220009415016357
-0.13293905911156345   -0.08736145378495253   -0.09220009415016357
-0.13293905911156345   -0.08736145378495253   -0.09220009415016357
0.1743007982657142   0.11420151080618401   0.05644282902263482
0.1743007982657142   0.11420151080618401   0.05644282902263482
0.1743007982657142   0.11420151080618401   0.05644282902263482
0.1743007982657142   0.11420151080618401   0.05644282902263482
0.17774669309152463   0.013096047797445266   -0.11677136527968593
0.17774669309152463   0.013096047797445266   -0.11677136527968593
0.17774669309152463   0.013096047797445266   -0.11677136527968593
0.17774669309152463   0.013096047797445266   -0.11677136527968593
-0.05622318564446589   0.10084281855545627   0.045525100025049975
-0.05622318564446589   0.10084281855545627   0.045525100025049975
-0.05622318564446589   0.10084281855545627   0.045525100025049975
-0.05622318564446589   0.10084281855545627   0.045525100025049975
0.03984205757333732   0.02916909318742168   0.026295727262352485
0.03984205757333732   0.02916909318742168   0.026295727262352485
0.03984205757333732   0.02916909318742168   0.026295727262352485
0.03984205757333732   0.02916909318742168   0.026295727262352485
-0.35110607706309815   0.019698737223435438   0.09752484289959601
-0.35110607706309815   0.019698737223435438   0.09752484289959601
-0.35110607706309815   0.019698737223435438   0.09752484289959601
-0.35110607706309815   0.019698737223435438   0.09752484289959601
-0.41557503905913357   -0.12722954145562826   -0.05756183622764671
-0.41557503905913357   -0.12722954145562826   -0.05756183622764671
-0.41557503905913357   -0.12722954145562826   -0.05756183622764671
-0.41557503905913357   -0.12722954145562826   -0.05756183622764671
-0.33178263327012064   0.059192391917344586   0.0798749446827958
-0.33178263327012064   0.059192391917344586   0.0798749446827958
-0.33178263327012064   0.059192391917344586   0.0798749446827958
-0.33178263327012064   0.059192391917344586   0.0798749446827958
-0.340898395855473   -0.08391218647573895   -0.07413717187295576
-0.340898395855473   -0.08391218647573895   -0.07413717187295576
-0.340898395855473   -0.08391218647573895   -0.07413717187295576
-0.340898395855473   -0.08391218647573895   -0.07413717187295576
-0.35068526079697687   -0.026984629658685165   -0.026592619725870445
-0.35068526079697687   -0.026984629658685165   -0.026592619725870445
-0.35068526079697687   -0.026984629658685165   -0.026592619725870445
-0.35068526079697687   -0.026984629658685165   -0.026592619725870445
-0.27663668350796533   0.0724153613424883   0.09084384204634902
-0.27663668350796533   0.0724153613424883   0.09084384204634902
-0.27663668350796533   0.0724153613424883   0.09084384204634902
-0.27663668350796533   0.0724153613424883   0.09084384204634902
-0.39202975268455914   -0.0931205629678103   -0.06904769750422637
-0.39202975268455914   -0.0931205629678103   -0.06904769750422637
-0.39202975268455914   -0.0931205629678103   -0.06904769750422637
-0.39202975268455914   -0.0931205629678103   -0.06904769750422637
-0.305843050936197   0.0816210815535817   0.06723524451176725
-0.305843050936197   0.0816210815535817   0.06723524451176725
-0.305843050936197   0.0816210815535817   0.06723524451176725
-0.305843050936197   0.0816210815535817   0.06723524451176725
-0.2854765087226289   -0.058564855144720825   -0.09238119993940443
-0.2854765087226289   -0.058564855144720825   -0.09238119993940443
-0.2854765087226289   -0.058564855144720825   -0.09238119993940443
-0.2854765087226289   -0.058564855144720825   -0.09238119993940443
-0.3097957088867955   0.0016840041937639522   -0.005454715293816845
-0.3097957088867955   0.0016840041937639522   -0.005454715293816845
-0.3097957088867955   0.0016840041937639522   -0.005454715293816845
-0.3097957088867955   0.0016840041937639522   -0.005454715293816845
-0.22083031324599783   0.09969463720755883   0.07259028509146245
-0.22083031324599783   0.09969463720755883   0.07259028509146245
-0.22083031324599783   0.09969463720755883   0.07259028509146245
-0.22083031324599783   0.09969463720755883   0.07259028509146245
-0.36669934296420464   -0.07284850735007745   -0.08257662672461184
-0.36669934296420464   -0.07284850735007745   -0.08257662672461184
-0.36669934296420464   -0.07284850735007745   -0.08257662672461184
-0.36669934296420464   -0.07284850735007745   -0.08257662672461184
-0.2820987984732759   0.11584406041406012   0.058073397175547756
-0.2820987984732759   0.11584406041406012   0.058073397175547756
-0.2820987984732759   0.11584406041406012   0.058073397175547756
-0.2820987984732759   0.11584406041406012   0.058073397175547756
-0.21150496930410914   -0.010379779495323621   -0.10407921342388927
-0.21150496930410914   -0.010379779495323621   -0.10407921342388927
-0.21150496930410914   -0.010379779495323621   -0.10407921342388927
-0.21150496930410914   -0.010379779495323621   -0.10407921342388927
-0.260599065142357   0.03161431168028625   0.01719250115989501
-0.260599065142357   0.03161431168028625   0.01719250115989501
-0.260599065142357   0.03161431168028625   0.01719250115989501
-0.260599065142357   0.03161431168028625   0.01719250115989501
-0.37214884954136934   -0.023019710949615406   0.05535928085515423
-0.37214884954136934   -0.023019710949615406   0.05535928085515423
-0.37214884954136934   -0.023019710949615406   0.05535928085515423
-0.37214884954136934   -0.023019710949615406   0.05535928085515423
-0.4607463122611873   -0.10377172806677547   -0.02249207405804795
-0.4607463122611873   -0.10377172806677547   -0.02249207405804795
-0.4607463122611873   -0.10377172806677547   -0.02249207405804795
-0.4607463122611873   -0.10377172806677547   -0.02249207405804795
-0.41058714113892536   0.010525513431382055   0.037059267891971566
-0.41058714113892536   0.010525513431382055   0.037059267891971566
-0.41058714113892536   0.010525513431382055   0.037059267891971566
-0.41058714113892536   0.010525513431382055   0.037059267891971566
-0.37625776816102835   -0.049213220081238004   -0.03409511777314729
-0.37625776816102835   -0.049213220081238004   -0.03409511777314729
-0.37625776816102835   -0.049213220081238004   -0.03409511777314729
-0.37625776816102835   -0.049213220081238004   -0.03409511777314729
-0.40520370812030065   -0.03820992662369273   -0.018760148869300042
-0.40520370812030065   -0.03820992662369273   -0.018760148869300042
-0.40520370812030065   -0.03820992662369273   -0.018760148869300042
-0.40520370812030065   -0.03820992662369273   -0.018760148869300042
-0.34474268774764777   0.02594663614478697   0.04832042806771794
-0.34474268774764777   0.02594663614478697   0.04832042806771794
-0.34474268774764777   0.02594663614478697   0.04832042806771794
-0.34474268774764777   0.02594663614478697   0.04832042806771794
-0.43895931414875194   -0.061491435391091503   -0.03278464833469121
-0.43895931414875194   -0.061491435391091503   -0.03278464833469121
-0.43895931414875194   -0.061491435391091503   -0.03278464833469121
-0.43895931414875194   -0.061491435391091503   -0.03278464833469121
-0.38741763145935615   0.055133130397781824   0.028279880887890803
-0.38741763145935615   0.055133130397781824   0.028279880887890803
-0.38741763145935615   0.055133130397781824   0.028279880887890803
-0.38741763145935615   0.055133130397781824   0.028279880887890803
-0.3453157825034421   -0.0061887840803614425   -0.04231854769051241
-0.3453157825034421   -0.0061887840803614425   -0.04231854769051241
-0.3453157825034421   -0.0061887840803614425   -0.04231854769051241
-0.3453157825034421   -0.0061887840803614425   -0.04231854769051241
-0.3775463484418629   0.0034424247400115793   0.0007590266655191774
-0.3775463484418629   0.0034424247400115793   0.0007590266655191774
-0.3775463484418629   0.0034424247400115793   0.0007590266655191774
-0.3775463484418629   0.0034424247400115793   0.0007590266655191774
-0.3122700664715561   0.0732090974128953   0.04351215097565855
-0.3122700664715561   0.0732090974128953   0.04351215097565855
-0.3122700664715561   0.0732090974128953   0.04351215097565855
-0.3122700664715561   0.0732090974128953   0.04351215097565855
-0.4171137904887574   -0.02091519409299189   -0.04415258976834932
-0.4171137904887574   -0.02091519409299189   -0.04415258976834932
-0.4171137904887574   -0.02091519409299189   -0.04415258976834932
-0.4171137904887574   -0.02091519409299189   -0.04415258976834932
-0.3641378969550811   0.10447550683173701   0.01993552044818342
-0.3641378969550811   0.10447550683173701   0.01993552044818342
-0.3641378969550811   0.10447550683173701   0.01993552044818342
-0.3641378969550811   0.10447550683173701   0.01993552044818342
-0.3185916917171858   0.04153198864604721   -0.05007899727598359
-0.3185916917171858   0.04153198864604721   -0.05007899727598359
-0.3185916917171858   0.04153198864604721   -0.05007899727598359
-0.3185916917171858   0.04153198864604721   -0.05007899727598359
-0.35140111543479524   0.0464235931481676   0.020613509553032983
-0.35140111543479524   0.0464235931481676   0.020613509553032983
-0.35140111543479524   0.0464235931481676   0.020613509553032983
-0.35140111543479524   0.0464235931481676   0.020613509553032983
-0.44495623811721674   -0.06282814767917876   0.015514716274200344
-0.44495623811721674   -0.06282814767917876   0.015514716274200344
-0.44495623811721674   -0.06282814767917876   0.015514716274200344
-0.44495623811721674   -0.06282814767917876   0.015514716274200344
-0.5058376096096113   -0.06537297021991985   0.013621306259230748
-0.5058376096096113   -0.06537297021991985   0.013621306259230748
-0.5058376096096113   -0.06537297021991985   0.013621306259230748
-0.5058376096096113   -0.06537297021991985   0.013621306259230748
-0.48724342132064186   -0.029637511751906986   -0.004788923726344763
-0.48724342132064186   -0.029637511751906986   -0.004788923726344763
-0.48724342132064186   -0.029637511751906986   -0.004788923726344763
-0.48724342132064186   -0.029637511751906986   -0.004788923726344763
-0.4210073719687212   -0.008938693699523187   0.00442232087389598
-0.4210073719687212   -0.008938693699523187   0.00442232087389598
-0.4210073719687212   -0.008938693699523187   0.00442232087389598
-0.4210073719687212   -0.008938693699523187   0.00442232087389598
-0.4654578855742224   -0.039329868874083004   -0.012434272494839096
-0.4654578855742224   -0.039329868874083004   -0.012434272494839096
-0.4654578855742224   -0.039329868874083004   -0.012434272494839096
-0.4654578855742224   -0.039329868874083004   -0.012434272494839096
-0.42136406979352314   -0.013969857575952732   0.0076699956263102526
-0.42136406979352314   -0.013969857575952732   0.0076699956263102526
-0.42136406979352314   -0.013969857575952732   0.0076699956263102526
-0.42136406979352314   -0.013969857575952732   0.0076699956263102526
-0.4839252768953144   -0.02164490127495322   0.00380918792333906
-0.4839252768953144   -0.02164490127495322   0.00380918792333906
-0.4839252768953144   -0.02164490127495322   0.00380918792333906
-0.4839252768953144   -0.02164490127495322   0.00380918792333906
-0.46291277234324496   0.019863915661422704   -0.012162119790496945
-0.46291277234324496   0.019863915661422704   -0.012162119790496945
-0.46291277234324496   0.019863915661422704   -0.012162119790496945
-0.46291277234324496   0.019863915661422704   -0.012162119790496945
-0.39791623955253447   0.03599809763083821   -0.005078126811062553
-0.39791623955253447   0.03599809763083821   -0.005078126811062553
-0.39791623955253447   0.03599809763083821   -0.005078126811062553
-0.39791623955253447   0.03599809763083821   -0.005078126811062553
-0.44004557059387006   0.004930910291242541   0.006830950215241289
-0.44004557059387006   0.004930910291242541   0.006830950215241289
-0.44004557059387006   0.004930910291242541   0.006830950215241289
-0.44004557059387006   0.004930910291242541   0.006830950215241289
-0.3971261228624812   0.03535648364140295   -0.00048592937136338055
-0.3971261228624812   0.03535648364140295   -0.00048592937136338055
-0.3971261228624812   0.03535648364140295   -0.00048592937136338055
-0.3971261228624812   0.03535648364140295   -0.00048592937136338055
-0.46112084538456793   0.02308757329958791   -0.006426142635280525
-0.46112084538456793   0.02308757329958791   -0.006426142635280525
-0.46112084538456793   0.02308757329958791   -0.006426142635280525
-0.46112084538456793   0.02308757329958791   -0.006426142635280525
-0.43961648037146517   0.06966226931225684   -0.020491595271580253
-0.43961648037146517   0.06966226931225684   -0.020491595271580253
-0.43961648037146517   0.06966226931225684   -0.020491595271580253
-0.43961648037146517   0.06966226931225684   -0.020491595271580253
-0.3758968130084497   0.08111883538897263   -0.015502388375894467
-0.3758968130084497   0.08111883538897263   -0.015502388375894467
-0.3758968130084497   0.08111883538897263   -0.015502388375894467
-0.3758968130084497   0.08111883538897263   -0.015502388375894467
-0.4158021374820717   0.049271527425776646   0.0251954388322189
-0.4158021374820717   0.049271527425776646   0.0251954388322189
-0.4158021374820717   0.049271527425776646   0.0251954388322189
-0.4158021374820717   0.049271527425776646   0.0251954388322189
-0.5204471598195325   -0.09941437161213174   -0.0253850433981676
-0.5204471598195325   -0.09941437161213174   -0.0253850433981676
-0.5204471598195325   -0.09941437161213174   -0.0253850433981676
-0.5204471598195325   -0.09941437161213174   -0.0253850433981676
-0.5546901373706683   -0.027771038438882997   0.04814942172913672
-0.5546901373706683   -0.027771038438882997   0.04814942172913672
-0.5546901373706683   -0.027771038438882997   0.04814942172913672
-0.5546901373706683   -0.027771038438882997   0.04814942172913672
-0.5635300189359311   -0.06812089636406624   -0.04715739319055029
-0.5635300189359311   -0.06812089636406624   -0.04715739319055029
-0.5635300189359311   -0.06812089636406624   -0.04715739319055029
-0.5635300189359311   -0.06812089636406624   -0.04715739319055029
-0.4662758412196638   0.029836009204528474   0.04057545582210992
-0.4662758412196638   0.029836009204528474   0.04057545582210992
-0.4662758412196638   0.029836009204528474   0.04057545582210992
-0.4662758412196638   0.029836009204528474   0.04057545582210992
-0.5240622746656527   -0.03868117394897751   -0.007808677797370805
-0.5240622746656527   -0.03868117394897751   -0.007808677797370805
-0.5240622746656527   -0.03868117394897751   -0.007808677797370805
-0.5240622746656527   -0.03868117394897751   -0.007808677797370805
-0.49749119424801774   -0.052178927342832734   -0.033486372772302944
-0.49749119424801774   -0.052178927342832734   -0.033486372772302944
-0.49749119424801774   -0.052178927342832734   -0.033486372772302944
-0.49749119424801774   -0.052178927342832734   -0.033486372772302944
-0.5292090998662461   0.016999606224626512   0.03932669956918244
-0.5292090998662461   0.016999606224626512   0.03932669956918244
-0.5292090998662461   0.016999606224626512   0.03932669956918244
-0.5292090998662461   0.016999606224626512   0.03932669956918244
-0.5316862746576951   -0.02117753444166623   -0.05290705842531317
-0.5316862746576951   -0.02117753444166623   -0.05290705842531317
-0.5316862746576951   -0.02117753444166623   -0.05290705842531317
-0.5316862746576951   -0.02117753444166623   -0.05290705842531317
-0.44435409685775834   0.07036897426042837   0.03012619903792682
-0.44435409685775834   0.07036897426042837   0.03012619903792682
-0.44435409685775834   0.07036897426042837   0.03012619903792682
-0.44435409685775834   0.07036897426042837   0.03012619903792682
-0.4952183837048744   0.003931659454987302   0.012072685949970807
-0.4952183837048744   0.003931659454987302   0.012072685949970807
-0.4952183837048744   0.003931659454987302   0.012072685949970807
-0.4952183837048744   0.003931659454987302   0.012072685949970807
-0.4746033741540331   -0.007774821077063718   -0.04297639210595889
-0.4746033741540331   -0.007774821077063718   -0.04297639210595889
-0.4746033741540331   -0.007774821077063718   -0.04297639210595889
-0.4746033741540331   -0.007774821077063718   -0.04297639210595889
-0.4982983617141828   0.06010489654306306   0.03275007530752469
-0.4982983617141828   0.06010489654306306   0.03275007530752469
-0.4982983617141828   0.06010489654306306   0.03275007530752469
-0.4982983617141828   0.06010489654306306   0.03275007530752469
-0.5038142374824416   0.030562978947251962   -0.05804907826418631
-0.5038142374824416   0.030562978947251962   -0.05804907826418631
-0.5038142374824416   0.030562978947251962   -0.05804907826418631
-0.5038142374824416   0.030562978947251962   -0.05804907826418631
-0.42237153417846085   0.11557433338306256   0.01982107162263564
-0.42237153417846085   0.11557433338306256   0.01982107162263564
-0.42237153417846085   0.11557433338306256   0.01982107162263564
-0.42237153417846085   0.11557433338306256   0.01982107162263564
-0.4706807158299443   0.04624766844993532   0.03109296548897489
-0.4706807158299443   0.04624766844993532   0.03109296548897489
-0.4706807158299443   0.04624766844993532   0.03109296548897489
-0.4706807158299443   0.04624766844993532   0.03109296548897489
-0.5951346026191252   -0.11832484358138748   -0.06351909937065334
-0.5951346026191252   -0.11832484358138748   -0.06351909937065334
-0.5951346026191252   -0.11832484358138748   -0.06351909937065334
-0.5951346026191252   -0.11832484358138748   -0.06351909937065334
-0.6569184977547534   0.009427831191286401   0.08650608003951349
-0.6569184977547534   0.009427831191286401   0.08650608003951349
-0.6569184977547534   0.009427831191286401   0.08650608003951349
-0.6569184977547534   0.009427831191286401   0.08650608003951349
-0.6478857171268952   -0.09811169973473774   -0.08455817209862933
-0.6478857171268952   -0.09811169973473774   -0.08455817209862933
-0.6478857171268952   -0.09811169973473774   -0.08455817209862933
-0.6478857171268952   -0.09811169973473774   -0.08455817209862933
-0.5100531729662067   0.07456243166349615   0.07754350863050409
-0.5100531729662067   0.07456243166349615   0.07754350863050409
-0.5100531729662067   0.07456243166349615   0.07754350863050409
-0.5100531729662067   0.07456243166349615   0.07754350863050409
-0.578381777858361   -0.025318194550624354   -0.003965704104293522
-0.578381777858361   -0.025318194550624354   -0.003965704104293522
-0.578381777858361   -0.025318194550624354   -0.003965704104293522
-0.578381777858361   -0.025318194550624354   -0.003965704104293522
-0.5710707396097493   -0.08036120699694202   -0.07262068592677821
-0.5710707396097493   -0.08036120699694202   -0.07262068592677821
-0.5710707396097493   -0.08036120699694202   -0.07262068592677821
-0.5710707396097493   -0.08036120699694202   -0.07262068592677821
-0.5835846464508966   0.06009544295815232   0.07874003858847478
-0.5835846464508966   0.06009544295815232   0.07874003858847478
-0.5835846464508966   0.06009544295815232   0.07874003858847478
-0.5835846464508966   0.06009544295815232   0.07874003858847478
-0.592975636363362   -0.07069516854399321   -0.10076413309917504
-0.592975636363362   -0.07069516854399321   -0.10076413309917504
-0.592975636363362   -0.07069516854399321   -0.10076413309917504
-0.592975636363362   -0.07069516854399321   -0.10076413309917504
-0.4854022899456618   0.09387265865401126   0.06346267203917602
-0.4854022899456618   0.09387265865401126   0.06346267203917602
-0.4854022899456618   0.09387265865401126   0.06346267203917602
-0.4854022899456618   0.09387265865401126   0.06346267203917602
-0.54112420047287   0.003320970169816251   0.01512395157531278
-0.54112420047287   0.003320970169816251   0.01512395157531278
-0.54112420047287   0.003320970169816251   0.01512395157531278
-0.54112420047287   0.003320970169816251   0.01512395157531278
-0.5452287404293965   -0.05779362256871841   -0.08400329915677186
-0.5452287404293965   -0.05779362256871841   -0.08400329915677186
-0.5452287404293965   -0.05779362256871841   -0.08400329915677186
-0.5452287404293965   -0.05779362256871841   -0.08400329915677186
-0.5297091531084053   0.08441114544996   0.060461969181663175
-0.5297091531084053   0.08441114544996   0.060461969181663175
-0.5297091531084053   0.08441114544996   0.060461969181663175
-0.5297091531084053   0.08441114544996   0.060461969181663175
-0.5209695367056152   -0.023231020508705374   -0.11009774423460893
-0.5209695367056152   -0.023231020508705374   -0.11009774423460893
-0.5209695367056152   -0.023231020508705374   -0.11009774423460893
-0.5209695367056152   -0.023231020508705374   -0.11009774423460893
-0.46331473451261895   0.12273799507746011   0.05227342045471656
-0.46331473451261895   0.12273799507746011   0.05227342045471656
-0.46331473451261895   0.12273799507746011   0.05227342045471656
-0.46331473451261895   0.12273799507746011   0.05227342045471656
-0.49034275800755606   0.031961157895235154   0.03720033660166005
-0.49034275800755606   0.031961157895235154   0.03720033660166005
-0.49034275800755606   0.031961157895235154   0.03720033660166005
-0.49034275800755606   0.031961157895235154   0.03720033660166005
0.35989450891084285   0.058268234019784364   0.09445749317941206
0.35989450891084285   0.058268234019784364   0.09445749317941206
0.35989450891084285   0.058268234019784364   0.09445749317941206
0.35989450891084285   0.058268234019784364   0.09445749317941206
-0.009254421750416474   -0.15188673527254634   -0.06245575467325275
-0.009254421750416474   -0.15188673527254634   -0.06245575467325275
-0.009254421750416474   -0.15188673527254634   -0.06245575467325275
-0.009254421750416474   -0.15188673527254634   -0.06245575467325275
0.08025311630515852   0.029745303081506372   0.07299876375263929
0.08025311630515852   0.029745303081506372   0.07299876375263929
0.08025311630515852   0.029745303081506372   0.07299876375263929
0.08025311630515852   0.029745303081506372   0.07299876375263929
0.37572637342607934   -0.05348939553422151   -0.07813199435465976
0.37572637342607934   -0.05348939553422151   -0.07813199435465976
0.37572637342607934   -0.05348939553422151   -0.07813199435465976
0.37572637342607934   -0.05348939553422151   -0.07813199435465976
0.18359811832529527   -0.029616579637316842   -0.04494115942973695
0.18359811832529527   -0.029616579637316842   -0.04494115942973695
0.18359811832529527   -0.029616579637316842   -0.04494115942973695
0.18359811832529527   -0.029616579637316842   -0.04494115942973695
0.4399235015331759   0.1041270645882468   0.08523718605835005
0.4399235015331759   0.1041270645882468   0.08523718605835005
0.4399235015331759   0.1041270645882468   0.08523718605835005
0.4399235015331759   0.1041270645882468   0.08523718605835005
0.0199901557746799   -0.12393698946434911   -0.07463374635389836
0.0199901557746799   -0.12393698946434911   -0.07463374635389836
0.0199901557746799   -0.12393698946434911   -0.07463374635389836
0.0199901557746799   -0.12393698946434911   -0.07463374635389836
0.11299709166678769   0.05179423095100465   0.060940630149806316
0.11299709166678769   0.05179423095100465   0.060940630149806316
0.11299709166678769   0.05179423095100465   0.060940630149806316
0.11299709166678769   0.05179423095100465   0.060940630149806316
0.4382630190799294   -0.02857752051065844   -0.09778809009476876
0.4382630190799294   -0.02857752051065844   -0.09778809009476876
0.4382630190799294   -0.02857752051065844   -0.09778809009476876
0.4382630190799294   -0.02857752051065844   -0.09778809009476876
0.2400137533691927   -0.0021088398588509152   -0.021074982827351034
0.2400137533691927   -0.0021088398588509152   -0.021074982827351034
0.2400137533691927   -0.0021088398588509152   -0.021074982827351034
0.2400137533691927   -0.0021088398588509152   -0.021074982827351034
0.5031802743688162   0.13107239552437072   0.06714827031463466
0.5031802743688162   0.13107239552437072   0.06714827031463466
0.5031802743688162   0.13107239552437072   0.06714827031463466
0.5031802743688162   0.13107239552437072   0.06714827031463466
0.05193470500680291   -0.10400081645511818   -0.08857625574400241
0.05193470500680291   -0.10400081645511818   -0.08857625574400241
0.05193470500680291   -0.10400081645511818   -0.08857625574400241
0.05193470500680291   -0.10400081645511818   -0.08857625574400241
0.14478176694544423   0.09224090602587909   0.05273747793250958
0.14478176694544423   0.09224090602587909   0.05273747793250958
0.14478176694544423   0.09224090602587909   0.05273747793250958
0.14478176694544423   0.09224090602587909   0.05273747793250958
0.5212593863393613   0.0271914863556863   -0.1078582029397521
0.5212593863393613   0.0271914863556863   -0.1078582029397521
0.5212593863393613   0.0271914863556863   -0.1078582029397521
0.5212593863393613   0.0271914863556863   -0.1078582029397521
0.28745571911787027   0.02869374729529879   0.0015126912852308008
0.28745571911787027   0.02869374729529879   0.0015126912852308008
0.28745571911787027   0.02869374729529879   0.0015126912852308008
0.28745571911787027   0.02869374729529879   0.0015126912852308008
0.049536481674265914   0.0155880424728781   0.06402398470473479
0.049536481674265914   0.0155880424728781   0.06402398470473479
0.049536481674265914   0.0155880424728781   0.06402398470473479
0.049536481674265914   0.0155880424728781   0.06402398470473479
-0.34343272880855025   -0.12891246538413198   -0.028643459879727114
-0.34343272880855025   -0.12891246538413198   -0.028643459879727114
-0.34343272880855025   -0.12891246538413198   -0.028643459879727114
-0.34343272880855025   -0.12891246538413198   -0.028643459879727114
-0.28688797367648333   -0.018659843515885476   0.029301970569070357
-0.28688797367648333   -0.018659843515885476   0.029301970569070357
-0.28688797367648333   -0.018659843515885476   0.029301970569070357
-0.28688797367648333   -0.018659843515885476   0.029301970569070357
0.05214118019880307   -0.015013605390607124   -0.02280200830702119
0.05214118019880307   -0.015013605390607124   -0.02280200830702119
0.05214118019880307   -0.015013605390607124   -0.02280200830702119
0.05214118019880307   -0.015013605390607124   -0.02280200830702119
-0.1349810796883308   -0.033447581363945135   -0.02162767591418678
-0.1349810796883308   -0.033447581363945135   -0.02162767591418678
-0.1349810796883308   -0.033447581363945135   -0.02162767591418678
-0.1349810796883308   -0.033447581363945135   -0.02162767591418678
0.08323803735698854   0.06086558249637537   0.056803089596920306
0.08323803735698854   0.06086558249637537   0.056803089596920306
0.08323803735698854   0.06086558249637537   0.056803089596920306
0.08323803735698854   0.06086558249637537   0.056803089596920306
-0.3151254349818372   -0.09167963555003923   -0.03886554392354144
-0.3151254349818372   -0.09167963555003923   -0.03886554392354144
-0.3151254349818372   -0.09167963555003923   -0.03886554392354144
-0.3151254349818372   -0.09167963555003923   -0.03886554392354144
-0.2570228184942414   0.024076776910903062   0.020716293256609442
-0.2570228184942414   0.024076776910903062   0.020716293256609442
-0.2570228184942414   0.024076776910903062   0.020716293256609442
-0.2570228184942414   0.024076776910903062   0.020716293256609442
0.08939619819388882   0.0255796114279176   -0.030849217691603918
0.08939619819388882   0.0255796114279176   -0.030849217691603918
0.08939619819388882   0.0255796114279176   -0.030849217691603918
0.08939619819388882   0.0255796114279176   -0.030849217691603918
-0.10333084263996634   0.0042808085025137395   -0.0026050379961233662
-0.10333084263996634   0.0042808085025137395   -0.0026050379961233662
-0.10333084263996634   0.0042808085025137395   -0.0026050379961233662
-0.10333084263996634   0.0042808085025137395   -0.0026050379961233662
0.12179763974532508   0.10587094183849001   0.05086665965500792
0.12179763974532508   0.10587094183849001   0.05086665965500792
0.12179763974532508   0.10587094183849001   0.05086665965500792
0.12179763974532508   0.10587094183849001   0.05086665965500792
-0.286674413441614   -0.05346470689561021   -0.05000019767374018
-0.286674413441614   -0.05346470689561021   -0.05000019767374018
-0.286674413441614   -0.05346470689561021   -0.05000019767374018
-0.286674413441614   -0.05346470689561021   -0.05000019767374018
-0.2269838189789654   0.07237567845763498   0.012531579043734857
-0.2269838189789654   0.07237567845763498   0.012531579043734857
-0.2269838189789654   0.07237567845763498   0.012531579043734857
-0.2269838189789654   0.07237567845763498   0.012531579043734857
0.12222064556799137   0.07157640117655106   -0.03940362410543133
0.12222064556799137   0.07157640117655106   -0.03940362410543133
0.12222064556799137   0.07157640117655106   -0.03940362410543133
0.12222064556799137   0.07157640117655106   -0.03940362410543133
-0.06836149349074724   0.045903655594345595   0.01766312513940549
-0.06836149349074724   0.045903655594345595   0.01766312513940549
-0.06836149349074724   0.045903655594345595   0.01766312513940549
-0.06836149349074724   0.045903655594345595   0.01766312513940549
-0.31227898626817285   -0.024785791096564855   0.022998578534596543
-0.31227898626817285   -0.024785791096564855   0.022998578534596543
-0.31227898626817285   -0.024785791096564855   0.022998578534596543
-0.31227898626817285   -0.024785791096564855   0.022998578534596543
-0.6715814139507812   -0.0914266288012816   0.005982330784444433
-0.6715814139507812   -0.0914266288012816   0.005982330784444433
-0.6715814139507812   -0.0914266288012816   0.005982330784444433
-0.6715814139507812   -0.0914266288012816   0.005982330784444433
-0.6453999027353744   -0.057234349679200894   -0.01266342825777796
-0.6453999027353744   -0.057234349679200894   -0.01266342825777796
-0.6453999027353744   -0.057234349679200894   -0.01266342825777796
-0.6453999027353744   -0.057234349679200894   -0.01266342825777796
-0.2813878418170598   0.02382897979575896   0.014313806554549155
-0.2813878418170598   0.02382897979575896   0.014313806554549155
-0.2813878418170598   0.02382897979575896   0.014313806554549155
-0.2813878418170598   0.02382897979575896   0.014313806554549155
-0.47836121770777756   -0.034335001609453214   -0.012569508720522277
-0.47836121770777756   -0.034335001609453214   -0.012569508720522277
-0.47836121770777756   -0.034335001609453214   -0.012569508720522277
-0.47836121770777756   -0.034335001609453214   -0.012569508720522277
-0.2817727161821597   0.021056213489967772   0.015162201034839073
-0.2817727161821597   0.021056213489967772   0.015162201034839073
-0.2817727161821597   0.021056213489967772   0.015162201034839073
-0.2817727161821597   0.021056213489967772   0.015162201034839073
-0.6425664739297533   -0.052013028932887784   -0.0037176049759911484
-0.6425664739297533   -0.052013028932887784   -0.0037176049759911484
-0.6425664739297533   -0.052013028932887784   -0.0037176049759911484
-0.6425664739297533   -0.052013028932887784   -0.0037176049759911484
-0.6140038666715827   -0.010186783735579075   -0.019914906524039426
-0.6140038666715827   -0.010186783735579075   -0.019914906524039426
-0.6140038666715827   -0.010186783735579075   -0.019914906524039426
-0.6140038666715827   -0.010186783735579075   -0.019914906524039426
-0.2518169687349141   0.06557520210691739   0.005247116857234602
-0.2518169687349141   0.06557520210691739   0.005247116857234602
-0.2518169687349141   0.06557520210691739   0.005247116857234602
-0.2518169687349141   0.06557520210691739   0.005247116857234602
-0.4459512080942935   0.007000567417174447   0.00658700500043434
-0.4459512080942935   0.007000567417174447   0.00658700500043434
-0.4459512080942935   0.007000567417174447   0.00658700500043434
-0.4459512080942935   0.007000567417174447   0.00658700500043434
-0.25107654223873127   0.06773879395401027   0.006785657491056744
-0.25107654223873127   0.06773879395401027   0.006785657491056744
-0.25107654223873127   0.06773879395401027   0.006785657491056744
-0.25107654223873127   0.06773879395401027   0.006785657491056744
-0.6127906293821533   -0.010396711797060615   -0.01363879201541622
-0.6127906293821533   -0.010396711797060615   -0.01363879201541622
-0.6127906293821533   -0.010396711797060615   -0.01363879201541622
-0.6127906293821533   -0.010396711797060615   -0.01363879201541622
-0.5838768535320528   0.03698368039008296   -0.02819812284667842
-0.5838768535320528   0.03698368039008296   -0.02819812284667842
-0.5838768535320528   0.03698368039008296   -0.02819812284667842
-0.5838768535320528   0.03698368039008296   -0.02819812284667842
-0.22351361409356846   0.10744448196113922   -0.00518620003278094
-0.22351361409356846   0.10744448196113922   -0.00518620003278094
-0.22351361409356846   0.10744448196113922   -0.00518620003278094
-0.22351361409356846   0.10744448196113922   -0.00518620003278094
-0.41522412667810543   0.048219605636208945   0.024492823741579295
-0.41522412667810543   0.048219605636208945   0.024492823741579295
-0.41522412667810543   0.048219605636208945   0.024492823741579295
-0.41522412667810543   0.048219605636208945   0.024492823741579295
-0.6712693584653093   -0.06457797593462321   -0.019306044654849513
-0.6712693584653093   -0.06457797593462321   -0.019306044654849513
-0.6712693584653093   -0.06457797593462321   -0.019306044654849513
-0.6712693584653093   -0.06457797593462321   -0.019306044654849513
-0.9960913199709481   -0.05620376866440893   0.03999722778333668
-0.9960913199709481   -0.05620376866440893   0.03999722778333668
-0.9960913199709481   -0.05620376866440893   0.03999722778333668
-0.9960913199709481   -0.05620376866440893   0.03999722778333668
-0.9962155039506841   -0.09498677425616212   -0.05359879875032278
-0.9962155039506841   -0.09498677425616212   -0.05359879875032278
-0.9962155039506841   -0.09498677425616212   -0.05359879875032278
-0.9962155039506841   -0.09498677425616212   -0.05359879875032278
-0.6094824532203682   0.06083501745605288   0.04885445218199319
-0.6094824532203682   0.06083501745605288   0.04885445218199319
-0.6094824532203682   0.06083501745605288   0.04885445218199319
-0.6094824532203682   0.06083501745605288   0.04885445218199319
-0.8136987291232171   -0.034730350194063675   -0.005274285232382728
-0.8136987291232171   -0.034730350194063675   -0.005274285232382728
-0.8136987291232171   -0.034730350194063675   -0.005274285232382728
-0.8136987291232171   -0.034730350194063675   -0.005274285232382728
-0.6404950218751333   -0.018497994015116398   -0.026875379620657128
-0.6404950218751333   -0.018497994015116398   -0.026875379620657128
-0.6404950218751333   -0.018497994015116398   -0.026875379620657128
-0.6404950218751333   -0.018497994015116398   -0.026875379620657128
-0.9631842936147357   -0.013635121103805214   0.03020559977707014
-0.9631842936147357   -0.013635121103805214   0.03020559977707014
-0.9631842936147357   -0.013635121103805214   0.03020559977707014
-0.9631842936147357   -0.013635121103805214   0.03020559977707014
-0.9569238542965779   -0.05009734536175289   -0.05963564163416003
-0.9569238542965779   -0.05009734536175289   -0.05963564163416003
-0.9569238542965779   -0.05009734536175289   -0.05963564163416003
-0.9569238542965779   -0.05009734536175289   -0.05963564163416003
-0.5804408755270383   0.09883595414331203   0.038877311319792204
-0.5804408755270383   0.09883595414331203   0.038877311319792204
-0.5804408755270383   0.09883595414331203   0.038877311319792204
-0.5804408755270383   0.09883595414331203   0.038877311319792204
-0.7748768729715841   0.006931222304887824   0.014455955523868042
-0.7748768729715841   0.006931222304887824   0.014455955523868042
-0.7748768729715841   0.006931222304887824   0.014455955523868042
-0.7748768729715841   0.006931222304887824   0.014455955523868042
-0.6104275135757018   0.02390422179434218   -0.036124146574556634
-0.6104275135757018   0.02390422179434218   -0.036124146574556634
-0.6104275135757018   0.02390422179434218   -0.036124146574556634
-0.6104275135757018   0.02390422179434218   -0.036124146574556634
-0.9246657895702479   0.027105813664882517   0.024451522970854324
-0.9246657895702479   0.027105813664882517   0.024451522970854324
-0.9246657895702479   0.027105813664882517   0.024451522970854324
-0.9246657895702479   0.027105813664882517   0.024451522970854324
-0.9217668744051121   -0.0011061148902600793   -0.06418582951732628
-0.9217668744051121   -0.0011061148902600793   -0.06418582951732628
-0.9217668744051121   -0.0011061148902600793   -0.06418582951732628
-0.9217668744051121   -0.0011061148902600793   -0.06418582951732628
-0.5516997585787634   0.14084358983764816   0.028827442472203507
-0.5516997585787634   0.14084358983764816   0.028827442472203507
-0.5516997585787634   0.14084358983764816   0.028827442472203507
-0.5516997585787634   0.14084358983764816   0.028827442472203507
-0.745740988044877   0.045819936662167965   0.03214944340046498
-0.745740988044877   0.045819936662167965   0.03214944340046498
-0.745740988044877   0.045819936662167965   0.03214944340046498
-0.745740988044877   0.045819936662167965   0.03214944340046498
-1.0231244654315432   -0.09282419332398853   -0.05854807486005942
-1.0231244654315432   -0.09282419332398853   -0.05854807486005942
-1.0231244654315432   -0.09282419332398853   -0.05854807486005942
-1.0231244654315432   -0.09282419332398853   -0.05854807486005942
-1.3657904428109984   -0.023770231137295095   0.08644990575485348
-1.3657904428109984   -0.023770231137295095   0.08644990575485348
-1.3657904428109984   -0.023770231137295095   0.08644990575485348
-1.3657904428109984   -0.023770231137295095   0.08644990575485348
-1.3464746642016374   -0.12384240854928633   -0.07805920119797743
-1.3464746642016374   -0.12384240854928633   -0.07805920119797743
-1.3464746642016374   -0.12384240854928633   -0.07805920119797743
-1.3464746642016374   -0.12384240854928633   -0.07805920119797743
-0.9289051818351511   0.10274235702317039   0.08522368054801106
-0.9289051818351511   0.10274235702317039   0.08522368054801106
-0.9289051818351511   0.10274235702317039   0.08522368054801106
-0.9289051818351511   0.10274235702317039   0.08522368054801106
-1.1158266950470985   -0.019767923968907114   0.00917122192280058
-1.1158266950470985   -0.019767923968907114   0.00917122192280058
-1.1158266950470985   -0.019767923968907114   0.00917122192280058
-1.1158266950470985   -0.019767923968907114   0.00917122192280058
-0.989766831824836   -0.05013120359148096   -0.06621100878575725
-0.989766831824836   -0.05013120359148096   -0.06621100878575725
-0.989766831824836   -0.05013120359148096   -0.06621100878575725
-0.989766831824836   -0.05013120359148096   -0.06621100878575725
-1.2837848752711742   0.03085929100614121   0.08068804389888834
-1.2837848752711742   0.03085929100614121   0.08068804389888834
-1.2837848752711742   0.03085929100614121   0.08068804389888834
-1.2837848752711742   0.03085929100614121   0.08068804389888834
-1.284408993606592   -0.09719791705507186   -0.09288350284530919
-1.284408993606592   -0.09719791705507186   -0.09288350284530919
-1.284408993606592   -0.09719791705507186   -0.09288350284530919
-1.284408993606592   -0.09719791705507186   -0.09288350284530919
-0.8968764345380542   0.12025826331960862   0.0702458484770889
-0.8968764345380542   0.12025826331960862   0.0702458484770889
-0.8968764345380542   0.12025826331960862   0.0702458484770889
-0.8968764345380542   0.12025826331960862   0.0702458484770889
-1.0804888197637108   0.008178161460601241   0.02511866415877241
-1.0804888197637108   0.008178161460601241   0.02511866415877241
-1.0804888197637108   0.008178161460601241   0.02511866415877241
-1.0804888197637108   0.008178161460601241   0.02511866415877241
-0.9559054658368114   -0.028207266559555327   -0.07643377813752503
-0.9559054658368114   -0.028207266559555327   -0.07643377813752503
-0.9559054658368114   -0.028207266559555327   -0.07643377813752503
-0.9559054658368114   -0.028207266559555327   -0.07643377813752503
-1.2231401939338982   0.05350738119801979   0.0627551972650501
-1.2231401939338982   0.05350738119801979   0.0627551972650501
-1.2231401939338982   0.05350738119801979   0.0627551972650501
-1.2231401939338982   0.05350738119801979   0.0627551972650501
-1.208012607675418   -0.05736713938582222   -0.10355437869889618
-1.208012607675418   -0.05736713938582222   -0.10355437869889618
-1.208012607675418   -0.05736713938582222   -0.10355437869889618
-1.208012607675418   -0.05736713938582222   -0.10355437869889618
-0.868709489866443   0.14147779842259628   0.058517179863157666
-0.868709489866443   0.14147779842259628   0.058517179863157666
-0.868709489866443   0.14147779842259628   0.058517179863157666
-0.868709489866443   0.14147779842259628   0.058517179863157666
-1.014690906349608   0.03438206118274301   0.04755060985910799
-1.014690906349608   0.03438206118274301   0.04755060985910799
-1.014690906349608   0.03438206118274301   0.04755060985910799
-1.014690906349608   0.03438206118274301   0.04755060985910799
1.0866986945468249   0.09869490491334776   0.09449932995900243
1.0866986945468249   0.09869490491334776   0.09449932995900243
1.0866986945468249   0.09869490491334776   0.09449932995900243
1.0866986945468249   0.09869490491334776   0.09449932995900243
0.39827966246598   -0.18111341901865805   -0.06221460371483402
0.39827966246598   -0.18111341901865805   -0.06221460371483402
0.39827966246598   -0.18111341901865805   -0.06221460371483402
0.39827966246598   -0.18111341901865805   -0.06221460371483402
0.4921870733211873   -0.0009675816720338543   0.06801637506117053
0.4921870733211873   -0.0009675816720338543   0.06801637506117053
0.4921870733211873   -0.0009675816720338543   0.06801637506117053
0.4921870733211873   -0.0009675816720338543   0.06801637506117053
1.1066392834794525   -0.02547454904810187   -0.07941181570888764
1.1066392834794525   -0.02547454904810187   -0.07941181570888764
1.1066392834794525   -0.02547454904810187   -0.07941181570888764
1.1066392834794525   -0.02547454904810187   -0.07941181570888764
0.7235263425219045   -0.03288185445961345   -0.06996585005717983
0.7235263425219045   -0.03288185445961345   -0.06996585005717983
0.7235263425219045   -0.03288185445961345   -0.06996585005717983
0.7235263425219045   -0.03288185445961345   -0.06996585005717983
1.1715924346017426   0.13773841145227472   0.08214097940218051
1.1715924346017426   0.13773841145227472   0.08214097940218051
1.1715924346017426   0.13773841145227472   0.08214097940218051
1.1715924346017426   0.13773841145227472   0.08214097940218051
0.4318213957309124   -0.15959306864039735   -0.07518652592182502
0.4318213957309124   -0.15959306864039735   -0.07518652592182502
0.4318213957309124   -0.15959306864039735   -0.07518652592182502
0.4318213957309124   -0.15959306864039735   -0.07518652592182502
0.5293359464807   0.02041588012968415   0.056105985706112006
0.5293359464807   0.02041588012968415   0.056105985706112006
0.5293359464807   0.02041588012968415   0.056105985706112006
0.5293359464807   0.02041588012968415   0.056105985706112006
1.1742345679106434   -0.0011630426395961013   -0.1000857405396137
1.1742345679106434   -0.0011630426395961013   -0.1000857405396137
1.1742345679106434   -0.0011630426395961013   -0.1000857405396137
1.1742345679106434   -0.0011630426395961013   -0.1000857405396137
0.7940634777135125   -0.006608179339926412   -0.0423462356372874
0.7940634777135125   -0.006608179339926412   -0.0423462356372874
0.7940634777135125   -0.006608179339926412   -0.0423462356372874
0.7940634777135125   -0.006608179339926412   -0.0423462356372874
1.2399212262220862   0.16395720051027915   0.0632273078677115
1.2399212262220862   0.16395720051027915   0.0632273078677115
1.2399212262220862   0.16395720051027915   0.0632273078677115
1.2399212262220862   0.16395720051027915   0.0632273078677115
0.46853937790279543   -0.1398142732866558   -0.08764670376706407
0.46853937790279543   -0.1398142732866558   -0.08764670376706407
0.46853937790279543   -0.1398142732866558   -0.08764670376706407
0.46853937790279543   -0.1398142732866558   -0.08764670376706407
0.5664310812483457   0.06752302342135359   0.048627787479599935
0.5664310812483457   0.06752302342135359   0.048627787479599935
0.5664310812483457   0.06752302342135359   0.048627787479599935
0.5664310812483457   0.06752302342135359   0.048627787479599935
1.2629735118840844   0.06224766299423898   -0.10798115743980044
1.2629735118840844   0.06224766299423898   -0.10798115743980044
1.2629735118840844   0.06224766299423898   -0.10798115743980044
1.2629735118840844   0.06224766299423898   -0.10798115743980044
0.8377166457286848   0.02533074166742011   -0.01842565631241667
0.8377166457286848   0.02533074166742011   -0.01842565631241667
0.8377166457286848   0.02533074166742011   -0.01842565631241667
0.8377166457286848   0.02533074166742011   -0.01842565631241667
0.4730711992043261   0.055202453655027975   0.07542720730321045
0.4730711992043261   0.055202453655027975   0.07542720730321045
0.4730711992043261   0.055202453655027975   0.07542720730321045
0.4730711992043261   0.055202453655027975   0.07542720730321045
-0.2299744751768522   -0.16896913561708524   -0.03257341827490358
-0.2299744751768522   -0.16896913561708524   -0.03257341827490358
-0.2299744751768522   -0.16896913561708524   -0.03257341827490358
-0.2299744751768522   -0.16896913561708524   -0.03257341827490358
-0.1653252712708972   -0.04936915529397607   0.022886693645834365
-0.1653252712708972   -0.04936915529397607   0.022886693645834365
-0.1653252712708972   -0.04936915529397607   0.022886693645834365
-0.1653252712708972   -0.04936915529397607   0.022886693645834365
0.4769799934618994   0.0010543731705135312   -0.010040979077815603
0.4769799934618994   0.0010543731705135312   -0.010040979077815603
0.4769799934618994   0.0010543731705135312   -0.010040979077815603
0.4769799934618994   0.0010543731705135312   -0.010040979077815603
0.13246756543721053   -0.03581807354776093   -0.02984828032481695
0.13246756543721053   -0.03581807354776093   -0.02984828032481695
0.13246756543721053   -0.03581807354776093   -0.02984828032481695
0.13246756543721053   -0.03581807354776093   -0.02984828032481695
0.5112176219968059   0.09483532665320124   0.06736621011403623
0.5112176219968059   0.09483532665320124   0.06736621011403623
0.5112176219968059   0.09483532665320124   0.06736621011403623
0.5112176219968059   0.09483532665320124   0.06736621011403623
-0.19680770446610754   -0.14039491343698035   -0.04349971418721674
-0.19680770446610754   -0.14039491343698035   -0.04349971418721674
-0.19680770446610754   -0.14039491343698035   -0.04349971418721674
-0.19680770446610754   -0.14039491343698035   -0.04349971418721674
-0.1307102661501604   -0.009376202616678216   0.014478176429466225
-0.1307102661501604   -0.009376202616678216   0.014478176429466225
-0.1307102661501604   -0.009376202616678216   0.014478176429466225
-0.1307102661501604   -0.009376202616678216   0.014478176429466225
0.5176822973114987   0.03695779322285679   -0.01870417323305652
0.5176822973114987   0.03695779322285679   -0.01870417323305652
0.5176822973114987   0.03695779322285679   -0.01870417323305652
0.5176822973114987   0.03695779322285679   -0.01870417323305652
0.165924462140262   -0.004205086964260467   -0.011874952056044075
0.165924462140262   -0.004205086964260467   -0.011874952056044075
0.165924462140262   -0.004205086964260467   -0.011874952056044075
0.165924462140262   -0.004205086964260467   -0.011874952056044075
0.5532870764242457   0.1364859447691791   0.05979157078434515
0.5532870764242457   0.1364859447691791   0.05979157078434515
0.5532870764242457   0.1364859447691791   0.05979157078434515
0.5532870764242457   0.1364859447691791   0.05979157078434515
-0.163552292164365   -0.10614160106444949   -0.052966555193785486
-0.163552292164365   -0.10614160106444949   -0.052966555193785486
-0.163552292164365   -0.10614160106444949   -0.052966555193785486
-0.163552292164365   -0.10614160106444949   -0.052966555193785486
-0.0965364266462374   0.03692685392466988   0.006105711849391498
-0.0965364266462374   0.03692685392466988   0.006105711849391498
-0.0965364266462374   0.03692685392466988   0.006105711849391498
-0.0965364266462374   0.03692685392466988   0.006105711849391498
0.5537987488211318   0.0796842697424684   -0.02669512097757144
0.5537987488211318   0.0796842697424684   -0.02669512097757144
0.5537987488211318   0.0796842697424684   -0.02669512097757144
0.5537987488211318   0.0796842697424684   -0.02669512097757144
0.2071952456841313   0.034539466057522714   0.009101070834451925
0.2071952456841313   0.034539466057522714   0.009101070834451925
0.2071952456841313   0.034539466057522714   0.009101070834451925
0.2071952456841313   0.034539466057522714   0.009101070834451925
-0.18087363633417322   0.011925657191196017   0.03203598313021388
-0.18087363633417322   0.011925657191196017   0.03203598313021388
-0.18087363633417322   0.011925657191196017   0.03203598313021388
-0.18087363633417322   0.011925657191196017   0.03203598313021388
-0.8457452736306891   -0.1491338291065822   -0.004265877207228863
-0.8457452736306891   -0.1491338291065822   -0.004265877207228863
-0.8457452736306891   -0.1491338291065822   -0.004265877207228863
-0.8457452736306891   -0.1491338291065822   -0.004265877207228863
-0.8046731504208607   -0.0876676889435147   -0.019884228538018224
-0.8046731504208607   -0.0876676889435147   -0.019884228538018224
-0.8046731504208607   -0.0876676889435147   -0.019884228538018224
-0.8046731504208607   -0.0876676889435147   -0.019884228538018224
-0.15137384713711427   0.021945103803588786   0.021329555217179358
-0.15137384713711427   0.021945103803588786   0.021329555217179358
-0.15137384713711427   0.021945103803588786   0.021329555217179358
-0.15137384713711427   0.021945103803588786   0.021329555217179358
-0.49654170871660575   -0.04588141923877044   -0.018626101414165323
-0.49654170871660575   -0.04588141923877044   -0.018626101414165323
-0.49654170871660575   -0.04588141923877044   -0.018626101414165323
-0.49654170871660575   -0.04588141923877044   -0.018626101414165323
-0.14454884964832868   0.05317828850961065   0.024221357955090343
-0.14454884964832868   0.05317828850961065   0.024221357955090343
-0.14454884964832868   0.05317828850961065   0.024221357955090343
-0.14454884964832868   0.05317828850961065   0.024221357955090343
-0.8096654457415573   -0.11706817148144899   -0.015445222603566528
-0.8096654457415573   -0.11706817148144899   -0.015445222603566528
-0.8096654457415573   -0.11706817148144899   -0.015445222603566528
-0.8096654457415573   -0.11706817148144899   -0.015445222603566528
-0.7665272891833245   -0.04378928937733048   -0.026865020115594378
-0.7665272891833245   -0.04378928937733048   -0.026865020115594378
-0.7665272891833245   -0.04378928937733048   -0.026865020115594378
-0.7665272891833245   -0.04378928937733048   -0.026865020115594378
-0.11767919626639783   0.05821029424289816   0.012047028988700383
-0.11767919626639783   0.05821029424289816   0.012047028988700383
-0.11767919626639783   0.05821029424289816   0.012047028988700383
-0.11767919626639783   0.05821029424289816   0.012047028988700383
-0.4580715221807473   -0.009165429401893813   -0.00029000223705478653
-0.4580715221807473   -0.009165429401893813   -0.00029000223705478653
-0.4580715221807473   -0.009165429401893813   -0.00029000223705478653
-0.4580715221807473   -0.009165429401893813   -0.00029000223705478653
-0.10944606799297509   0.09607045983633405   0.015352504762376696
-0.10944606799297509   0.09607045983633405   0.015352504762376696
-0.10944606799297509   0.09607045983633405   0.015352504762376696
-0.10944606799297509   0.09607045983633405   0.015352504762376696
-0.7730565461509996   -0.07994558366501865   -0.023355010666282015
-0.7730565461509996   -0.07994558366501865   -0.023355010666282015
-0.7730565461509996   -0.07994558366501865   -0.023355010666282015
-0.7730565461509996   -0.07994558366501865   -0.023355010666282015
-0.7310224024092726   -6.374640388639996e-05   -0.03521855354220485
-0.7310224024092726   -6.374640388639996e-05   -0.03521855354220485
-0.7310224024092726   -6.374640388639996e-05   -0.03521855354220485
-0.7310224024092726   -6.374640388639996e-05   -0.03521855354220485
-0.08550736499815767   0.09525593630175883   0.002921937712697154
-0.08550736499815767   0.09525593630175883   0.002921937712697154
-0.08550736499815767   0.09525593630175883   0.002921937712697154
-0.08550736499815767   0.09525593630175883   0.002921937712697154
-0.4227261069510348   0.027410752965176657   0.017161285632645747
-0.4227261069510348   0.027410752965176657   0.017161285632645747
-0.4227261069510348   0.027410752965176657   0.017161285632645747
-0.4227261069510348   0.027410752965176657   0.017161285632645747
-0.82407287232326   -0.032339220539054   -0.01269847923760499
-0.82407287232326   -0.032339220539054   -0.01269847923760499
-0.82407287232326   -0.032339220539054   -0.01269847923760499
-0.82407287232326   -0.032339220539054   -0.01269847923760499
-1.447218107290828   -0.12072089316731685   0.028095652839401495
-1.447218107290828   -0.12072089316731685   0.028095652839401495
-1.447218107290828   -0.12072089316731685   0.028095652839401495
-1.447218107290828   -0.12072089316731685   0.028095652839401495
-1.4271089190087953   -0.12443153520448066   -0.05985184533224747
-1.4271089190087953   -0.12443153520448066   -0.05985184533224747
-1.4271089190087953   -0.12443153520448066   -0.05985184533224747
-1.4271089190087953   -0.12443153520448066   -0.05985184533224747
-0.761227886678304   0.056008362688910796   0.05366603854234712
-0.761227886678304   0.056008362688910796   0.05366603854234712
-0.761227886678304   0.056008362688910796   0.05366603854234712
-0.761227886678304   0.056008362688910796   0.05366603854234712
-1.1071926724071848   -0.04837154734167659   -0.006484763687938239
-1.1071926724071848   -0.04837154734167659   -0.006484763687938239
-1.1071926724071848   -0.04837154734167659   -0.006484763687938239
-1.1071926724071848   -0.04837154734167659   -0.006484763687938239
-0.7845811540105432   0.012188333146360808   -0.019280268576299817
-0.7845811540105432   0.012188333146360808   -0.019280268576299817
-0.7845811540105432   0.012188333146360808   -0.019280268576299817
-0.7845811540105432   0.012188333146360808   -0.019280268576299817
-1.4036832275584186   -0.08053908154379205   0.013384158258947489
-1.4036832275584186   -0.08053908154379205   0.013384158258947489
-1.4036832275584186   -0.08053908154379205   0.013384158258947489
-1.4036832275584186   -0.08053908154379205   0.013384158258947489
-1.3772911949369158   -0.08154929505827396   -0.06619861527826011
-1.3772911949369158   -0.08154929505827396   -0.06619861527826011
-1.3772911949369158   -0.08154929505827396   -0.06619861527826011
-1.3772911949369158   -0.08154929505827396   -0.06619861527826011
-0.725700060240164   0.09060028869156886   0.042881546531315345
-0.725700060240164   0.09060028869156886   0.042881546531315345
-0.725700060240164   0.09060028869156886   0.042881546531315345
-0.725700060240164   0.09060028869156886   0.042881546531315345
-1.0565433615083095   -0.007782401387415455   0.011893291095336295
-1.0565433615083095   -0.007782401387415455   0.011893291095336295
-1.0565433615083095   -0.007782401387415455   0.011893291095336295
-1.0565433615083095   -0.007782401387415455   0.011893291095336295
-0.7476217683149373   0.05199914357631505   -0.028125848727297127
-0.7476217683149373   0.05199914357631505   -0.028125848727297127
-0.7476217683149373   0.05199914357631505   -0.028125848727297127
-0.7476217683149373   0.05199914357631505   -0.028125848727297127
-1.3542320749987677   -0.04181073807964486   0.009358427433850833
-1.3542320749987677   -0.04181073807964486   0.009358427433850833
-1.3542320749987677   -0.04181073807964486   0.009358427433850833
-1.3542320749987677   -0.04181073807964486   0.009358427433850833
-1.3327422191433826   -0.035049349901110805   -0.06959479565697198
-1.3327422191433826   -0.035049349901110805   -0.06959479565697198
-1.3327422191433826   -0.035049349901110805   -0.06959479565697198
-1.3327422191433826   -0.035049349901110805   -0.06959479565697198
-0.6912898935930296   0.12866067296401262   0.034719571171117944
-0.6912898935930296   0.12866067296401262   0.034719571171117944
-0.6912898935930296   0.12866067296401262   0.034719571171117944
-0.6912898935930296   0.12866067296401262   0.034719571171117944
-1.022196119098562   0.02693637669276347   0.027753836547394814
-1.022196119098562   0.02693637669276347   0.027753836547394814
-1.022196119098562   0.02693637669276347   0.027753836547394814
-1.022196119098562   0.02693637669276347   0.027753836547394814
-1.4533939208657292   -0.06940147461640672   -0.05410283358601535
-1.4533939208657292   -0.06940147461640672   -0.05410283358601535
-1.4533939208657292   -0.06940147461640672   -0.05410283358601535
-1.4533939208657292   -0.06940147461640672   -0.05410283358601535
-2.070946710419166   -0.07460754864672442   0.09378590958137288
-2.070946710419166   -0.07460754864672442   0.09378590958137288
-2.070946710419166   -0.07460754864672442   0.09378590958137288
-2.070946710419166   -0.07460754864672442   0.09378590958137288
-2.0307876293914817   -0.14899788090047372   -0.07159506151387887
-2.0307876293914817   -0.14899788090047372   -0.07159506151387887
-2.0307876293914817   -0.14899788090047372   -0.07159506151387887
-2.0307876293914817   -0.14899788090047372   -0.07159506151387887
-1.3479930019864916   0.1160094600342047   0.095286744540572
-1.3479930019864916   0.1160094600342047   0.095286744540572
-1.3479930019864916   0.1160094600342047   0.095286744540572
-1.3479930019864916   0.1160094600342047   0.095286744540572
-1.6492555549727366   -0.02039543226812629   0.01899776321870722
-1.6492555549727366   -0.02039543226812629   0.01899776321870722
-1.6492555549727366   -0.02039543226812629   0.01899776321870722
-1.6492555549727366   -0.02039543226812629   0.01899776321870722
-1.4066557865567817   -0.021880036405078185   -0.06013768187159016
-1.4066557865567817   -0.021880036405078185   -0.06013768187159016
-1.4066557865567817   -0.021880036405078185   -0.06013768187159016
-1.4066557865567817   -0.021880036405078185   -0.06013768187159016
-1.9711757609700364   -0.010159300610039668   0.08762570030289452
-1.9711757609700364   -0.010159300610039668   0.08762570030289452
-1.9711757609700364   -0.010159300610039668   0.08762570030289452
-1.9711757609700364   -0.010159300610039668   0.08762570030289452
-1.9554925900963647   -0.12237417598015288   -0.08430019246340803
-1.9554925900963647   -0.12237417598015288   -0.08430019246340803
-1.9554925900963647   -0.12237417598015288   -0.08430019246340803
-1.9554925900963647   -0.12237417598015288   -0.08430019246340803
-1.3061581597475702   0.13243356456693245   0.07548370104326167
-1.3061581597475702   0.13243356456693245   0.07548370104326167
-1.3061581597475702   0.13243356456693245   0.07548370104326167
-1.3061581597475702   0.13243356456693245   0.07548370104326167
-1.6102212995643017   0.008656896107612666   0.03432343090761568
-1.6102212995643017   0.008656896107612666   0.03432343090761568
-1.6102212995643017   0.008656896107612666   0.03432343090761568
-1.6102212995643017   0.008656896107612666   0.03432343090761568
-1.3615051535540854   -0.00040015905291301834   -0.06841754436946883
-1.3615051535540854   -0.00040015905291301834   -0.06841754436946883
-1.3615051535540854   -0.00040015905291301834   -0.06841754436946883
-1.3615051535540854   -0.00040015905291301834   -0.06841754436946883
-1.899203556767936   0.01140158716159706   0.06336921103695062
-1.899203556767936   0.01140158716159706   0.06336921103695062
-1.899203556767936   0.01140158716159706   0.06336921103695062
-1.899203556767936   0.01140158716159706   0.06336921103695062
-1.873251028568184   -0.09034128590694329   -0.09603670308279938
-1.873251028568184   -0.09034128590694329   -0.09603670308279938
-1.873251028568184   -0.09034128590694329   -0.09603670308279938
-1.873251028568184   -0.09034128590694329   -0.09603670308279938
-1.269365035607665   0.1479564909937508   0.0642852811267503
-1.269365035607665   0.1479564909937508   0.0642852811267503
-1.269365035607665   0.1479564909937508   0.0642852811267503
-1.269365035607665   0.1479564909937508   0.0642852811267503
-1.5273325706403562   0.03283208516844416   0.05743188564400103
-1.5273325706403562   0.03283208516844416   0.05743188564400103
-1.5273325706403562   0.03283208516844416   0.05743188564400103
-1.5273325706403562   0.03283208516844416   0.05743188564400103
1.8268639485067653   0.1364499628684323   0.0970180196798817
1.8268639485067653   0.1364499628684323   0.0970180196798817
1.8268639485067653   0.1364499628684323   0.0970180196798817
1.8268639485067653   0.1364499628684323   0.0970180196798817
0.8062454788659509   -0.21559648705761134   -0.0444816395615518
0.8062454788659509   -0.21559648705761134   -0.0444816395615518
0.8062454788659509   -0.21559648705761134   -0.0444816395615518
0.8062454788659509   -0.21559648705761134   -0.0444816395615518
0.8993416130345492   -0.03771627703623198   0.06667721479536497
0.8993416130345492   -0.03771627703623198   0.06667721479536497
0.8993416130345492   -0.03771627703623198   0.06667721479536497
0.8993416130345492   -0.03771627703623198   0.06667721479536497
1.847220534952005   -0.0038407224867897938   -0.06979038096146878
1.847220534952005   -0.0038407224867897938   -0.06979038096146878
1.847220534952005   -0.0038407224867897938   -0.06979038096146878
1.847220534952005   -0.0038407224867897938   -0.06979038096146878
1.2661221493461423   -0.038568701888217316   -0.09919485359812018
1.2661221493461423   -0.038568701888217316   -0.09919485359812018
1.2661221493461423   -0.038568701888217316   -0.09919485359812018
1.2661221493461423   -0.038568701888217316   -0.09919485359812018
1.911713037325167   0.1676573721219406   0.08117403629559757
1.911713037325167   0.1676573721219406   0.08117403629559757
1.911713037325167   0.1676573721219406   0.08117403629559757
1.911713037325167   0.1676573721219406   0.08117403629559757
0.8410382352435063   -0.20302524706284336   -0.05953070413323812
0.8410382352435063   -0.20302524706284336   -0.05953070413323812
0.8410382352435063   -0.20302524706284336   -0.05953070413323812
0.8410382352435063   -0.20302524706284336   -0.05953070413323812
0.9358259907469194   -0.018042717294299015   0.05392446335059589
0.9358259907469194   -0.018042717294299015   0.05392446335059589
0.9358259907469194   -0.018042717294299015   0.05392446335059589
0.9358259907469194   -0.018042717294299015   0.05392446335059589
1.9108609864390576   0.017860148725329872   -0.08725069889654112
1.9108609864390576   0.017860148725329872   -0.08725069889654112
1.9108609864390576   0.017860148725329872   -0.08725069889654112
1.9108609864390576   0.017860148725329872   -0.08725069889654112
1.3459609572984201   -0.01535915386595088   -0.06744475815540256
1.3459609572984201   -0.01535915386595088   -0.06744475815540256
1.3459609572984201   -0.01535915386595088   -0.06744475815540256
1.3459609572984201   -0.01535915386595088   -0.06744475815540256
1.9749828292677591   0.1910395754451768   0.06017908852712284
1.9749828292677591   0.1910395754451768   0.06017908852712284
1.9749828292677591   0.1910395754451768   0.06017908852712284
1.9749828292677591   0.1910395754451768   0.06017908852712284
0.8771255176233784   -0.18580077430898287   -0.07181984525242549
0.8771255176233784   -0.18580077430898287   -0.07181984525242549
0.8771255176233784   -0.18580077430898287   -0.07181984525242549
0.8771255176233784   -0.18580077430898287   -0.07181984525242549
0.968866294180531   0.0344778726777617   0.04727710868136667
0.968866294180531   0.0344778726777617   0.04727710868136667
0.968866294180531   0.0344778726777617   0.04727710868136667
0.968866294180531   0.0344778726777617   0.04727710868136667
1.989120110107059   0.08133968022973787   -0.09138668210167969
1.989120110107059   0.08133968022973787   -0.09138668210167969
1.989120110107059   0.08133968022973787   -0.09138668210167969
1.989120110107059   0.08133968022973787   -0.09138668210167969
1.3759703888915298   0.015858209187789518   -0.045440933756744545
1.3759703888915298   0.015858209187789518   -0.045440933756744545
1.3759703888915298   0.015858209187789518   -0.045440933756744545
1.3759703888915298   0.015858209187789518   -0.045440933756744545
0.8919269465078102   0.07965972891071507   0.08866948267940687
0.8919269465078102   0.07965972891071507   0.08866948267940687
0.8919269465078102   0.07965972891071507   0.08866948267940687
0.8919269465078102   0.07965972891071507   0.08866948267940687
-0.10948310540768533   -0.2658247483293756   -0.025303142668970074
-0.10948310540768533   -0.2658247483293756   -0.025303142668970074
-0.10948310540768533   -0.2658247483293756   -0.025303142668970074
-0.10948310540768533   -0.2658247483293756   -0.025303142668970074
-0.029220886194401822   -0.09364935585019041   0.022641255474965965
-0.029220886194401822   -0.09364935585019041   0.022641255474965965
-0.029220886194401822   -0.09364935585019041   0.022641255474965965
-0.029220886194401822   -0.09364935585019041   0.022641255474965965
0.8844710021249858   -0.04972906607538516   0.004336949286699934
0.8844710021249858   -0.04972906607538516   0.004336949286699934
0.8844710021249858   -0.04972906607538516   0.004336949286699934
0.8844710021249858   -0.04972906607538516   0.004336949286699934
0.3983334694185225   -0.07430044645162623   -0.047362607078199524
0.3983334694185225   -0.07430044645162623   -0.047362607078199524
0.3983334694185225   -0.07430044645162623   -0.047362607078199524
0.3983334694185225   -0.07430044645162623   -0.047362607078199524
0.9311755780235165   0.10960653203266148   0.07852423067130718
0.9311755780235165   0.10960653203266148   0.07852423067130718
0.9311755780235165   0.10960653203266148   0.07852423067130718
0.9311755780235165   0.10960653203266148   0.07852423067130718
-0.07267227558425549   -0.24973176744955994   -0.03853327987493278
-0.07267227558425549   -0.24973176744955994   -0.03853327987493278
-0.07267227558425549   -0.24973176744955994   -0.03853327987493278
-0.07267227558425549   -0.24973176744955994   -0.03853327987493278
0.007987598141956626   -0.05847150641673924   0.013844027738444155
0.007987598141956626   -0.05847150641673924   0.013844027738444155
0.007987598141956626   -0.05847150641673924   0.013844027738444155
0.007987598141956626   -0.05847150641673924   0.013844027738444155
0.9225552509891526   -0.02320808430083074   -0.007263868431705761
0.9225552509891526   -0.02320808430083074   -0.007263868431705761
0.9225552509891526   -0.02320808430083074   -0.007263868431705761
0.9225552509891526   -0.02320808430083074   -0.007263868431705761
0.4306848182063717   -0.05270921570436618   -0.03071835545555846
0.4306848182063717   -0.05270921570436618   -0.03071835545555846
0.4306848182063717   -0.05270921570436618   -0.03071835545555846
0.4306848182063717   -0.05270921570436618   -0.03071835545555846
0.9717691694054226   0.14552960846501684   0.07006803088379564
0.9717691694054226   0.14552960846501684   0.07006803088379564
0.9717691694054226   0.14552960846501684   0.07006803088379564
0.9717691694054226   0.14552960846501684   0.07006803088379564
-0.039298634507549286   -0.2252815134158393   -0.05577712850998535
-0.039298634507549286   -0.2252815134158393   -0.05577712850998535
-0.039298634507549286   -0.2252815134158393   -0.05577712850998535
-0.039298634507549286   -0.2252815134158393   -0.05577712850998535
0.03719022321102535   -0.017308705797085447   0.004948526934765743
0.03719022321102535   -0.017308705797085447   0.004948526934765743
0.03719022321102535   -0.017308705797085447   0.004948526934765743
0.03719022321102535   -0.017308705797085447   0.004948526934765743
0.951084459989129   0.010594760266318226   -0.017748949864216094
0.951084459989129   0.010594760266318226   -0.017748949864216094
0.951084459989129   0.010594760266318226   -0.017748949864216094
0.951084459989129   0.010594760266318226   -0.017748949864216094
0.4702254961662719   -0.020428145220066113   -0.012884171386533316
0.4702254961662719   -0.020428145220066113   -0.012884171386533316
0.4702254961662719   -0.020428145220066113   -0.012884171386533316
0.4702254961662719   -0.020428145220066113   -0.012884171386533316
-0.038040667746437024   0.022064272477749062   0.04402002483014686
-0.038040667746437024   0.022064272477749062   0.04402002483014686
-0.038040667746437024   0.022064272477749062   0.04402002483014686
-0.038040667746437024   0.022064272477749062   0.04402002483014686
-1.018178984106164   -0.33380221705827084   -0.02040051611386458
-1.018178984106164   -0.33380221705827084   -0.02040051611386458
-1.018178984106164   -0.33380221705827084   -0.02040051611386458
-1.018178984106164   -0.33380221705827084   -0.02040051611386458
-0.936887769883775   -0.14370532699633873   -0.02140867603579749
-0.936887769883775   -0.14370532699633873   -0.02140867603579749
-0.936887769883775   -0.14370532699633873   -0.02140867603579749
-0.936887769883775   -0.14370532699633873   -0.02140867603579749
-0.03417183793131544   -0.11557243295997754   0.019809573900183168
-0.03417183793131544   -0.11557243295997754   0.019809573900183168
-0.03417183793131544   -0.11557243295997754   0.019809573900183168
-0.03417183793131544   -0.11557243295997754   0.019809573900183168
-0.5091420493497552   -0.13510500525123545   -0.04233325562702447
-0.5091420493497552   -0.13510500525123545   -0.04233325562702447
-0.5091420493497552   -0.13510500525123545   -0.04233325562702447
-0.5091420493497552   -0.13510500525123545   -0.04233325562702447
0.0032826964176518713   0.05576038667342778   0.03574942601161625
0.0032826964176518713   0.05576038667342778   0.03574942601161625
0.0032826964176518713   0.05576038667342778   0.03574942601161625
0.0032826964176518713   0.05576038667342778   0.03574942601161625
-0.9719961699677125   -0.31269201236471533   -0.02796399108710872
-0.9719961699677125   -0.31269201236471533   -0.02796399108710872
-0.9719961699677125   -0.31269201236471533   -0.02796399108710872
-0.9719961699677125   -0.31269201236471533   -0.02796399108710872
-0.8907444924665013   -0.1046475524221911   -0.029176908136703827
-0.8907444924665013   -0.1046475524221911   -0.029176908136703827
-0.8907444924665013   -0.1046475524221911   -0.029176908136703827
-0.8907444924665013   -0.1046475524221911   -0.029176908136703827
0.0005003799779843589   -0.09009264518798683   0.008029075689829045
0.0005003799779843589   -0.09009264518798683   0.008029075689829045
0.0005003799779843589   -0.09009264518798683   0.008029075689829045
0.0005003799779843589   -0.09009264518798683   0.008029075689829045
-0.46434832640596113   -0.10703782321836423   -0.023538032954635746
-0.46434832640596113   -0.10703782321836423   -0.023538032954635746
-0.46434832640596113   -0.10703782321836423   -0.023538032954635746
-0.46434832640596113   -0.10703782321836423   -0.023538032954635746
0.04110036851691258   0.09312006336760373   0.027816309828880954
0.04110036851691258   0.09312006336760373   0.027816309828880954
0.04110036851691258   0.09312006336760373   0.027816309828880954
0.04110036851691258   0.09312006336760373   0.027816309828880954
-0.931377422720427   -0.2878932026927728   -0.04909590913575075
-0.931377422720427   -0.2878932026927728   -0.04909590913575075
-0.931377422720427   -0.2878932026927728   -0.04909590913575075
-0.931377422720427   -0.2878932026927728   -0.04909590913575075
-0.8581409243559498   -0.06742887190332583   -0.03786854395493403
-0.8581409243559498   -0.06742887190332583   -0.03786854395493403
-0.8581409243559498   -0.06742887190332583   -0.03786854395493403
-0.8581409243559498   -0.06742887190332583   -0.03786854395493403
0.02327813355366267   -0.06976262911213449   -0.012157998037001778
0.02327813355366267   -0.06976262911213449   -0.012157998037001778
0.02327813355366267   -0.06976262911213449   -0.012157998037001778
0.02327813355366267   -0.06976262911213449   -0.012157998037001778
-0.4314889120433909   -0.08087637982189619   -0.011793156489827117
-0.4314889120433909   -0.08087637982189619   -0.011793156489827117
-0.4314889120433909   -0.08087637982189619   -0.011793156489827117
-0.4314889120433909   -0.08087637982189619   -0.011793156489827117
-0.9532056135621525   -0.027837250899893945   -0.0014986295521842927
-0.9532056135621525   -0.027837250899893945   -0.0014986295521842927
-0.9532056135621525   -0.027837250899893945   -0.0014986295521842927
-0.9532056135621525   -0.027837250899893945   -0.0014986295521842927
-1.9308929361457028   -0.35887740984759586   -0.016455134421825758
-1.9308929361457028   -0.35887740984759586   -0.016455134421825758
-1.9308929361457028   -0.35887740984759586   -0.016455134421825758
-1.9308929361457028   -0.35887740984759586   -0.016455134421825758
-1.8434921993421807   -0.1839382343123203   -0.06380263379987008
-1.8434921993421807   -0.1839382343123203   -0.06380263379987008
-1.8434921993421807   -0.1839382343123203   -0.06380263379987008
-1.8434921993421807   -0.1839382343123203   -0.06380263379987008
-0.919453072500478   -0.12003802144548095   0.04209750532983059
-0.919453072500478   -0.12003802144548095   0.04209750532983059
-0.919453072500478   -0.12003802144548095   0.04209750532983059
-0.919453072500478   -0.12003802144548095   0.04209750532983059
-1.3993689033230745   -0.16231948104360003   -0.029851391961263206
-1.3993689033230745   -0.16231948104360003   -0.029851391961263206
-1.3993689033230745   -0.16231948104360003   -0.029851391961263206
-1.3993689033230745   -0.16231948104360003   -0.029851391961263206
-0.9022326788756287   0.015588739118904044   -0.007427287110309044
-0.9022326788756287   0.015588739118904044   -0.007427287110309044
-0.9022326788756287   0.015588739118904044   -0.007427287110309044
-0.9022326788756287   0.015588739118904044   -0.007427287110309044
-1.8614855576466007   -0.3203379595562722   -0.01736970007800271
-1.8614855576466007   -0.3203379595562722   -0.01736970007800271
-1.8614855576466007   -0.3203379595562722   -0.01736970007800271
-1.8614855576466007   -0.3203379595562722   -0.01736970007800271
-1.777559907225258   -0.14312985654671412   -0.07390933267500548
-1.777559907225258   -0.14312985654671412   -0.07390933267500548
-1.777559907225258   -0.14312985654671412   -0.07390933267500548
-1.777559907225258   -0.14312985654671412   -0.07390933267500548
-0.8746207811166591   -0.08937949413810181   0.03617359032842481
-0.8746207811166591   -0.08937949413810181   0.03617359032842481
-0.8746207811166591   -0.08937949413810181   0.03617359032842481
-0.8746207811166591   -0.08937949413810181   0.03617359032842481
-1.3316576481126776   -0.12316920083337873   -0.00987042130036276
-1.3316576481126776   -0.12316920083337873   -0.00987042130036276
-1.3316576481126776   -0.12316920083337873   -0.00987042130036276
-1.3316576481126776   -0.12316920083337873   -0.00987042130036276
-0.8559747207468429   0.0533116057432039   -0.013287207703806453
-0.8559747207468429   0.0533116057432039   -0.013287207703806453
-0.8559747207468429   0.0533116057432039   -0.013287207703806453
-0.8559747207468429   0.0533116057432039   -0.013287207703806453
-1.7994080393515322   -0.28902302818448045   -0.03725682166859525
-1.7994080393515322   -0.28902302818448045   -0.03725682166859525
-1.7994080393515322   -0.28902302818448045   -0.03725682166859525
-1.7994080393515322   -0.28902302818448045   -0.03725682166859525
-1.724019459762934   -0.10007972383833602   -0.07625284667072102
-1.724019459762934   -0.10007972383833602   -0.07625284667072102
-1.724019459762934   -0.10007972383833602   -0.07625284667072102
-1.724019459762934   -0.10007972383833602   -0.07625284667072102
-0.8488573294339326   -0.06988849275689057   0.011009051508725182
-0.8488573294339326   -0.06988849275689057   0.011009051508725182
-0.8488573294339326   -0.06988849275689057   0.011009051508725182
-0.8488573294339326   -0.06988849275689057   0.011009051508725182
-1.2941777891151827   -0.09929276794307326   -0.0033628920844214483
-1.2941777891151827   -0.09929276794307326   -0.0033628920844214483
-1.2941777891151827   -0.09929276794307326   -0.0033628920844214483
-1.2941777891151827   -0.09929276794307326   -0.0033628920844214483
-1.877999345754277   -0.06412348007706536   -0.046741112235228366
-1.877999345754277   -0.06412348007706536   -0.046741112235228366
-1.877999345754277   -0.06412348007706536   -0.046741112235228366
-1.877999345754277   -0.06412348007706536   -0.046741112235228366
-2.83168761612916   -0.24222043547501254   0.10753397936592207
-2.83168761612916   -0.24222043547501254   0.10753397936592207
-2.83168761612916   -0.24222043547501254   0.10753397936592207
-2.83168761612916   -0.24222043547501254   0.10753397936592207
-2.733937776171678   -0.1927239609155118   -0.06243558602288565
-2.733937776171678   -0.1927239609155118   -0.06243558602288565
-2.733937776171678   -0.1927239609155118   -0.06243558602288565
-2.733937776171678   -0.1927239609155118   -0.06243558602288565
-1.7641178043923365   0.050379777282208216   0.09875132935480722
-1.7641178043923365   0.050379777282208216   0.09875132935480722
-1.7641178043923365   0.050379777282208216   0.09875132935480722
-1.7641178043923365   0.050379777282208216   0.09875132935480722
-2.1989988832278278   -0.07613904399905935   0.010268905094852801
-2.1989988832278278   -0.07613904399905935   0.010268905094852801
-2.1989988832278278   -0.07613904399905935   0.010268905094852801
-2.1989988832278278   -0.07613904399905935   0.010268905094852801
-1.8052768809100495   -0.004864599874095044   -0.05179967607743123
-1.8052768809100495   -0.004864599874095044   -0.05179967607743123
-1.8052768809100495   -0.004864599874095044   -0.05179967607743123
-1.8052768809100495   -0.004864599874095044   -0.05179967607743123
-2.686138621181601   -0.13083950528684368   0.11467573329881231
-2.686138621181601   -0.13083950528684368   0.11467573329881231
-2.686138621181601   -0.13083950528684368   0.11467573329881231
-2.686138621181601   -0.13083950528684368   0.11467573329881231
-2.6291091571421874   -0.16212416550266767   -0.07435395191005999
-2.6291091571421874   -0.16212416550266767   -0.07435395191005999
-2.6291091571421874   -0.16212416550266767   -0.07435395191005999
-2.6291091571421874   -0.16212416550266767   -0.07435395191005999
-1.6988912178705844   0.08090624813599423   0.09539800941565378
-1.6988912178705844   0.08090624813599423   0.09539800941565378
-1.6988912178705844   0.08090624813599423   0.09539800941565378
-1.6988912178705844   0.08090624813599423   0.09539800941565378
-2.136888602018835   -0.03071652720104545   0.04372760594650621
-2.136888602018835   -0.03071652720104545   0.04372760594650621
-2.136888602018835   -0.03071652720104545   0.04372760594650621
-2.136888602018835   -0.03071652720104545   0.04372760594650621
-1.7415202308795392   0.019080207194380083   -0.0559210146874911
-1.7415202308795392   0.019080207194380083   -0.0559210146874911
-1.7415202308795392   0.019080207194380083   -0.0559210146874911
-1.7415202308795392   0.019080207194380083   -0.0559210146874911
-2.585152453058175   -0.09897043348598594   0.0822758364933435
-2.585152453058175   -0.09897043348598594   0.0822758364933435
-2.585152453058175   -0.09897043348598594   0.0822758364933435
-2.585152453058175   -0.09897043348598594   0.0822758364933435
-2.520719367608881   -0.13313988056724363   -0.08984224467700548
-2.520719367608881   -0.13313988056724363   -0.08984224467700548
-2.520719367608881   -0.13313988056724363   -0.08984224467700548
-2.520719367608881   -0.13313988056724363   -0.08984224467700548
-1.6504700381568038   0.11756596109529477   0.07384857642630609
-1.6504700381568038   0.11756596109529477   0.07384857642630609
-1.6504700381568038   0.11756596109529477   0.07384857642630609
-1.6504700381568038   0.11756596109529477   0.07384857642630609
-2.02047455890316   0.008141857756081894   0.0771719354961795
-2.02047455890316   0.008141857756081894   0.0771719354961795
-2.02047455890316   0.008141857756081894   0.0771719354961795
-2.02047455890316   0.008141857756081894   0.0771719354961795
2.4966024766137185   0.14952299039363448   0.0907587499469581
2.4966024766137185   0.14952299039363448   0.0907587499469581
2.4966024766137185   0.14952299039363448   0.0907587499469581
2.4966024766137185   0.14952299039363448   0.0907587499469581
1.190644717601248   -0.22328594994362305   0.0205646380336994
1.190644717601248   -0.22328594994362305   0.0205646380336994
1.190644717601248   -0.22328594994362305   0.0205646380336994
1.190644717601248   -0.22328594994362305   0.0205646380336994
1.2565780336513088   -0.09403157582626526   0.06989785364178851
1.2565780336513088   -0.09403157582626526   0.06989785364178851
1.2565780336513088   -0.09403157582626526   0.06989785364178851
1.2565780336513088   -0.09403157582626526   0.06989785364178851
2.509901809307925   0.020812512878173206   -0.019978599243884468
2.509901809307925   0.020812512878173206   -0.019978599243884468
2.509901809307925   0.020812512878173206   -0.019978599243884468
2.509901809307925   0.020812512878173206   -0.019978599243884468
1.7555582149198017   -0.04811197955958374   -0.11682886506436517
1.7555582149198017   -0.04811197955958374   -0.11682886506436517
1.7555582149198017   -0.04811197955958374   -0.11682886506436517
1.7555582149198017   -0.04811197955958374   -0.11682886506436517
2.5573940075305446   0.1665091909755798   0.07178571377180698
2.5573940075305446   0.1665091909755798   0.07178571377180698
2.5573940075305446   0.1665091909755798   0.07178571377180698
2.5573940075305446   0.1665091909755798   0.07178571377180698
1.2204986328379965   -0.2283154565143693   0.02378473026333111
1.2204986328379965   -0.2283154565143693   0.02378473026333111
1.2204986328379965   -0.2283154565143693   0.02378473026333111
1.2204986328379965   -0.2283154565143693   0.02378473026333111
1.2816099203309521   -0.07989811276835307   0.0532090597431495
1.2816099203309521   -0.07989811276835307   0.0532090597431495
1.2816099203309521   -0.07989811276835307   0.0532090597431495
1.2816099203309521   -0.07989811276835307   0.0532090597431495
2.554054664131309   0.0367566268145606   -0.005894439257268014
2.554054664131309   0.0367566268145606   -0.005894439257268014
2.554054664131309   0.0367566268145606   -0.005894439257268014
2.554054664131309   0.0367566268145606   -0.005894439257268014
1.8281496002740227   -0.03808427441758028   -0.07976201162836413
1.8281496002740227   -0.03808427441758028   -0.07976201162836413
1.8281496002740227   -0.03808427441758028   -0.07976201162836413
1.8281496002740227   -0.03808427441758028   -0.07976201162836413
2.5942189882019977   0.1819322086994798   0.04975159921125641
2.5942189882019977   0.1819322086994798   0.04975159921125641
2.5942189882019977   0.1819322086994798   0.04975159921125641
2.5942189882019977   0.1819322086994798   0.04975159921125641
1.249385144904982   -0.21713414600855196   0.02932121585349648
1.249385144904982   -0.21713414600855196   0.02932121585349648
1.249385144904982   -0.21713414600855196   0.02932121585349648
1.249385144904982   -0.21713414600855196   0.02932121585349648
1.3184233553783993   -0.02479412381623236   0.04864105239712889
1.3184233553783993   -0.02479412381623236   0.04864105239712889
1.3184233553783993   -0.02479412381623236   0.04864105239712889
1.3184233553783993   -0.02479412381623236   0.04864105239712889
2.599935539868977   0.07319592922090645   -0.0007306320432371033
2.599935539868977   0.07319592922090645   -0.0007306320432371033
2.599935539868977   0.07319592922090645   -0.0007306320432371033
2.599935539868977   0.07319592922090645   -0.0007306320432371033
1.837321445616104   -0.017667042910447628   -0.059553008698029486
1.837321445616104   -0.017667042910447628   -0.059553008698029486
1.837321445616104   -0.017667042910447628   -0.059553008698029486
1.837321445616104   -0.017667042910447628   -0.059553008698029486
1.2564658286932395   0.03141876311217273   0.09496548043786228
1.2564658286932395   0.03141876311217273   0.09496548043786228
1.2564658286932395   0.03141876311217273   0.09496548043786228
1.2564658286932395   0.03141876311217273   0.09496548043786228
0.06727986544040127   -0.4454178378687369   0.045962032144262754
0.06727986544040127   -0.4454178378687369   0.045962032144262754
0.06727986544040127   -0.4454178378687369   0.045962032144262754
0.06727986544040127   -0.4454178378687369   0.045962032144262754
0.1532969570914203   -0.18827885525009688   0.042762048446706766
0.1532969570914203   -0.18827885525009688   0.042762048446706766
0.1532969570914203   -0.18827885525009688   0.042762048446706766
0.1532969570914203   -0.18827885525009688   0.042762048446706766
1.2241666294607834   -0.21509746127620416   0.028906718139090487
1.2241666294607834   -0.21509746127620416   0.028906718139090487
1.2241666294607834   -0.21509746127620416   0.028906718139090487
1.2241666294607834   -0.21509746127620416   0.028906718139090487
0.6533360166741267   -0.2000266144199069   -0.07486720323345976
0.6533360166741267   -0.2000266144199069   -0.07486720323345976
0.6533360166741267   -0.2000266144199069   -0.07486720323345976
0.6533360166741267   -0.2000266144199069   -0.07486720323345976
1.286387542840478   0.04564134746887688   0.07927247629250089
1.286387542840478   0.04564134746887688   0.07927247629250089
1.286387542840478   0.04564134746887688   0.07927247629250089
1.286387542840478   0.04564134746887688   0.07927247629250089
0.10750035817370485   -0.43259334953319284   0.058093548141225526
0.10750035817370485   -0.43259334953319284   0.058093548141225526
0.10750035817370485   -0.43259334953319284   0.058093548141225526
0.10750035817370485   -0.43259334953319284   0.058093548141225526
0.18791386272896057   -0.16247659167812872   0.03103498294199633
0.18791386272896057   -0.16247659167812872   0.03103498294199633
0.18791386272896057   -0.16247659167812872   0.03103498294199633
0.18791386272896057   -0.16247659167812872   0.03103498294199633
1.2537818708372142   -0.2016114747166181   0.03578217422272498
1.2537818708372142   -0.2016114747166181   0.03578217422272498
1.2537818708372142   -0.2016114747166181   0.03578217422272498
1.2537818708372142   -0.2016114747166181   0.03578217422272498
0.6828380397683071   -0.19017101793449917   -0.037431913285974075
0.6828380397683071   -0.19017101793449917   -0.037431913285974075
0.6828380397683071   -0.19017101793449917   -0.037431913285974075
0.6828380397683071   -0.19017101793449917   -0.037431913285974075
1.3142888247267612   0.06994374826982841   0.06676172068401315
1.3142888247267612   0.06994374826982841   0.06676172068401315
1.3142888247267612   0.06994374826982841   0.06676172068401315
1.3142888247267612   0.06994374826982841   0.06676172068401315
0.1432111699821568   -0.4182275535218374   0.06327248105168615
0.1432111699821568   -0.4182275535218374   0.06327248105168615
0.1432111699821568   -0.4182275535218374   0.06327248105168615
0.1432111699821568   -0.4182275535218374   0.06327248105168615
0.24102378816781173   -0.12374880456609486   0.020593897795035898
0.24102378816781173   -0.12374880456609486   0.020593897795035898
0.24102378816781173   -0.12374880456609486   0.020593897795035898
0.24102378816781173   -0.12374880456609486   0.020593897795035898
1.2862128034157079   -0.18109950665826702   0.04389367542569825
1.2862128034157079   -0.18109950665826702   0.04389367542569825
1.2862128034157079   -0.18109950665826702   0.04389367542569825
1.2862128034157079   -0.18109950665826702   0.04389367542569825
0.7344470298750665   -0.16625973176756803   0.006119812025704802
0.7344470298750665   -0.16625973176756803   0.006119812025704802
0.7344470298750665   -0.16625973176756803   0.006119812025704802
0.7344470298750665   -0.16625973176756803   0.006119812025704802
0.1423211715014906   -0.08539328149813956   0.06114400607911197
0.1423211715014906   -0.08539328149813956   0.06114400607911197
0.1423211715014906   -0.08539328149813956   0.06114400607911197
0.1423211715014906   -0.08539328149813956   0.06114400607911197
-1.0655143796674387   -0.7655740975094615   0.0664210672097846
-1.0655143796674387   -0.7655740975094615   0.0664210672097846
-1.0655143796674387   -0.7655740975094615   0.0664210672097846
-1.0655143796674387   -0.7655740975094615   0.0664210672097846
-0.9294392145219023   -0.29767317376583663   0.004573246461474556
-0.9294392145219023   -0.29767317376583663   0.004573246461474556
-0.9294392145219023   -0.29767317376583663   0.004573246461474556
-0.9294392145219023   -0.29767317376583663   0.004573246461474556
0.07579127519943912   -0.5581609149442623   0.025115698680965054
0.07579127519943912   -0.5581609149442623   0.025115698680965054
0.07579127519943912   -0.5581609149442623   0.025115698680965054
0.07579127519943912   -0.5581609149442623   0.025115698680965054
-0.4582226142447414   -0.42976978673409105   -0.08984505140750194
-0.4582226142447414   -0.42976978673409105   -0.08984505140750194
-0.4582226142447414   -0.42976978673409105   -0.08984505140750194
-0.4582226142447414   -0.42976978673409105   -0.08984505140750194
0.17856911732957687   -0.0673477981752934   0.04819179256268623
0.17856911732957687   -0.0673477981752934   0.04819179256268623
0.17856911732957687   -0.0673477981752934   0.04819179256268623
0.17856911732957687   -0.0673477981752934   0.04819179256268623
-1.0084743435786616   -0.7647435774614112   0.07646800487326019
-1.0084743435786616   -0.7647435774614112   0.07646800487326019
-1.0084743435786616   -0.7647435774614112   0.07646800487326019
-1.0084743435786616   -0.7647435774614112   0.07646800487326019
-0.8769566649157979   -0.26715979877652674   0.0001503526409118161
-0.8769566649157979   -0.26715979877652674   0.0001503526409118161
-0.8769566649157979   -0.26715979877652674   0.0001503526409118161
-0.8769566649157979   -0.26715979877652674   0.0001503526409118161
0.11227601631643097   -0.5459984920626589   0.03636765126387731
0.11227601631643097   -0.5459984920626589   0.03636765126387731
0.11227601631643097   -0.5459984920626589   0.03636765126387731
0.11227601631643097   -0.5459984920626589   0.03636765126387731
-0.40509002009214923   -0.4152084819281122   -0.033569388083712244
-0.40509002009214923   -0.4152084819281122   -0.033569388083712244
-0.40509002009214923   -0.4152084819281122   -0.033569388083712244
-0.40509002009214923   -0.4152084819281122   -0.033569388083712244
0.2117080840716388   -0.043292516593134725   0.030822014570393397
0.2117080840716388   -0.043292516593134725   0.030822014570393397
0.2117080840716388   -0.043292516593134725   0.030822014570393397
0.2117080840716388   -0.043292516593134725   0.030822014570393397
-0.9549342808041605   -0.7484113223791963   0.09151379680178234
-0.9549342808041605   -0.7484113223791963   0.09151379680178234
-0.9549342808041605   -0.7484113223791963   0.09151379680178234
-0.9549342808041605   -0.7484113223791963   0.09151379680178234
-0.790357605712012   -0.23200087333017888   -0.00971347986154904
-0.790357605712012   -0.23200087333017888   -0.00971347986154904
-0.790357605712012   -0.23200087333017888   -0.00971347986154904
-0.790357605712012   -0.23200087333017888   -0.00971347986154904
0.16923601144483735   -0.5118472920287698   0.0497535016428364
0.16923601144483735   -0.5118472920287698   0.0497535016428364
0.16923601144483735   -0.5118472920287698   0.0497535016428364
0.16923601144483735   -0.5118472920287698   0.0497535016428364
-0.3361107679955607   -0.3824391375737541   0.025398344566799735
-0.3361107679955607   -0.3824391375737541   0.025398344566799735
-0.3361107679955607   -0.3824391375737541   0.025398344566799735
-0.3361107679955607   -0.3824391375737541   0.025398344566799735
-0.950596435012517   -0.15369978678466045   0.029136479759586886
-0.950596435012517   -0.15369978678466045   0.029136479759586886
-0.950596435012517   -0.15369978678466045   0.029136479759586886
-0.950596435012517   -0.15369978678466045   0.029136479759586886
-2.372891466847305   -1.192394572615712   -0.05663595387053433
-2.372891466847305   -1.192394572615712   -0.05663595387053433
-2.372891466847305   -1.192394572615712   -0.05663595387053433
-2.372891466847305   -1.192394572615712   -0.05663595387053433
-2.148238438672486   -0.3873378607681056   -0.06561632511128482
-2.148238438672486   -0.3873378607681056   -0.06561632511128482
-2.148238438672486   -0.3873378607681056   -0.06561632511128482
-2.148238438672486   -0.3873378607681056   -0.06561632511128482
-1.0664066925034412   -0.99774561779711   0.01980830058505348
-1.0664066925034412   -0.99774561779711   0.01980830058505348
-1.0664066925034412   -0.99774561779711   0.01980830058505348
-1.0664066925034412   -0.99774561779711   0.01980830058505348
-1.632669292017581   -0.7052448716859039   -0.09432799845412448
-1.632669292017581   -0.7052448716859039   -0.09432799845412448
-1.632669292017581   -0.7052448716859039   -0.09432799845412448
-1.632669292017581   -0.7052448716859039   -0.09432799845412448
-0.8885750496878023   -0.11669811547973293   0.02791901234586993
-0.8885750496878023   -0.11669811547973293   0.02791901234586993
-0.8885750496878023   -0.11669811547973293   0.02791901234586993
-0.8885750496878023   -0.11669811547973293   0.02791901234586993
-2.3207788245036425   -1.2630941061009937   -0.05256200893416338
-2.3207788245036425   -1.2630941061009937   -0.05256200893416338
-2.3207788245036425   -1.2630941061009937   -0.05256200893416338
-2.3207788245036425   -1.2630941061009937   -0.05256200893416338
-2.078426551957387   -0.3507431539351184   -0.06683893781593045
-2.078426551957387   -0.3507431539351184   -0.06683893781593045
-2.078426551957387   -0.3507431539351184   -0.06683893781593045
-2.078426551957387   -0.3507431539351184   -0.06683893781593045
-1.0155622597927239   -0.9900304647024701   0.029993044182234474
-1.0155622597927239   -0.9900304647024701   0.029993044182234474
-1.0155622597927239   -0.9900304647024701   0.029993044182234474
-1.0155622597927239   -0.9900304647024701   0.029993044182234474
-1.5594942258723403   -0.686323684276563   -0.06638448517113628
-1.5594942258723403   -0.686323684276563   -0.06638448517113628
-1.5594942258723403   -0.686323684276563   -0.06638448517113628
-1.5594942258723403   -0.686323684276563   -0.06638448517113628
-0.8392085952189642   -0.08765466212877769   0.009385564477341441
-0.8392085952189642   -0.08765466212877769   0.009385564477341441
-0.8392085952189642   -0.08765466212877769   0.009385564477341441
-0.8392085952189642   -0.08765466212877769   0.009385564477341441
-2.2547524351359987   -1.253091175113648   -0.04612033253044173
-2.2547524351359987   -1.253091175113648   -0.04612033253044173
-2.2547524351359987   -1.253091175113648   -0.04612033253044173
-2.2547524351359987   -1.253091175113648   -0.04612033253044173
-1.9695717376372937   -0.3113855998302899   -0.07576207565491047
-1.9695717376372937   -0.3113855998302899   -0.07576207565491047
-1.9695717376372937   -0.3113855998302899   -0.07576207565491047
-1.9695717376372937   -0.3113855998302899   -0.07576207565491047
-0.9055686940544865   -0.8906991446097053   0.0729293497056151
-0.9055686940544865   -0.8906991446097053   0.0729293497056151
-0.9055686940544865   -0.8906991446097053   0.0729293497056151
-0.9055686940544865   -0.8906991446097053   0.0729293497056151
-1.4777930106242707   -0.6223696663822462   -0.037203432031392765
-1.4777930106242707   -0.6223696663822462   -0.037203432031392765
-1.4777930106242707   -0.6223696663822462   -0.037203432031392765
-1.4777930106242707   -0.6223696663822462   -0.037203432031392765
-2.1522867276515947   -0.13087368312850922   -0.015133147379187112
-2.1522867276515947   -0.13087368312850922   -0.015133147379187112
-2.1522867276515947   -0.13087368312850922   -0.015133147379187112
-2.1522867276515947   -0.13087368312850922   -0.015133147379187112
-3.8003753147295236   -0.752326731723183   0.038741656113608525
-3.8003753147295236   -0.752326731723183   0.038741656113608525
-3.8003753147295236   -0.752326731723183   0.038741656113608525
-3.8003753147295236   -0.752326731723183   0.038741656113608525
-3.6504383209668916   -0.3626968820885295   -0.08031145092432666
-3.6504383209668916   -0.3626968820885295   -0.08031145092432666
-3.6504383209668916   -0.3626968820885295   -0.08031145092432666
-3.6504383209668916   -0.3626968820885295   -0.08031145092432666
-2.103935875545656   -0.38922954096514967   0.1577881707199075
-2.103935875545656   -0.38922954096514967   0.1577881707199075
-2.103935875545656   -0.38922954096514967   0.1577881707199075
-2.103935875545656   -0.38922954096514967   0.1577881707199075
-2.8081508458086333   -0.4365454969089315   0.04048470831890194
-2.8081508458086333   -0.4365454969089315   0.04048470831890194
-2.8081508458086333   -0.4365454969089315   0.04048470831890194
-2.8081508458086333   -0.4365454969089315   0.04048470831890194
-2.063372869537263   -0.029122308048654177   0.0004959678453884953
-2.063372869537263   -0.029122308048654177   0.0004959678453884953
-2.063372869537263   -0.029122308048654177   0.0004959678453884953
-2.063372869537263   -0.029122308048654177   0.0004959678453884953
-3.7053386789608966   -0.7371414669906352   0.019631344007720403
-3.7053386789608966   -0.7371414669906352   0.019631344007720403
-3.7053386789608966   -0.7371414669906352   0.019631344007720403
-3.7053386789608966   -0.7371414669906352   0.019631344007720403
-3.5676712816894685   -0.3323145271458246   -0.10192580317455634
-3.5676712816894685   -0.3323145271458246   -0.10192580317455634
-3.5676712816894685   -0.3323145271458246   -0.10192580317455634
-3.5676712816894685   -0.3323145271458246   -0.10192580317455634
-2.0320633214561   -0.36963821011678233   0.183872270872188
-2.0320633214561   -0.36963821011678233   0.183872270872188
-2.0320633214561   -0.36963821011678233   0.183872270872188
-2.0320633214561   -0.36963821011678233   0.183872270872188
-2.764315471645456   -0.3594539299617876   0.03886286296685281
-2.764315471645456   -0.3594539299617876   0.03886286296685281
-2.764315471645456   -0.3594539299617876   0.03886286296685281
-2.764315471645456   -0.3594539299617876   0.03886286296685281
-1.9993350702119825   -0.0022392173501846746   -0.019885465673826347
-1.9993350702119825   -0.0022392173501846746   -0.019885465673826347
-1.9993350702119825   -0.0022392173501846746   -0.019885465673826347
-1.9993350702119825   -0.0022392173501846746   -0.019885465673826347
-3.6057145945386844   -0.7050285815175291   0.08057168695103846
-3.6057145945386844   -0.7050285815175291   0.08057168695103846
-3.6057145945386844   -0.7050285815175291   0.08057168695103846
-3.6057145945386844   -0.7050285815175291   0.08057168695103846
-3.395816800062102   -0.26904759980528653   -0.11387246617130263
-3.395816800062102   -0.26904759980528653   -0.11387246617130263
-3.395816800062102   -0.26904759980528653   -0.11387246617130263
-3.395816800062102   -0.26904759980528653   -0.11387246617130263
-1.9203112279559817   -0.3435260591724355   0.20268093209380428
-1.9203112279559817   -0.3435260591724355   0.20268093209380428
-1.9203112279559817   -0.3435260591724355   0.20268093209380428
-1.9203112279559817   -0.3435260591724355   0.20268093209380428
-2.5983896454675706   -0.27474353332699275   0.07942299664020032
-2.5983896454675706   -0.27474353332699275   0.07942299664020032
-2.5983896454675706   -0.27474353332699275   0.07942299664020032
-2.5983896454675706   -0.27474353332699275   0.07942299664020032
2.7344928714693504   0.08908976598521923   0.03859506380980987
2.7344928714693504   0.08908976598521923   0.03859506380980987
2.7344928714693504   0.08908976598521923   0.03859506380980987
2.7344928714693504   0.08908976598521923   0.03859506380980987
1.397018738785095   -0.07325623894154037   0.028614439113661197
1.397018738785095   -0.07325623894154037   0.028614439113661197
1.397018738785095   -0.07325623894154037   0.028614439113661197
1.397018738785095   -0.07325623894154037   0.028614439113661197
1.3421840300824959   -0.1975306093900009   0.056023568640673815
1.3421840300824959   -0.1975306093900009   0.056023568640673815
1.3421840300824959   -0.1975306093900009   0.056023568640673815
1.3421840300824959   -0.1975306093900009   0.056023568640673815
2.714610621876306   0.15298647048961533   0.020786473758178436
2.714610621876306   0.15298647048961533   0.020786473758178436
2.714610621876306   0.15298647048961533   0.020786473758178436
2.714610621876306   0.15298647048961533   0.020786473758178436
1.937970327383282   -0.027657644342928056   -0.07151598090963336
1.937970327383282   -0.027657644342928056   -0.07151598090963336
1.937970327383282   -0.027657644342928056   -0.07151598090963336
1.937970327383282   -0.027657644342928056   -0.07151598090963336
2.6994986959794196   0.06864189417826627   0.029571420585095265
2.6994986959794196   0.06864189417826627   0.029571420585095265
2.6994986959794196   0.06864189417826627   0.029571420585095265
2.6994986959794196   0.06864189417826627   0.029571420585095265
1.3527949038710747   -0.11768708518696114   0.029234413380527458
1.3527949038710747   -0.11768708518696114   0.029234413380527458
1.3527949038710747   -0.11768708518696114   0.029234413380527458
1.3527949038710747   -0.11768708518696114   0.029234413380527458
1.3072584749816976   -0.20214975538012403   0.04636983891892063
1.3072584749816976   -0.20214975538012403   0.04636983891892063
1.3072584749816976   -0.20214975538012403   0.04636983891892063
1.3072584749816976   -0.20214975538012403   0.04636983891892063
2.682659666475757   0.14629474103384876   0.03583439851132508
2.682659666475757   0.14629474103384876   0.03583439851132508
2.682659666475757   0.14629474103384876   0.03583439851132508
2.682659666475757   0.14629474103384876   0.03583439851132508
1.93199513975126   -0.038163268149108365   -0.08291403699222674
1.93199513975126   -0.038163268149108365   -0.08291403699222674
1.93199513975126   -0.038163268149108365   -0.08291403699222674
1.93199513975126   -0.038163268149108365   -0.08291403699222674
2.660195280623734   0.060937566684590605   0.0088696436004512
2.660195280623734   0.060937566684590605   0.0088696436004512
2.660195280623734   0.060937566684590605   0.0088696436004512
2.660195280623734   0.060937566684590605   0.0088696436004512
1.3216568348009057   -0.12485860706368218   0.041070489698521145
1.3216568348009057   -0.12485860706368218   0.041070489698521145
1.3216568348009057   -0.12485860706368218   0.041070489698521145
1.3216568348009057   -0.12485860706368218   0.041070489698521145
1.2703867531233897   -0.18456044622894352   0.04003627745310018
1.2703867531233897   -0.18456044622894352   0.04003627745310018
1.2703867531233897   -0.18456044622894352   0.04003627745310018
1.2703867531233897   -0.18456044622894352   0.04003627745310018
2.633394648970783   0.14776598823785198   0.05142328061863148
2.633394648970783   0.14776598823785198   0.05142328061863148
2.633394648970783   0.14776598823785198   0.05142328061863148
2.633394648970783   0.14776598823785198   0.05142328061863148
1.8592153682392756   -0.03852690763197242   -0.11206156605026929
1.8592153682392756   -0.03852690763197242   -0.11206156605026929
1.8592153682392756   -0.03852690763197242   -0.11206156605026929
1.8592153682392756   -0.03852690763197242   -0.11206156605026929
1.3841152950331084   -0.1775624684138416   0.06840344982602878
1.3841152950331084   -0.1775624684138416   0.06840344982602878
1.3841152950331084   -0.1775624684138416   0.06840344982602878
1.3841152950331084   -0.1775624684138416   0.06840344982602878
0.2707410798058858   -0.16486407666319253   0.014883681057987978
0.2707410798058858   -0.16486407666319253   0.014883681057987978
0.2707410798058858   -0.16486407666319253   0.014883681057987978
0.2707410798058858   -0.16486407666319253   0.014883681057987978
0.17620178546809212   -0.41573518433109474   0.07368294685732876
0.17620178546809212   -0.41573518433109474   0.07368294685732876
0.17620178546809212   -0.41573518433109474   0.07368294685732876
0.17620178546809212   -0.41573518433109474   0.07368294685732876
1.391757174367904   0.053454422215985176   0.052904258461728054
1.391757174367904   0.053454422215985176   0.052904258461728054
1.391757174367904   0.053454422215985176   0.052904258461728054
1.391757174367904   0.053454422215985176   0.052904258461728054
0.793329218654179   -0.17687877834773383   -0.0030078470054093476
0.793329218654179   -0.17687877834773383   -0.0030078470054093476
0.793329218654179   -0.17687877834773383   -0.0030078470054093476
0.793329218654179   -0.17687877834773383   -0.0030078470054093476
1.3448826992032956   -0.18528194165382394   0.0572682465085001
1.3448826992032956   -0.18528194165382394   0.0572682465085001
1.3448826992032956   -0.18528194165382394   0.0572682465085001
1.3448826992032956   -0.18528194165382394   0.0572682465085001
0.21124218624157404   -0.18883289485241472   0.021982661246058605
0.21124218624157404   -0.18883289485241472   0.021982661246058605
0.21124218624157404   -0.18883289485241472   0.021982661246058605
0.21124218624157404   -0.18883289485241472   0.021982661246058605
0.13388859103385684   -0.4195506172894331   0.06597974116200744
0.13388859103385684   -0.4195506172894331   0.06597974116200744
0.13388859103385684   -0.4195506172894331   0.06597974116200744
0.13388859103385684   -0.4195506172894331   0.06597974116200744
1.3595449564483246   0.04294220828213452   0.0627102825897965
1.3595449564483246   0.04294220828213452   0.0627102825897965
1.3595449564483246   0.04294220828213452   0.0627102825897965
1.3595449564483246   0.04294220828213452   0.0627102825897965
0.7358915985619758   -0.18855381312735536   -0.03813171188379856
0.7358915985619758   -0.18855381312735536   -0.03813171188379856
0.7358915985619758   -0.18855381312735536   -0.03813171188379856
0.7358915985619758   -0.18855381312735536   -0.03813171188379856
1.3102790459559348   -0.18800323904618643   0.047326177456159774
1.3102790459559348   -0.18800323904618643   0.047326177456159774
1.3102790459559348   -0.18800323904618643   0.047326177456159774
1.3102790459559348   -0.18800323904618643   0.047326177456159774
0.1702975063662677   -0.201462165121092   0.029935865655720692
0.1702975063662677   -0.201462165121092   0.029935865655720692
0.1702975063662677   -0.201462165121092   0.029935865655720692
0.1702975063662677   -0.201462165121092   0.029935865655720692
0.08653236552711856   -0.4194769616126329   0.051686838542519
0.08653236552711856   -0.4194769616126329   0.051686838542519
0.08653236552711856   -0.4194769616126329   0.051686838542519
0.08653236552711856   -0.4194769616126329   0.051686838542519
1.32298761416787   0.04347647455158482   0.07500366189496671
1.32298761416787   0.04347647455158482   0.07500366189496671
1.32298761416787   0.04347647455158482   0.07500366189496671
1.32298761416787   0.04347647455158482   0.07500366189496671
0.7007498459660402   -0.18721306992766423   -0.06803450505101408
0.7007498459660402   -0.18721306992766423   -0.06803450505101408
0.7007498459660402   -0.18721306992766423   -0.06803450505101408
0.7007498459660402   -0.18721306992766423   -0.06803450505101408
0.21077300758880574   -0.511304154031913   0.06148339734130823
0.21077300758880574   -0.511304154031913   0.06148339734130823
0.21077300758880574   -0.511304154031913   0.06148339734130823
0.21077300758880574   -0.511304154031913   0.06148339734130823
-0.8118631130042939   -0.2561024121031459   0.0011166947802487975
-0.8118631130042939   -0.2561024121031459   0.0011166947802487975
-0.8118631130042939   -0.2561024121031459   0.0011166947802487975
-0.8118631130042939   -0.2561024121031459   0.0011166947802487975
-0.9829012333469355   -0.758032138744336   0.0844520882269103
-0.9829012333469355   -0.758032138744336   0.0844520882269103
-0.9829012333469355   -0.758032138744336   0.0844520882269103
-0.9829012333469355   -0.758032138744336   0.0844520882269103
0.24248015950791607   -0.044053899671399985   0.0333935323967529
0.24248015950791607   -0.044053899671399985   0.0333935323967529
0.24248015950791607   -0.044053899671399985   0.0333935323967529
0.24248015950791607   -0.044053899671399985   0.0333935323967529
-0.3308525585839782   -0.3868546904169591   0.014501653481978571
-0.3308525585839782   -0.3868546904169591   0.014501653481978571
-0.3308525585839782   -0.3868546904169591   0.014501653481978571
-0.3308525585839782   -0.3868546904169591   0.014501653481978571
0.14533854681782385   -0.5404569054181623   0.04408847469305521
0.14533854681782385   -0.5404569054181623   0.04408847469305521
0.14533854681782385   -0.5404569054181623   0.04408847469305521
0.14533854681782385   -0.5404569054181623   0.04408847469305521
-0.9023015531368752   -0.27817106547762305   0.007589416010490263
-0.9023015531368752   -0.27817106547762305   0.007589416010490263
-0.9023015531368752   -0.27817106547762305   0.007589416010490263
-0.9023015531368752   -0.27817106547762305   0.007589416010490263
-1.0418738290834328   -0.77036940285676   0.068662942693236
-1.0418738290834328   -0.77036940285676   0.068662942693236
-1.0418738290834328   -0.77036940285676   0.068662942693236
-1.0418738290834328   -0.77036940285676   0.068662942693236
0.20284183304273296   -0.05572819638318148   0.046923530300136254
0.20284183304273296   -0.05572819638318148   0.046923530300136254
0.20284183304273296   -0.05572819638318148   0.046923530300136254
0.20284183304273296   -0.05572819638318148   0.046923530300136254
-0.40452588454356975   -0.41046790951727885   -0.03473113399405345
-0.40452588454356975   -0.41046790951727885   -0.03473113399405345
-0.40452588454356975   -0.41046790951727885   -0.03473113399405345
-0.40452588454356975   -0.41046790951727885   -0.03473113399405345
0.10026655478285249   -0.5500084384155302   0.0283273810330866
0.10026655478285249   -0.5500084384155302   0.0283273810330866
0.10026655478285249   -0.5500084384155302   0.0283273810330866
0.10026655478285249   -0.5500084384155302   0.0283273810330866
-0.9589463104371311   -0.29573692043798905   0.008668053505962309
-0.9589463104371311   -0.29573692043798905   0.008668053505962309
-0.9589463104371311   -0.29573692043798905   0.008668053505962309
-0.9589463104371311   -0.29573692043798905   0.008668053505962309
-1.1057434160418378   -0.7651948239673488   0.057995269436616176
-1.1057434160418378   -0.7651948239673488   0.057995269436616176
-1.1057434160418378   -0.7651948239673488   0.057995269436616176
-1.1057434160418378   -0.7651948239673488   0.057995269436616176
0.15872914857794884   -0.06226736244853274   0.05546115463256836
0.15872914857794884   -0.06226736244853274   0.05546115463256836
0.15872914857794884   -0.06226736244853274   0.05546115463256836
0.15872914857794884   -0.06226736244853274   0.05546115463256836
-0.46426885748658775   -0.4194810789201705   -0.0838483297676812
-0.46426885748658775   -0.4194810789201705   -0.0838483297676812
-0.46426885748658775   -0.4194810789201705   -0.0838483297676812
-0.46426885748658775   -0.4194810789201705   -0.0838483297676812
-0.921476167773847   -0.8761621002175415   0.07311110904688678
-0.921476167773847   -0.8761621002175415   0.07311110904688678
-0.921476167773847   -0.8761621002175415   0.07311110904688678
-0.921476167773847   -0.8761621002175415   0.07311110904688678
-2.043708539399094   -0.3189357532849545   -0.04748167845221443
-2.043708539399094   -0.3189357532849545   -0.04748167845221443
-2.043708539399094   -0.3189357532849545   -0.04748167845221443
-2.043708539399094   -0.3189357532849545   -0.04748167845221443
-2.3425245833625317   -1.270153738141694   -0.06611441027877579
-2.3425245833625317   -1.270153738141694   -0.06611441027877579
-2.3425245833625317   -1.270153738141694   -0.06611441027877579
-2.3425245833625317   -1.270153738141694   -0.06611441027877579
-0.8568930723641192   -0.07239202577688744   0.02885278017353544
-0.8568930723641192   -0.07239202577688744   0.02885278017353544
-0.8568930723641192   -0.07239202577688744   0.02885278017353544
-0.8568930723641192   -0.07239202577688744   0.02885278017353544
-1.526438885861522   -0.6099409141278318   -0.05289909371422369
-1.526438885861522   -0.6099409141278318   -0.05289909371422369
-1.526438885861522   -0.6099409141278318   -0.05289909371422369
-1.526438885861522   -0.6099409141278318   -0.05289909371422369
-1.0416820120294306   -0.9918826088377464   0.024398664907837903
-1.0416820120294306   -0.9918826088377464   0.024398664907837903
-1.0416820120294306   -0.9918826088377464   0.024398664907837903
-1.0416820120294306   -0.9918826088377464   0.024398664907837903
-2.152941075700984   -0.3458685870845979   -0.042482023028152086
-2.152941075700984   -0.3458685870845979   -0.042482023028152086
-2.152941075700984   -0.3458685870845979   -0.042482023028152086
-2.152941075700984   -0.3458685870845979   -0.042482023028152086
-2.412631642088008   -1.2907351044209676   -0.07646077211503108
-2.412631642088008   -1.2907351044209676   -0.07646077211503108
-2.412631642088008   -1.2907351044209676   -0.07646077211503108
-2.412631642088008   -1.2907351044209676   -0.07646077211503108
-0.911205565097419   -0.0915066391228098   0.04314149888934426
-0.911205565097419   -0.0915066391228098   0.04314149888934426
-0.911205565097419   -0.0915066391228098   0.04314149888934426
-0.911205565097419   -0.0915066391228098   0.04314149888934426
-1.6120701004371731   -0.6756186073032249   -0.07453065287121707
-1.6120701004371731   -0.6756186073032249   -0.07453065287121707
-1.6120701004371731   -0.6756186073032249   -0.07453065287121707
-1.6120701004371731   -0.6756186073032249   -0.07453065287121707
-1.1019066256513383   -1.0113933627593732   0.009522919756310422
-1.1019066256513383   -1.0113933627593732   0.009522919756310422
-1.1019066256513383   -1.0113933627593732   0.009522919756310422
-1.1019066256513383   -1.0113933627593732   0.009522919756310422
-2.222126953359245   -0.3710447526095708   -0.043627680282634376
-2.222126953359245   -0.3710447526095708   -0.043627680282634376
-2.222126953359245   -0.3710447526095708   -0.043627680282634376
-2.222126953359245   -0.3710447526095708   -0.043627680282634376
-2.47247373273041   -1.235911764261804   -0.08622870987895524
-2.47247373273041   -1.235911764261804   -0.08622870987895524
-2.47247373273041   -1.235911764261804   -0.08622870987895524
-2.47247373273041   -1.235911764261804   -0.08622870987895524
-0.980018827520766   -0.11848128841850714   0.039904676493132424
-0.980018827520766   -0.11848128841850714   0.039904676493132424
-0.980018827520766   -0.11848128841850714   0.039904676493132424
-0.980018827520766   -0.11848128841850714   0.039904676493132424
-1.690846807343288   -0.6980775618760866   -0.09513125445229847
-1.690846807343288   -0.6980775618760866   -0.09513125445229847
-1.690846807343288   -0.6980775618760866   -0.09513125445229847
-1.690846807343288   -0.6980775618760866   -0.09513125445229847
-2.0070219328290415   -0.3650010552859993   0.18201665639905895
-2.0070219328290415   -0.3650010552859993   0.18201665639905895
-2.0070219328290415   -0.3650010552859993   0.18201665639905895
-2.0070219328290415   -0.3650010552859993   0.18201665639905895
-3.538052428172483   -0.2651969725974903   -0.06325673077037341
-3.538052428172483   -0.2651969725974903   -0.06325673077037341
-3.538052428172483   -0.2651969725974903   -0.06325673077037341
-3.538052428172483   -0.2651969725974903   -0.06325673077037341
-3.755326908039239   -0.7410646300506119   0.05000375778617987
-3.755326908039239   -0.7410646300506119   0.05000375778617987
-3.755326908039239   -0.7410646300506119   0.05000375778617987
-3.755326908039239   -0.7410646300506119   0.05000375778617987
-2.065837479893516   0.029406404015582144   0.01776096490900722
-2.065837479893516   0.029406404015582144   0.01776096490900722
-2.065837479893516   0.029406404015582144   0.01776096490900722
-2.065837479893516   0.029406404015582144   0.01776096490900722
-2.7062286237192605   -0.26034946478997284   0.054484500481287154
-2.7062286237192605   -0.26034946478997284   0.054484500481287154
-2.7062286237192605   -0.26034946478997284   0.054484500481287154
-2.7062286237192605   -0.26034946478997284   0.054484500481287154
-2.1213531215352672   -0.3919606601365696   0.16154982085239625
-2.1213531215352672   -0.3919606601365696   0.16154982085239625
-2.1213531215352672   -0.3919606601365696   0.16154982085239625
-2.1213531215352672   -0.3919606601365696   0.16154982085239625
-3.6902292803586003   -0.3101155798595643   -0.05545715400164064
-3.6902292803586003   -0.3101155798595643   -0.05545715400164064
-3.6902292803586003   -0.3101155798595643   -0.05545715400164064
-3.6902292803586003   -0.3101155798595643   -0.05545715400164064
-3.847783076425198   -0.7727525663567104   -0.015979755358354487
-3.847783076425198   -0.7727525663567104   -0.015979755358354487
-3.847783076425198   -0.7727525663567104   -0.015979755358354487
-3.847783076425198   -0.7727525663567104   -0.015979755358354487
-2.131054718094326   0.008016481268576237   0.032672262163814664
-2.131054718094326   0.008016481268576237   0.032672262163814664
-2.131054718094326   0.008016481268576237   0.032672262163814664
-2.131054718094326   0.008016481268576237   0.032672262163814664
-2.8687401587404477   -0.34384351608510766   0.022530958088028206
-2.8687401587404477   -0.34384351608510766   0.022530958088028206
-2.8687401587404477   -0.34384351608510766   0.022530958088028206
-2.8687401587404477   -0.34384351608510766   0.022530958088028206
-2.1948115215565904   -0.41215113257258307   0.13405585869365227
-2.1948115215565904   -0.41215113257258307   0.13405585869365227
-2.1948115215565904   -0.41215113257258307   0.13405585869365227
-2.1948115215565904   -0.41215113257258307   0.13405585869365227
-3.764864015195814   -0.3334226947484224   -0.040714320819690716
-3.764864015195814   -0.3334226947484224   -0.040714320819690716
-3.764864015195814   -0.3334226947484224   -0.040714320819690716
-3.764864015195814   -0.3334226947484224   -0.040714320819690716
-3.9284829815999083   -0.7857206782828351   -0.0001204098142670889
-3.9284829815999083   -0.7857206782828351   -0.0001204098142670889
-3.9284829815999083   -0.7857206782828351   -0.0001204098142670889
-3.9284829815999083   -0.7857206782828351   -0.0001204098142670889
-2.222582857253508   -0.08598015518057289   0.01329405842431347
-2.222582857253508   -0.08598015518057289   0.01329405842431347
-2.222582857253508   -0.08598015518057289   0.01329405842431347
-2.222582857253508   -0.08598015518057289   0.01329405842431347
-2.9040990603033237   -0.41561085362476863   0.03559777424834675
-2.9040990603033237   -0.41561085362476863   0.03559777424834675
-2.9040990603033237   -0.41561085362476863   0.03559777424834675
-2.9040990603033237   -0.41561085362476863   0.03559777424834675
2.3926610383539755   0.10969706847985317   -0.052261323348240844
2.3926610383539755   0.10969706847985317   -0.052261323348240844
2.3926610383539755   0.10969706847985317   -0.052261323348240844
2.3926610383539755   0.10969706847985317   -0.052261323348240844
1.20501131247488   -0.02384187125172188   0.02583716331483317
1.20501131247488   -0.02384187125172188   0.02583716331483317
1.20501131247488   -0.02384187125172188   0.02583716331483317
1.20501131247488   -0.02384187125172188   0.02583716331483317
1.127975091872337   -0.1777151445405527   -0.04608607138869253
1.127975091872337   -0.1777151445405527   -0.04608607138869253
1.127975091872337   -0.1777151445405527   -0.04608607138869253
1.127975091872337   -0.1777151445405527   -0.04608607138869253
2.364852487119567   0.17291404256982024   0.03022925114455642
2.364852487119567   0.17291404256982024   0.03022925114455642
2.364852487119567   0.17291404256982024   0.03022925114455642
2.364852487119567   0.17291404256982024   0.03022925114455642
1.6797015682462084   0.004112031116288328   -0.0648946835752784
1.6797015682462084   0.004112031116288328   -0.0648946835752784
1.6797015682462084   0.004112031116288328   -0.0648946835752784
1.6797015682462084   0.004112031116288328   -0.0648946835752784
2.3257905227441302   0.06052654189915141   -0.05269307006193889
2.3257905227441302   0.06052654189915141   -0.05269307006193889
2.3257905227441302   0.06052654189915141   -0.05269307006193889
2.3257905227441302   0.06052654189915141   -0.05269307006193889
1.1648570866554546   -0.06750761346220596   0.028116371448538
1.1648570866554546   -0.06750761346220596   0.028116371448538
1.1648570866554546   -0.06750761346220596   0.028116371448538
1.1648570866554546   -0.06750761346220596   0.028116371448538
1.0865116435431585   -0.18770698706715488   -0.03802621906109514
1.0865116435431585   -0.18770698706715488   -0.03802621906109514
1.0865116435431585   -0.18770698706715488   -0.03802621906109514
1.0865116435431585   -0.18770698706715488   -0.03802621906109514
2.307222084283949   0.1587807200984943   0.044108109282640945
2.307222084283949   0.1587807200984943   0.044108109282640945
2.307222084283949   0.1587807200984943   0.044108109282640945
2.307222084283949   0.1587807200984943   0.044108109282640945
1.6568879852809728   -0.016930347250874556   -0.07758982110792566
1.6568879852809728   -0.016930347250874556   -0.07758982110792566
1.6568879852809728   -0.016930347250874556   -0.07758982110792566
1.6568879852809728   -0.016930347250874556   -0.07758982110792566
2.2678789874567293   0.0478386621473208   -0.04166531690228624
2.2678789874567293   0.0478386621473208   -0.04166531690228624
2.2678789874567293   0.0478386621473208   -0.04166531690228624
2.2678789874567293   0.0478386621473208   -0.04166531690228624
1.1228427410687647   -0.0797769284175956   0.03569920991737571
1.1228427410687647   -0.0797769284175956   0.03569920991737571
1.1228427410687647   -0.0797769284175956   0.03569920991737571
1.1228427410687647   -0.0797769284175956   0.03569920991737571
1.0463290050589813   -0.1851421537871588   -0.026051785594559035
1.0463290050589813   -0.1851421537871588   -0.026051785594559035
1.0463290050589813   -0.1851421537871588   -0.026051785594559035
1.0463290050589813   -0.1851421537871588   -0.026051785594559035
2.235842156478396   0.14903397554982523   0.05731383683511239
2.235842156478396   0.14903397554982523   0.05731383683511239
2.235842156478396   0.14903397554982523   0.05731383683511239
2.235842156478396   0.14903397554982523   0.05731383683511239
1.574640336822755   -0.029575746122171565   -0.10199002931673513
1.574640336822755   -0.029575746122171565   -0.10199002931673513
1.574640336822755   -0.029575746122171565   -0.10199002931673513
1.574640336822755   -0.029575746122171565   -0.10199002931673513
1.211200535155001   0.022366132739805616   0.010575272723911518
1.211200535155001   0.022366132739805616   0.010575272723911518
1.211200535155001   0.022366132739805616   0.010575272723911518
1.211200535155001   0.022366132739805616   0.010575272723911518
0.11783779730148507   -0.0723238352733935   -0.0026081713075988278
0.11783779730148507   -0.0723238352733935   -0.0026081713075988278
0.11783779730148507   -0.0723238352733935   -0.0026081713075988278
0.11783779730148507   -0.0723238352733935   -0.0026081713075988278
0.045249557662633874   -0.23528782752604896   -0.044299373543233544
0.045249557662633874   -0.23528782752604896   -0.044299373543233544
0.045249557662633874   -0.23528782752604896   -0.044299373543233544
0.045249557662633874   -0.23528782752604896   -0.044299373543233544
1.2127119791021994   0.13978129110784643   0.060101929112210725
1.2127119791021994   0.13978129110784643   0.060101929112210725
1.2127119791021994   0.13978129110784643   0.060101929112210725
1.2127119791021994   0.13978129110784643   0.060101929112210725
0.6348785809126385   -0.03326076833275224   -0.02527068267673868
0.6348785809126385   -0.03326076833275224   -0.02527068267673868
0.6348785809126385   -0.03326076833275224   -0.02527068267673868
0.6348785809126385   -0.03326076833275224   -0.02527068267673868
1.1771323126462554   0.0036213131394872144   0.018363574800853183
1.1771323126462554   0.0036213131394872144   0.018363574800853183
1.1771323126462554   0.0036213131394872144   0.018363574800853183
1.1771323126462554   0.0036213131394872144   0.018363574800853183
0.08216935921493093   -0.09778771446134076   0.0027995211535435244
0.08216935921493093   -0.09778771446134076   0.0027995211535435244
0.08216935921493093   -0.09778771446134076   0.0027995211535435244
0.08216935921493093   -0.09778771446134076   0.0027995211535435244
0.005271153474583817   -0.24660791885202524   -0.030766550107261648
0.005271153474583817   -0.24660791885202524   -0.030766550107261648
0.005271153474583817   -0.24660791885202524   -0.030766550107261648
0.005271153474583817   -0.24660791885202524   -0.030766550107261648
1.1688180576475777   0.11949064671203541   0.06630821768181087
1.1688180576475777   0.11949064671203541   0.06630821768181087
1.1688180576475777   0.11949064671203541   0.06630821768181087
1.1688180576475777   0.11949064671203541   0.06630821768181087
0.5889164351386531   -0.051916129046529536   -0.035781940800852036
0.5889164351386531   -0.051916129046529536   -0.035781940800852036
0.5889164351386531   -0.051916129046529536   -0.035781940800852036
0.5889164351386531   -0.051916129046529536   -0.035781940800852036
1.1352319843613372   -0.009073952550576192   0.02694245051322869
1.1352319843613372   -0.009073952550576192   0.02694245051322869
1.1352319843613372   -0.009073952550576192   0.02694245051322869
1.1352319843613372   -0.009073952550576192   0.02694245051322869
0.03866158616090136   -0.11823896018933489   0.007816654661635773
0.03866158616090136   -0.11823896018933489   0.007816654661635773
0.03866158616090136   -0.11823896018933489   0.007816654661635773
0.03866158616090136   -0.11823896018933489   0.007816654661635773
-0.0376619730311872   -0.24784051531991477   -0.02093170026353501
-0.0376619730311872   -0.24784051531991477   -0.02093170026353501
-0.0376619730311872   -0.24784051531991477   -0.02093170026353501
-0.0376619730311872   -0.24784051531991477   -0.02093170026353501
1.1245344438453704   0.1065335986616811   0.073299655888552
1.1245344438453704   0.1065335986616811   0.073299655888552
1.1245344438453704   0.1065335986616811   0.073299655888552
1.1245344438453704   0.1065335986616811   0.073299655888552
0.5528724200832089   -0.05943003133446799   -0.0448456773493868
0.5528724200832089   -0.05943003133446799   -0.0448456773493868
0.5528724200832089   -0.05943003133446799   -0.0448456773493868
0.5528724200832089   -0.05943003133446799   -0.0448456773493868
0.11973665178940182   -0.06924445410728527   0.0038067199658729962
0.11973665178940182   -0.06924445410728527   0.0038067199658729962
0.11973665178940182   -0.06924445410728527   0.0038067199658729962
0.11973665178940182   -0.06924445410728527   0.0038067199658729962
-0.9328876739978124   -0.10790464373648839   -0.029377810102653563
-0.9328876739978124   -0.10790464373648839   -0.029377810102653563
-0.9328876739978124   -0.10790464373648839   -0.029377810102653563
-0.9328876739978124   -0.10790464373648839   -0.029377810102653563
-1.0135844678978556   -0.312028073320296   -0.05041270844189389
-1.0135844678978556   -0.312028073320296   -0.05041270844189389
-1.0135844678978556   -0.312028073320296   -0.05041270844189389
-1.0135844678978556   -0.312028073320296   -0.05041270844189389
0.12850508843271963   0.10225033233984995   0.03444012044129707
0.12850508843271963   0.10225033233984995   0.03444012044129707
0.12850508843271963   0.10225033233984995   0.03444012044129707
0.12850508843271963   0.10225033233984995   0.03444012044129707
-0.4258328640775946   -0.09209396003017335   -0.02511466349572695
-0.4258328640775946   -0.09209396003017335   -0.02511466349572695
-0.4258328640775946   -0.09209396003017335   -0.02511466349572695
-0.4258328640775946   -0.09209396003017335   -0.02511466349572695
0.08970559900606757   -0.07729076426796123   0.019983769915847223
0.08970559900606757   -0.07729076426796123   0.019983769915847223
0.08970559900606757   -0.07729076426796123   0.019983769915847223
0.08970559900606757   -0.07729076426796123   0.019983769915847223
-0.9718238825352036   -0.12952588077648336   -0.024111974172446215
-0.9718238825352036   -0.12952588077648336   -0.024111974172446215
-0.9718238825352036   -0.12952588077648336   -0.024111974172446215
-0.9718238825352036   -0.12952588077648336   -0.024111974172446215
-1.0604790208352775   -0.324436923026621   -0.0332992490389897
-1.0604790208352775   -0.324436923026621   -0.0332992490389897
-1.0604790208352775   -0.324436923026621   -0.0332992490389897
-1.0604790208352775   -0.324436923026621   -0.0332992490389897
0.08464171809832517   0.08052234861410688   0.03895600554531167
0.08464171809832517   0.08052234861410688   0.03895600554531167
0.08464171809832517   0.08052234861410688   0.03895600554531167
0.08464171809832517   0.08052234861410688   0.03895600554531167
-0.46461640901249895   -0.10506102430017347   -0.03013481265190856
-0.46461640901249895   -0.10506102430017347   -0.03013481265190856
-0.46461640901249895   -0.10506102430017347   -0.03013481265190856
-0.46461640901249895   -0.10506102430017347   -0.03013481265190856
0.04818658817241375   -0.09050284209275487   0.02770554662261769
0.04818658817241375   -0.09050284209275487   0.02770554662261769
0.04818658817241375   -0.09050284209275487   0.02770554662261769
0.04818658817241375   -0.09050284209275487   0.02770554662261769
-1.023408631286613   -0.15279647269700075   -0.019587751625288263
-1.023408631286613   -0.15279647269700075   -0.019587751625288263
-1.023408631286613   -0.15279647269700075   -0.019587751625288263
-1.023408631286613   -0.15279647269700075   -0.019587751625288263
-1.1125252749389134   -0.3335318220206022   -0.02960671971091675
-1.1125252749389134   -0.3335318220206022   -0.02960671971091675
-1.1125252749389134   -0.3335318220206022   -0.02960671971091675
-1.1125252749389134   -0.3335318220206022   -0.02960671971091675
0.03719867883340737   0.061965982087933386   0.043565061651590076
0.03719867883340737   0.061965982087933386   0.043565061651590076
0.03719867883340737   0.061965982087933386   0.043565061651590076
0.03719867883340737   0.061965982087933386   0.043565061651590076
-0.5150176970560795   -0.1205873145118481   -0.0422128609820077
-0.5150176970560795   -0.1205873145118481   -0.0422128609820077
-0.5150176970560795   -0.1205873145118481   -0.0422128609820077
-0.5150176970560795   -0.1205873145118481   -0.0422128609820077
-0.9188090674535786   -0.0815311728575072   0.01464175173951881
-0.9188090674535786   -0.0815311728575072   0.01464175173951881
-0.9188090674535786   -0.0815311728575072   0.01464175173951881
-0.9188090674535786   -0.0815311728575072   0.01464175173951881
-1.957964357951418   -0.12626008500887942   -0.05186721044195082
-1.957964357951418   -0.12626008500887942   -0.05186721044195082
-1.957964357951418   -0.12626008500887942   -0.05186721044195082
-1.957964357951418   -0.12626008500887942   -0.05186721044195082
-2.049734453776038   -0.3267820835709512   -0.0502561273848027
-2.049734453776038   -0.3267820835709512   -0.0502561273848027
-2.049734453776038   -0.3267820835709512   -0.0502561273848027
-2.049734453776038   -0.3267820835709512   -0.0502561273848027
-0.9235665321727023   0.0779846248782528   0.00966427198531622
-0.9235665321727023   0.0779846248782528   0.00966427198531622
-0.9235665321727023   0.0779846248782528   0.00966427198531622
-0.9235665321727023   0.0779846248782528   0.00966427198531622
-1.4504483831837394   -0.10885332891510319   -0.02116486923864666
-1.4504483831837394   -0.10885332891510319   -0.02116486923864666
-1.4504483831837394   -0.10885332891510319   -0.02116486923864666
-1.4504483831837394   -0.10885332891510319   -0.02116486923864666
-0.952079242718627   -0.09015228921309233   0.035237633347046174
-0.952079242718627   -0.09015228921309233   0.035237633347046174
-0.952079242718627   -0.09015228921309233   0.035237633347046174
-0.952079242718627   -0.09015228921309233   0.035237633347046174
-2.0154024916673827   -0.15282591791687034   -0.05255248249561932
-2.0154024916673827   -0.15282591791687034   -0.05255248249561932
-2.0154024916673827   -0.15282591791687034   -0.05255248249561932
-2.0154024916673827   -0.15282591791687034   -0.05255248249561932
-2.1146406595090195   -0.3478662523516318   -0.035221472843165416
-2.1146406595090195   -0.3478662523516318   -0.035221472843165416
-2.1146406595090195   -0.3478662523516318   -0.035221472843165416
-2.1146406595090195   -0.3478662523516318   -0.035221472843165416
-0.9757242124796452   0.054187278098825314   0.011850591613727132
-0.9757242124796452   0.054187278098825314   0.011850591613727132
-0.9757242124796452   0.054187278098825314   0.011850591613727132
-0.9757242124796452   0.054187278098825314   0.011850591613727132
-1.4915651420680764   -0.12057643974464868   -0.021258190368512973
-1.4915651420680764   -0.12057643974464868   -0.021258190368512973
-1.4915651420680764   -0.12057643974464868   -0.021258190368512973
-1.4915651420680764   -0.12057643974464868   -0.021258190368512973
-1.003893408858009   -0.11136177507387743   0.03655366289460901
-1.003893408858009   -0.11136177507387743   0.03655366289460901
-1.003893408858009   -0.11136177507387743   0.03655366289460901
-1.003893408858009   -0.11136177507387743   0.03655366289460901
-2.082574163292388   -0.17841989934066743   -0.0443353447709936
-2.082574163292388   -0.17841989934066743   -0.0443353447709936
-2.082574163292388   -0.17841989934066743   -0.0443353447709936
-2.082574163292388   -0.17841989934066743   -0.0443353447709936
-2.1881100912208313   -0.3756286957539231   -0.0377410964838211
-2.1881100912208313   -0.3756286957539231   -0.0377410964838211
-2.1881100912208313   -0.3756286957539231   -0.0377410964838211
-2.1881100912208313   -0.3756286957539231   -0.0377410964838211
-1.0320870017152914   0.02484746296516349   0.014205361421409511
-1.0320870017152914   0.02484746296516349   0.014205361421409511
-1.0320870017152914   0.02484746296516349   0.014205361421409511
-1.0320870017152914   0.02484746296516349   0.014205361421409511
-1.5643343655265693   -0.14898760970419314   -0.03447912934324716
-1.5643343655265693   -0.14898760970419314   -0.03447912934324716
-1.5643343655265693   -0.14898760970419314   -0.03447912934324716
-1.5643343655265693   -0.14898760970419314   -0.03447912934324716
-1.8914565433803732   0.08971325499656424   0.06469852240783222
-1.8914565433803732   0.08971325499656424   0.06469852240783222
-1.8914565433803732   0.08971325499656424   0.06469852240783222
-1.8914565433803732   0.08971325499656424   0.06469852240783222
-2.9331130263667307   -0.1461724379021327   -0.039684128792771625
-2.9331130263667307   -0.1461724379021327   -0.039684128792771625
-2.9331130263667307   -0.1461724379021327   -0.039684128792771625
-2.9331130263667307   -0.1461724379021327   -0.039684128792771625
-3.00570764925957   -0.14882239472196723   0.06648714058731409
-3.00570764925957   -0.14882239472196723   0.06648714058731409
-3.00570764925957   -0.14882239472196723   0.06648714058731409
-3.00570764925957   -0.14882239472196723   0.06648714058731409
-1.9653938989744113   0.060638053914283174   -0.01597349086191635
-1.9653938989744113   0.060638053914283174   -0.01597349086191635
-1.9653938989744113   0.060638053914283174   -0.01597349086191635
-1.9653938989744113   0.060638053914283174   -0.01597349086191635
-2.334813228011765   0.0018746431182191658   0.05920451140194487
-2.334813228011765   0.0018746431182191658   0.05920451140194487
-2.334813228011765   0.0018746431182191658   0.05920451140194487
-2.334813228011765   0.0018746431182191658   0.05920451140194487
-1.9447237860550242   0.06639997944277942   0.08161514820651564
-1.9447237860550242   0.06639997944277942   0.08161514820651564
-1.9447237860550242   0.06639997944277942   0.08161514820651564
-1.9447237860550242   0.06639997944277942   0.08161514820651564
-3.0250312971452225   -0.15323785521673283   -0.025715638346185316
-3.0250312971452225   -0.15323785521673283   -0.025715638346185316
-3.0250312971452225   -0.15323785521673283   -0.025715638346185316
-3.0250312971452225   -0.15323785521673283   -0.025715638346185316
-3.0973997175187113   -0.17370895431397299   0.09039008367545409
-3.0973997175187113   -0.17370895431397299   0.09039008367545409
-3.0973997175187113   -0.17370895431397299   0.09039008367545409
-3.0973997175187113   -0.17370895431397299   0.09039008367545409
-2.032612417322325   0.043735641484908716   -0.016682155746251842
-2.032612417322325   0.043735641484908716   -0.016682155746251842
-2.032612417322325   0.043735641484908716   -0.016682155746251842
-2.032612417322325   0.043735641484908716   -0.016682155746251842
-2.4528736387664605   -0.02727684107783368   0.0321857694725146
-2.4528736387664605   -0.02727684107783368   0.0321857694725146
-2.4528736387664605   -0.02727684107783368   0.0321857694725146
-2.4528736387664605   -0.02727684107783368   0.0321857694725146
-2.0137202290317835   0.04104317673882585   0.08047125045253814
-2.0137202290317835   0.04104317673882585   0.08047125045253814
-2.0137202290317835   0.04104317673882585   0.08047125045253814
-2.0137202290317835   0.04104317673882585   0.08047125045253814
-3.119849272465363   -0.1745738562239989   -0.020992789147752156
-3.119849272465363   -0.1745738562239989   -0.020992789147752156
-3.119849272465363   -0.1745738562239989   -0.020992789147752156
-3.119849272465363   -0.1745738562239989   -0.020992789147752156
-3.227692373182129   -0.27393745910897277   0.07861705471093515
-3.227692373182129   -0.27393745910897277   0.07861705471093515
-3.227692373182129   -0.27393745910897277   0.07861705471093515
-3.227692373182129   -0.27393745910897277   0.07861705471093515
-2.110109239203276   -0.007672626720785836   -0.01569290542919355
-2.110109239203276   -0.007672626720785836   -0.01569290542919355
-2.110109239203276   -0.007672626720785836   -0.01569290542919355
-2.110109239203276   -0.007672626720785836   -0.01569290542919355
-2.5034993836826707   -0.06392044418888215   0.008328639886075254
-2.5034993836826707   -0.06392044418888215   0.008328639886075254
-2.5034993836826707   -0.06392044418888215   0.008328639886075254
-2.5034993836826707   -0.06392044418888215   0.008328639886075254
1.93633141766285   0.10337829465703707   -0.06938211232934438
1.93633141766285   0.10337829465703707   -0.06938211232934438
1.93633141766285   0.10337829465703707   -0.06938211232934438
1.93633141766285   0.10337829465703707   -0.06938211232934438
0.9604828708423123   -0.000600642422025427   0.02523882289786085
0.9604828708423123   -0.000600642422025427   0.02523882289786085
0.9604828708423123   -0.000600642422025427   0.02523882289786085
0.9604828708423123   -0.000600642422025427   0.02523882289786085
0.8774618934045391   -0.14332374547070287   -0.06356909534303104
0.8774618934045391   -0.14332374547070287   -0.06356909534303104
0.8774618934045391   -0.14332374547070287   -0.06356909534303104
0.8774618934045391   -0.14332374547070287   -0.06356909534303104
1.8996763669139207   0.156755340984722   0.031640147411600164
1.8996763669139207   0.156755340984722   0.031640147411600164
1.8996763669139207   0.156755340984722   0.031640147411600164
1.8996763669139207   0.156755340984722   0.031640147411600164
1.3451542666354686   0.011899143931176026   -0.04425970525798054
1.3451542666354686   0.011899143931176026   -0.04425970525798054
1.3451542666354686   0.011899143931176026   -0.04425970525798054
1.3451542666354686   0.011899143931176026   -0.04425970525798054
1.8591095334060432   0.05235988814132608   -0.06679856728437314
1.8591095334060432   0.05235988814132608   -0.06679856728437314
1.8591095334060432   0.05235988814132608   -0.06679856728437314
1.8591095334060432   0.05235988814132608   -0.06679856728437314
0.9162826595688417   -0.04067435997088445   0.02788534997864711
0.9162826595688417   -0.04067435997088445   0.02788534997864711
0.9162826595688417   -0.04067435997088445   0.02788534997864711
0.9162826595688417   -0.04067435997088445   0.02788534997864711
0.8359347640736537   -0.15534549986996785   -0.055235670349374655
0.8359347640736537   -0.15534549986996785   -0.055235670349374655
0.8359347640736537   -0.15534549986996785   -0.055235670349374655
0.8359347640736537   -0.15534549986996785   -0.055235670349374655
1.837549910447845   0.14024973525726148   0.04320851953795403
1.837549910447845   0.14024973525726148   0.04320851953795403
1.837549910447845   0.14024973525726148   0.04320851953795403
1.837549910447845   0.14024973525726148   0.04320851953795403
1.3125301479209681   -0.009728009057460463   -0.0582528808170401
1.3125301479209681   -0.009728009057460463   -0.0582528808170401
1.3125301479209681   -0.009728009057460463   -0.0582528808170401
1.3125301479209681   -0.009728009057460463   -0.0582528808170401
1.797857313824954   0.03757099873860881   -0.05257572705781926
1.797857313824954   0.03757099873860881   -0.05257572705781926
1.797857313824954   0.03757099873860881   -0.05257572705781926
1.797857313824954   0.03757099873860881   -0.05257572705781926
0.874067319883665   -0.05422680416418635   0.03430841299489505
0.874067319883665   -0.05422680416418635   0.03430841299489505
0.874067319883665   -0.05422680416418635   0.03430841299489505
0.874067319883665   -0.05422680416418635   0.03430841299489505
0.797998936373928   -0.15902111344344294   -0.04511838802676091
0.797998936373928   -0.15902111344344294   -0.04511838802676091
0.797998936373928   -0.15902111344344294   -0.04511838802676091
0.797998936373928   -0.15902111344344294   -0.04511838802676091
1.7675117936553066   0.12569447408394097   0.053722931350321954
1.7675117936553066   0.12569447408394097   0.053722931350321954
1.7675117936553066   0.12569447408394097   0.053722931350321954
1.7675117936553066   0.12569447408394097   0.053722931350321954
1.236915121304389   -0.024657532254222403   -0.07916986424288555
1.236915121304389   -0.024657532254222403   -0.07916986424288555
1.236915121304389   -0.024657532254222403   -0.07916986424288555
1.236915121304389   -0.024657532254222403   -0.07916986424288555
0.9767929037740574   0.10102207442462363   0.005166270709937727
0.9767929037740574   0.10102207442462363   0.005166270709937727
0.9767929037740574   0.10102207442462363   0.005166270709937727
0.9767929037740574   0.10102207442462363   0.005166270709937727
0.03422115942483773   -0.03172876042915594   -0.00388280404788118
0.03422115942483773   -0.03172876042915594   -0.00388280404788118
0.03422115942483773   -0.03172876042915594   -0.00388280404788118
0.03422115942483773   -0.03172876042915594   -0.00388280404788118
-0.02835185534815661   -0.12909180058462158   -0.04319969489977312
-0.02835185534815661   -0.12909180058462158   -0.04319969489977312
-0.02835185534815661   -0.12909180058462158   -0.04319969489977312
-0.02835185534815661   -0.12909180058462158   -0.04319969489977312
0.9578579087404133   0.14187773075311275   0.05320950511250869
0.9578579087404133   0.14187773075311275   0.05320950511250869
0.9578579087404133   0.14187773075311275   0.05320950511250869
0.9578579087404133   0.14187773075311275   0.05320950511250869
0.47757525250160404   0.020204565012321388   -0.005508020126975398
0.47757525250160404   0.020204565012321388   -0.005508020126975398
0.47757525250160404   0.020204565012321388   -0.005508020126975398
0.47757525250160404   0.020204565012321388   -0.005508020126975398
0.935896342373334   0.07454471562139423   0.010734688408833848
0.935896342373334   0.07454471562139423   0.010734688408833848
0.935896342373334   0.07454471562139423   0.010734688408833848
0.935896342373334   0.07454471562139423   0.010734688408833848
-0.006003318643675379   -0.06137181511550372   0.0008230031535151547
-0.006003318643675379   -0.06137181511550372   0.0008230031535151547
-0.006003318643675379   -0.06137181511550372   0.0008230031535151547
-0.006003318643675379   -0.06137181511550372   0.0008230031535151547
-0.06769162219966487   -0.14853745754291323   -0.03732262374568966
-0.06769162219966487   -0.14853745754291323   -0.03732262374568966
-0.06769162219966487   -0.14853745754291323   -0.03732262374568966
-0.06769162219966487   -0.14853745754291323   -0.03732262374568966
0.9132966216106918   0.1173375859038727   0.058890531561968586
0.9132966216106918   0.1173375859038727   0.058890531561968586
0.9132966216106918   0.1173375859038727   0.058890531561968586
0.9132966216106918   0.1173375859038727   0.058890531561968586
0.4295612265296289   -0.003964878021755158   -0.019248167320859363
0.4295612265296289   -0.003964878021755158   -0.019248167320859363
0.4295612265296289   -0.003964878021755158   -0.019248167320859363
0.4295612265296289   -0.003964878021755158   -0.019248167320859363
0.8921542865287206   0.05416628113591715   0.016350160920069266
0.8921542865287206   0.05416628113591715   0.016350160920069266
0.8921542865287206   0.05416628113591715   0.016350160920069266
0.8921542865287206   0.05416628113591715   0.016350160920069266
-0.046510316405129974   -0.08532718206239255   0.005373629746464197
-0.046510316405129974   -0.08532718206239255   0.005373629746464197
-0.046510316405129974   -0.08532718206239255   0.005373629746464197
-0.046510316405129974   -0.08532718206239255   0.005373629746464197
-0.10663881521729615   -0.16029178233728128   -0.029653990043593377
-0.10663881521729615   -0.16029178233728128   -0.029653990043593377
-0.10663881521729615   -0.16029178233728128   -0.029653990043593377
-0.10663881521729615   -0.16029178233728128   -0.029653990043593377
0.8709162232144199   0.09660281519863385   0.06384411753361034
0.8709162232144199   0.09660281519863385   0.06384411753361034
0.8709162232144199   0.09660281519863385   0.06384411753361034
0.8709162232144199   0.09660281519863385   0.06384411753361034
0.39399695124911477   -0.019478246917422434   -0.029393548873481303
0.39399695124911477   -0.019478246917422434   -0.029393548873481303
0.39399695124911477   -0.019478246917422434   -0.029393548873481303
0.39399695124911477   -0.019478246917422434   -0.029393548873481303
0.06616982740316066   0.10217397803930188   0.021957797375275666
0.06616982740316066   0.10217397803930188   0.021957797375275666
0.06616982740316066   0.10217397803930188   0.021957797375275666
0.06616982740316066   0.10217397803930188   0.021957797375275666
-0.8631927858907134   -0.05569188070752357   -0.029722940753989353
-0.8631927858907134   -0.05569188070752357   -0.029722940753989353
-0.8631927858907134   -0.05569188070752357   -0.029722940753989353
-0.8631927858907134   -0.05569188070752357   -0.029722940753989353
-0.9120131548122834   -0.11819347489693764   -0.027260672497637927
-0.9120131548122834   -0.11819347489693764   -0.027260672497637927
-0.9120131548122834   -0.11819347489693764   -0.027260672497637927
-0.9120131548122834   -0.11819347489693764   -0.027260672497637927
0.03448785894799732   0.11615899004482615   0.025748085951547265
0.03448785894799732   0.11615899004482615   0.025748085951547265
0.03448785894799732   0.11615899004482615   0.025748085951547265
0.03448785894799732   0.11615899004482615   0.025748085951547265
-0.418115294587392   0.013100271940678143   0.0015656211335114793
-0.418115294587392   0.013100271940678143   0.0015656211335114793
-0.418115294587392   0.013100271940678143   0.0015656211335114793
-0.418115294587392   0.013100271940678143   0.0015656211335114793
0.027780627156322506   0.0807429995032586   0.027627917534742245
0.027780627156322506   0.0807429995032586   0.027627917534742245
0.027780627156322506   0.0807429995032586   0.027627917534742245
0.027780627156322506   0.0807429995032586   0.027627917534742245
-0.9042348019282084   -0.08170636326298075   -0.024856019711220083
-0.9042348019282084   -0.08170636326298075   -0.024856019711220083
-0.9042348019282084   -0.08170636326298075   -0.024856019711220083
-0.9042348019282084   -0.08170636326298075   -0.024856019711220083
-0.9542349342006471   -0.13956456731749733   -0.022601921813737217
-0.9542349342006471   -0.13956456731749733   -0.022601921813737217
-0.9542349342006471   -0.13956456731749733   -0.022601921813737217
-0.9542349342006471   -0.13956456731749733   -0.022601921813737217
-0.006084588635848154   0.0909116452935865   0.03126344123689862
-0.006084588635848154   0.0909116452935865   0.03126344123689862
-0.006084588635848154   0.0909116452935865   0.03126344123689862
-0.006084588635848154   0.0909116452935865   0.03126344123689862
-0.45856275182255307   -0.0077911028335593685   -0.008774127302040996
-0.45856275182255307   -0.0077911028335593685   -0.008774127302040996
-0.45856275182255307   -0.0077911028335593685   -0.008774127302040996
-0.45856275182255307   -0.0077911028335593685   -0.008774127302040996
-0.01181763622640904   0.060117705296363504   0.03339214328131282
-0.01181763622640904   0.060117705296363504   0.03339214328131282
-0.01181763622640904   0.060117705296363504   0.03339214328131282
-0.01181763622640904   0.060117705296363504   0.03339214328131282
-0.9475789252039059   -0.10784766591409208   -0.021038778233436566
-0.9475789252039059   -0.10784766591409208   -0.021038778233436566
-0.9475789252039059   -0.10784766591409208   -0.021038778233436566
-0.9475789252039059   -0.10784766591409208   -0.021038778233436566
-0.9961764040922361   -0.15639421787178734   -0.01486085522137011
-0.9961764040922361   -0.15639421787178734   -0.01486085522137011
-0.9961764040922361   -0.15639421787178734   -0.01486085522137011
-0.9961764040922361   -0.15639421787178734   -0.01486085522137011
-0.04811535983277068   0.06712787255695024   0.0355436319848047
-0.04811535983277068   0.06712787255695024   0.0355436319848047
-0.04811535983277068   0.06712787255695024   0.0355436319848047
-0.04811535983277068   0.06712787255695024   0.0355436319848047
-0.5020816431126187   -0.029039461347570864   -0.02006624673173499
-0.5020816431126187   -0.029039461347570864   -0.02006624673173499
-0.5020816431126187   -0.029039461347570864   -0.02006624673173499
-0.5020816431126187   -0.029039461347570864   -0.02006624673173499
-0.8138756678554582   0.12097104070138673   0.040199728013391826
-0.8138756678554582   0.12097104070138673   0.040199728013391826
-0.8138756678554582   0.12097104070138673   0.040199728013391826
-0.8138756678554582   0.12097104070138673   0.040199728013391826
-1.730448146838862   -0.07665019526815803   -0.04875308257432766
-1.730448146838862   -0.07665019526815803   -0.04875308257432766
-1.730448146838862   -0.07665019526815803   -0.04875308257432766
-1.730448146838862   -0.07665019526815803   -0.04875308257432766
-1.76852417880646   -0.09446373996645674   -0.0076199056044738145
-1.76852417880646   -0.09446373996645674   -0.0076199056044738145
-1.76852417880646   -0.09446373996645674   -0.0076199056044738145
-1.76852417880646   -0.09446373996645674   -0.0076199056044738145
-0.8656666273946912   0.08779818550555979   -0.0015196958121682508
-0.8656666273946912   0.08779818550555979   -0.0015196958121682508
-0.8656666273946912   0.08779818550555979   -0.0015196958121682508
-0.8656666273946912   0.08779818550555979   -0.0015196958121682508
-1.2852827997230074   0.01341765231163733   0.009347219048297356
-1.2852827997230074   0.01341765231163733   0.009347219048297356
-1.2852827997230074   0.01341765231163733   0.009347219048297356
-1.2852827997230074   0.01341765231163733   0.009347219048297356
-0.8541017349799619   0.09897110022761652   0.04513185153942279
-0.8541017349799619   0.09897110022761652   0.04513185153942279
-0.8541017349799619   0.09897110022761652   0.04513185153942279
-0.8541017349799619   0.09897110022761652   0.04513185153942279
-1.7786254984547987   -0.10417308192212993   -0.04841716189050933
-1.7786254984547987   -0.10417308192212993   -0.04841716189050933
-1.7786254984547987   -0.10417308192212993   -0.04841716189050933
-1.7786254984547987   -0.10417308192212993   -0.04841716189050933
-1.8205275360819342   -0.11848538177438439   -0.0067093841500323464
-1.8205275360819342   -0.11848538177438439   -0.0067093841500323464
-1.8205275360819342   -0.11848538177438439   -0.0067093841500323464
-1.8205275360819342   -0.11848538177438439   -0.0067093841500323464
-0.9083812205252317   0.06370509168656585   0.0033969875592853305
-0.9083812205252317   0.06370509168656585   0.0033969875592853305
-0.9083812205252317   0.06370509168656585   0.0033969875592853305
-0.9083812205252317   0.06370509168656585   0.0033969875592853305
-1.3217473130568012   -0.0057249386642145295   0.0008602291658682676
-1.3217473130568012   -0.0057249386642145295   0.0008602291658682676
-1.3217473130568012   -0.0057249386642145295   0.0008602291658682676
-1.3217473130568012   -0.0057249386642145295   0.0008602291658682676
-0.8957197983483768   0.0782499005236382   0.05215928960648662
-0.8957197983483768   0.0782499005236382   0.05215928960648662
-0.8957197983483768   0.0782499005236382   0.05215928960648662
-0.8957197983483768   0.0782499005236382   0.05215928960648662
-1.830228349610174   -0.13006958196283586   -0.043629251602780694
-1.830228349610174   -0.13006958196283586   -0.043629251602780694
-1.830228349610174   -0.13006958196283586   -0.043629251602780694
-1.830228349610174   -0.13006958196283586   -0.043629251602780694
-1.8684223025316513   -0.14419257086723453   0.005340493075840717
-1.8684223025316513   -0.14419257086723453   0.005340493075840717
-1.8684223025316513   -0.14419257086723453   0.005340493075840717
-1.8684223025316513   -0.14419257086723453   0.005340493075840717
-0.9536465145392333   0.03506428132462147   0.006330093347241293
-0.9536465145392333   0.03506428132462147   0.006330093347241293
-0.9536465145392333   0.03506428132462147   0.006330093347241293
-0.9536465145392333   0.03506428132462147   0.006330093347241293
-1.378515453945638   -0.032517299765382035   -0.010522775664629183
-1.378515453945638   -0.032517299765382035   -0.010522775664629183
-1.378515453945638   -0.032517299765382035   -0.010522775664629183
-1.378515453945638   -0.032517299765382035   -0.010522775664629183
-1.6689181371671031   0.12587726649966352   0.056369504016621344
-1.6689181371671031   0.12587726649966352   0.056369504016621344
-1.6689181371671031   0.12587726649966352   0.056369504016621344
-1.6689181371671031   0.12587726649966352   0.056369504016621344
-2.554042566858973   -0.11808344307570429   -0.04512456662047376
-2.554042566858973   -0.11808344307570429   -0.04512456662047376
-2.554042566858973   -0.11808344307570429   -0.04512456662047376
-2.554042566858973   -0.11808344307570429   -0.04512456662047376
-2.5893671493633272   -0.051356240784843465   0.04802828603136643
-2.5893671493633272   -0.051356240784843465   0.04802828603136643
-2.5893671493633272   -0.051356240784843465   0.04802828603136643
-2.5893671493633272   -0.051356240784843465   0.04802828603136643
-1.742728458513888   0.05231171812302554   -0.02541676223109593
-1.742728458513888   0.05231171812302554   -0.02541676223109593
-1.742728458513888   0.05231171812302554   -0.02541676223109593
-1.742728458513888   0.05231171812302554   -0.02541676223109593
-2.044296075750065   0.02630426077772907   0.046861967726832696
-2.044296075750065   0.02630426077772907   0.046861967726832696
-2.044296075750065   0.02630426077772907   0.046861967726832696
-2.044296075750065   0.02630426077772907   0.046861967726832696
-1.7095625187406385   0.12795329923754295   0.06477135552061153
-1.7095625187406385   0.12795329923754295   0.06477135552061153
-1.7095625187406385   0.12795329923754295   0.06477135552061153
-1.7095625187406385   0.12795329923754295   0.06477135552061153
-2.6205742872091777   -0.12503901997195177   -0.03432462401075398
-2.6205742872091777   -0.12503901997195177   -0.03432462401075398
-2.6205742872091777   -0.12503901997195177   -0.03432462401075398
-2.6205742872091777   -0.12503901997195177   -0.03432462401075398
-2.6539460118553886   -0.0639217170015004   0.06636464635482733
-2.6539460118553886   -0.0639217170015004   0.06636464635482733
-2.6539460118553886   -0.0639217170015004   0.06636464635482733
-2.6539460118553886   -0.0639217170015004   0.06636464635482733
-1.7923218407678727   0.03846293717882521   -0.022629226532932645
-1.7923218407678727   0.03846293717882521   -0.022629226532932645
-1.7923218407678727   0.03846293717882521   -0.022629226532932645
-1.7923218407678727   0.03846293717882521   -0.022629226532932645
-2.132904472071516   0.012954431985120363   0.029996166173332936
-2.132904472071516   0.012954431985120363   0.029996166173332936
-2.132904472071516   0.012954431985120363   0.029996166173332936
-2.132904472071516   0.012954431985120363   0.029996166173332936
-1.755693418814991   0.11854253034806589   0.08043329006223303
-1.755693418814991   0.11854253034806589   0.08043329006223303
-1.755693418814991   0.11854253034806589   0.08043329006223303
-1.755693418814991   0.11854253034806589   0.08043329006223303
-2.688687191444962   -0.1421140678074202   -0.029148900787070775
-2.688687191444962   -0.1421140678074202   -0.029148900787070775
-2.688687191444962   -0.1421140678074202   -0.029148900787070775
-2.688687191444962   -0.1421140678074202   -0.029148900787070775
-2.7415283866828033   -0.1176048367501597   0.06606519190352547
-2.7415283866828033   -0.1176048367501597   0.06606519190352547
-2.7415283866828033   -0.1176048367501597   0.06606519190352547
-2.7415283866828033   -0.1176048367501597   0.06606519190352547
-1.8454804114156662   -0.0028973955334726798   -0.02124522667800588
-1.8454804114156662   -0.0028973955334726798   -0.02124522667800588
-1.8454804114156662   -0.0028973955334726798   -0.02124522667800588
-1.8454804114156662   -0.0028973955334726798   -0.02124522667800588
-2.1590183844832134   -0.006186608948229533   0.02434221175829321
-2.1590183844832134   -0.006186608948229533   0.02434221175829321
-2.1590183844832134   -0.006186608948229533   0.02434221175829321
-2.1590183844832134   -0.006186608948229533   0.02434221175829321
1.4653041702270067   0.0812487300529075   -0.07033561411214553
1.4653041702270067   0.0812487300529075   -0.07033561411214553
1.4653041702270067   0.0812487300529075   -0.07033561411214553
1.4653041702270067   0.0812487300529075   -0.07033561411214553
0.6972007741525883   0.014341746089109791   0.026902255803021455
0.6972007741525883   0.014341746089109791   0.026902255803021455
0.6972007741525883   0.014341746089109791   0.026902255803021455
0.6972007741525883   0.014341746089109791   0.026902255803021455
0.6190152923063226   -0.11905397529592893   -0.0667453593841178
0.6190152923063226   -0.11905397529592893   -0.0667453593841178
0.6190152923063226   -0.11905397529592893   -0.0667453593841178
0.6190152923063226   -0.11905397529592893   -0.0667453593841178
1.4333434362695952   0.1348764973174197   0.03325372928731934
1.4333434362695952   0.1348764973174197   0.03325372928731934
1.4333434362695952   0.1348764973174197   0.03325372928731934
1.4333434362695952   0.1348764973174197   0.03325372928731934
0.9992962235334839   0.013528721130256965   -0.02954000371546161
0.9992962235334839   0.013528721130256965   -0.02954000371546161
0.9992962235334839   0.013528721130256965   -0.02954000371546161
0.9992962235334839   0.013528721130256965   -0.02954000371546161
1.39361394230865   0.03592614828446683   -0.06644339148444277
1.39361394230865   0.03592614828446683   -0.06644339148444277
1.39361394230865   0.03592614828446683   -0.06644339148444277
1.39361394230865   0.03592614828446683   -0.06644339148444277
0.6579591159272314   -0.02088929660301561   0.029809080027506603
0.6579591159272314   -0.02088929660301561   0.029809080027506603
0.6579591159272314   -0.02088929660301561   0.029809080027506603
0.6579591159272314   -0.02088929660301561   0.029809080027506603
0.582472426942644   -0.13078732318942984   -0.0568992891903012
0.582472426942644   -0.13078732318942984   -0.0568992891903012
0.582472426942644   -0.13078732318942984   -0.0568992891903012
0.582472426942644   -0.13078732318942984   -0.0568992891903012
1.3765276358088077   0.11811855295998563   0.04369039958041954
1.3765276358088077   0.11811855295998563   0.04369039958041954
1.3765276358088077   0.11811855295998563   0.04369039958041954
1.3765276358088077   0.11811855295998563   0.04369039958041954
0.966466992295663   -0.006784929564798592   -0.04158278671409764
0.966466992295663   -0.006784929564798592   -0.04158278671409764
0.966466992295663   -0.006784929564798592   -0.04158278671409764
0.966466992295663   -0.006784929564798592   -0.04158278671409764
1.3377341967404097   0.021011033373223797   -0.05316927617479974
1.3377341967404097   0.021011033373223797   -0.05316927617479974
1.3377341967404097   0.021011033373223797   -0.05316927617479974
1.3377341967404097   0.021011033373223797   -0.05316927617479974
0.6202808740037853   -0.03466479560992422   0.036020418535892704
0.6202808740037853   -0.03466479560992422   0.036020418535892704
0.6202808740037853   -0.03466479560992422   0.036020418535892704
0.6202808740037853   -0.03466479560992422   0.036020418535892704
0.5495218933096042   -0.1381241193257081   -0.04738013535222094
0.5495218933096042   -0.1381241193257081   -0.04738013535222094
0.5495218933096042   -0.1381241193257081   -0.04738013535222094
0.5495218933096042   -0.1381241193257081   -0.04738013535222094
1.3124729097624603   0.09989616146919508   0.05186331536810888
1.3124729097624603   0.09989616146919508   0.05186331536810888
1.3124729097624603   0.09989616146919508   0.05186331536810888
1.3124729097624603   0.09989616146919508   0.05186331536810888
0.9019324972730539   -0.022173356987429338   -0.05934035681620705
0.9019324972730539   -0.022173356987429338   -0.05934035681620705
0.9019324972730539   -0.022173356987429338   -0.05934035681620705
0.9019324972730539   -0.022173356987429338   -0.05934035681620705
0.7086871780016395   0.10306350693605565   -0.0043874857986567276
0.7086871780016395   0.10306350693605565   -0.0043874857986567276
0.7086871780016395   0.10306350693605565   -0.0043874857986567276
0.7086871780016395   0.10306350693605565   -0.0043874857986567276
-0.045910324673764005   -0.0097935164650841   -0.0002600527024414374
-0.045910324673764005   -0.0097935164650841   -0.0002600527024414374
-0.045910324673764005   -0.0097935164650841   -0.0002600527024414374
-0.045910324673764005   -0.0097935164650841   -0.0002600527024414374
-0.10098535255755094   -0.08900884729238265   -0.04238012381700395
-0.10098535255755094   -0.08900884729238265   -0.04238012381700395
-0.10098535255755094   -0.08900884729238265   -0.04238012381700395
-0.10098535255755094   -0.08900884729238265   -0.04238012381700395
0.6901085087500762   0.122542745028349   0.04712400251036681
0.6901085087500762   0.122542745028349   0.04712400251036681
0.6901085087500762   0.122542745028349   0.04712400251036681
0.6901085087500762   0.122542745028349   0.04712400251036681
0.30815751656248014   0.03028635772388174   0.0021703035884584644
0.30815751656248014   0.03028635772388174   0.0021703035884584644
0.30815751656248014   0.03028635772388174   0.0021703035884584644
0.30815751656248014   0.03028635772388174   0.0021703035884584644
0.6714246041696956   0.07433217811985951   0.0019150465169671116
0.6714246041696956   0.07433217811985951   0.0019150465169671116
0.6714246041696956   0.07433217811985951   0.0019150465169671116
0.6714246041696956   0.07433217811985951   0.0019150465169671116
-0.08197961203565186   -0.04047644444237352   0.004116175942482283
-0.08197961203565186   -0.04047644444237352   0.004116175942482283
-0.08197961203565186   -0.04047644444237352   0.004116175942482283
-0.08197961203565186   -0.04047644444237352   0.004116175942482283
-0.1354095980623977   -0.11118598154642151   -0.035021086016412885
-0.1354095980623977   -0.11118598154642151   -0.035021086016412885
-0.1354095980623977   -0.11118598154642151   -0.035021086016412885
-0.1354095980623977   -0.11118598154642151   -0.035021086016412885
0.6495335826395998   0.09609777784538129   0.051521388259659656
0.6495335826395998   0.09609777784538129   0.051521388259659656
0.6495335826395998   0.09609777784538129   0.051521388259659656
0.6495335826395998   0.09609777784538129   0.051521388259659656
0.26576706385580445   0.004148385854610533   -0.010956076631991541
0.26576706385580445   0.004148385854610533   -0.010956076631991541
0.26576706385580445   0.004148385854610533   -0.010956076631991541
0.26576706385580445   0.004148385854610533   -0.010956076631991541
0.631466517442973   0.05054185565193328   0.006741984469980849
0.631466517442973   0.05054185565193328   0.006741984469980849
0.631466517442973   0.05054185565193328   0.006741984469980849
0.631466517442973   0.05054185565193328   0.006741984469980849
-0.11760124497319842   -0.06588877146039825   0.008723469343560252
-0.11760124497319842   -0.06588877146039825   0.008723469343560252
-0.11760124497319842   -0.06588877146039825   0.008723469343560252
-0.11760124497319842   -0.06588877146039825   0.008723469343560252
-0.16938867630938292   -0.12984823893461495   -0.02810625360883089
-0.16938867630938292   -0.12984823893461495   -0.02810625360883089
-0.16938867630938292   -0.12984823893461495   -0.02810625360883089
-0.16938867630938292   -0.12984823893461495   -0.02810625360883089
0.6120720462471873   0.07161241491952249   0.05563409509046245
0.6120720462471873   0.07161241491952249   0.05563409509046245
0.6120720462471873   0.07161241491952249   0.05563409509046245
0.6120720462471873   0.07161241491952249   0.05563409509046245
0.23320070095691045   -0.015708492754618428   -0.021906406726984004
0.23320070095691045   -0.015708492754618428   -0.021906406726984004
0.23320070095691045   -0.015708492754618428   -0.021906406726984004
0.23320070095691045   -0.015708492754618428   -0.021906406726984004
-0.015857906274065012   0.12313448994399986   0.017074032886969542
-0.015857906274065012   0.12313448994399986   0.017074032886969542
-0.015857906274065012   0.12313448994399986   0.017074032886969542
-0.015857906274065012   0.12313448994399986   0.017074032886969542
-0.773171435763485   -0.033316905768494554   -0.025647976764030536
-0.773171435763485   -0.033316905768494554   -0.025647976764030536
-0.773171435763485   -0.033316905768494554   -0.025647976764030536
-0.773171435763485   -0.033316905768494554   -0.025647976764030536
-0.8086710819631159   -0.06162339593032409   -0.02000490301302929
-0.8086710819631159   -0.06162339593032409   -0.02000490301302929
-0.8086710819631159   -0.06162339593032409   -0.02000490301302929
-0.8086710819631159   -0.06162339593032409   -0.02000490301302929
-0.05081001071223769   0.09897418727858408   0.020513550838597502
-0.05081001071223769   0.09897418727858408   0.020513550838597502
-0.05081001071223769   0.09897418727858408   0.020513550838597502
-0.05081001071223769   0.09897418727858408   0.020513550838597502
-0.4111525427069535   0.032014176392590465   0.008069613996326299
-0.4111525427069535   0.032014176392590465   0.008069613996326299
-0.4111525427069535   0.032014176392590465   0.008069613996326299
-0.4111525427069535   0.032014176392590465   0.008069613996326299
-0.05011677843678658   0.09889935439703465   0.024054545097400567
-0.05011677843678658   0.09889935439703465   0.024054545097400567
-0.05011677843678658   0.09889935439703465   0.024054545097400567
-0.05011677843678658   0.09889935439703465   0.024054545097400567
-0.8086978294717676   -0.060882078281969745   -0.02087995820464174
-0.8086978294717676   -0.060882078281969745   -0.02087995820464174
-0.8086978294717676   -0.060882078281969745   -0.02087995820464174
-0.8086978294717676   -0.060882078281969745   -0.02087995820464174
-0.8439304239759603   -0.08562602532860705   -0.013579076533895715
-0.8439304239759603   -0.08562602532860705   -0.013579076533895715
-0.8439304239759603   -0.08562602532860705   -0.013579076533895715
-0.8439304239759603   -0.08562602532860705   -0.013579076533895715
-0.08669626793609457   0.07174287451484287   0.025616708553837242
-0.08669626793609457   0.07174287451484287   0.025616708553837242
-0.08669626793609457   0.07174287451484287   0.025616708553837242
-0.08669626793609457   0.07174287451484287   0.025616708553837242
-0.44677462265411316   0.00835079754795258   -0.002587805181798051
-0.44677462265411316   0.00835079754795258   -0.002587805181798051
-0.44677462265411316   0.00835079754795258   -0.002587805181798051
-0.44677462265411316   0.00835079754795258   -0.002587805181798051
-0.0852932594405509   0.07474345666211749   0.029631168884282102
-0.0852932594405509   0.07474345666211749   0.029631168884282102
-0.0852932594405509   0.07474345666211749   0.029631168884282102
-0.0852932594405509   0.07474345666211749   0.029631168884282102
-0.8451347954326851   -0.0884279704370555   -0.01679898870906414
-0.8451347954326851   -0.0884279704370555   -0.01679898870906414
-0.8451347954326851   -0.0884279704370555   -0.01679898870906414
-0.8451347954326851   -0.0884279704370555   -0.01679898870906414
-0.8787799530850525   -0.10755798189149633   -0.007221047005146319
-0.8787799530850525   -0.10755798189149633   -0.007221047005146319
-0.8787799530850525   -0.10755798189149633   -0.007221047005146319
-0.8787799530850525   -0.10755798189149633   -0.007221047005146319
-0.12272519967110122   0.0454053816265875   0.029957509021376578
-0.12272519967110122   0.0454053816265875   0.029957509021376578
-0.12272519967110122   0.0454053816265875   0.029957509021376578
-0.12272519967110122   0.0454053816265875   0.029957509021376578
-0.48402452462520285   -0.015514275313674289   -0.014453253478467726
-0.48402452462520285   -0.015514275313674289   -0.014453253478467726
-0.48402452462520285   -0.015514275313674289   -0.014453253478467726
-0.48402452462520285   -0.015514275313674289   -0.014453253478467726
-0.7256304982910488   0.14150992660183   0.037229878227815066
-0.7256304982910488   0.14150992660183   0.037229878227815066
-0.7256304982910488   0.14150992660183   0.037229878227815066
-0.7256304982910488   0.14150992660183   0.037229878227815066
-1.4835396577209508   -0.057328560600365674   -0.046288163725247466
-1.4835396577209508   -0.057328560600365674   -0.046288163725247466
-1.4835396577209508   -0.057328560600365674   -0.046288163725247466
-1.4835396577209508   -0.057328560600365674   -0.046288163725247466
-1.5029512218996   -0.03847867285370521   0.00438060689641534
-1.5029512218996   -0.03847867285370521   0.00438060689641534
-1.5029512218996   -0.03847867285370521   0.00438060689641534
-1.5029512218996   -0.03847867285370521   0.00438060689641534
-0.7793395762396096   0.0710395444831183   -0.006010314808932965
-0.7793395762396096   0.0710395444831183   -0.006010314808932965
-0.7793395762396096   0.0710395444831183   -0.006010314808932965
-0.7793395762396096   0.0710395444831183   -0.006010314808932965
-1.1155858051058194   0.030620077863431405   0.013680394985914002
-1.1155858051058194   0.030620077863431405   0.013680394985914002
-1.1155858051058194   0.030620077863431405   0.013680394985914002
-1.1155858051058194   0.030620077863431405   0.013680394985914002
-0.7599483403399545   0.11803571992785614   0.04394968924459808
-0.7599483403399545   0.11803571992785614   0.04394968924459808
-0.7599483403399545   0.11803571992785614   0.04394968924459808
-0.7599483403399545   0.11803571992785614   0.04394968924459808
-1.5221565146485696   -0.0852889051477646   -0.04483562455438771
-1.5221565146485696   -0.0852889051477646   -0.04483562455438771
-1.5221565146485696   -0.0852889051477646   -0.04483562455438771
-1.5221565146485696   -0.0852889051477646   -0.04483562455438771
-1.544005518440623   -0.06274049511356172   0.006793351474038839
-1.544005518440623   -0.06274049511356172   0.006793351474038839
-1.544005518440623   -0.06274049511356172   0.006793351474038839
-1.544005518440623   -0.06274049511356172   0.006793351474038839
-0.8150888571357068   0.04582040034984233   -0.0008176680110668494
-0.8150888571357068   0.04582040034984233   -0.0008176680110668494
-0.8150888571357068   0.04582040034984233   -0.0008176680110668494
-0.8150888571357068   0.04582040034984233   -0.0008176680110668494
-1.1457519206386162   0.009487885971586785   0.003755431172213851
-1.1457519206386162   0.009487885971586785   0.003755431172213851
-1.1457519206386162   0.009487885971586785   0.003755431172213851
-1.1457519206386162   0.009487885971586785   0.003755431172213851
-0.7948914267066458   0.09576802486270175   0.05022185962137483
-0.7948914267066458   0.09576802486270175   0.05022185962137483
-0.7948914267066458   0.09576802486270175   0.05022185962137483
-0.7948914267066458   0.09576802486270175   0.05022185962137483
-1.5631609529610992   -0.11164612371783622   -0.04007819252406719
-1.5631609529610992   -0.11164612371783622   -0.04007819252406719
-1.5631609529610992   -0.11164612371783622   -0.04007819252406719
-1.5631609529610992   -0.11164612371783622   -0.04007819252406719
-1.5812561987980387   -0.08884151583973449   0.014410791784266824
-1.5812561987980387   -0.08884151583973449   0.014410791784266824
-1.5812561987980387   -0.08884151583973449   0.014410791784266824
-1.5812561987980387   -0.08884151583973449   0.014410791784266824
-0.8518375909299608   0.01698894633328052   0.0029438355455481124
-0.8518375909299608   0.01698894633328052   0.0029438355455481124
-0.8518375909299608   0.01698894633328052   0.0029438355455481124
-0.8518375909299608   0.01698894633328052   0.0029438355455481124
-1.1915892497899587   -0.016967768654441467   -0.008827572947809927
-1.1915892497899587   -0.016967768654441467   -0.008827572947809927
-1.1915892497899587   -0.016967768654441467   -0.008827572947809927
-1.1915892497899587   -0.016967768654441467   -0.008827572947809927
-1.4269024116544582   0.12690283540888808   0.052666670597961
-1.4269024116544582   0.12690283540888808   0.052666670597961
-1.4269024116544582   0.12690283540888808   0.052666670597961
-1.4269024116544582   0.12690283540888808   0.052666670597961
-2.1585870779191154   -0.09953265363039893   -0.05114249935733317
-2.1585870779191154   -0.09953265363039893   -0.05114249935733317
-2.1585870779191154   -0.09953265363039893   -0.05114249935733317
-2.1585870779191154   -0.09953265363039893   -0.05114249935733317
-2.1827696189712715   -0.020899811674769064   0.048566749237252946
-2.1827696189712715   -0.020899811674769064   0.048566749237252946
-2.1827696189712715   -0.020899811674769064   0.048566749237252946
-2.1827696189712715   -0.020899811674769064   0.048566749237252946
-1.49500370787127   0.03562897151633182   -0.029989467331970956
-1.49500370787127   0.03562897151633182   -0.029989467331970956
-1.49500370787127   0.03562897151633182   -0.029989467331970956
-1.49500370787127   0.03562897151633182   -0.029989467331970956
-1.7355218485320352   0.028635236362029415   0.04242939005166021
-1.7355218485320352   0.028635236362029415   0.04242939005166021
-1.7355218485320352   0.028635236362029415   0.04242939005166021
-1.7355218485320352   0.028635236362029415   0.04242939005166021
-1.458456421771013   0.12660388737913691   0.06177204730650166
-1.458456421771013   0.12660388737913691   0.06177204730650166
-1.458456421771013   0.12660388737913691   0.06177204730650166
-1.458456421771013   0.12660388737913691   0.06177204730650166
-2.2186938024276732   -0.11125162489371299   -0.04070235482579142
-2.2186938024276732   -0.11125162489371299   -0.04070235482579142
-2.2186938024276732   -0.11125162489371299   -0.04070235482579142
-2.2186938024276732   -0.11125162489371299   -0.04070235482579142
-2.236498945384787   -0.03369477996694609   0.060759292355124846
-2.236498945384787   -0.03369477996694609   0.060759292355124846
-2.236498945384787   -0.03369477996694609   0.060759292355124846
-2.236498945384787   -0.03369477996694609   0.060759292355124846
-1.5335969688359683   0.02180128228840278   -0.025705677904633392
-1.5335969688359683   0.02180128228840278   -0.025705677904633392
-1.5335969688359683   0.02180128228840278   -0.025705677904633392
-1.5335969688359683   0.02180128228840278   -0.025705677904633392
-1.8104094332658753   0.014343891456207847   0.025715188882669854
-1.8104094332658753   0.014343891456207847   0.025715188882669854
-1.8104094332658753   0.014343891456207847   0.025715188882669854
-1.8104094332658753   0.014343891456207847   0.025715188882669854
-1.4948280204166837   0.11706301320974094   0.07287733327043255
-1.4948280204166837   0.11706301320974094   0.07287733327043255
-1.4948280204166837   0.11706301320974094   0.07287733327043255
-1.4948280204166837   0.11706301320974094   0.07287733327043255
-2.274246033494953   -0.1279346505791608   -0.03373627758346687
-2.274246033494953   -0.1279346505791608   -0.03373627758346687
-2.274246033494953   -0.1279346505791608   -0.03373627758346687
-2.274246033494953   -0.1279346505791608   -0.03373627758346687
-2.3074073137390596   -0.07909140937442083   0.05971160644070773
-2.3074073137390596   -0.07909140937442083   0.05971160644070773
-2.3074073137390596   -0.07909140937442083   0.05971160644070773
-2.3074073137390596   -0.07909140937442083   0.05971160644070773
-1.5743343926031874   -0.016531697810251322   -0.023289995270967395
-1.5743343926031874   -0.016531697810251322   -0.023289995270967395
-1.5743343926031874   -0.016531697810251322   -0.023289995270967395
-1.5743343926031874   -0.016531697810251322   -0.023289995270967395
-1.8299383791909283   -0.003393287731075667   0.020101312416616057
-1.8299383791909283   -0.003393287731075667   0.020101312416616057
-1.8299383791909283   -0.003393287731075667   0.020101312416616057
-1.8299383791909283   -0.003393287731075667   0.020101312416616057
1.0041480954565076   0.056706907834936315   -0.06821925677179408
1.0041480954565076   0.056706907834936315   -0.06821925677179408
1.0041480954565076   0.056706907834936315   -0.06821925677179408
1.0041480954565076   0.056706907834936315   -0.06821925677179408
0.42893304310950836   0.02774520926058803   0.029343436894259077
0.42893304310950836   0.02774520926058803   0.029343436894259077
0.42893304310950836   0.02774520926058803   0.029343436894259077
0.42893304310950836   0.02774520926058803   0.029343436894259077
0.3585687052493794   -0.09944551685747485   -0.06358161056693754
0.3585687052493794   -0.09944551685747485   -0.06358161056693754
0.3585687052493794   -0.09944551685747485   -0.06358161056693754
0.3585687052493794   -0.09944551685747485   -0.06358161056693754
0.980398843306754   0.11431294916298294   0.035644028195195465
0.980398843306754   0.11431294916298294   0.035644028195195465
0.980398843306754   0.11431294916298294   0.035644028195195465
0.980398843306754   0.11431294916298294   0.035644028195195465
0.6563029701572125   0.014572144772853651   -0.017938022377746034
0.6563029701572125   0.014572144772853651   -0.017938022377746034
0.6563029701572125   0.014572144772853651   -0.017938022377746034
0.6563029701572125   0.014572144772853651   -0.017938022377746034
0.9410966714925495   0.017054685134981346   -0.06360856684783261
0.9410966714925495   0.017054685134981346   -0.06360856684783261
0.9410966714925495   0.017054685134981346   -0.06360856684783261
0.9410966714925495   0.017054685134981346   -0.06360856684783261
0.39713303966604235   -0.0029250902270138435   0.03271963488592311
0.39713303966604235   -0.0029250902270138435   0.03271963488592311
0.39713303966604235   -0.0029250902270138435   0.03271963488592311
0.39713303966604235   -0.0029250902270138435   0.03271963488592311
0.32857845841283756   -0.11102833423567297   -0.054094859001903355
0.32857845841283756   -0.11102833423567297   -0.054094859001903355
0.32857845841283756   -0.11102833423567297   -0.054094859001903355
0.32857845841283756   -0.11102833423567297   -0.054094859001903355
0.931068930540408   0.09788178113336388   0.045899992337561826
0.931068930540408   0.09788178113336388   0.045899992337561826
0.931068930540408   0.09788178113336388   0.045899992337561826
0.931068930540408   0.09788178113336388   0.045899992337561826
0.6252129580946721   -0.004510980920410135   -0.029300757244482376
0.6252129580946721   -0.004510980920410135   -0.029300757244482376
0.6252129580946721   -0.004510980920410135   -0.029300757244482376
0.6252129580946721   -0.004510980920410135   -0.029300757244482376
0.8924207639968917   0.0022227390268173552   -0.051681798273480004
0.8924207639968917   0.0022227390268173552   -0.051681798273480004
0.8924207639968917   0.0022227390268173552   -0.051681798273480004
0.8924207639968917   0.0022227390268173552   -0.051681798273480004
0.36614191246363365   -0.01645400462185169   0.03914808163825835
0.36614191246363365   -0.01645400462185169   0.03914808163825835
0.36614191246363365   -0.01645400462185169   0.03914808163825835
0.36614191246363365   -0.01645400462185169   0.03914808163825835
0.3017590648491887   -0.12163486189759312   -0.04507795655256038
0.3017590648491887   -0.12163486189759312   -0.04507795655256038
0.3017590648491887   -0.12163486189759312   -0.04507795655256038
0.3017590648491887   -0.12163486189759312   -0.04507795655256038
0.8735030015218144   0.07622135490112247   0.05235781435891002
0.8735030015218144   0.07622135490112247   0.05235781435891002
0.8735030015218144   0.07622135490112247   0.05235781435891002
0.8735030015218144   0.07622135490112247   0.05235781435891002
0.5728643579632928   -0.020201873507090698   -0.04486113827498978
0.5728643579632928   -0.020201873507090698   -0.04486113827498978
0.5728643579632928   -0.020201873507090698   -0.04486113827498978
0.5728643579632928   -0.020201873507090698   -0.04486113827498978
0.43169321285527923   0.08329758379829669   -0.012408088914603061
0.43169321285527923   0.08329758379829669   -0.012408088914603061
0.43169321285527923   0.08329758379829669   -0.012408088914603061
0.43169321285527923   0.08329758379829669   -0.012408088914603061
-0.13297219983788472   0.007409853455851507   0.004048796120697748
-0.13297219983788472   0.007409853455851507   0.004048796120697748
-0.13297219983788472   0.007409853455851507   0.004048796120697748
-0.13297219983788472   0.007409853455851507   0.004048796120697748
-0.18107496488213898   -0.06894333926082012   -0.0391229453032636
-0.18107496488213898   -0.06894333926082012   -0.0391229453032636
-0.18107496488213898   -0.06894333926082012   -0.0391229453032636
-0.18107496488213898   -0.06894333926082012   -0.0391229453032636
0.419604908406715   0.10018760021724163   0.04196628814503102
0.419604908406715   0.10018760021724163   0.04196628814503102
0.419604908406715   0.10018760021724163   0.04196628814503102
0.419604908406715   0.10018760021724163   0.04196628814503102
0.1313627212614415   0.029010565752250816   0.005026975287035053
0.1313627212614415   0.029010565752250816   0.005026975287035053
0.1313627212614415   0.029010565752250816   0.005026975287035053
0.1313627212614415   0.029010565752250816   0.005026975287035053
0.4006077449655488   0.053876171667219724   -0.006708100510782869
0.4006077449655488   0.053876171667219724   -0.006708100510782869
0.4006077449655488   0.053876171667219724   -0.006708100510782869
0.4006077449655488   0.053876171667219724   -0.006708100510782869
-0.1623553819116157   -0.022909491181436138   0.008441121469972829
-0.1623553819116157   -0.022909491181436138   0.008441121469972829
-0.1623553819116157   -0.022909491181436138   0.008441121469972829
-0.1623553819116157   -0.022909491181436138   0.008441121469972829
-0.20897272759229962   -0.09223457657188028   -0.03163407359474871
-0.20897272759229962   -0.09223457657188028   -0.03163407359474871
-0.20897272759229962   -0.09223457657188028   -0.03163407359474871
-0.20897272759229962   -0.09223457657188028   -0.03163407359474871
0.3853957213781657   0.07333827692943043   0.045624844659636475
0.3853957213781657   0.07333827692943043   0.045624844659636475
0.3853957213781657   0.07333827692943043   0.045624844659636475
0.3853957213781657   0.07333827692943043   0.045624844659636475
0.09698474640367351   0.0027072870109737107   -0.00760892027993466
0.09698474640367351   0.0027072870109737107   -0.00760892027993466
0.09698474640367351   0.0027072870109737107   -0.00760892027993466
0.09698474640367351   0.0027072870109737107   -0.00760892027993466
0.3669989929900183   0.028902065160999406   -0.0019225855126759357
0.3669989929900183   0.028902065160999406   -0.0019225855126759357
0.3669989929900183   0.028902065160999406   -0.0019225855126759357
0.3669989929900183   0.028902065160999406   -0.0019225855126759357
-0.1912821488177663   -0.048504514417062494   0.013088758123103835
-0.1912821488177663   -0.048504514417062494   0.013088758123103835
-0.1912821488177663   -0.048504514417062494   0.013088758123103835
-0.1912821488177663   -0.048504514417062494   0.013088758123103835
-0.23650318966755882   -0.11417217118975591   -0.024713599541183424
-0.23650318966755882   -0.11417217118975591   -0.024713599541183424
-0.23650318966755882   -0.11417217118975591   -0.024713599541183424
-0.23650318966755882   -0.11417217118975591   -0.024713599541183424
0.35452462131823687   0.047499616301288065   0.049615347593806806
0.35452462131823687   0.047499616301288065   0.049615347593806806
0.35452462131823687   0.047499616301288065   0.049615347593806806
0.35452462131823687   0.047499616301288065   0.049615347593806806
0.06934432221662147   -0.019169596640047293   -0.018783451152056665
0.06934432221662147   -0.019169596640047293   -0.018783451152056665
0.06934432221662147   -0.019169596640047293   -0.018783451152056665
0.06934432221662147   -0.019169596640047293   -0.018783451152056665
-0.11214667409734332   0.10594574797782774   0.00964053030142473
-0.11214667409734332   0.10594574797782774   0.00964053030142473
-0.11214667409734332   0.10594574797782774   0.00964053030142473
-0.11214667409734332   0.10594574797782774   0.00964053030142473
-0.6865810520682533   -0.0171192270005823   -0.02085288011182381
-0.6865810520682533   -0.0171192270005823   -0.02085288011182381
-0.6865810520682533   -0.0171192270005823   -0.02085288011182381
-0.6865810520682533   -0.0171192270005823   -0.02085288011182381
-0.7140910655720977   -0.04085253976616486   -0.015339029525287252
-0.7140910655720977   -0.04085253976616486   -0.015339029525287252
-0.7140910655720977   -0.04085253976616486   -0.015339029525287252
-0.7140910655720977   -0.04085253976616486   -0.015339029525287252
-0.1409303359140294   0.07640138505180408   0.016255475224659234
-0.1409303359140294   0.07640138505180408   0.016255475224659234
-0.1409303359140294   0.07640138505180408   0.016255475224659234
-0.1409303359140294   0.07640138505180408   0.016255475224659234
-0.4124332815941436   0.030619666439214502   0.008137089199625785
-0.4124332815941436   0.030619666439214502   0.008137089199625785
-0.4124332815941436   0.030619666439214502   0.008137089199625785
-0.4124332815941436   0.030619666439214502   0.008137089199625785
-0.14005721260719525   0.08035544341165533   0.016667033398979597
-0.14005721260719525   0.08035544341165533   0.016667033398979597
-0.14005721260719525   0.08035544341165533   0.016667033398979597
-0.14005721260719525   0.08035544341165533   0.016667033398979597
-0.7150389827822675   -0.04488139202936188   -0.01604976331293238
-0.7150389827822675   -0.04488139202936188   -0.01604976331293238
-0.7150389827822675   -0.04488139202936188   -0.01604976331293238
-0.7150389827822675   -0.04488139202936188   -0.01604976331293238
-0.7422745103842736   -0.06622905357469808   -0.008664689445688552
-0.7422745103842736   -0.06622905357469808   -0.008664689445688552
-0.7422745103842736   -0.06622905357469808   -0.008664689445688552
-0.7422745103842736   -0.06622905357469808   -0.008664689445688552
-0.17020367905917141   0.04876936018521911   0.021207232313792554
-0.17020367905917141   0.04876936018521911   0.021207232313792554
-0.17020367905917141   0.04876936018521911   0.021207232313792554
-0.17020367905917141   0.04876936018521911   0.021207232313792554
-0.4414106426281702   0.005924579483326434   -0.002732029424351641
-0.4414106426281702   0.005924579483326434   -0.002732029424351641
-0.4414106426281702   0.005924579483326434   -0.002732029424351641
-0.4414106426281702   0.005924579483326434   -0.002732029424351641
-0.1687265920039793   0.05473822795457748   0.02262379982039896
-0.1687265920039793   0.05473822795457748   0.02262379982039896
-0.1687265920039793   0.05473822795457748   0.02262379982039896
-0.1687265920039793   0.05473822795457748   0.02262379982039896
-0.744196530383409   -0.07264285428799852   -0.011860988728057895
-0.744196530383409   -0.07264285428799852   -0.011860988728057895
-0.744196530383409   -0.07264285428799852   -0.011860988728057895
-0.744196530383409   -0.07264285428799852   -0.011860988728057895
-0.7699877620289354   -0.09047440649732846   -0.0021788692403690475
-0.7699877620289354   -0.09047440649732846   -0.0021788692403690475
-0.7699877620289354   -0.09047440649732846   -0.0021788692403690475
-0.7699877620289354   -0.09047440649732846   -0.0021788692403690475
-0.19922549165135736   0.021918105758554268   0.0255846135915088
-0.19922549165135736   0.021918105758554268   0.0255846135915088
-0.19922549165135736   0.021918105758554268   0.0255846135915088
-0.19922549165135736   0.021918105758554268   0.0255846135915088
-0.4715776471647177   -0.018799673643135173   -0.014511160256046391
-0.4715776471647177   -0.018799673643135173   -0.014511160256046391
-0.4715776471647177   -0.018799673643135173   -0.014511160256046391
-0.4715776471647177   -0.018799673643135173   -0.014511160256046391
-0.6476832853755119   0.12533640990336536   0.031180316447935598
-0.6476832853755119   0.12533640990336536   0.031180316447935598
-0.6476832853755119   0.12533640990336536   0.031180316447935598
-0.6476832853755119   0.12533640990336536   0.031180316447935598
-1.2302202010492223   -0.04149732967960296   -0.04250172706572641
-1.2302202010492223   -0.04149732967960296   -0.04250172706572641
-1.2302202010492223   -0.04149732967960296   -0.04250172706572641
-1.2302202010492223   -0.04149732967960296   -0.04250172706572641
-1.2405708460977307   -0.017969150398776335   0.010177480639715054
-1.2405708460977307   -0.017969150398776335   0.010177480639715054
-1.2405708460977307   -0.017969150398776335   0.010177480639715054
-1.2405708460977307   -0.017969150398776335   0.010177480639715054
-0.6947198987174669   0.049767557519373534   -0.009103292537675244
-0.6947198987174669   0.049767557519373534   -0.009103292537675244
-0.6947198987174669   0.049767557519373534   -0.009103292537675244
-0.6947198987174669   0.049767557519373534   -0.009103292537675244
-0.9476597626979649   0.02919656135186699   0.01182764294029056
-0.9476597626979649   0.02919656135186699   0.01182764294029056
-0.9476597626979649   0.02919656135186699   0.01182764294029056
-0.9476597626979649   0.02919656135186699   0.01182764294029056
-0.675073739115638   0.10072815622322948   0.03816690676762434
-0.675073739115638   0.10072815622322948   0.03816690676762434
-0.675073739115638   0.10072815622322948   0.03816690676762434
-0.675073739115638   0.10072815622322948   0.03816690676762434
-1.2610695986286258   -0.06978234203169337   -0.04050309038185104
-1.2610695986286258   -0.06978234203169337   -0.04050309038185104
-1.2610695986286258   -0.06978234203169337   -0.04050309038185104
-1.2610695986286258   -0.06978234203169337   -0.04050309038185104
-1.2737875127077634   -0.04310063103092726   0.013275830657141614
-1.2737875127077634   -0.04310063103092726   0.013275830657141614
-1.2737875127077634   -0.04310063103092726   0.013275830657141614
-1.2737875127077634   -0.04310063103092726   0.013275830657141614
-0.7232034292663683   0.024306697310842562   -0.003845034741711842
-0.7232034292663683   0.024306697310842562   -0.003845034741711842
-0.7232034292663683   0.024306697310842562   -0.003845034741711842
-0.7232034292663683   0.024306697310842562   -0.003845034741711842
-0.9720852238602106   0.006786633298925537   0.0009258978249324645
-0.9720852238602106   0.006786633298925537   0.0009258978249324645
-0.9720852238602106   0.006786633298925537   0.0009258978249324645
-0.9720852238602106   0.006786633298925537   0.0009258978249324645
-0.7028521603546418   0.07739572894485344   0.04482227818292649
-0.7028521603546418   0.07739572894485344   0.04482227818292649
-0.7028521603546418   0.07739572894485344   0.04482227818292649
-0.7028521603546418   0.07739572894485344   0.04482227818292649
-1.2942100978476139   -0.09626097889307136   -0.03567674717997469
-1.2942100978476139   -0.09626097889307136   -0.03567674717997469
-1.2942100978476139   -0.09626097889307136   -0.03567674717997469
-1.2942100978476139   -0.09626097889307136   -0.03567674717997469
-1.3033747403908729   -0.0698599955430233   0.02023627562494116
-1.3033747403908729   -0.0698599955430233   0.02023627562494116
-1.3033747403908729   -0.0698599955430233   0.02023627562494116
-1.3033747403908729   -0.0698599955430233   0.02023627562494116
-0.7521826743746515   -0.00391515899798367   0.00028732153169671454
-0.7521826743746515   -0.00391515899798367   0.00028732153169671454
-0.7521826743746515   -0.00391515899798367   0.00028732153169671454
-0.7521826743746515   -0.00391515899798367   0.00028732153169671454
-1.008663169394157   -0.019188124623725294   -0.011713012077000325
-1.008663169394157   -0.019188124623725294   -0.011713012077000325
-1.008663169394157   -0.019188124623725294   -0.011713012077000325
-1.008663169394157   -0.019188124623725294   -0.011713012077000325
-1.180384115843537   0.11614392709399035   0.049037442189106516
-1.180384115843537   0.11614392709399035   0.049037442189106516
-1.180384115843537   0.11614392709399035   0.049037442189106516
-1.180384115843537   0.11614392709399035   0.049037442189106516
-1.7411536531525007   -0.0800936177388723   -0.05532219457613766
-1.7411536531525007   -0.0800936177388723   -0.05532219457613766
-1.7411536531525007   -0.0800936177388723   -0.05532219457613766
-1.7411536531525007   -0.0800936177388723   -0.05532219457613766
-1.7580767773710309   -0.0012651360641182663   0.04861306426553971
-1.7580767773710309   -0.0012651360641182663   0.04861306426553971
-1.7580767773710309   -0.0012651360641182663   0.04861306426553971
-1.7580767773710309   -0.0012651360641182663   0.04861306426553971
-1.242298429531124   0.016823599916783394   -0.033253186842829505
-1.242298429531124   0.016823599916783394   -0.033253186842829505
-1.242298429531124   0.016823599916783394   -0.033253186842829505
-1.242298429531124   0.016823599916783394   -0.033253186842829505
-1.4153644511477617   0.027039391059872964   0.03576996397958114
-1.4153644511477617   0.027039391059872964   0.03576996397958114
-1.4153644511477617   0.027039391059872964   0.03576996397958114
-1.4153644511477617   0.027039391059872964   0.03576996397958114
-1.205213606283835   0.11115315930192021   0.05784137000849673
-1.205213606283835   0.11115315930192021   0.05784137000849673
-1.205213606283835   0.11115315930192021   0.05784137000849673
-1.205213606283835   0.11115315930192021   0.05784137000849673
-1.79588766502083   -0.09632075985176053   -0.045385750195843275
-1.79588766502083   -0.09632075985176053   -0.045385750195843275
-1.79588766502083   -0.09632075985176053   -0.045385750195843275
-1.79588766502083   -0.09632075985176053   -0.045385750195843275
-1.8049871564985072   -0.015080999786897198   0.061273099381405516
-1.8049871564985072   -0.015080999786897198   0.061273099381405516
-1.8049871564985072   -0.015080999786897198   0.061273099381405516
-1.8049871564985072   -0.015080999786897198   0.061273099381405516
-1.272919347397673   0.002860498254967314   -0.02834447207832831
-1.272919347397673   0.002860498254967314   -0.02834447207832831
-1.272919347397673   0.002860498254967314   -0.02834447207832831
-1.272919347397673   0.002860498254967314   -0.02834447207832831
-1.4785202610308017   0.01114867880404502   0.018653743627280464
-1.4785202610308017   0.01114867880404502   0.018653743627280464
-1.4785202610308017   0.01114867880404502   0.018653743627280464
-1.4785202610308017   0.01114867880404502   0.018653743627280464
-1.2340958822454944   0.10047442131244155   0.06815893062510942
-1.2340958822454944   0.10047442131244155   0.06815893062510942
-1.2340958822454944   0.10047442131244155   0.06815893062510942
-1.2340958822454944   0.10047442131244155   0.06815893062510942
-1.8443359199023708   -0.11322022109605978   -0.03733149632876566
-1.8443359199023708   -0.11322022109605978   -0.03733149632876566
-1.8443359199023708   -0.11322022109605978   -0.03733149632876566
-1.8443359199023708   -0.11322022109605978   -0.03733149632876566
-1.867744103527992   -0.05825565962069501   0.06149990660161872
-1.867744103527992   -0.05825565962069501   0.06149990660161872
-1.867744103527992   -0.05825565962069501   0.06149990660161872
-1.867744103527992   -0.05825565962069501   0.06149990660161872
-1.3049500799217546   -0.032439891463608816   -0.025060526108910422
-1.3049500799217546   -0.032439891463608816   -0.025060526108910422
-1.3049500799217546   -0.032439891463608816   -0.025060526108910422
-1.3049500799217546   -0.032439891463608816   -0.025060526108910422
-1.496540981141515   -0.00695441899097532   0.01048344319310461
-1.496540981141515   -0.00695441899097532   0.01048344319310461
-1.496540981141515   -0.00695441899097532   0.01048344319310461
-1.496540981141515   -0.00695441899097532   0.01048344319310461
0.5503542989531508   0.03282841557170234   -0.06666178739378129
0.5503542989531508   0.03282841557170234   -0.06666178739378129
0.5503542989531508   0.03282841557170234   -0.06666178739378129
0.5503542989531508   0.03282841557170234   -0.06666178739378129
0.1593941367556737   0.04015836362151062   0.03193806749303503
0.1593941367556737   0.04015836362151062   0.03193806749303503
0.1593941367556737   0.04015836362151062   0.03193806749303503
0.1593941367556737   0.04015836362151062   0.03193806749303503
0.09731024946579259   -0.08118709164745473   -0.05876758201609292
0.09731024946579259   -0.08118709164745473   -0.05876758201609292
0.09731024946579259   -0.08118709164745473   -0.05876758201609292
0.09731024946579259   -0.08118709164745473   -0.05876758201609292
0.5350413130060693   0.09421484709450806   0.03842999020494785
0.5350413130060693   0.09421484709450806   0.03842999020494785
0.5350413130060693   0.09421484709450806   0.03842999020494785
0.5350413130060693   0.09421484709450806   0.03842999020494785
0.31590004586257164   0.015698887707153907   -0.007327876291276196
0.31590004586257164   0.015698887707153907   -0.007327876291276196
0.31590004586257164   0.015698887707153907   -0.007327876291276196
0.31590004586257164   0.015698887707153907   -0.007327876291276196
0.49590655751392243   -0.0019334180557290248   -0.06109552210555408
0.49590655751392243   -0.0019334180557290248   -0.06109552210555408
0.49590655751392243   -0.0019334180557290248   -0.06109552210555408
0.49590655751392243   -0.0019334180557290248   -0.06109552210555408
0.13522333637785866   0.013739504922694226   0.035871255974089356
0.13522333637785866   0.013739504922694226   0.035871255974089356
0.13522333637785866   0.013739504922694226   0.035871255974089356
0.13522333637785866   0.013739504922694226   0.035871255974089356
0.0738656523370286   -0.09271733112677868   -0.049892290759832966
0.0738656523370286   -0.09271733112677868   -0.049892290759832966
0.0738656523370286   -0.09271733112677868   -0.049892290759832966
0.0738656523370286   -0.09271733112677868   -0.049892290759832966
0.49290111244485113   0.07830139910225795   0.04934057013587567
0.49290111244485113   0.07830139910225795   0.04934057013587567
0.49290111244485113   0.07830139910225795   0.04934057013587567
0.49290111244485113   0.07830139910225795   0.04934057013587567
0.2864173385946241   -0.0022997301123368133   -0.01902314475290677
0.2864173385946241   -0.0022997301123368133   -0.01902314475290677
0.2864173385946241   -0.0022997301123368133   -0.01902314475290677
0.2864173385946241   -0.0022997301123368133   -0.01902314475290677
0.4539977261169432   -0.01673954224926738   -0.05013542015214239
0.4539977261169432   -0.01673954224926738   -0.05013542015214239
0.4539977261169432   -0.01673954224926738   -0.05013542015214239
0.4539977261169432   -0.01673954224926738   -0.05013542015214239
0.11113530981141768   0.0006898813712192114   0.04304878411411543
0.11113530981141768   0.0006898813712192114   0.04304878411411543
0.11113530981141768   0.0006898813712192114   0.04304878411411543
0.11113530981141768   0.0006898813712192114   0.04304878411411543
0.05289707043689002   -0.10668063682936299   -0.041546213208592905
0.05289707043689002   -0.10668063682936299   -0.041546213208592905
0.05289707043689002   -0.10668063682936299   -0.041546213208592905
0.05289707043689002   -0.10668063682936299   -0.041546213208592905
0.44073505793658607   0.052806679170534054   0.0547571594142508
0.44073505793658607   0.052806679170534054   0.0547571594142508
0.44073505793658607   0.052806679170534054   0.0547571594142508
0.44073505793658607   0.052806679170534054   0.0547571594142508
0.24580974838187478   -0.018352388965593214   -0.033295906502438126
0.24580974838187478   -0.018352388965593214   -0.033295906502438126
0.24580974838187478   -0.018352388965593214   -0.033295906502438126
0.24580974838187478   -0.018352388965593214   -0.033295906502438126
0.15308381187516124   0.05993354826392493   -0.01938874155194308
0.15308381187516124   0.05993354826392493   -0.01938874155194308
0.15308381187516124   0.05993354826392493   -0.01938874155194308
0.15308381187516124   0.05993354826392493   -0.01938874155194308
-0.2251734514772379   0.019469558341550237   0.007797324851297516
-0.2251734514772379   0.019469558341550237   0.007797324851297516
-0.2251734514772379   0.019469558341550237   0.007797324851297516
-0.2251734514772379   0.019469558341550237   0.007797324851297516
-0.2651588400560537   -0.052013028778270354   -0.03427310836976018
-0.2651588400560537   -0.052013028778270354   -0.03427310836976018
-0.2651588400560537   -0.052013028778270354   -0.03427310836976018
-0.2651588400560537   -0.052013028778270354   -0.03427310836976018
0.147463388067194   0.07440897859368631   0.03640204074977422
0.147463388067194   0.07440897859368631   0.03640204074977422
0.147463388067194   0.07440897859368631   0.03640204074977422
0.147463388067194   0.07440897859368631   0.03640204074977422
-0.048758336278414076   0.024378986200152566   0.006145674826730493
-0.048758336278414076   0.024378986200152566   0.006145674826730493
-0.048758336278414076   0.024378986200152566   0.006145674826730493
-0.048758336278414076   0.024378986200152566   0.006145674826730493
0.12859892852750532   0.030742409117832235   -0.014253687472815246
0.12859892852750532   0.030742409117832235   -0.014253687472815246
0.12859892852750532   0.030742409117832235   -0.014253687472815246
0.12859892852750532   0.030742409117832235   -0.014253687472815246
-0.24733379168251385   -0.009385870468563616   0.012224975188232484
-0.24733379168251385   -0.009385870468563616   0.012224975188232484
-0.24733379168251385   -0.009385870468563616   0.012224975188232484
-0.24733379168251385   -0.009385870468563616   0.012224975188232484
-0.28613376990859535   -0.07545741858174612   -0.026824141609485257
-0.28613376990859535   -0.07545741858174612   -0.026824141609485257
-0.28613376990859535   -0.07545741858174612   -0.026824141609485257
-0.28613376990859535   -0.07545741858174612   -0.026824141609485257
0.11994282731810618   0.048090833200980926   0.03968541981779623
0.11994282731810618   0.048090833200980926   0.03968541981779623
0.11994282731810618   0.048090833200980926   0.03968541981779623
0.11994282731810618   0.048090833200980926   0.03968541981779623
-0.07466333794387835   -0.0008881960450535069   -0.00595970205447233
-0.07466333794387835   -0.0008881960450535069   -0.00595970205447233
-0.07466333794387835   -0.0008881960450535069   -0.00595970205447233
-0.07466333794387835   -0.0008881960450535069   -0.00595970205447233
0.10163749184699103   0.00559298101991737   -0.00934340535671688
0.10163749184699103   0.00559298101991737   -0.00934340535671688
0.10163749184699103   0.00559298101991737   -0.00934340535671688
0.10163749184699103   0.00559298101991737   -0.00934340535671688
-0.2691734683569925   -0.034304600320206435   0.016824547886988825
-0.2691734683569925   -0.034304600320206435   0.016824547886988825
-0.2691734683569925   -0.034304600320206435   0.016824547886988825
-0.2691734683569925   -0.034304600320206435   0.016824547886988825
-0.3069497877503228   -0.09873657123665025   -0.020091181027325204
-0.3069497877503228   -0.09873657123665025   -0.020091181027325204
-0.3069497877503228   -0.09873657123665025   -0.020091181027325204
-0.3069497877503228   -0.09873657123665025   -0.020091181027325204
0.09584750922865039   0.022226746831273556   0.044298597089572914
0.09584750922865039   0.022226746831273556   0.044298597089572914
0.09584750922865039   0.022226746831273556   0.044298597089572914
0.09584750922865039   0.022226746831273556   0.044298597089572914
-0.0971027089418751   -0.023540813813211946   -0.01739916086281908
-0.0971027089418751   -0.023540813813211946   -0.01739916086281908
-0.0971027089418751   -0.023540813813211946   -0.01739916086281908
-0.0971027089418751   -0.023540813813211946   -0.01739916086281908
-0.2136051354529698   0.0822235208397317   0.0028849424744566837
-0.2136051354529698   0.0822235208397317   0.0028849424744566837
-0.2136051354529698   0.0822235208397317   0.0028849424744566837
-0.2136051354529698   0.0822235208397317   0.0028849424744566837
-0.6046833238322783   -0.007084827876844169   -0.01658842374023599
-0.6046833238322783   -0.007084827876844169   -0.01658842374023599
-0.6046833238322783   -0.007084827876844169   -0.01658842374023599
-0.6046833238322783   -0.007084827876844169   -0.01658842374023599
-0.6235672423259419   -0.025356610237665875   -0.009897594810778006
-0.6235672423259419   -0.025356610237665875   -0.009897594810778006
-0.6235672423259419   -0.025356610237665875   -0.009897594810778006
-0.6235672423259419   -0.025356610237665875   -0.009897594810778006
-0.23579271596636164   0.04897076917938734   0.011573714121040036
-0.23579271596636164   0.04897076917938734   0.011573714121040036
-0.23579271596636164   0.04897076917938734   0.011573714121040036
-0.23579271596636164   0.04897076917938734   0.011573714121040036
-0.41842093492829924   0.024175389093376867   0.006380326917102122
-0.41842093492829924   0.024175389093376867   0.006380326917102122
-0.41842093492829924   0.024175389093376867   0.006380326917102122
-0.41842093492829924   0.024175389093376867   0.006380326917102122
-0.23465999922986858   0.05637164228357168   0.009836424699323637
-0.23465999922986858   0.05637164228357168   0.009836424699323637
-0.23465999922986858   0.05637164228357168   0.009836424699323637
-0.23465999922986858   0.05637164228357168   0.009836424699323637
-0.6256094273015569   -0.033666951580969495   -0.01179817834554902
-0.6256094273015569   -0.033666951580969495   -0.01179817834554902
-0.6256094273015569   -0.033666951580969495   -0.01179817834554902
-0.6256094273015569   -0.033666951580969495   -0.01179817834554902
-0.6444493400431095   -0.050950343485596516   -0.003145625056347554
-0.6444493400431095   -0.050950343485596516   -0.003145625056347554
-0.6444493400431095   -0.050950343485596516   -0.003145625056347554
-0.6444493400431095   -0.050950343485596516   -0.003145625056347554
-0.25793399119582383   0.022279353327782726   0.016437980044839578
-0.25793399119582383   0.022279353327782726   0.016437980044839578
-0.25793399119582383   0.022279353327782726   0.016437980044839578
-0.25793399119582383   0.022279353327782726   0.016437980044839578
-0.4402098323973885   -0.0001281677836141304   -0.004475206782533558
-0.4402098323973885   -0.0001281677836141304   -0.004475206782533558
-0.4402098323973885   -0.0001281677836141304   -0.004475206782533558
-0.4402098323973885   -0.0001281677836141304   -0.004475206782533558
-0.2564153031047283   0.030456453065816437   0.015854320762287037
-0.2564153031047283   0.030456453065816437   0.015854320762287037
-0.2564153031047283   0.030456453065816437   0.015854320762287037
-0.2564153031047283   0.030456453065816437   0.015854320762287037
-0.6472612403596074   -0.06042065544902393   -0.007734814675410144
-0.6472612403596074   -0.06042065544902393   -0.007734814675410144
-0.6472612403596074   -0.06042065544902393   -0.007734814675410144
-0.6472612403596074   -0.06042065544902393   -0.007734814675410144
-0.6649335838610595   -0.075662917827993   0.0033875878684133387
-0.6649335838610595   -0.075662917827993   0.0033875878684133387
-0.6649335838610595   -0.075662917827993   0.0033875878684133387
-0.6649335838610595   -0.075662917827993   0.0033875878684133387
-0.27969255030124374   -0.0034360138173016516   0.020894448798719316
-0.27969255030124374   -0.0034360138173016516   0.020894448798719316
-0.27969255030124374   -0.0034360138173016516   0.020894448798719316
-0.27969255030124374   -0.0034360138173016516   0.020894448798719316
-0.46313288393258556   -0.024491338420940423   -0.016260233222766117
-0.46313288393258556   -0.024491338420940423   -0.016260233222766117
-0.46313288393258556   -0.024491338420940423   -0.016260233222766117
-0.46313288393258556   -0.024491338420940423   -0.016260233222766117
-0.5741279062194763   0.10336853499073473   0.025735301456195098
-0.5741279062194763   0.10336853499073473   0.025735301456195098
-0.5741279062194763   0.10336853499073473   0.025735301456195098
-0.5741279062194763   0.10336853499073473   0.025735301456195098
-0.9757795755731478   -0.02884379944318846   -0.03790140668279561
-0.9757795755731478   -0.02884379944318846   -0.03790140668279561
-0.9757795755731478   -0.02884379944318846   -0.03790140668279561
-0.9757795755731478   -0.02884379944318846   -0.03790140668279561
-0.9776526195476973   -0.0018084136510807813   0.015949572440283638
-0.9776526195476973   -0.0018084136510807813   0.015949572440283638
-0.9776526195476973   -0.0018084136510807813   0.015949572440283638
-0.9776526195476973   -0.0018084136510807813   0.015949572440283638
-0.6138809823451792   0.025156737269009882   -0.011979642413645415
-0.6138809823451792   0.025156737269009882   -0.011979642413645415
-0.6138809823451792   0.025156737269009882   -0.011979642413645415
-0.6138809823451792   0.025156737269009882   -0.011979642413645415
-0.7813741536976198   0.024426950986243978   0.008416256808726867
-0.7813741536976198   0.024426950986243978   0.008416256808726867
-0.7813741536976198   0.024426950986243978   0.008416256808726867
-0.7813741536976198   0.024426950986243978   0.008416256808726867
-0.5943330827347817   0.07820741483743371   0.03270917806992372
-0.5943330827347817   0.07820741483743371   0.03270917806992372
-0.5943330827347817   0.07820741483743371   0.03270917806992372
-0.5943330827347817   0.07820741483743371   0.03270917806992372
-0.9989481838770731   -0.05660675593848033   -0.03572990691920258
-0.9989481838770731   -0.05660675593848033   -0.03572990691920258
-0.9989481838770731   -0.05660675593848033   -0.03572990691920258
-0.9989481838770731   -0.05660675593848033   -0.03572990691920258
-1.0033571288317022   -0.027037355476153435   0.019588400888642183
-1.0033571288317022   -0.027037355476153435   0.019588400888642183
-1.0033571288317022   -0.027037355476153435   0.019588400888642183
-1.0033571288317022   -0.027037355476153435   0.019588400888642183
-0.6348728430672231   0.0005866562666379527   -0.006800139929160703
-0.6348728430672231   0.0005866562666379527   -0.006800139929160703
-0.6348728430672231   0.0005866562666379527   -0.006800139929160703
-0.6348728430672231   0.0005866562666379527   -0.006800139929160703
-0.7999049986840575   0.0017695159545369488   -0.0029671956890651024
-0.7999049986840575   0.0017695159545369488   -0.0029671956890651024
-0.7999049986840575   0.0017695159545369488   -0.0029671956890651024
-0.7999049986840575   0.0017695159545369488   -0.0029671956890651024
-0.6148048075056107   0.05465063953370658   0.03947605461184252
-0.6148048075056107   0.05465063953370658   0.03947605461184252
-0.6148048075056107   0.05465063953370658   0.03947605461184252
-0.6148048075056107   0.05465063953370658   0.03947605461184252
-1.024514279390323   -0.08219045374022876   -0.031044253640394523
-1.024514279390323   -0.08219045374022876   -0.031044253640394523
-1.024514279390323   -0.08219045374022876   -0.031044253640394523
-1.024514279390323   -0.08219045374022876   -0.031044253640394523
-1.0255685000605808   -0.053321911260728716   0.026639385903900865
-1.0255685000605808   -0.053321911260728716   0.026639385903900865
-1.0255685000605808   -0.053321911260728716   0.026639385903900865
-1.0255685000605808   -0.053321911260728716   0.026639385903900865
-0.656125626043786   -0.025676650125650055   -0.002558890747571218
-0.656125626043786   -0.025676650125650055   -0.002558890747571218
-0.656125626043786   -0.025676650125650055   -0.002558890747571218
-0.656125626043786   -0.025676650125650055   -0.002558890747571218
-0.8274261249317976   -0.022894982284127396   -0.015364727580960816
-0.8274261249317976   -0.022894982284127396   -0.015364727580960816
-0.8274261249317976   -0.022894982284127396   -0.015364727580960816
-0.8274261249317976   -0.022894982284127396   -0.015364727580960816
-0.9329663351402588   0.10172706998874104   0.045593926049735466
-0.9329663351402588   0.10172706998874104   0.045593926049735466
-0.9329663351402588   0.10172706998874104   0.045593926049735466
-0.9329663351402588   0.10172706998874104   0.045593926049735466
-1.312424013805622   -0.06032729895928762   -0.05763382177992632
-1.312424013805622   -0.06032729895928762   -0.05763382177992632
-1.312424013805622   -0.06032729895928762   -0.05763382177992632
-1.312424013805622   -0.06032729895928762   -0.05763382177992632
-1.3220757277988366   0.017105417125292344   0.04793319746742784
-1.3220757277988366   0.017105417125292344   0.04793319746742784
-1.3220757277988366   0.017105417125292344   0.04793319746742784
-1.3220757277988366   0.017105417125292344   0.04793319746742784
-0.9881448220422869   -0.003095131329816425   -0.035224722353949155
-0.9881448220422869   -0.003095131329816425   -0.035224722353949155
-0.9881448220422869   -0.003095131329816425   -0.035224722353949155
-0.9881448220422869   -0.003095131329816425   -0.035224722353949155
-1.0899799185999857   0.024468591336332973   0.02634088201679708
-1.0899799185999857   0.024468591336332973   0.02634088201679708
-1.0899799185999857   0.024468591336332973   0.02634088201679708
-1.0899799185999857   0.024468591336332973   0.02634088201679708
-0.9512006067445423   0.09247837200305609   0.0539228508019156
-0.9512006067445423   0.09247837200305609   0.0539228508019156
-0.9512006067445423   0.09247837200305609   0.0539228508019156
-0.9512006067445423   0.09247837200305609   0.0539228508019156
-1.3608787864153569   -0.08032692952633963   -0.04864974896352575
-1.3608787864153569   -0.08032692952633963   -0.04864974896352575
-1.3608787864153569   -0.08032692952633963   -0.04864974896352575
-1.3608787864153569   -0.08032692952633963   -0.04864974896352575
-1.3620946684610966   0.0029393007033741703   0.06122486122712985
-1.3620946684610966   0.0029393007033741703   0.06122486122712985
-1.3620946684610966   0.0029393007033741703   0.06122486122712985
-1.3620946684610966   0.0029393007033741703   0.06122486122712985
-1.0112754348399915   -0.016805398920732628   -0.03023508570823681
-1.0112754348399915   -0.016805398920732628   -0.03023508570823681
-1.0112754348399915   -0.016805398920732628   -0.03023508570823681
-1.0112754348399915   -0.016805398920732628   -0.03023508570823681
-1.1410744396490522   0.007706482537663484   0.009423638073458675
-1.1410744396490522   0.007706482537663484   0.009423638073458675
-1.1410744396490522   0.007706482537663484   0.009423638073458675
-1.1410744396490522   0.007706482537663484   0.009423638073458675
-0.9727607281495724   0.08138977190406776   0.06414327691906171
-0.9727607281495724   0.08138977190406776   0.06414327691906171
-0.9727607281495724   0.08138977190406776   0.06414327691906171
-0.9727607281495724   0.08138977190406776   0.06414327691906171
-1.4023708259609886   -0.09701732093089394   -0.04019930463804641
-1.4023708259609886   -0.09701732093089394   -0.04019930463804641
-1.4023708259609886   -0.09701732093089394   -0.04019930463804641
-1.4023708259609886   -0.09701732093089394   -0.04019930463804641
-1.4174482353061442   -0.03728062537163157   0.06323395973536552
-1.4174482353061442   -0.03728062537163157   0.06323395973536552
-1.4174482353061442   -0.03728062537163157   0.06323395973536552
-1.4174482353061442   -0.03728062537163157   0.06323395973536552
-1.035140039271647   -0.04817408878630017   -0.02636613262587409
-1.035140039271647   -0.04817408878630017   -0.02636613262587409
-1.035140039271647   -0.04817408878630017   -0.02636613262587409
-1.035140039271647   -0.04817408878630017   -0.02636613262587409
-1.1578141807094717   -0.010103406136143939   -0.0006568993304319412
-1.1578141807094717   -0.010103406136143939   -0.0006568993304319412
-1.1578141807094717   -0.010103406136143939   -0.0006568993304319412
-1.1578141807094717   -0.010103406136143939   -0.0006568993304319412
0.09687377174999219   0.007976437113261054   -0.06645120004251716
0.09687377174999219   0.007976437113261054   -0.06645120004251716
0.09687377174999219   0.007976437113261054   -0.06645120004251716
0.09687377174999219   0.007976437113261054   -0.06645120004251716
-0.10956981183934529   0.04988077045380909   0.03401703484979049
-0.10956981183934529   0.04988077045380909   0.03401703484979049
-0.10956981183934529   0.04988077045380909   0.03401703484979049
-0.10956981183934529   0.04988077045380909   0.03401703484979049
-0.16372075173132158   -0.06392383383301348   -0.053501349695268895
-0.16372075173132158   -0.06392383383301348   -0.053501349695268895
-0.16372075173132158   -0.06392383383301348   -0.053501349695268895
-0.16372075173132158   -0.06392383383301348   -0.053501349695268895
0.08866873086348964   0.07021581593670595   0.04178573235931579
0.08866873086348964   0.07021581593670595   0.04178573235931579
0.08866873086348964   0.07021581593670595   0.04178573235931579
0.08866873086348964   0.07021581593670595   0.04178573235931579
-0.02411276002700746   0.015406157052143606   0.005786291837752109
-0.02411276002700746   0.015406157052143606   0.005786291837752109
-0.02411276002700746   0.015406157052143606   0.005786291837752109
-0.02411276002700746   0.015406157052143606   0.005786291837752109
0.04991509419330539   -0.02237476810001266   -0.0593918669548876
0.04991509419330539   -0.02237476810001266   -0.0593918669548876
0.04991509419330539   -0.02237476810001266   -0.0593918669548876
0.04991509419330539   -0.02237476810001266   -0.0593918669548876
-0.1272615738206402   0.02637229144420147   0.03849841458092318
-0.1272615738206402   0.02637229144420147   0.03849841458092318
-0.1272615738206402   0.02637229144420147   0.03849841458092318
-0.1272615738206402   0.02637229144420147   0.03849841458092318
-0.1815543744116017   -0.07552526013528116   -0.045337239195397755
-0.1815543744116017   -0.07552526013528116   -0.045337239195397755
-0.1815543744116017   -0.07552526013528116   -0.045337239195397755
-0.1815543744116017   -0.07552526013528116   -0.045337239195397755
0.05193214051144732   0.054452165572944036   0.05729233170181832
0.05193214051144732   0.054452165572944036   0.05729233170181832
0.05193214051144732   0.054452165572944036   0.05729233170181832
0.05193214051144732   0.054452165572944036   0.05729233170181832
-0.053131015570650225   -0.0019730324173633535   -0.007623222931982846
-0.053131015570650225   -0.0019730324173633535   -0.007623222931982846
-0.053131015570650225   -0.0019730324173633535   -0.007623222931982846
-0.053131015570650225   -0.0019730324173633535   -0.007623222931982846
0.012287455223590113   -0.03748769350172309   -0.0489912356628
0.012287455223590113   -0.03748769350172309   -0.0489912356628
0.012287455223590113   -0.03748769350172309   -0.0489912356628
0.012287455223590113   -0.03748769350172309   -0.0489912356628
-0.14509194247010057   0.01323234559302994   0.04821731478379571
-0.14509194247010057   0.01323234559302994   0.04821731478379571
-0.14509194247010057   0.01323234559302994   0.04821731478379571
-0.14509194247010057   0.01323234559302994   0.04821731478379571
-0.19788952312895627   -0.09338385486985318   -0.037570929722173706
-0.19788952312895627   -0.09338385486985318   -0.037570929722173706
-0.19788952312895627   -0.09338385486985318   -0.037570929722173706
-0.19788952312895627   -0.09338385486985318   -0.037570929722173706
0.0009144129718487817   0.02139171754480873   0.06530239589216669
0.0009144129718487817   0.02139171754480873   0.06530239589216669
0.0009144129718487817   0.02139171754480873   0.06530239589216669
0.0009144129718487817   0.02139171754480873   0.06530239589216669
-0.08423441472391474   -0.01948231539523496   -0.023073815381651142
-0.08423441472391474   -0.01948231539523496   -0.023073815381651142
-0.08423441472391474   -0.01948231539523496   -0.023073815381651142
-0.08423441472391474   -0.01948231539523496   -0.023073815381651142
-0.12511809458775722   0.0326270358845777   -0.026470644323037744
-0.12511809458775722   0.0326270358845777   -0.026470644323037744
-0.12511809458775722   0.0326270358845777   -0.026470644323037744
-0.12511809458775722   0.0326270358845777   -0.026470644323037744
-0.3185834637925057   0.013395918128675813   0.008892148624582175
-0.3185834637925057   0.013395918128675813   0.008892148624582175
-0.3185834637925057   0.013395918128675813   0.008892148624582175
-0.3185834637925057   0.013395918128675813   0.008892148624582175
-0.34650377457653475   -0.03722645038790486   -0.027807941514452865
-0.34650377457653475   -0.03722645038790486   -0.027807941514452865
-0.34650377457653475   -0.03722645038790486   -0.027807941514452865
-0.34650377457653475   -0.03722645038790486   -0.027807941514452865
-0.12860367627670732   0.031605071561027306   0.026555122183761763
-0.12860367627670732   0.031605071561027306   0.026555122183761763
-0.12860367627670732   0.031605071561027306   0.026555122183761763
-0.12860367627670732   0.031605071561027306   0.026555122183761763
-0.22922705886988523   0.009455323325416556   0.005027287691169505
-0.22922705886988523   0.009455323325416556   0.005027287691169505
-0.22922705886988523   0.009455323325416556   0.005027287691169505
-0.22922705886988523   0.009455323325416556   0.005027287691169505
-0.14367452209955311   0.004551817780408161   -0.021745853149850176
-0.14367452209955311   0.004551817780408161   -0.021745853149850176
-0.14367452209955311   0.004551817780408161   -0.021745853149850176
-0.14367452209955311   0.004551817780408161   -0.021745853149850176
-0.33331415049277247   -0.012054418346372747   0.012968146862826598
-0.33331415049277247   -0.012054418346372747   0.012968146862826598
-0.33331415049277247   -0.012054418346372747   0.012968146862826598
-0.33331415049277247   -0.012054418346372747   0.012968146862826598
-0.3603839695164123   -0.06001373686089067   -0.020510633657012604
-0.3603839695164123   -0.06001373686089067   -0.020510633657012604
-0.3603839695164123   -0.06001373686089067   -0.020510633657012604
-0.3603839695164123   -0.06001373686089067   -0.020510633657012604
-0.15010868003668873   0.0064261979125095035   0.0299397746313751
-0.15010868003668873   0.0064261979125095035   0.0299397746313751
-0.15010868003668873   0.0064261979125095035   0.0299397746313751
-0.15010868003668873   0.0064261979125095035   0.0299397746313751
-0.24676233011750456   -0.013403243581559858   -0.0064376790700989405
-0.24676233011750456   -0.013403243581559858   -0.0064376790700989405
-0.24676233011750456   -0.013403243581559858   -0.0064376790700989405
-0.24676233011750456   -0.013403243581559858   -0.0064376790700989405
-0.16463293570291057   -0.020010387103525287   -0.016244918683699042
-0.16463293570291057   -0.020010387103525287   -0.016244918683699042
-0.16463293570291057   -0.020010387103525287   -0.016244918683699042
-0.16463293570291057   -0.020010387103525287   -0.016244918683699042
-0.3478785749956837   -0.03559601299034718   0.017598615076086677
-0.3478785749956837   -0.03559601299034718   0.017598615076086677
-0.3478785749956837   -0.03559601299034718   0.017598615076086677
-0.3478785749956837   -0.03559601299034718   0.017598615076086677
-0.37435569181340256   -0.08348313348239793   -0.014047603436731535
-0.37435569181340256   -0.08348313348239793   -0.014047603436731535
-0.37435569181340256   -0.08348313348239793   -0.014047603436731535
-0.37435569181340256   -0.08348313348239793   -0.014047603436731535
-0.16809105063073107   -0.019111205111636893   0.037148783010736236
-0.16809105063073107   -0.019111205111636893   0.037148783010736236
-0.16809105063073107   -0.019111205111636893   0.037148783010736236
-0.16809105063073107   -0.019111205111636893   0.037148783010736236
-0.2642909389482116   -0.03603618221079781   -0.01810393862397689
-0.2642909389482116   -0.03603618221079781   -0.01810393862397689
-0.2642909389482116   -0.03603618221079781   -0.01810393862397689
-0.2642909389482116   -0.03603618221079781   -0.01810393862397689
-0.31279352318237064   0.054048642468310204   -0.002810872664377191
-0.31279352318237064   0.054048642468310204   -0.002810872664377191
-0.31279352318237064   0.054048642468310204   -0.002810872664377191
-0.31279352318237064   0.054048642468310204   -0.002810872664377191
-0.5257811529282718   -0.017972997070182614   -0.014833874499189003
-0.5257811529282718   -0.017972997070182614   -0.014833874499189003
-0.5257811529282718   -0.017972997070182614   -0.014833874499189003
-0.5257811529282718   -0.017972997070182614   -0.014833874499189003
-0.5312923275635335   -0.013065153902588306   -0.0031062896916357365
-0.5312923275635335   -0.013065153902588306   -0.0031062896916357365
-0.5312923275635335   -0.013065153902588306   -0.0031062896916357365
-0.5312923275635335   -0.013065153902588306   -0.0031062896916357365
-0.33209466785095826   0.0029170146153060794   0.004094127110217937
-0.33209466785095826   0.0029170146153060794   0.004094127110217937
-0.33209466785095826   0.0029170146153060794   0.004094127110217937
-0.33209466785095826   0.0029170146153060794   0.004094127110217937
-0.42460377836640467   0.006071268152019471   0.0016923052992736179
-0.42460377836640467   0.006071268152019471   0.0016923052992736179
-0.42460377836640467   0.006071268152019471   0.0016923052992736179
-0.42460377836640467   0.006071268152019471   0.0016923052992736179
-0.3268344743381554   0.029258413782268483   0.004053695507270607
-0.3268344743381554   0.029258413782268483   0.004053695507270607
-0.3268344743381554   0.029258413782268483   0.004053695507270607
-0.3268344743381554   0.029258413782268483   0.004053695507270607
-0.5383612583451279   -0.041215290338342286   -0.010300807163854179
-0.5383612583451279   -0.041215290338342286   -0.010300807163854179
-0.5383612583451279   -0.041215290338342286   -0.010300807163854179
-0.5383612583451279   -0.041215290338342286   -0.010300807163854179
-0.5443046338200079   -0.037544934450657375   0.003687183776823137
-0.5443046338200079   -0.037544934450657375   0.003687183776823137
-0.5443046338200079   -0.037544934450657375   0.003687183776823137
-0.5443046338200079   -0.037544934450657375   0.003687183776823137
-0.3468184197048704   -0.021145665124895366   0.008449043664702291
-0.3468184197048704   -0.021145665124895366   0.008449043664702291
-0.3468184197048704   -0.021145665124895366   0.008449043664702291
-0.3468184197048704   -0.021145665124895366   0.008449043664702291
-0.4387132294646298   -0.01619207710916841   -0.00883798105643371
-0.4387132294646298   -0.01619207710916841   -0.00883798105643371
-0.4387132294646298   -0.01619207710916841   -0.00883798105643371
-0.4387132294646298   -0.01619207710916841   -0.00883798105643371
-0.3413937956863654   0.00432091345597993   0.010105585176351302
-0.3413937956863654   0.00432091345597993   0.010105585176351302
-0.3413937956863654   0.00432091345597993   0.010105585176351302
-0.3413937956863654   0.00432091345597993   0.010105585176351302
-0.5519094501964276   -0.0651917053894448   -0.00669012716648772
-0.5519094501964276   -0.0651917053894448   -0.00669012716648772
-0.5519094501964276   -0.0651917053894448   -0.00669012716648772
-0.5519094501964276   -0.0651917053894448   -0.00669012716648772
-0.5569788138206851   -0.061032287433851966   0.010199344235409184
-0.5569788138206851   -0.061032287433851966   0.010199344235409184
-0.5569788138206851   -0.061032287433851966   0.010199344235409184
-0.5569788138206851   -0.061032287433851966   0.010199344235409184
-0.3609536990457715   -0.043852971620923845   0.013332198539953734
-0.3609536990457715   -0.043852971620923845   0.013332198539953734
-0.3609536990457715   -0.043852971620923845   0.013332198539953734
-0.3609536990457715   -0.043852971620923845   0.013332198539953734
-0.45389623202286394   -0.03859621441721448   -0.020279755273937987
-0.45389623202286394   -0.03859621441721448   -0.020279755273937987
-0.45389623202286394   -0.03859621441721448   -0.020279755273937987
-0.45389623202286394   -0.03859621441721448   -0.020279755273937987
-0.4992281974577805   0.0783652822275497   0.02159262355554267
-0.4992281974577805   0.0783652822275497   0.02159262355554267
-0.4992281974577805   0.0783652822275497   0.02159262355554267
-0.4992281974577805   0.0783652822275497   0.02159262355554267
-0.7247221885773071   -0.02985281790068517   -0.033294320862815016
-0.7247221885773071   -0.02985281790068517   -0.033294320862815016
-0.7247221885773071   -0.02985281790068517   -0.033294320862815016
-0.7247221885773071   -0.02985281790068517   -0.033294320862815016
-0.7149580618215675   0.011816230258013483   0.02239490200776097
-0.7149580618215675   0.011816230258013483   0.02239490200776097
-0.7149580618215675   0.011816230258013483   0.02239490200776097
-0.7149580618215675   0.011816230258013483   0.02239490200776097
-0.5331464216633558   -0.010607987717640682   -0.01483392637569731
-0.5331464216633558   -0.010607987717640682   -0.01483392637569731
-0.5331464216633558   -0.010607987717640682   -0.01483392637569731
-0.5331464216633558   -0.010607987717640682   -0.01483392637569731
-0.6158871941275974   0.012521867623834754   0.0029389660835354575
-0.6158871941275974   0.012521867623834754   0.0029389660835354575
-0.6158871941275974   0.012521867623834754   0.0029389660835354575
-0.6158871941275974   0.012521867623834754   0.0029389660835354575
-0.5116239432575064   0.05369847429704666   0.028472003638864377
-0.5116239432575064   0.05369847429704666   0.028472003638864377
-0.5116239432575064   0.05369847429704666   0.028472003638864377
-0.5116239432575064   0.05369847429704666   0.028472003638864377
-0.7391214781504405   -0.05513116967969947   -0.03147477969890654
-0.7391214781504405   -0.05513116967969947   -0.03147477969890654
-0.7391214781504405   -0.05513116967969947   -0.03147477969890654
-0.7391214781504405   -0.05513116967969947   -0.03147477969890654
-0.7324024845265524   -0.012269924178829383   0.026446599302831893
-0.7324024845265524   -0.012269924178829383   0.026446599302831893
-0.7324024845265524   -0.012269924178829383   0.026446599302831893
-0.7324024845265524   -0.012269924178829383   0.026446599302831893
-0.5460466413433929   -0.032477468829098896   -0.01009031946165877
-0.5460466413433929   -0.032477468829098896   -0.01009031946165877
-0.5460466413433929   -0.032477468829098896   -0.01009031946165877
-0.5460466413433929   -0.032477468829098896   -0.01009031946165877
-0.6277398640907385   -0.008933520985974525   -0.00847633389250238
-0.6277398640907385   -0.008933520985974525   -0.00847633389250238
-0.6277398640907385   -0.008933520985974525   -0.00847633389250238
-0.6277398640907385   -0.008933520985974525   -0.00847633389250238
-0.5242804214968705   0.03109819229575854   0.03516511864609399
-0.5242804214968705   0.03109819229575854   0.03516511864609399
-0.5242804214968705   0.03109819229575854   0.03516511864609399
-0.5242804214968705   0.03109819229575854   0.03516511864609399
-0.7562541376881832   -0.0779310186187988   -0.02715057206536792
-0.7562541376881832   -0.0779310186187988   -0.02715057206536792
-0.7562541376881832   -0.0779310186187988   -0.02715057206536792
-0.7562541376881832   -0.0779310186187988   -0.02715057206536792
-0.7465847031954707   -0.03652160097618981   0.03367543215138395
-0.7465847031954707   -0.03652160097618981   0.03367543215138395
-0.7465847031954707   -0.03652160097618981   0.03367543215138395
-0.7465847031954707   -0.03652160097618981   0.03367543215138395
-0.5589924215076278   -0.05486050106860178   -0.0060404805645594105
-0.5589924215076278   -0.05486050106860178   -0.0060404805645594105
-0.5589924215076278   -0.05486050106860178   -0.0060404805645594105
-0.5589924215076278   -0.05486050106860178   -0.0060404805645594105
-0.6455696729109573   -0.030801112502758854   -0.020169593927104074
-0.6455696729109573   -0.030801112502758854   -0.020169593927104074
-0.6455696729109573   -0.030801112502758854   -0.020169593927104074
-0.6455696729109573   -0.030801112502758854   -0.020169593927104074
-0.6865731963389284   0.0849076611464224   0.042690161281970326
-0.6865731963389284   0.0849076611464224   0.042690161281970326
-0.6865731963389284   0.0849076611464224   0.042690161281970326
-0.6865731963389284   0.0849076611464224   0.042690161281970326
-0.882895051894571   -0.04410197788064005   -0.05576555701312229
-0.882895051894571   -0.04410197788064005   -0.05576555701312229
-0.882895051894571   -0.04410197788064005   -0.05576555701312229
-0.882895051894571   -0.04410197788064005   -0.05576555701312229
-0.8835653040720359   0.03427749242370115   0.04705887844338772
-0.8835653040720359   0.03427749242370115   0.04705887844338772
-0.8835653040720359   0.03427749242370115   0.04705887844338772
-0.8835653040720359   0.03427749242370115   0.04705887844338772
-0.7336389753420586   -0.025071933917552663   -0.03412150141913888
-0.7336389753420586   -0.025071933917552663   -0.03412150141913888
-0.7336389753420586   -0.025071933917552663   -0.03412150141913888
-0.7336389753420586   -0.025071933917552663   -0.03412150141913888
-0.7644609137211322   0.02020760065289348   0.014728642361377192
-0.7644609137211322   0.02020760065289348   0.014728642361377192
-0.7644609137211322   0.02020760065289348   0.014728642361377192
-0.7644609137211322   0.02020760065289348   0.014728642361377192
-0.6972892484737591   0.07219330637970431   0.05036189262509709
-0.6972892484737591   0.07219330637970431   0.05036189262509709
-0.6972892484737591   0.07219330637970431   0.05036189262509709
-0.6972892484737591   0.07219330637970431   0.05036189262509709
-0.9226559512308271   -0.06572866816404335   -0.04838819676282372
-0.9226559512308271   -0.06572866816404335   -0.04838819676282372
-0.9226559512308271   -0.06572866816404335   -0.04838819676282372
-0.9226559512308271   -0.06572866816404335   -0.04838819676282372
-0.9152966947740518   0.02056643467510752   0.06064534220502423
-0.9152966947740518   0.02056643467510752   0.06064534220502423
-0.9152966947740518   0.02056643467510752   0.06064534220502423
-0.9152966947740518   0.02056643467510752   0.06064534220502423
-0.7487465837784538   -0.037641878539118434   -0.02990194259639309
-0.7487465837784538   -0.037641878539118434   -0.02990194259639309
-0.7487465837784538   -0.037641878539118434   -0.02990194259639309
-0.7487465837784538   -0.037641878539118434   -0.02990194259639309
-0.8022069313455921   0.003528978690375134   -0.001089942078908411
-0.8022069313455921   0.003528978690375134   -0.001089942078908411
-0.8022069313455921   0.003528978690375134   -0.001089942078908411
-0.8022069313455921   0.003528978690375134   -0.001089942078908411
-0.7108771888974388   0.0614015817194459   0.060401571550117175
-0.7108771888974388   0.0614015817194459   0.060401571550117175
-0.7108771888974388   0.0614015817194459   0.060401571550117175
-0.7108771888974388   0.0614015817194459   0.060401571550117175
-0.9559623319180381   -0.0812732678464329   -0.04084314099335047
-0.9559623319180381   -0.0812732678464329   -0.04084314099335047
-0.9559623319180381   -0.0812732678464329   -0.04084314099335047
-0.9559623319180381   -0.0812732678464329   -0.04084314099335047
-0.9622196956312069   -0.015489496260645441   0.06413648636195912
-0.9622196956312069   -0.015489496260645441   0.06413648636195912
-0.9622196956312069   -0.015489496260645441   0.06413648636195912
-0.9622196956312069   -0.015489496260645441   0.06413648636195912
-0.7639141665821064   -0.06366425969800463   -0.02582922605999352
-0.7639141665821064   -0.06366425969800463   -0.02582922605999352
-0.7639141665821064   -0.06366425969800463   -0.02582922605999352
-0.7639141665821064   -0.06366425969800463   -0.02582922605999352
-0.8167385239517811   -0.012981821542107252   -0.012331656719980474
-0.8167385239517811   -0.012981821542107252   -0.012331656719980474
-0.8167385239517811   -0.012981821542107252   -0.012331656719980474
-0.8167385239517811   -0.012981821542107252   -0.012331656719980474
-0.37792877792385493   -0.02469772526056982   -0.0705164776376083
-0.37792877792385493   -0.02469772526056982   -0.0705164776376083
-0.37792877792385493   -0.02469772526056982   -0.0705164776376083
-0.37792877792385493   -0.02469772526056982   -0.0705164776376083
-0.3728535492690094   0.054085147717917365   0.03174255270070057
-0.3728535492690094   0.054085147717917365   0.03174255270070057
-0.3728535492690094   0.054085147717917365   0.03174255270070057
-0.3728535492690094   0.054085147717917365   0.03174255270070057
-0.4193403077620102   -0.0492976895264146   -0.047772756330787175
-0.4193403077620102   -0.0492976895264146   -0.047772756330787175
-0.4193403077620102   -0.0492976895264146   -0.047772756330787175
-0.4193403077620102   -0.0492976895264146   -0.047772756330787175
-0.3856595733957854   0.02806200501452001   0.0477504306315991
-0.3856595733957854   0.02806200501452001   0.0477504306315991
-0.3856595733957854   0.02806200501452001   0.0477504306315991
-0.3856595733957854   0.02806200501452001   0.0477504306315991
-0.3694274144371956   0.009064271516076597   0.03238291592040134
-0.3694274144371956   0.009064271516076597   0.03238291592040134
-0.3694274144371956   0.009064271516076597   0.03238291592040134
-0.3694274144371956   0.009064271516076597   0.03238291592040134
-0.423096624534153   -0.052307471353188806   -0.05906534869252825
-0.423096624534153   -0.052307471353188806   -0.05906534869252825
-0.423096624534153   -0.052307471353188806   -0.05906534869252825
-0.423096624534153   -0.052307471353188806   -0.05906534869252825
-0.38656669776980745   0.026408345695131813   0.04038925840868014
-0.38656669776980745   0.026408345695131813   0.04038925840868014
-0.38656669776980745   0.026408345695131813   0.04038925840868014
-0.38656669776980745   0.026408345695131813   0.04038925840868014
-0.43329838572266693   -0.06213446586656975   -0.04041029926163635
-0.43329838572266693   -0.06213446586656975   -0.04041029926163635
-0.43329838572266693   -0.06213446586656975   -0.04041029926163635
-0.43329838572266693   -0.06213446586656975   -0.04041029926163635
-0.4217238531548203   0.01057332067324053   0.08870902973698955
-0.4217238531548203   0.01057332067324053   0.08870902973698955
-0.4217238531548203   0.01057332067324053   0.08870902973698955
-0.4217238531548203   0.01057332067324053   0.08870902973698955
-0.40270601267658696   -0.012994867210896627   0.012921174464031319
-0.40270601267658696   -0.012994867210896627   0.012921174464031319
-0.40270601267658696   -0.012994867210896627   0.012921174464031319
-0.40270601267658696   -0.012994867210896627   0.012921174464031319
-0.46468690334120577   -0.06953057470190957   -0.04600232581978789
-0.46468690334120577   -0.06953057470190957   -0.04600232581978789
-0.46468690334120577   -0.06953057470190957   -0.04600232581978789
-0.46468690334120577   -0.06953057470190957   -0.04600232581978789
-0.401354143427453   0.0069506216174073515   0.05022582473045628
-0.401354143427453   0.0069506216174073515   0.05022582473045628
-0.401354143427453   0.0069506216174073515   0.05022582473045628
-0.401354143427453   0.0069506216174073515   0.05022582473045628
-0.44471914753221137   -0.08715249250404489   -0.031785093848041235
-0.44471914753221137   -0.08715249250404489   -0.031785093848041235
-0.44471914753221137   -0.08715249250404489   -0.031785093848041235
-0.44471914753221137   -0.08715249250404489   -0.031785093848041235
-0.47779695109800124   -0.047219553080784245   0.08302799286181484
-0.47779695109800124   -0.047219553080784245   0.08302799286181484
-0.47779695109800124   -0.047219553080784245   0.08302799286181484
-0.47779695109800124   -0.047219553080784245   0.08302799286181484
-0.43146835245232223   -0.03907956005980047   -0.01788208626500459
-0.43146835245232223   -0.03907956005980047   -0.01788208626500459
-0.43146835245232223   -0.03907956005980047   -0.01788208626500459
-0.43146835245232223   -0.03907956005980047   -0.01788208626500459
-0.399663148089382   -0.011868755993555594   -0.03635153768968975
-0.399663148089382   -0.011868755993555594   -0.03635153768968975
-0.399663148089382   -0.011868755993555594   -0.03635153768968975
-0.399663148089382   -0.011868755993555594   -0.03635153768968975
-0.4041823915361845   -0.049622980566797044   -0.0021089879648039742
-0.4041823915361845   -0.049622980566797044   -0.0021089879648039742
-0.4041823915361845   -0.049622980566797044   -0.0021089879648039742
-0.4041823915361845   -0.049622980566797044   -0.0021089879648039742
-0.4070511043589966   -0.033012032411534484   -0.01808296959675791
-0.4070511043589966   -0.033012032411534484   -0.01808296959675791
-0.4070511043589966   -0.033012032411534484   -0.01808296959675791
-0.4070511043589966   -0.033012032411534484   -0.01808296959675791
-0.41360545568645557   -0.06764277279421402   -0.0007534126852149579
-0.41360545568645557   -0.06764277279421402   -0.0007534126852149579
-0.41360545568645557   -0.06764277279421402   -0.0007534126852149579
-0.41360545568645557   -0.06764277279421402   -0.0007534126852149579
-0.40266954078930695   -0.04229503352048244   -0.001498762206916313
-0.40266954078930695   -0.04229503352048244   -0.001498762206916313
-0.40266954078930695   -0.04229503352048244   -0.001498762206916313
-0.40266954078930695   -0.04229503352048244   -0.001498762206916313
-0.41361495025734707   -0.036997449448855864   -0.031446208885029546
-0.41361495025734707   -0.036997449448855864   -0.031446208885029546
-0.41361495025734707   -0.036997449448855864   -0.031446208885029546
-0.41361495025734707   -0.036997449448855864   -0.031446208885029546
-0.40963631389008326   -0.06625205985886809   0.002231010195142529
-0.40963631389008326   -0.06625205985886809   0.002231010195142529
-0.40963631389008326   -0.06625205985886809   0.002231010195142529
-0.40963631389008326   -0.06625205985886809   0.002231010195142529
-0.41381320274938316   -0.05463210160432145   -0.011647200240085176
-0.41381320274938316   -0.05463210160432145   -0.011647200240085176
-0.41381320274938316   -0.05463210160432145   -0.011647200240085176
-0.41381320274938316   -0.05463210160432145   -0.011647200240085176
-0.42849644586693125   -0.08771392124979722   0.009178855400269569
-0.42849644586693125   -0.08771392124979722   0.009178855400269569
-0.42849644586693125   -0.08771392124979722   0.009178855400269569
-0.42849644586693125   -0.08771392124979722   0.009178855400269569
-0.4118454832894262   -0.05974941795917165   -0.011495294978239952
-0.4118454832894262   -0.05974941795917165   -0.011495294978239952
-0.4118454832894262   -0.05974941795917165   -0.011495294978239952
-0.4118454832894262   -0.05974941795917165   -0.011495294978239952
-0.42947458823203427   -0.06010007848987144   -0.023325699185171314
-0.42947458823203427   -0.06010007848987144   -0.023325699185171314
-0.42947458823203427   -0.06010007848987144   -0.023325699185171314
-0.42947458823203427   -0.06010007848987144   -0.023325699185171314
-0.41615433534374496   -0.08556521932371479   0.007580254507495485
-0.41615433534374496   -0.08556521932371479   0.007580254507495485
-0.41615433534374496   -0.08556521932371479   0.007580254507495485
-0.41615433534374496   -0.08556521932371479   0.007580254507495485
-0.41987444090432896   -0.07795199048959599   -0.005271753605492021
-0.41987444090432896   -0.07795199048959599   -0.005271753605492021
-0.41987444090432896   -0.07795199048959599   -0.005271753605492021
-0.41987444090432896   -0.07795199048959599   -0.005271753605492021
-0.43988229441612753   -0.11323615915075931   0.018482838379088023
-0.43988229441612753   -0.11323615915075931   0.018482838379088023
-0.43988229441612753   -0.11323615915075931   0.018482838379088023
-0.43988229441612753   -0.11323615915075931   0.018482838379088023
-0.4245015367928124   -0.08086511262189137   -0.02422433953849783
-0.4245015367928124   -0.08086511262189137   -0.02422433953849783
-0.4245015367928124   -0.08086511262189137   -0.02422433953849783
-0.4245015367928124   -0.08086511262189137   -0.02422433953849783
-0.3931289792074451   0.010192692663534009   -0.006657599551433836
-0.3931289792074451   0.010192692663534009   -0.006657599551433836
-0.3931289792074451   0.010192692663534009   -0.006657599551433836
-0.3931289792074451   0.010192692663534009   -0.006657599551433836
-0.44402711498361025   -0.0842885207644759   -0.021262025721438052
-0.44402711498361025   -0.0842885207644759   -0.021262025721438052
-0.44402711498361025   -0.0842885207644759   -0.021262025721438052
-0.44402711498361025   -0.0842885207644759   -0.021262025721438052
-0.4258302089848667   -0.015519516971680705   0.005647010309192473
-0.4258302089848667   -0.015519516971680705   0.005647010309192473
-0.4258302089848667   -0.015519516971680705   0.005647010309192473
-0.4258302089848667   -0.015519516971680705   0.005647010309192473
-0.41772212659421865   -0.09129814526779156   -0.01315196791660966
-0.41772212659421865   -0.09129814526779156   -0.01315196791660966
-0.41772212659421865   -0.09129814526779156   -0.01315196791660966
-0.41772212659421865   -0.09129814526779156   -0.01315196791660966
-0.41988400896142236   -0.04665822759505174   -0.009541775249313742
-0.41988400896142236   -0.04665822759505174   -0.009541775249313742
-0.41988400896142236   -0.04665822759505174   -0.009541775249313742
-0.41988400896142236   -0.04665822759505174   -0.009541775249313742
-0.39910262012090075   -0.011311597853574024   -4.098296423913489e-05
-0.39910262012090075   -0.011311597853574024   -4.098296423913489e-05
-0.39910262012090075   -0.011311597853574024   -4.098296423913489e-05
-0.39910262012090075   -0.011311597853574024   -4.098296423913489e-05
-0.4468040707453083   -0.09786041967302234   -0.016881395791673925
-0.4468040707453083   -0.09786041967302234   -0.016881395791673925
-0.4468040707453083   -0.09786041967302234   -0.016881395791673925
-0.4468040707453083   -0.09786041967302234   -0.016881395791673925
-0.4306719861190922   -0.03719808965716244   0.012040487417588763
-0.4306719861190922   -0.03719808965716244   0.012040487417588763
-0.4306719861190922   -0.03719808965716244   0.012040487417588763
-0.4306719861190922   -0.03719808965716244   0.012040487417588763
-0.42405071801430805   -0.10838784959258713   -0.009079028576446333
-0.42405071801430805   -0.10838784959258713   -0.009079028576446333
-0.42405071801430805   -0.10838784959258713   -0.009079028576446333
-0.42405071801430805   -0.10838784959258713   -0.009079028576446333
-0.4250330695891248   -0.06317740748992964   -0.0181132628706529
-0.4250330695891248   -0.06317740748992964   -0.0181132628706529
-0.4250330695891248   -0.06317740748992964   -0.0181132628706529
-0.4250330695891248   -0.06317740748992964   -0.0181132628706529
-0.4059465629904374   -0.03337526927073896   0.006429166221057638
-0.4059465629904374   -0.03337526927073896   0.006429166221057638
-0.4059465629904374   -0.03337526927073896   0.006429166221057638
-0.4059465629904374   -0.03337526927073896   0.006429166221057638
-0.45140604046066474   -0.11484056929671371   -0.01398730465072252
-0.45140604046066474   -0.11484056929671371   -0.01398730465072252
-0.45140604046066474   -0.11484056929671371   -0.01398730465072252
-0.45140604046066474   -0.11484056929671371   -0.01398730465072252
-0.4346033172605865   -0.057591090491843556   0.018291222400200792
-0.4346033172605865   -0.057591090491843556   0.018291222400200792
-0.4346033172605865   -0.057591090491843556   0.018291222400200792
-0.4346033172605865   -0.057591090491843556   0.018291222400200792
-0.42874600849772376   -0.12479712150292066   -0.002784460559141534
-0.42874600849772376   -0.12479712150292066   -0.002784460559141534
-0.42874600849772376   -0.12479712150292066   -0.002784460559141534
-0.42874600849772376   -0.12479712150292066   -0.002784460559141534
-0.4311777842135849   -0.08045670233790482   -0.02753188353700334
-0.4311777842135849   -0.08045670233790482   -0.02753188353700334
-0.4311777842135849   -0.08045670233790482   -0.02753188353700334
-0.4311777842135849   -0.08045670233790482   -0.02753188353700334
-0.4100001620160754   0.0438894127120609   0.020694805639699086
-0.4100001620160754   0.0438894127120609   0.020694805639699086
-0.4100001620160754   0.0438894127120609   0.020694805639699086
-0.4100001620160754   0.0438894127120609   0.020694805639699086
-0.48394348359302997   -0.06278701178762036   -0.029600224917884548
-0.48394348359302997   -0.06278701178762036   -0.029600224917884548
-0.48394348359302997   -0.06278701178762036   -0.029600224917884548
-0.48394348359302997   -0.06278701178762036   -0.029600224917884548
-0.45775183996554225   0.013178933734364948   0.02870609918654794
-0.45775183996554225   0.013178933734364948   0.02870609918654794
-0.45775183996554225   0.013178933734364948   0.02870609918654794
-0.45775183996554225   0.013178933734364948   0.02870609918654794
-0.4414976501220991   -0.07025940312700965   -0.01795030922164277
-0.4414976501220991   -0.07025940312700965   -0.01795030922164277
-0.4414976501220991   -0.07025940312700965   -0.01795030922164277
-0.4414976501220991   -0.07025940312700965   -0.01795030922164277
-0.44827079221559823   -0.01852001080381778   -0.005699514511670188
-0.44827079221559823   -0.01852001080381778   -0.005699514511670188
-0.44827079221559823   -0.01852001080381778   -0.005699514511670188
-0.44827079221559823   -0.01852001080381778   -0.005699514511670188
-0.41411673504068536   0.02158642291142994   0.027108440146988523
-0.41411673504068536   0.02158642291142994   0.027108440146988523
-0.41411673504068536   0.02158642291142994   0.027108440146988523
-0.41411673504068536   0.02158642291142994   0.027108440146988523
-0.48825724304372725   -0.08179138030083843   -0.02885060216917374
-0.48825724304372725   -0.08179138030083843   -0.02885060216917374
-0.48825724304372725   -0.08179138030083843   -0.02885060216917374
-0.48825724304372725   -0.08179138030083843   -0.02885060216917374
-0.46618821950183853   -0.007979270182401521   0.032542251930273665
-0.46618821950183853   -0.007979270182401521   0.032542251930273665
-0.46618821950183853   -0.007979270182401521   0.032542251930273665
-0.46618821950183853   -0.007979270182401521   0.032542251930273665
-0.44570447420412157   -0.08602554176323769   -0.014294500901479665
-0.44570447420412157   -0.08602554176323769   -0.014294500901479665
-0.44570447420412157   -0.08602554176323769   -0.014294500901479665
-0.44570447420412157   -0.08602554176323769   -0.014294500901479665
-0.4525035342034685   -0.036420156199923004   -0.015750170382657056
-0.4525035342034685   -0.036420156199923004   -0.015750170382657056
-0.4525035342034685   -0.036420156199923004   -0.015750170382657056
-0.4525035342034685   -0.036420156199923004   -0.015750170382657056
-0.41863384316725366   0.001691481001986156   0.03334163151763301
-0.41863384316725366   0.001691481001986156   0.03334163151763301
-0.41863384316725366   0.001691481001986156   0.03334163151763301
-0.41863384316725366   0.001691481001986156   0.03334163151763301
-0.4959667553136844   -0.09840419772260735   -0.025925499588749762
-0.4959667553136844   -0.09840419772260735   -0.025925499588749762
-0.4959667553136844   -0.09840419772260735   -0.025925499588749762
-0.4959667553136844   -0.09840419772260735   -0.025925499588749762
-0.47175441096480175   -0.028268424423448957   0.03968189211837865
-0.47175441096480175   -0.028268424423448957   0.03968189211837865
-0.47175441096480175   -0.028268424423448957   0.03968189211837865
-0.47175441096480175   -0.028268424423448957   0.03968189211837865
-0.449309682984706   -0.10185981451337589   -0.010971882198863366
-0.449309682984706   -0.10185981451337589   -0.010971882198863366
-0.449309682984706   -0.10185981451337589   -0.010971882198863366
-0.449309682984706   -0.10185981451337589   -0.010971882198863366
-0.45994253062365914   -0.05328167863763378   -0.025484502749196485
-0.45994253062365914   -0.05328167863763378   -0.025484502749196485
-0.45994253062365914   -0.05328167863763378   -0.025484502749196485
-0.45994253062365914   -0.05328167863763378   -0.025484502749196485
-0.4446148112983425   0.0629653388290146   0.04129078593891778
-0.4446148112983425   0.0629653388290146   0.04129078593891778
-0.4446148112983425   0.0629653388290146   0.04129078593891778
-0.4446148112983425   0.0629653388290146   0.04129078593891778
-0.47443275176316685   -0.037840089196149104   -0.0429197598019843
-0.47443275176316685   -0.037840089196149104   -0.0429197598019843
-0.47443275176316685   -0.037840089196149104   -0.0429197598019843
-0.47443275176316685   -0.037840089196149104   -0.0429197598019843
-0.463678881906133   0.04492083288083215   0.045882239136859626
-0.463678881906133   0.04492083288083215   0.045882239136859626
-0.463678881906133   0.04492083288083215   0.045882239136859626
-0.463678881906133   0.04492083288083215   0.045882239136859626
-0.4811285371617685   -0.048765516488424386   -0.02623293657179302
-0.4811285371617685   -0.048765516488424386   -0.02623293657179302
-0.4811285371617685   -0.048765516488424386   -0.02623293657179302
-0.4811285371617685   -0.048765516488424386   -0.02623293657179302
-0.4501432310366823   0.011296450403636152   0.0016874544605330645
-0.4501432310366823   0.011296450403636152   0.0016874544605330645
-0.4501432310366823   0.011296450403636152   0.0016874544605330645
-0.4501432310366823   0.011296450403636152   0.0016874544605330645
-0.4468498541380817   0.048657652515592245   0.047737309542623674
-0.4468498541380817   0.048657652515592245   0.047737309542623674
-0.4468498541380817   0.048657652515592245   0.047737309542623674
-0.4468498541380817   0.048657652515592245   0.047737309542623674
-0.5004991581033844   -0.05504392929675162   -0.03825437967181341
-0.5004991581033844   -0.05504392929675162   -0.03825437967181341
-0.5004991581033844   -0.05504392929675162   -0.03825437967181341
-0.5004991581033844   -0.05504392929675162   -0.03825437967181341
-0.48410313836049024   0.03308418640891378   0.059084936725835105
-0.48410313836049024   0.03308418640891378   0.059084936725835105
-0.48410313836049024   0.03308418640891378   0.059084936725835105
-0.48410313836049024   0.03308418640891378   0.059084936725835105
-0.48749810144128897   -0.05803827513406152   -0.023948152815330997
-0.48749810144128897   -0.05803827513406152   -0.023948152815330997
-0.48749810144128897   -0.05803827513406152   -0.023948152815330997
-0.48749810144128897   -0.05803827513406152   -0.023948152815330997
-0.47213381611696925   -0.0030516979548767392   -0.010155159939642163
-0.47213381611696925   -0.0030516979548767392   -0.010155159939642163
-0.47213381611696925   -0.0030516979548767392   -0.010155159939642163
-0.47213381611696925   -0.0030516979548767392   -0.010155159939642163
-0.4518413826316029   0.039149152857778494   0.05714801324126399
-0.4518413826316029   0.039149152857778494   0.05714801324126399
-0.4518413826316029   0.039149152857778494   0.05714801324126399
-0.4518413826316029   0.039149152857778494   0.05714801324126399
-0.5230764037547062   -0.06741978816745156   -0.03527741566886406
-0.5230764037547062   -0.06741978816745156   -0.03527741566886406
-0.5230764037547062   -0.06741978816745156   -0.03527741566886406
-0.5230764037547062   -0.06741978816745156   -0.03527741566886406
-0.5201950003117919   0.002873348486979302   0.0631396485945808
-0.5201950003117919   0.002873348486979302   0.0631396485945808
-0.5201950003117919   0.002873348486979302   0.0631396485945808
-0.5201950003117919   0.002873348486979302   0.0631396485945808
-0.4933038161654937   -0.0755179050782888   -0.020815653230247883
-0.4933038161654937   -0.0755179050782888   -0.020815653230247883
-0.4933038161654937   -0.0755179050782888   -0.020815653230247883
-0.4933038161654937   -0.0755179050782888   -0.020815653230247883
-0.48256624351924765   -0.016242705350699452   -0.02084963075140921
-0.48256624351924765   -0.016242705350699452   -0.02084963075140921
-0.48256624351924765   -0.016242705350699452   -0.02084963075140921
-0.48256624351924765   -0.016242705350699452   -0.02084963075140921
-0.9594384275644219   -0.08760821533574187   -0.09013938427218067
-0.9594384275644219   -0.08760821533574187   -0.09013938427218067
-0.9594384275644219   -0.08760821533574187   -0.09013938427218067
-0.9594384275644219   -0.08760821533574187   -0.09013938427218067
-0.6077776755795462   0.052211043182899985   0.021276627738611182
-0.6077776755795462   0.052211043182899985   0.021276627738611182
-0.6077776755795462   0.052211043182899985   0.021276627738611182
-0.6077776755795462   0.052211043182899985   0.021276627738611182
-0.638115686928736   -0.04000487988891205   -0.040127880352610584
-0.638115686928736   -0.04000487988891205   -0.040127880352610584
-0.638115686928736   -0.04000487988891205   -0.040127880352610584
-0.638115686928736   -0.04000487988891205   -0.040127880352610584
-1.0195848450066314   -0.1143576886193295   0.10121854031332428
-1.0195848450066314   -0.1143576886193295   0.10121854031332428
-1.0195848450066314   -0.1143576886193295   0.10121854031332428
-1.0195848450066314   -0.1143576886193295   0.10121854031332428
-0.7412825609443269   -0.028045161273495434   0.098058847788138
-0.7412825609443269   -0.028045161273495434   0.098058847788138
-0.7412825609443269   -0.028045161273495434   0.098058847788138
-0.7412825609443269   -0.028045161273495434   0.098058847788138
-1.0559014143280736   -0.1287340402340827   -0.0659879546791256
-1.0559014143280736   -0.1287340402340827   -0.0659879546791256
-1.0559014143280736   -0.1287340402340827   -0.0659879546791256
-1.0559014143280736   -0.1287340402340827   -0.0659879546791256
-0.6273271822315805   -0.05115659289844547   0.024966356142693484
-0.6273271822315805   -0.05115659289844547   0.024966356142693484
-0.6273271822315805   -0.05115659289844547   0.024966356142693484
-0.6273271822315805   -0.05115659289844547   0.024966356142693484
-0.6477234675738218   -0.05811787614186194   -0.028747339919521362
-0.6477234675738218   -0.05811787614186194   -0.028747339919521362
-0.6477234675738218   -0.05811787614186194   -0.028747339919521362
-0.6477234675738218   -0.05811787614186194   -0.028747339919521362
-1.0517763782391467   -0.1598589823635404   0.002638661529402276
-1.0517763782391467   -0.1598589823635404   0.002638661529402276
-1.0517763782391467   -0.1598589823635404   0.002638661529402276
-1.0517763782391467   -0.1598589823635404   0.002638661529402276
-0.8203629327177357   -0.09646444801516602   0.02260839976140641
-0.8203629327177357   -0.09646444801516602   0.02260839976140641
-0.8203629327177357   -0.09646444801516602   0.02260839976140641
-0.8203629327177357   -0.09646444801516602   0.02260839976140641
-1.0600337992319186   -0.14544329970764736   -0.05306412609034107
-1.0600337992319186   -0.14544329970764736   -0.05306412609034107
-1.0600337992319186   -0.14544329970764736   -0.05306412609034107
-1.0600337992319186   -0.14544329970764736   -0.05306412609034107
-0.647217531436981   -0.08028504365368752   -0.004050491723498643
-0.647217531436981   -0.08028504365368752   -0.004050491723498643
-0.647217531436981   -0.08028504365368752   -0.004050491723498643
-0.647217531436981   -0.08028504365368752   -0.004050491723498643
-0.6479887883267381   -0.10204350501403231   -0.020899929575688578
-0.6479887883267381   -0.10204350501403231   -0.020899929575688578
-0.6479887883267381   -0.10204350501403231   -0.020899929575688578
-0.6479887883267381   -0.10204350501403231   -0.020899929575688578
-1.0766270454365254   -0.24425053022785798   0.016232448132246835
-1.0766270454365254   -0.24425053022785798   0.016232448132246835
-1.0766270454365254   -0.24425053022785798   0.016232448132246835
-1.0766270454365254   -0.24425053022785798   0.016232448132246835
-0.8192700525569561   -0.13264706681599295   0.0016377792927229793
-0.8192700525569561   -0.13264706681599295   0.0016377792927229793
-0.8192700525569561   -0.13264706681599295   0.0016377792927229793
-0.8192700525569561   -0.13264706681599295   0.0016377792927229793
-0.656324808530855   -0.11123272094981315   -0.058015272885214485
-0.656324808530855   -0.11123272094981315   -0.058015272885214485
-0.656324808530855   -0.11123272094981315   -0.058015272885214485
-0.656324808530855   -0.11123272094981315   -0.058015272885214485
-0.4502906820856025   -0.29028941067414754   -0.05445918211986058
-0.4502906820856025   -0.29028941067414754   -0.05445918211986058
-0.4502906820856025   -0.29028941067414754   -0.05445918211986058
-0.4502906820856025   -0.29028941067414754   -0.05445918211986058
-0.395557427674943   -0.06455662965698725   -0.0033707250105935675
-0.395557427674943   -0.06455662965698725   -0.0033707250105935675
-0.395557427674943   -0.06455662965698725   -0.0033707250105935675
-0.395557427674943   -0.06455662965698725   -0.0033707250105935675
-0.6974535834653045   -0.30810123370770903   -0.06872100921666224
-0.6974535834653045   -0.30810123370770903   -0.06872100921666224
-0.6974535834653045   -0.30810123370770903   -0.06872100921666224
-0.6974535834653045   -0.30810123370770903   -0.06872100921666224
-0.5435100671372343   -0.20546024633239213   -0.015823805922543878
-0.5435100671372343   -0.20546024633239213   -0.015823805922543878
-0.5435100671372343   -0.20546024633239213   -0.015823805922543878
-0.5435100671372343   -0.20546024633239213   -0.015823805922543878
-0.655751836060552   -0.12465338959342517   -0.04366011630717993
-0.655751836060552   -0.12465338959342517   -0.04366011630717993
-0.655751836060552   -0.12465338959342517   -0.04366011630717993
-0.655751836060552   -0.12465338959342517   -0.04366011630717993
-0.4399212532964887   -0.2506665519880633   -0.03907993078724954
-0.4399212532964887   -0.2506665519880633   -0.03907993078724954
-0.4399212532964887   -0.2506665519880633   -0.03907993078724954
-0.4399212532964887   -0.2506665519880633   -0.03907993078724954
-0.3998687645542941   -0.0836845517296968   0.0006980216881346121
-0.3998687645542941   -0.0836845517296968   0.0006980216881346121
-0.3998687645542941   -0.0836845517296968   0.0006980216881346121
-0.3998687645542941   -0.0836845517296968   0.0006980216881346121
-0.699770488137798   -0.30650777701867477   -0.040592541862595866
-0.699770488137798   -0.30650777701867477   -0.040592541862595866
-0.699770488137798   -0.30650777701867477   -0.040592541862595866
-0.699770488137798   -0.30650777701867477   -0.040592541862595866
-0.537346754361647   -0.19259382623101665   -0.016809600137379685
-0.537346754361647   -0.19259382623101665   -0.016809600137379685
-0.537346754361647   -0.19259382623101665   -0.016809600137379685
-0.537346754361647   -0.19259382623101665   -0.016809600137379685
-0.6655959920861616   -0.14351264108192963   -0.03271519754115257
-0.6655959920861616   -0.14351264108192963   -0.03271519754115257
-0.6655959920861616   -0.14351264108192963   -0.03271519754115257
-0.6655959920861616   -0.14351264108192963   -0.03271519754115257
-0.4395405807479061   -0.2521770078084187   -0.029168603201207108
-0.4395405807479061   -0.2521770078084187   -0.029168603201207108
-0.4395405807479061   -0.2521770078084187   -0.029168603201207108
-0.4395405807479061   -0.2521770078084187   -0.029168603201207108
-0.39949699424737006   -0.10755282653596118   0.006514201284321187
-0.39949699424737006   -0.10755282653596118   0.006514201284321187
-0.39949699424737006   -0.10755282653596118   0.006514201284321187
-0.39949699424737006   -0.10755282653596118   0.006514201284321187
-0.6978285673141502   -0.3116888661321625   -0.060453463394627496
-0.6978285673141502   -0.3116888661321625   -0.060453463394627496
-0.6978285673141502   -0.3116888661321625   -0.060453463394627496
-0.6978285673141502   -0.3116888661321625   -0.060453463394627496
-0.5452405919608154   -0.20720262253592753   -0.031205303173749643
-0.5452405919608154   -0.20720262253592753   -0.031205303173749643
-0.5452405919608154   -0.20720262253592753   -0.031205303173749643
-0.5452405919608154   -0.20720262253592753   -0.031205303173749643
-0.39665068340968795   -0.07155879099024184   -0.004989808424193396
-0.39665068340968795   -0.07155879099024184   -0.004989808424193396
-0.39665068340968795   -0.07155879099024184   -0.004989808424193396
-0.39665068340968795   -0.07155879099024184   -0.004989808424193396
-0.33198886331130634   -0.22195369259812459   -0.038317241098419504
-0.33198886331130634   -0.22195369259812459   -0.038317241098419504
-0.33198886331130634   -0.22195369259812459   -0.038317241098419504
-0.33198886331130634   -0.22195369259812459   -0.038317241098419504
-0.28606848459303236   -0.059270356648247764   0.015333333179923
-0.28606848459303236   -0.059270356648247764   0.015333333179923
-0.28606848459303236   -0.059270356648247764   0.015333333179923
-0.28606848459303236   -0.059270356648247764   0.015333333179923
-0.4387438531987365   -0.24147295673241298   -0.042386525554140714
-0.4387438531987365   -0.24147295673241298   -0.042386525554140714
-0.4387438531987365   -0.24147295673241298   -0.042386525554140714
-0.4387438531987365   -0.24147295673241298   -0.042386525554140714
-0.3617520544464841   -0.15066585841554417   -0.017692037398124097
-0.3617520544464841   -0.15066585841554417   -0.017692037398124097
-0.3617520544464841   -0.15066585841554417   -0.017692037398124097
-0.3617520544464841   -0.15066585841554417   -0.017692037398124097
-0.3987784634406658   -0.08473793812749837   0.0007054046312998607
-0.3987784634406658   -0.08473793812749837   0.0007054046312998607
-0.3987784634406658   -0.08473793812749837   0.0007054046312998607
-0.3987784634406658   -0.08473793812749837   0.0007054046312998607
-0.3283874484196353   -0.21835894932169372   -0.03717289327964572
-0.3283874484196353   -0.21835894932169372   -0.03717289327964572
-0.3283874484196353   -0.21835894932169372   -0.03717289327964572
-0.3283874484196353   -0.21835894932169372   -0.03717289327964572
-0.2859790057626101   -0.07498600124902205   0.019858500889665752
-0.2859790057626101   -0.07498600124902205   0.019858500889665752
-0.2859790057626101   -0.07498600124902205   0.019858500889665752
-0.2859790057626101   -0.07498600124902205   0.019858500889665752
-0.4399341076825812   -0.2453033786801229   -0.03800986700288004
-0.4399341076825812   -0.2453033786801229   -0.03800986700288004
-0.4399341076825812   -0.2453033786801229   -0.03800986700288004
-0.4399341076825812   -0.2453033786801229   -0.03800986700288004
-0.360942390621484   -0.1566023985423084   -0.022953845981834666
-0.360942390621484   -0.1566023985423084   -0.022953845981834666
-0.360942390621484   -0.1566023985423084   -0.022953845981834666
-0.360942390621484   -0.1566023985423084   -0.022953845981834666
-0.40192321361593614   -0.1006652483896467   0.007406473039870811
-0.40192321361593614   -0.1006652483896467   0.007406473039870811
-0.40192321361593614   -0.1006652483896467   0.007406473039870811
-0.40192321361593614   -0.1006652483896467   0.007406473039870811
-0.3252814283982316   -0.22091566010847483   -0.03072395342898921
-0.3252814283982316   -0.22091566010847483   -0.03072395342898921
-0.3252814283982316   -0.22091566010847483   -0.03072395342898921
-0.3252814283982316   -0.22091566010847483   -0.03072395342898921
-0.2823950729311576   -0.09001400180716129   0.024780202353089222
-0.2823950729311576   -0.09001400180716129   0.024780202353089222
-0.2823950729311576   -0.09001400180716129   0.024780202353089222
-0.2823950729311576   -0.09001400180716129   0.024780202353089222
-0.43446648345298033   -0.24847307424929577   -0.027412997030397495
-0.43446648345298033   -0.24847307424929577   -0.027412997030397495
-0.43446648345298033   -0.24847307424929577   -0.027412997030397495
-0.43446648345298033   -0.24847307424929577   -0.027412997030397495
-0.35964899961913477   -0.1643926573591734   -0.026577970968894648
-0.35964899961913477   -0.1643926573591734   -0.026577970968894648
-0.35964899961913477   -0.1643926573591734   -0.026577970968894648
-0.35964899961913477   -0.1643926573591734   -0.026577970968894648
-0.27650440970701307   -0.009957404301545278   0.02710873862646749
-0.27650440970701307   -0.009957404301545278   0.02710873862646749
-0.27650440970701307   -0.009957404301545278   0.02710873862646749
-0.27650440970701307   -0.009957404301545278   0.02710873862646749
-0.2607114891012529   -0.11733945944194449   -0.022870243222851323
-0.2607114891012529   -0.11733945944194449   -0.022870243222851323
-0.2607114891012529   -0.11733945944194449   -0.022870243222851323
-0.2607114891012529   -0.11733945944194449   -0.022870243222851323
-0.22461395484336222   -0.017008318321894915   0.03142141952519411
-0.22461395484336222   -0.017008318321894915   0.03142141952519411
-0.22461395484336222   -0.017008318321894915   0.03142141952519411
-0.22461395484336222   -0.017008318321894915   0.03142141952519411
-0.3076878826396403   -0.13580642271408752   -0.016227590987279075
-0.3076878826396403   -0.13580642271408752   -0.016227590987279075
-0.3076878826396403   -0.13580642271408752   -0.016227590987279075
-0.3076878826396403   -0.13580642271408752   -0.016227590987279075
-0.2682778303639914   -0.06939307954268245   -0.00958786713546497
-0.2682778303639914   -0.06939307954268245   -0.00958786713546497
-0.2682778303639914   -0.06939307954268245   -0.00958786713546497
-0.2682778303639914   -0.06939307954268245   -0.00958786713546497
-0.2765118412677049   -0.02741911740011554   0.0312653105584281
-0.2765118412677049   -0.02741911740011554   0.0312653105584281
-0.2765118412677049   -0.02741911740011554   0.0312653105584281
-0.2765118412677049   -0.02741911740011554   0.0312653105584281
-0.2582857974170215   -0.12789142483758947   -0.026054686827407695
-0.2582857974170215   -0.12789142483758947   -0.026054686827407695
-0.2582857974170215   -0.12789142483758947   -0.026054686827407695
-0.2582857974170215   -0.12789142483758947   -0.026054686827407695
-0.22475724286145626   -0.03222464638429389   0.03376274465058937
-0.22475724286145626   -0.03222464638429389   0.03376274465058937
-0.22475724286145626   -0.03222464638429389   0.03376274465058937
-0.22475724286145626   -0.03222464638429389   0.03376274465058937
-0.3073911473857858   -0.14407197105558384   -0.018116237419653927
-0.3073911473857858   -0.14407197105558384   -0.018116237419653927
-0.3073911473857858   -0.14407197105558384   -0.018116237419653927
-0.3073911473857858   -0.14407197105558384   -0.018116237419653927
-0.26693504903369314   -0.08162765677231738   -0.016258668478435115
-0.26693504903369314   -0.08162765677231738   -0.016258668478435115
-0.26693504903369314   -0.08162765677231738   -0.016258668478435115
-0.26693504903369314   -0.08162765677231738   -0.016258668478435115
-0.27627159783453326   -0.04216513204401568   0.035574671325043425
-0.27627159783453326   -0.04216513204401568   0.035574671325043425
-0.27627159783453326   -0.04216513204401568   0.035574671325043425
-0.27627159783453326   -0.04216513204401568   0.035574671325043425
-0.257387375523619   -0.1356420685067694   -0.02597049653774866
-0.257387375523619   -0.1356420685067694   -0.02597049653774866
-0.257387375523619   -0.1356420685067694   -0.02597049653774866
-0.257387375523619   -0.1356420685067694   -0.02597049653774866
-0.222636892046525   -0.04650689308763479   0.03911993399167653
-0.222636892046525   -0.04650689308763479   0.03911993399167653
-0.222636892046525   -0.04650689308763479   0.03911993399167653
-0.222636892046525   -0.04650689308763479   0.03911993399167653
-0.30230158528726137   -0.15235125704124178   -0.012415104193348596
-0.30230158528726137   -0.15235125704124178   -0.012415104193348596
-0.30230158528726137   -0.15235125704124178   -0.012415104193348596
-0.30230158528726137   -0.15235125704124178   -0.012415104193348596
-0.2659225937829853   -0.09212057120748891   -0.020873809914966568
-0.2659225937829853   -0.09212057120748891   -0.020873809914966568
-0.2659225937829853   -0.09212057120748891   -0.020873809914966568
-0.2659225937829853   -0.09212057120748891   -0.020873809914966568
-0.2181394186105688   0.030443882793744013   0.04220676699488061
-0.2181394186105688   0.030443882793744013   0.04220676699488061
-0.2181394186105688   0.030443882793744013   0.04220676699488061
-0.2181394186105688   0.030443882793744013   0.04220676699488061
-0.1439390751371083   -0.03847694107974766   -0.014016913402875081
-0.1439390751371083   -0.03847694107974766   -0.014016913402875081
-0.1439390751371083   -0.03847694107974766   -0.014016913402875081
-0.1439390751371083   -0.03847694107974766   -0.014016913402875081
-0.12535713727829229   0.0359666947807016   0.041656719890360655
-0.12535713727829229   0.0359666947807016   0.041656719890360655
-0.12535713727829229   0.0359666947807016   0.041656719890360655
-0.12535713727829229   0.0359666947807016   0.041656719890360655
-0.24077892177538301   -0.05916324632293427   -0.007248487133875383
-0.24077892177538301   -0.05916324632293427   -0.007248487133875383
-0.24077892177538301   -0.05916324632293427   -0.007248487133875383
-0.24077892177538301   -0.05916324632293427   -0.007248487133875383
-0.17959575571682476   -0.0037426486284202823   -0.007681719239290891
-0.17959575571682476   -0.0037426486284202823   -0.007681719239290891
-0.17959575571682476   -0.0037426486284202823   -0.007681719239290891
-0.17959575571682476   -0.0037426486284202823   -0.007681719239290891
-0.21447788877168456   0.01902490568023754   0.04606852588145008
-0.21447788877168456   0.01902490568023754   0.04606852588145008
-0.21447788877168456   0.01902490568023754   0.04606852588145008
-0.21447788877168456   0.01902490568023754   0.04606852588145008
-0.15190059599528855   -0.042463882935770116   -0.01262999597814903
-0.15190059599528855   -0.042463882935770116   -0.01262999597814903
-0.15190059599528855   -0.042463882935770116   -0.01262999597814903
-0.15190059599528855   -0.042463882935770116   -0.01262999597814903
-0.13076747593448812   0.02858086359856769   0.05241691534102954
-0.13076747593448812   0.02858086359856769   0.05241691534102954
-0.13076747593448812   0.02858086359856769   0.05241691534102954
-0.13076747593448812   0.02858086359856769   0.05241691534102954
-0.23951884598659143   -0.06295575482131863   -0.00931416253806763
-0.23951884598659143   -0.06295575482131863   -0.00931416253806763
-0.23951884598659143   -0.06295575482131863   -0.00931416253806763
-0.23951884598659143   -0.06295575482131863   -0.00931416253806763
-0.18477009317518212   -0.011812986069175517   -0.01076702050304608
-0.18477009317518212   -0.011812986069175517   -0.01076702050304608
-0.18477009317518212   -0.011812986069175517   -0.01076702050304608
-0.18477009317518212   -0.011812986069175517   -0.01076702050304608
-0.21196105092308162   0.012468814270230576   0.05305024368793821
-0.21196105092308162   0.012468814270230576   0.05305024368793821
-0.21196105092308162   0.012468814270230576   0.05305024368793821
-0.21196105092308162   0.012468814270230576   0.05305024368793821
-0.1602117765232289   -0.04873021101821163   -0.017493512985895132
-0.1602117765232289   -0.04873021101821163   -0.017493512985895132
-0.1602117765232289   -0.04873021101821163   -0.017493512985895132
-0.1602117765232289   -0.04873021101821163   -0.017493512985895132
-0.14967789421937613   0.008278811178461125   0.05454200610738423
-0.14967789421937613   0.008278811178461125   0.05454200610738423
-0.14967789421937613   0.008278811178461125   0.05454200610738423
-0.14967789421937613   0.008278811178461125   0.05454200610738423
-0.2359861988075081   -0.06630970450642262   -0.007823788394457236
-0.2359861988075081   -0.06630970450642262   -0.007823788394457236
-0.2359861988075081   -0.06630970450642262   -0.007823788394457236
-0.2359861988075081   -0.06630970450642262   -0.007823788394457236
-0.18720155098657398   -0.01762526407645593   -0.01581147761219387
-0.18720155098657398   -0.01762526407645593   -0.01581147761219387
-0.18720155098657398   -0.01762526407645593   -0.01581147761219387
-0.18720155098657398   -0.01762526407645593   -0.01581147761219387
-2.2585716282832324   -0.3197338839887343   -0.18765405541587576
-2.2585716282832324   -0.3197338839887343   -0.18765405541587576
-2.2585716282832324   -0.3197338839887343   -0.18765405541587576
-2.2585716282832324   -0.3197338839887343   -0.18765405541587576
-0.7834054323150321   -1.2295733402431603   -0.14694265979361576
-0.7834054323150321   -1.2295733402431603   -0.14694265979361576
-0.7834054323150321   -1.2295733402431603   -0.14694265979361576
-0.7834054323150321   -1.2295733402431603   -0.14694265979361576
-0.6058631991548916   -0.05168083816068121   0.0008811467548259407
-0.6058631991548916   -0.05168083816068121   0.0008811467548259407
-0.6058631991548916   -0.05168083816068121   0.0008811467548259407
-0.6058631991548916   -0.05168083816068121   0.0008811467548259407
-2.4107687099652364   -1.4458864907779327   -0.7713310401486339
-2.4107687099652364   -1.4458864907779327   -0.7713310401486339
-2.4107687099652364   -1.4458864907779327   -0.7713310401486339
-2.4107687099652364   -1.4458864907779327   -0.7713310401486339
-1.4768083943643027   -0.7193881197010188   -0.1048146704673524
-1.4768083943643027   -0.7193881197010188   -0.1048146704673524
-1.4768083943643027   -0.7193881197010188   -0.1048146704673524
-1.4768083943643027   -0.7193881197010188   -0.1048146704673524
-2.098616530319558   -0.4014158835701809   -0.25504074912800767
-2.098616530319558   -0.4014158835701809   -0.25504074912800767
-2.098616530319558   -0.4014158835701809   -0.25504074912800767
-2.098616530319558   -0.4014158835701809   -0.25504074912800767
-0.8458766022781957   -1.02401266884606   -0.2268540381763116
-0.8458766022781957   -1.02401266884606   -0.2268540381763116
-0.8458766022781957   -1.02401266884606   -0.2268540381763116
-0.8458766022781957   -1.02401266884606   -0.2268540381763116
-0.6179732963876688   -0.06897125825092949   0.023274200240979183
-0.6179732963876688   -0.06897125825092949   0.023274200240979183
-0.6179732963876688   -0.06897125825092949   0.023274200240979183
-0.6179732963876688   -0.06897125825092949   0.023274200240979183
-2.255857083841021   -1.2894659073423702   -0.7090645982366782
-2.255857083841021   -1.2894659073423702   -0.7090645982366782
-2.255857083841021   -1.2894659073423702   -0.7090645982366782
-2.255857083841021   -1.2894659073423702   -0.7090645982366782
-1.3909055093521576   -0.6485984671744199   0.05637363478066572
-1.3909055093521576   -0.6485984671744199   0.05637363478066572
-1.3909055093521576   -0.6485984671744199   0.05637363478066572
-1.3909055093521576   -0.6485984671744199   0.05637363478066572
-1.9706187240714723   -0.3821857709851254   -0.19015293574619546
-1.9706187240714723   -0.3821857709851254   -0.19015293574619546
-1.9706187240714723   -0.3821857709851254   -0.19015293574619546
-1.9706187240714723   -0.3821857709851254   -0.19015293574619546
-0.8230639663345005   -0.8961037047854592   -0.17504670295864364
-0.8230639663345005   -0.8961037047854592   -0.17504670295864364
-0.8230639663345005   -0.8961037047854592   -0.17504670295864364
-0.8230639663345005   -0.8961037047854592   -0.17504670295864364
-0.7098862291674445   -0.18151489698777273   -0.03683020193640794
-0.7098862291674445   -0.18151489698777273   -0.03683020193640794
-0.7098862291674445   -0.18151489698777273   -0.03683020193640794
-0.7098862291674445   -0.18151489698777273   -0.03683020193640794
-2.056000916704183   -1.0833489969857215   -0.6278699827379809
-2.056000916704183   -1.0833489969857215   -0.6278699827379809
-2.056000916704183   -1.0833489969857215   -0.6278699827379809
-2.056000916704183   -1.0833489969857215   -0.6278699827379809
-1.2883283361259914   -0.5622412192399611   0.23842636069367731
-1.2883283361259914   -0.5622412192399611   0.23842636069367731
-1.2883283361259914   -0.5622412192399611   0.23842636069367731
-1.2883283361259914   -0.5622412192399611   0.23842636069367731
-0.5803773369016162   -0.3147416748394314   -0.046633848130268996
-0.5803773369016162   -0.3147416748394314   -0.046633848130268996
-0.5803773369016162   -0.3147416748394314   -0.046633848130268996
-0.5803773369016162   -0.3147416748394314   -0.046633848130268996
-0.2680053949674179   -0.38740688626530734   -0.06620340596845654
-0.2680053949674179   -0.38740688626530734   -0.06620340596845654
-0.2680053949674179   -0.38740688626530734   -0.06620340596845654
-0.2680053949674179   -0.38740688626530734   -0.06620340596845654
-0.23660761808188474   -0.20095914190057307   0.0061434844355976875
-0.23660761808188474   -0.20095914190057307   0.0061434844355976875
-0.23660761808188474   -0.20095914190057307   0.0061434844355976875
-0.23660761808188474   -0.20095914190057307   0.0061434844355976875
-0.7092761148825303   -0.5680517848212999   0.00018751477725671706
-0.7092761148825303   -0.5680517848212999   0.00018751477725671706
-0.7092761148825303   -0.5680517848212999   0.00018751477725671706
-0.7092761148825303   -0.5680517848212999   0.00018751477725671706
-0.3811290142731513   -0.2755828612476301   0.12199562453644139
-0.3811290142731513   -0.2755828612476301   0.12199562453644139
-0.3811290142731513   -0.2755828612476301   0.12199562453644139
-0.3811290142731513   -0.2755828612476301   0.12199562453644139
-0.6602822909715272   -0.29291816955285693   -0.02997698093617795
-0.6602822909715272   -0.29291816955285693   -0.02997698093617795
-0.6602822909715272   -0.29291816955285693   -0.02997698093617795
-0.6602822909715272   -0.29291816955285693   -0.02997698093617795
-0.3055831135882627   -0.4960744287643923   -0.043618706232472715
-0.3055831135882627   -0.4960744287643923   -0.043618706232472715
-0.3055831135882627   -0.4960744287643923   -0.043618706232472715
-0.3055831135882627   -0.4960744287643923   -0.043618706232472715
-0.2554529478383618   -0.20826703379778352   0.006293633942431966
-0.2554529478383618   -0.20826703379778352   0.006293633942431966
-0.2554529478383618   -0.20826703379778352   0.006293633942431966
-0.2554529478383618   -0.20826703379778352   0.006293633942431966
-0.743710420581353   -0.5606370090921949   -0.11374566988617002
-0.743710420581353   -0.5606370090921949   -0.11374566988617002
-0.743710420581353   -0.5606370090921949   -0.11374566988617002
-0.743710420581353   -0.5606370090921949   -0.11374566988617002
-0.45425576008771734   -0.3536420205458529   0.05579143464220647
-0.45425576008771734   -0.3536420205458529   0.05579143464220647
-0.45425576008771734   -0.3536420205458529   0.05579143464220647
-0.45425576008771734   -0.3536420205458529   0.05579143464220647
-0.6812001907963006   -0.30586792932373197   -0.05596360072937098
-0.6812001907963006   -0.30586792932373197   -0.05596360072937098
-0.6812001907963006   -0.30586792932373197   -0.05596360072937098
-0.6812001907963006   -0.30586792932373197   -0.05596360072937098
-0.31609377064279426   -0.4611667065856266   -0.04401080729188718
-0.31609377064279426   -0.4611667065856266   -0.04401080729188718
-0.31609377064279426   -0.4611667065856266   -0.04401080729188718
-0.31609377064279426   -0.4611667065856266   -0.04401080729188718
-0.2844804133835492   -0.2150758086462991   0.009263670104088371
-0.2844804133835492   -0.2150758086462991   0.009263670104088371
-0.2844804133835492   -0.2150758086462991   0.009263670104088371
-0.2844804133835492   -0.2150758086462991   0.009263670104088371
-0.7949741043921889   -0.5446470711956796   -0.09913740385222536
-0.7949741043921889   -0.5446470711956796   -0.09913740385222536
-0.7949741043921889   -0.5446470711956796   -0.09913740385222536
-0.7949741043921889   -0.5446470711956796   -0.09913740385222536
-0.4751458134841067   -0.3332833480819361   0.05905009102082798
-0.4751458134841067   -0.3332833480819361   0.05905009102082798
-0.4751458134841067   -0.3332833480819361   0.05905009102082798
-0.4751458134841067   -0.3332833480819361   0.05905009102082798
-0.21204693926854157   -0.18755455193146967   0.013736538192087186
-0.21204693926854157   -0.18755455193146967   0.013736538192087186
-0.21204693926854157   -0.18755455193146967   0.013736538192087186
-0.21204693926854157   -0.18755455193146967   0.013736538192087186
-0.12923154990311433   -0.12021339885754605   -0.03228838028905899
-0.12923154990311433   -0.12021339885754605   -0.03228838028905899
-0.12923154990311433   -0.12021339885754605   -0.03228838028905899
-0.12923154990311433   -0.12021339885754605   -0.03228838028905899
-0.125431627546492   -0.16755855997531488   0.013873232579105298
-0.125431627546492   -0.16755855997531488   0.013873232579105298
-0.125431627546492   -0.16755855997531488   0.013873232579105298
-0.125431627546492   -0.16755855997531488   0.013873232579105298
-0.23369743964437972   -0.16533693968888677   -0.014927825588564626
-0.23369743964437972   -0.16533693968888677   -0.014927825588564626
-0.23369743964437972   -0.16533693968888677   -0.014927825588564626
-0.23369743964437972   -0.16533693968888677   -0.014927825588564626
-0.14791540853004592   -0.13514585347488678   0.06114935042963523
-0.14791540853004592   -0.13514585347488678   0.06114935042963523
-0.14791540853004592   -0.13514585347488678   0.06114935042963523
-0.14791540853004592   -0.13514585347488678   0.06114935042963523
-0.2324408880743699   -0.18877621673515996   0.014794209307754894
-0.2324408880743699   -0.18877621673515996   0.014794209307754894
-0.2324408880743699   -0.18877621673515996   0.014794209307754894
-0.2324408880743699   -0.18877621673515996   0.014794209307754894
-0.1286914168097295   -0.14612252062226935   -0.023861753090127773
-0.1286914168097295   -0.14612252062226935   -0.023861753090127773
-0.1286914168097295   -0.14612252062226935   -0.023861753090127773
-0.1286914168097295   -0.14612252062226935   -0.023861753090127773
-0.12671372195228758   -0.17259437474776626   0.012314766928609479
-0.12671372195228758   -0.17259437474776626   0.012314766928609479
-0.12671372195228758   -0.17259437474776626   0.012314766928609479
-0.12671372195228758   -0.17259437474776626   0.012314766928609479
-0.24795821537977772   -0.1930174139371101   0.028517676374680806
-0.24795821537977772   -0.1930174139371101   0.028517676374680806
-0.24795821537977772   -0.1930174139371101   0.028517676374680806
-0.24795821537977772   -0.1930174139371101   0.028517676374680806
-0.1606308111261377   -0.15054465706250408   0.051920681345082334
-0.1606308111261377   -0.15054465706250408   0.051920681345082334
-0.1606308111261377   -0.15054465706250408   0.051920681345082334
-0.1606308111261377   -0.15054465706250408   0.051920681345082334
-0.2502146501950385   -0.19576158009148797   0.019979668452752723
-0.2502146501950385   -0.19576158009148797   0.019979668452752723
-0.2502146501950385   -0.19576158009148797   0.019979668452752723
-0.2502146501950385   -0.19576158009148797   0.019979668452752723
-0.1351700684499749   -0.18056298990633698   -0.0219983504012564
-0.1351700684499749   -0.18056298990633698   -0.0219983504012564
-0.1351700684499749   -0.18056298990633698   -0.0219983504012564
-0.1351700684499749   -0.18056298990633698   -0.0219983504012564
-0.12793083342757983   -0.1782265472091359   0.017283988145009102
-0.12793083342757983   -0.1782265472091359   0.017283988145009102
-0.12793083342757983   -0.1782265472091359   0.017283988145009102
-0.12793083342757983   -0.1782265472091359   0.017283988145009102
-0.28967874364055496   -0.23775777437743764   0.005953984550198542
-0.28967874364055496   -0.23775777437743764   0.005953984550198542
-0.28967874364055496   -0.23775777437743764   0.005953984550198542
-0.28967874364055496   -0.23775777437743764   0.005953984550198542
-0.1791392048969569   -0.1717267048930189   0.024699586661508358
-0.1791392048969569   -0.1717267048930189   0.024699586661508358
-0.1791392048969569   -0.1717267048930189   0.024699586661508358
-0.1791392048969569   -0.1717267048930189   0.024699586661508358
-0.10641017199689752   -0.07465343774967344   0.036258548134152496
-0.10641017199689752   -0.07465343774967344   0.036258548134152496
-0.10641017199689752   -0.07465343774967344   0.036258548134152496
-0.10641017199689752   -0.07465343774967344   0.036258548134152496
-0.07424280663329484   0.0007181701115549326   -0.007225516159168311
-0.07424280663329484   0.0007181701115549326   -0.007225516159168311
-0.07424280663329484   0.0007181701115549326   -0.007225516159168311
-0.07424280663329484   0.0007181701115549326   -0.007225516159168311
-0.0704839743367081   -0.08061613805453746   0.02251992400753901
-0.0704839743367081   -0.08061613805453746   0.02251992400753901
-0.0704839743367081   -0.08061613805453746   0.02251992400753901
-0.0704839743367081   -0.08061613805453746   0.02251992400753901
-0.0983193899974522   -0.013384059262159778   -0.004740080388849311
-0.0983193899974522   -0.013384059262159778   -0.004740080388849311
-0.0983193899974522   -0.013384059262159778   -0.004740080388849311
-0.0983193899974522   -0.013384059262159778   -0.004740080388849311
-0.08080184546858898   -0.040475049168803054   0.017987269801273766
-0.08080184546858898   -0.040475049168803054   0.017987269801273766
-0.08080184546858898   -0.040475049168803054   0.017987269801273766
-0.08080184546858898   -0.040475049168803054   0.017987269801273766
-0.10489588610807904   -0.085169857709291   0.03416323750514624
-0.10489588610807904   -0.085169857709291   0.03416323750514624
-0.10489588610807904   -0.085169857709291   0.03416323750514624
-0.10489588610807904   -0.085169857709291   0.03416323750514624
-0.06203916532969801   -0.006962026711023913   -0.008910142300924162
-0.06203916532969801   -0.006962026711023913   -0.008910142300924162
-0.06203916532969801   -0.006962026711023913   -0.008910142300924162
-0.06203916532969801   -0.006962026711023913   -0.008910142300924162
-0.06446873237454666   -0.0877154566038377   0.02074391982783759
-0.06446873237454666   -0.0877154566038377   0.02074391982783759
-0.06446873237454666   -0.0877154566038377   0.02074391982783759
-0.06446873237454666   -0.0877154566038377   0.02074391982783759
-0.09888156595193007   -0.027036290852711104   0.005917463035343836
-0.09888156595193007   -0.027036290852711104   0.005917463035343836
-0.09888156595193007   -0.027036290852711104   0.005917463035343836
-0.09888156595193007   -0.027036290852711104   0.005917463035343836
-0.07398225879396603   -0.04636189037998169   0.0215367821074522
-0.07398225879396603   -0.04636189037998169   0.0215367821074522
-0.07398225879396603   -0.04636189037998169   0.0215367821074522
-0.07398225879396603   -0.04636189037998169   0.0215367821074522
-0.1053017309377692   -0.09222897569280282   0.03900932294623781
-0.1053017309377692   -0.09222897569280282   0.03900932294623781
-0.1053017309377692   -0.09222897569280282   0.03900932294623781
-0.1053017309377692   -0.09222897569280282   0.03900932294623781
-0.05857927564078366   -0.02305348001582301   -0.014470773091362115
-0.05857927564078366   -0.02305348001582301   -0.014470773091362115
-0.05857927564078366   -0.02305348001582301   -0.014470773091362115
-0.05857927564078366   -0.02305348001582301   -0.014470773091362115
-0.05367624589806136   -0.09558660386144496   0.022782822316427816
-0.05367624589806136   -0.09558660386144496   0.022782822316427816
-0.05367624589806136   -0.09558660386144496   0.022782822316427816
-0.05367624589806136   -0.09558660386144496   0.022782822316427816
-0.1062925422152084   -0.06053404652436012   0.00778294352209228
-0.1062925422152084   -0.06053404652436012   0.00778294352209228
-0.1062925422152084   -0.06053404652436012   0.00778294352209228
-0.1062925422152084   -0.06053404652436012   0.00778294352209228
-0.07096989209224275   -0.05857245440221709   0.01874186778961224
-0.07096989209224275   -0.05857245440221709   0.01874186778961224
-0.07096989209224275   -0.05857245440221709   0.01874186778961224
-0.07096989209224275   -0.05857245440221709   0.01874186778961224
-0.06830865182806968   -0.013262323451384846   0.036425751429897256
-0.06830865182806968   -0.013262323451384846   0.036425751429897256
-0.06830865182806968   -0.013262323451384846   0.036425751429897256
-0.06830865182806968   -0.013262323451384846   0.036425751429897256
-0.011693417145751868   0.00811853073520213   -0.0007352769507937805
-0.011693417145751868   0.00811853073520213   -0.0007352769507937805
-0.011693417145751868   0.00811853073520213   -0.0007352769507937805
-0.011693417145751868   0.00811853073520213   -0.0007352769507937805
0.004327334734960978   -0.004193693996450776   0.02249301798819813
0.004327334734960978   -0.004193693996450776   0.02249301798819813
0.004327334734960978   -0.004193693996450776   0.02249301798819813
0.004327334734960978   -0.004193693996450776   0.02249301798819813
-0.05821404401023782   0.006180696035184745   -0.0029272584498309714
-0.05821404401023782   0.006180696035184745   -0.0029272584498309714
-0.05821404401023782   0.006180696035184745   -0.0029272584498309714
-0.05821404401023782   0.006180696035184745   -0.0029272584498309714
-0.03405595419848345   -0.0025271246765902616   -0.002855765193016269
-0.03405595419848345   -0.0025271246765902616   -0.002855765193016269
-0.03405595419848345   -0.0025271246765902616   -0.002855765193016269
-0.03405595419848345   -0.0025271246765902616   -0.002855765193016269
-0.05384331472966675   -0.01275417557447738   0.037861259562685656
-0.05384331472966675   -0.01275417557447738   0.037861259562685656
-0.05384331472966675   -0.01275417557447738   0.037861259562685656
-0.05384331472966675   -0.01275417557447738   0.037861259562685656
0.002004216267278542   0.016788788426098482   -0.010105056772778646
0.002004216267278542   0.016788788426098482   -0.010105056772778646
0.002004216267278542   0.016788788426098482   -0.010105056772778646
0.002004216267278542   0.016788788426098482   -0.010105056772778646
0.01249813947507311   -0.005146895500788302   0.0277131486029195
0.01249813947507311   -0.005146895500788302   0.0277131486029195
0.01249813947507311   -0.005146895500788302   0.0277131486029195
0.01249813947507311   -0.005146895500788302   0.0277131486029195
-0.05096602486019788   0.004870924717138934   -0.004328923921391639
-0.05096602486019788   0.004870924717138934   -0.004328923921391639
-0.05096602486019788   0.004870924717138934   -0.004328923921391639
-0.05096602486019788   0.004870924717138934   -0.004328923921391639
-0.022097646590400245   -0.0005099120931779826   0.0036250383084752208
-0.022097646590400245   -0.0005099120931779826   0.0036250383084752208
-0.022097646590400245   -0.0005099120931779826   0.0036250383084752208
-0.022097646590400245   -0.0005099120931779826   0.0036250383084752208
-0.04579207247929004   -0.01422101256015667   0.040632775260439666
-0.04579207247929004   -0.01422101256015667   0.040632775260439666
-0.04579207247929004   -0.01422101256015667   0.040632775260439666
-0.04579207247929004   -0.01422101256015667   0.040632775260439666
0.009180904202123766   0.015801758884465406   -0.009821682147080926
0.009180904202123766   0.015801758884465406   -0.009821682147080926
0.009180904202123766   0.015801758884465406   -0.009821682147080926
0.009180904202123766   0.015801758884465406   -0.009821682147080926
0.02091422112009938   -0.007988871971592362   0.026879954352094275
0.02091422112009938   -0.007988871971592362   0.026879954352094275
0.02091422112009938   -0.007988871971592362   0.026879954352094275
0.02091422112009938   -0.007988871971592362   0.026879954352094275
-0.03906234676662533   0.005185337854604767   -0.004919623742444819
-0.03906234676662533   0.005185337854604767   -0.004919623742444819
-0.03906234676662533   0.005185337854604767   -0.004919623742444819
-0.03906234676662533   0.005185337854604767   -0.004919623742444819
-0.011388003339302717   0.0007913978667210399   0.009369319744998316
-0.011388003339302717   0.0007913978667210399   0.009369319744998316
-0.011388003339302717   0.0007913978667210399   0.009369319744998316
-0.011388003339302717   0.0007913978667210399   0.009369319744998316
              </DataArray>   
             <DataArray type="Float64" NumberOfComponents="3" Name="Displacements" format="ascii">   
0.0   0.0   0.0
-0.006283313862669286   -0.004119436492683215   -0.0021046589055702673
0.0   0.0   0.0
0.0   0.0   0.0
-0.006283313862669286   -0.004119436492683215   -0.0021046589055702673
-0.0039986210410392665   -0.003701450665894704   -0.0015462695827695287
0.0   0.0   0.0
-0.0039198479212123665   -0.0038873672626571426   -0.001295357174937111
0.0   0.0   0.0
0.0   0.0   0.0
-0.0039198479212123665   -0.0038873672626571426   -0.001295357174937111
0.0   0.0   0.0
0.0   0.0   0.0
-0.0039198479212123665   -0.0038873672626571426   -0.001295357174937111
-0.00657616454635067   -0.004388807695126858   -0.0016896178275343202
-0.006283313862669286   -0.004119436492683215   -0.0021046589055702673
0.0   0.0   0.0
-0.0039198479212123665   -0.0038873672626571426   -0.001295357174937111
-0.006283313862669286   -0.004119436492683215   -0.0021046589055702673
0.0   0.0   0.0
0.0   0.0   0.0
-0.00657616454635067   -0.004388807695126858   -0.0016896178275343202
0.0   0.0   0.0
0.0   0.0   0.0
-0.00657616454635067   -0.004388807695126858   -0.0016896178275343202
-0.0039198479212123665   -0.0038873672626571426   -0.001295357174937111
0.0   0.0   0.0
-0.003931234190646533   -0.003982605609615325   -0.001044768396370288
0.0   0.0   0.0
0.0   0.0   0.0
-0.003931234190646533   -0.003982605609615325   -0.001044768396370288
0.0   0.0   0.0
0.0   0.0   0.0
-0.003931234190646533   -0.003982605609615325   -0.001044768396370288
-0.006781982945178601   -0.004519778807406879   -0.0012918721919032716
-0.00657616454635067   -0.004388807695126858   -0.0016896178275343202
0.0   0.0   0.0
-0.003931234190646533   -0.003982605609615325   -0.001044768396370288
-0.00657616454635067   -0.004388807695126858   -0.0016896178275343202
0.0   0.0   0.0
0.0   0.0   0.0
-0.006781982945178601   -0.004519778807406879   -0.0012918721919032716
0.0   0.0   0.0
0.0   0.0   0.0
-0.006781982945178601   -0.004519778807406879   -0.0012918721919032716
-0.003931234190646533   -0.003982605609615325   -0.001044768396370288
0.0   0.0   0.0
-0.0039295416581951684   -0.004007025775844376   -0.0007856091420168664
0.0   0.0   0.0
0.0   0.0   0.0
-0.0039295416581951684   -0.004007025775844376   -0.0007856091420168664
0.0   0.0   0.0
0.0   0.0   0.0
-0.0039295416581951684   -0.004007025775844376   -0.0007856091420168664
-0.007225043396320298   -0.004618836715819925   -0.0008303839878929352
-0.006781982945178601   -0.004519778807406879   -0.0012918721919032716
0.0   0.0   0.0
-0.0039295416581951684   -0.004007025775844376   -0.0007856091420168664
-0.006781982945178601   -0.004519778807406879   -0.0012918721919032716
0.0   0.0   0.0
0.0   0.0   0.0
-0.0039986210410392665   -0.003701450665894704   -0.0015462695827695287
0.0   0.0   0.0
0.0   0.0   0.0
-0.0039986210410392665   -0.003701450665894704   -0.0015462695827695287
-0.001820610168357356   -0.003548083640644853   -0.0011759822786908626
0.0   0.0   0.0
-0.0017513602979146495   -0.00366913325694978   -0.0010575689211674716
0.0   0.0   0.0
0.0   0.0   0.0
-0.0017513602979146495   -0.00366913325694978   -0.0010575689211674716
0.0   0.0   0.0
0.0   0.0   0.0
-0.0017513602979146495   -0.00366913325694978   -0.0010575689211674716
-0.0039198479212123665   -0.0038873672626571426   -0.001295357174937111
-0.0039986210410392665   -0.003701450665894704   -0.0015462695827695287
0.0   0.0   0.0
-0.0017513602979146495   -0.00366913325694978   -0.0010575689211674716
-0.0039986210410392665   -0.003701450665894704   -0.0015462695827695287
0.0   0.0   0.0
0.0   0.0   0.0
-0.0039198479212123665   -0.0038873672626571426   -0.001295357174937111
0.0   0.0   0.0
0.0   0.0   0.0
-0.0039198479212123665   -0.0038873672626571426   -0.001295357174937111
-0.0017513602979146495   -0.00366913325694978   -0.0010575689211674716
0.0   0.0   0.0
-0.0017126029901398598   -0.0037152593544685438   -0.0009422106242235179
0.0   0.0   0.0
0.0   0.0   0.0
-0.0017126029901398598   -0.0037152593544685438   -0.0009422106242235179
0.0   0.0   0.0
0.0   0.0   0.0
-0.0017126029901398598   -0.0037152593544685438   -0.0009422106242235179
-0.003931234190646533   -0.003982605609615325   -0.001044768396370288
-0.0039198479212123665   -0.0038873672626571426   -0.001295357174937111
0.0   0.0   0.0
-0.0017126029901398598   -0.0037152593544685438   -0.0009422106242235179
-0.0039198479212123665   -0.0038873672626571426   -0.001295357174937111
0.0   0.0   0.0
0.0   0.0   0.0
-0.003931234190646533   -0.003982605609615325   -0.001044768396370288
0.0   0.0   0.0
0.0   0.0   0.0
-0.003931234190646533   -0.003982605609615325   -0.001044768396370288
-0.0017126029901398598   -0.0037152593544685438   -0.0009422106242235179
0.0   0.0   0.0
-0.0016773662048456576   -0.0036959843996205635   -0.0008229122367396354
0.0   0.0   0.0
0.0   0.0   0.0
-0.0016773662048456576   -0.0036959843996205635   -0.0008229122367396354
0.0   0.0   0.0
0.0   0.0   0.0
-0.0016773662048456576   -0.0036959843996205635   -0.0008229122367396354
-0.0039295416581951684   -0.004007025775844376   -0.0007856091420168664
-0.003931234190646533   -0.003982605609615325   -0.001044768396370288
0.0   0.0   0.0
-0.0016773662048456576   -0.0036959843996205635   -0.0008229122367396354
-0.003931234190646533   -0.003982605609615325   -0.001044768396370288
0.0   0.0   0.0
0.0   0.0   0.0
-0.001820610168357356   -0.003548083640644853   -0.0011759822786908626
0.0   0.0   0.0
0.0   0.0   0.0
-0.001820610168357356   -0.003548083640644853   -0.0011759822786908626
0.0002374843549969278   -0.003567682339640074   -0.0009399425342338978
0.0   0.0   0.0
0.0002815327157962365   -0.0036304653700205947   -0.0009564229580369986
0.0   0.0   0.0
0.0   0.0   0.0
0.0002815327157962365   -0.0036304653700205947   -0.0009564229580369986
0.0   0.0   0.0
0.0   0.0   0.0
0.0002815327157962365   -0.0036304653700205947   -0.0009564229580369986
-0.0017513602979146495   -0.00366913325694978   -0.0010575689211674716
-0.001820610168357356   -0.003548083640644853   -0.0011759822786908626
0.0   0.0   0.0
0.0002815327157962365   -0.0036304653700205947   -0.0009564229580369986
-0.001820610168357356   -0.003548083640644853   -0.0011759822786908626
0.0   0.0   0.0
0.0   0.0   0.0
-0.0017513602979146495   -0.00366913325694978   -0.0010575689211674716
0.0   0.0   0.0
0.0   0.0   0.0
-0.0017513602979146495   -0.00366913325694978   -0.0010575689211674716
0.0002815327157962365   -0.0036304653700205947   -0.0009564229580369986
0.0   0.0   0.0
0.0003162546446431868   -0.003625296906741806   -0.0009712774981970345
0.0   0.0   0.0
0.0   0.0   0.0
0.0003162546446431868   -0.003625296906741806   -0.0009712774981970345
0.0   0.0   0.0
0.0   0.0   0.0
0.0003162546446431868   -0.003625296906741806   -0.0009712774981970345
-0.0017126029901398598   -0.0037152593544685438   -0.0009422106242235179
-0.0017513602979146495   -0.00366913325694978   -0.0010575689211674716
0.0   0.0   0.0
0.0003162546446431868   -0.003625296906741806   -0.0009712774981970345
-0.0017513602979146495   -0.00366913325694978   -0.0010575689211674716
0.0   0.0   0.0
0.0   0.0   0.0
-0.0017126029901398598   -0.0037152593544685438   -0.0009422106242235179
0.0   0.0   0.0
0.0   0.0   0.0
-0.0017126029901398598   -0.0037152593544685438   -0.0009422106242235179
0.0003162546446431868   -0.003625296906741806   -0.0009712774981970345
0.0   0.0   0.0
0.00036308324399072004   -0.0035465979479012075   -0.0009865057932120338
0.0   0.0   0.0
0.0   0.0   0.0
0.00036308324399072004   -0.0035465979479012075   -0.0009865057932120338
0.0   0.0   0.0
0.0   0.0   0.0
0.00036308324399072004   -0.0035465979479012075   -0.0009865057932120338
-0.0016773662048456576   -0.0036959843996205635   -0.0008229122367396354
-0.0017126029901398598   -0.0037152593544685438   -0.0009422106242235179
0.0   0.0   0.0
0.00036308324399072004   -0.0035465979479012075   -0.0009865057932120338
-0.0017126029901398598   -0.0037152593544685438   -0.0009422106242235179
0.0   0.0   0.0
0.0   0.0   0.0
0.0002374843549969278   -0.003567682339640074   -0.0009399425342338978
0.0   0.0   0.0
0.0   0.0   0.0
0.0002374843549969278   -0.003567682339640074   -0.0009399425342338978
0.0024712326984881803   -0.003741591503802548   -0.0008231076275054411
0.0   0.0   0.0
0.002475172640719108   -0.003761625947849489   -0.0009815234977759838
0.0   0.0   0.0
0.0   0.0   0.0
0.002475172640719108   -0.003761625947849489   -0.0009815234977759838
0.0   0.0   0.0
0.0   0.0   0.0
0.002475172640719108   -0.003761625947849489   -0.0009815234977759838
0.0002815327157962365   -0.0036304653700205947   -0.0009564229580369986
0.0002374843549969278   -0.003567682339640074   -0.0009399425342338978
0.0   0.0   0.0
0.002475172640719108   -0.003761625947849489   -0.0009815234977759838
0.0002374843549969278   -0.003567682339640074   -0.0009399425342338978
0.0   0.0   0.0
0.0   0.0   0.0
0.0002815327157962365   -0.0036304653700205947   -0.0009564229580369986
0.0   0.0   0.0
0.0   0.0   0.0
0.0002815327157962365   -0.0036304653700205947   -0.0009564229580369986
0.002475172640719108   -0.003761625947849489   -0.0009815234977759838
0.0   0.0   0.0
0.0024641803063743632   -0.0037079080947299346   -0.0011334550364603846
0.0   0.0   0.0
0.0   0.0   0.0
0.0024641803063743632   -0.0037079080947299346   -0.0011334550364603846
0.0   0.0   0.0
0.0   0.0   0.0
0.0024641803063743632   -0.0037079080947299346   -0.0011334550364603846
0.0003162546446431868   -0.003625296906741806   -0.0009712774981970345
0.0002815327157962365   -0.0036304653700205947   -0.0009564229580369986
0.0   0.0   0.0
0.0024641803063743632   -0.0037079080947299346   -0.0011334550364603846
0.0002815327157962365   -0.0036304653700205947   -0.0009564229580369986
0.0   0.0   0.0
0.0   0.0   0.0
0.0003162546446431868   -0.003625296906741806   -0.0009712774981970345
0.0   0.0   0.0
0.0   0.0   0.0
0.0003162546446431868   -0.003625296906741806   -0.0009712774981970345
0.0024641803063743632   -0.0037079080947299346   -0.0011334550364603846
0.0   0.0   0.0
0.002511527856816111   -0.0035639552806202464   -0.0012824619227770333
0.0   0.0   0.0
0.0   0.0   0.0
0.002511527856816111   -0.0035639552806202464   -0.0012824619227770333
0.0   0.0   0.0
0.0   0.0   0.0
0.002511527856816111   -0.0035639552806202464   -0.0012824619227770333
0.00036308324399072004   -0.0035465979479012075   -0.0009865057932120338
0.0003162546446431868   -0.003625296906741806   -0.0009712774981970345
0.0   0.0   0.0
0.002511527856816111   -0.0035639552806202464   -0.0012824619227770333
0.0003162546446431868   -0.003625296906741806   -0.0009712774981970345
0.0   0.0   0.0
0.0   0.0   0.0
0.0024712326984881803   -0.003741591503802548   -0.0008231076275054411
0.0   0.0   0.0
0.0   0.0   0.0
0.0024712326984881803   -0.003741591503802548   -0.0008231076275054411
0.005576758508882832   -0.004182267046973435   -0.0007763962944616361
0.0   0.0   0.0
0.005236886073537409   -0.00413671468942838   -0.0011354401688840985
0.0   0.0   0.0
0.0   0.0   0.0
0.005236886073537409   -0.00413671468942838   -0.0011354401688840985
0.0   0.0   0.0
0.0   0.0   0.0
0.005236886073537409   -0.00413671468942838   -0.0011354401688840985
0.002475172640719108   -0.003761625947849489   -0.0009815234977759838
0.0024712326984881803   -0.003741591503802548   -0.0008231076275054411
0.0   0.0   0.0
0.005236886073537409   -0.00413671468942838   -0.0011354401688840985
0.0024712326984881803   -0.003741591503802548   -0.0008231076275054411
0.0   0.0   0.0
0.0   0.0   0.0
0.002475172640719108   -0.003761625947849489   -0.0009815234977759838
0.0   0.0   0.0
0.0   0.0   0.0
0.002475172640719108   -0.003761625947849489   -0.0009815234977759838
0.005236886073537409   -0.00413671468942838   -0.0011354401688840985
0.0   0.0   0.0
0.00507998045431525   -0.00405070583523425   -0.001439026384211925
0.0   0.0   0.0
0.0   0.0   0.0
0.00507998045431525   -0.00405070583523425   -0.001439026384211925
0.0   0.0   0.0
0.0   0.0   0.0
0.00507998045431525   -0.00405070583523425   -0.001439026384211925
0.0024641803063743632   -0.0037079080947299346   -0.0011334550364603846
0.002475172640719108   -0.003761625947849489   -0.0009815234977759838
0.0   0.0   0.0
0.00507998045431525   -0.00405070583523425   -0.001439026384211925
0.002475172640719108   -0.003761625947849489   -0.0009815234977759838
0.0   0.0   0.0
0.0   0.0   0.0
0.0024641803063743632   -0.0037079080947299346   -0.0011334550364603846
0.0   0.0   0.0
0.0   0.0   0.0
0.0024641803063743632   -0.0037079080947299346   -0.0011334550364603846
0.00507998045431525   -0.00405070583523425   -0.001439026384211925
0.0   0.0   0.0
0.004846665778338259   -0.0038305551769420893   -0.001760217351279063
0.0   0.0   0.0
0.0   0.0   0.0
0.004846665778338259   -0.0038305551769420893   -0.001760217351279063
0.0   0.0   0.0
0.0   0.0   0.0
0.004846665778338259   -0.0038305551769420893   -0.001760217351279063
0.002511527856816111   -0.0035639552806202464   -0.0012824619227770333
0.0024641803063743632   -0.0037079080947299346   -0.0011334550364603846
0.0   0.0   0.0
0.004846665778338259   -0.0038305551769420893   -0.001760217351279063
0.0024641803063743632   -0.0037079080947299346   -0.0011334550364603846
0.0   0.0   0.0
-0.006283313862669286   -0.004119436492683215   -0.0021046589055702673
-0.01173817495186697   -0.011503482726857582   -0.0028354177589988245
-0.0039986210410392665   -0.003701450665894704   -0.0015462695827695287
-0.00657616454635067   -0.004388807695126858   -0.0016896178275343202
-0.01173817495186697   -0.011503482726857582   -0.0028354177589988245
-0.007492127915141685   -0.0111274792397358   -0.002333647175634207
-0.0039986210410392665   -0.003701450665894704   -0.0015462695827695287
-0.0075014448800281115   -0.011317743860466743   -0.002101518541774908
-0.00657616454635067   -0.004388807695126858   -0.0016896178275343202
-0.0039198479212123665   -0.0038873672626571426   -0.001295357174937111
-0.0075014448800281115   -0.011317743860466743   -0.002101518541774908
-0.0039986210410392665   -0.003701450665894704   -0.0015462695827695287
-0.00657616454635067   -0.004388807695126858   -0.0016896178275343202
-0.0075014448800281115   -0.011317743860466743   -0.002101518541774908
-0.012090477128265357   -0.01176892796181158   -0.0024584081966503523
-0.01173817495186697   -0.011503482726857582   -0.0028354177589988245
-0.00657616454635067   -0.004388807695126858   -0.0016896178275343202
-0.0075014448800281115   -0.011317743860466743   -0.002101518541774908
-0.01173817495186697   -0.011503482726857582   -0.0028354177589988245
-0.0039986210410392665   -0.003701450665894704   -0.0015462695827695287
-0.00657616454635067   -0.004388807695126858   -0.0016896178275343202
-0.012090477128265357   -0.01176892796181158   -0.0024584081966503523
-0.0039198479212123665   -0.0038873672626571426   -0.001295357174937111
-0.006781982945178601   -0.004519778807406879   -0.0012918721919032716
-0.012090477128265357   -0.01176892796181158   -0.0024584081966503523
-0.0075014448800281115   -0.011317743860466743   -0.002101518541774908
-0.0039198479212123665   -0.0038873672626571426   -0.001295357174937111
-0.007531488929063336   -0.01143368853651393   -0.001878422302060916
-0.006781982945178601   -0.004519778807406879   -0.0012918721919032716
-0.003931234190646533   -0.003982605609615325   -0.001044768396370288
-0.007531488929063336   -0.01143368853651393   -0.001878422302060916
-0.0039198479212123665   -0.0038873672626571426   -0.001295357174937111
-0.006781982945178601   -0.004519778807406879   -0.0012918721919032716
-0.007531488929063336   -0.01143368853651393   -0.001878422302060916
-0.012335450401938257   -0.011918799628591345   -0.0020892098216215398
-0.012090477128265357   -0.01176892796181158   -0.0024584081966503523
-0.006781982945178601   -0.004519778807406879   -0.0012918721919032716
-0.007531488929063336   -0.01143368853651393   -0.001878422302060916
-0.012090477128265357   -0.01176892796181158   -0.0024584081966503523
-0.0039198479212123665   -0.0038873672626571426   -0.001295357174937111
-0.006781982945178601   -0.004519778807406879   -0.0012918721919032716
-0.012335450401938257   -0.011918799628591345   -0.0020892098216215398
-0.003931234190646533   -0.003982605609615325   -0.001044768396370288
-0.007225043396320298   -0.004618836715819925   -0.0008303839878929352
-0.012335450401938257   -0.011918799628591345   -0.0020892098216215398
-0.007531488929063336   -0.01143368853651393   -0.001878422302060916
-0.003931234190646533   -0.003982605609615325   -0.001044768396370288
-0.0075095695819492716   -0.011493786076911112   -0.0016695665301966086
-0.007225043396320298   -0.004618836715819925   -0.0008303839878929352
-0.0039295416581951684   -0.004007025775844376   -0.0007856091420168664
-0.0075095695819492716   -0.011493786076911112   -0.0016695665301966086
-0.003931234190646533   -0.003982605609615325   -0.001044768396370288
-0.007225043396320298   -0.004618836715819925   -0.0008303839878929352
-0.0075095695819492716   -0.011493786076911112   -0.0016695665301966086
-0.01262502038978253   -0.012005818285154513   -0.0017532411588716441
-0.012335450401938257   -0.011918799628591345   -0.0020892098216215398
-0.007225043396320298   -0.004618836715819925   -0.0008303839878929352
-0.0075095695819492716   -0.011493786076911112   -0.0016695665301966086
-0.012335450401938257   -0.011918799628591345   -0.0020892098216215398
-0.003931234190646533   -0.003982605609615325   -0.001044768396370288
-0.0039986210410392665   -0.003701450665894704   -0.0015462695827695287
-0.007492127915141685   -0.0111274792397358   -0.002333647175634207
-0.001820610168357356   -0.003548083640644853   -0.0011759822786908626
-0.0039198479212123665   -0.0038873672626571426   -0.001295357174937111
-0.007492127915141685   -0.0111274792397358   -0.002333647175634207
-0.003475519364846409   -0.010952522666222438   -0.001991080407924702
-0.001820610168357356   -0.003548083640644853   -0.0011759822786908626
-0.003446012925885083   -0.011073651346487433   -0.0018721703820618533
-0.0039198479212123665   -0.0038873672626571426   -0.001295357174937111
-0.0017513602979146495   -0.00366913325694978   -0.0010575689211674716
-0.003446012925885083   -0.011073651346487433   -0.0018721703820618533
-0.001820610168357356   -0.003548083640644853   -0.0011759822786908626
-0.0039198479212123665   -0.0038873672626571426   -0.001295357174937111
-0.003446012925885083   -0.011073651346487433   -0.0018721703820618533
-0.0075014448800281115   -0.011317743860466743   -0.002101518541774908
-0.007492127915141685   -0.0111274792397358   -0.002333647175634207
-0.0039198479212123665   -0.0038873672626571426   -0.001295357174937111
-0.003446012925885083   -0.011073651346487433   -0.0018721703820618533
-0.007492127915141685   -0.0111274792397358   -0.002333647175634207
-0.001820610168357356   -0.003548083640644853   -0.0011759822786908626
-0.0039198479212123665   -0.0038873672626571426   -0.001295357174937111
-0.0075014448800281115   -0.011317743860466743   -0.002101518541774908
-0.0017513602979146495   -0.00366913325694978   -0.0010575689211674716
-0.003931234190646533   -0.003982605609615325   -0.001044768396370288
-0.0075014448800281115   -0.011317743860466743   -0.002101518541774908
-0.003446012925885083   -0.011073651346487433   -0.0018721703820618533
-0.0017513602979146495   -0.00366913325694978   -0.0010575689211674716
-0.003419919302753986   -0.011132383235494083   -0.0017643561465001435
-0.003931234190646533   -0.003982605609615325   -0.001044768396370288
-0.0017126029901398598   -0.0037152593544685438   -0.0009422106242235179
-0.003419919302753986   -0.011132383235494083   -0.0017643561465001435
-0.0017513602979146495   -0.00366913325694978   -0.0010575689211674716
-0.003931234190646533   -0.003982605609615325   -0.001044768396370288
-0.003419919302753986   -0.011132383235494083   -0.0017643561465001435
-0.007531488929063336   -0.01143368853651393   -0.001878422302060916
-0.0075014448800281115   -0.011317743860466743   -0.002101518541774908
-0.003931234190646533   -0.003982605609615325   -0.001044768396370288
-0.003419919302753986   -0.011132383235494083   -0.0017643561465001435
-0.0075014448800281115   -0.011317743860466743   -0.002101518541774908
-0.0017513602979146495   -0.00366913325694978   -0.0010575689211674716
-0.003931234190646533   -0.003982605609615325   -0.001044768396370288
-0.007531488929063336   -0.01143368853651393   -0.001878422302060916
-0.0017126029901398598   -0.0037152593544685438   -0.0009422106242235179
-0.0039295416581951684   -0.004007025775844376   -0.0007856091420168664
-0.007531488929063336   -0.01143368853651393   -0.001878422302060916
-0.003419919302753986   -0.011132383235494083   -0.0017643561465001435
-0.0017126029901398598   -0.0037152593544685438   -0.0009422106242235179
-0.003380756804644345   -0.011130933408957475   -0.0016704674922533268
-0.0039295416581951684   -0.004007025775844376   -0.0007856091420168664
-0.0016773662048456576   -0.0036959843996205635   -0.0008229122367396354
-0.003380756804644345   -0.011130933408957475   -0.0016704674922533268
-0.0017126029901398598   -0.0037152593544685438   -0.0009422106242235179
-0.0039295416581951684   -0.004007025775844376   -0.0007856091420168664
-0.003380756804644345   -0.011130933408957475   -0.0016704674922533268
-0.0075095695819492716   -0.011493786076911112   -0.0016695665301966086
-0.007531488929063336   -0.01143368853651393   -0.001878422302060916
-0.0039295416581951684   -0.004007025775844376   -0.0007856091420168664
-0.003380756804644345   -0.011130933408957475   -0.0016704674922533268
-0.007531488929063336   -0.01143368853651393   -0.001878422302060916
-0.0017126029901398598   -0.0037152593544685438   -0.0009422106242235179
-0.001820610168357356   -0.003548083640644853   -0.0011759822786908626
-0.003475519364846409   -0.010952522666222438   -0.001991080407924702
0.0002374843549969278   -0.003567682339640074   -0.0009399425342338978
-0.0017513602979146495   -0.00366913325694978   -0.0010575689211674716
-0.003475519364846409   -0.010952522666222438   -0.001991080407924702
0.00039801525240964786   -0.010957703114182331   -0.001774416652631155
0.0002374843549969278   -0.003567682339640074   -0.0009399425342338978
0.00043436594412148854   -0.011015138996181473   -0.0017666314908524766
-0.0017513602979146495   -0.00366913325694978   -0.0010575689211674716
0.0002815327157962365   -0.0036304653700205947   -0.0009564229580369986
0.00043436594412148854   -0.011015138996181473   -0.0017666314908524766
0.0002374843549969278   -0.003567682339640074   -0.0009399425342338978
-0.0017513602979146495   -0.00366913325694978   -0.0010575689211674716
0.00043436594412148854   -0.011015138996181473   -0.0017666314908524766
-0.003446012925885083   -0.011073651346487433   -0.0018721703820618533
-0.003475519364846409   -0.010952522666222438   -0.001991080407924702
-0.0017513602979146495   -0.00366913325694978   -0.0010575689211674716
0.00043436594412148854   -0.011015138996181473   -0.0017666314908524766
-0.003475519364846409   -0.010952522666222438   -0.001991080407924702
0.0002374843549969278   -0.003567682339640074   -0.0009399425342338978
-0.0017513602979146495   -0.00366913325694978   -0.0010575689211674716
-0.003446012925885083   -0.011073651346487433   -0.0018721703820618533
0.0002815327157962365   -0.0036304653700205947   -0.0009564229580369986
-0.0017126029901398598   -0.0037152593544685438   -0.0009422106242235179
-0.003446012925885083   -0.011073651346487433   -0.0018721703820618533
0.00043436594412148854   -0.011015138996181473   -0.0017666314908524766
0.0002815327157962365   -0.0036304653700205947   -0.0009564229580369986
0.0004586728445469747   -0.011011642433772627   -0.0017714416935154151
-0.0017126029901398598   -0.0037152593544685438   -0.0009422106242235179
0.0003162546446431868   -0.003625296906741806   -0.0009712774981970345
0.0004586728445469747   -0.011011642433772627   -0.0017714416935154151
0.0002815327157962365   -0.0036304653700205947   -0.0009564229580369986
-0.0017126029901398598   -0.0037152593544685438   -0.0009422106242235179
0.0004586728445469747   -0.011011642433772627   -0.0017714416935154151
-0.003419919302753986   -0.011132383235494083   -0.0017643561465001435
-0.003446012925885083   -0.011073651346487433   -0.0018721703820618533
-0.0017126029901398598   -0.0037152593544685438   -0.0009422106242235179
0.0004586728445469747   -0.011011642433772627   -0.0017714416935154151
-0.003446012925885083   -0.011073651346487433   -0.0018721703820618533
0.0002815327157962365   -0.0036304653700205947   -0.0009564229580369986
-0.0017126029901398598   -0.0037152593544685438   -0.0009422106242235179
-0.003419919302753986   -0.011132383235494083   -0.0017643561465001435
0.0003162546446431868   -0.003625296906741806   -0.0009712774981970345
-0.0016773662048456576   -0.0036959843996205635   -0.0008229122367396354
-0.003419919302753986   -0.011132383235494083   -0.0017643561465001435
0.0004586728445469747   -0.011011642433772627   -0.0017714416935154151
0.0003162546446431868   -0.003625296906741806   -0.0009712774981970345
0.0004847861522395871   -0.010945351721983826   -0.0017890470233937429
-0.0016773662048456576   -0.0036959843996205635   -0.0008229122367396354
0.00036308324399072004   -0.0035465979479012075   -0.0009865057932120338
0.0004847861522395871   -0.010945351721983826   -0.0017890470233937429
0.0003162546446431868   -0.003625296906741806   -0.0009712774981970345
-0.0016773662048456576   -0.0036959843996205635   -0.0008229122367396354
0.0004847861522395871   -0.010945351721983826   -0.0017890470233937429
-0.003380756804644345   -0.011130933408957475   -0.0016704674922533268
-0.003419919302753986   -0.011132383235494083   -0.0017643561465001435
-0.0016773662048456576   -0.0036959843996205635   -0.0008229122367396354
0.0004847861522395871   -0.010945351721983826   -0.0017890470233937429
-0.003419919302753986   -0.011132383235494083   -0.0017643561465001435
0.0003162546446431868   -0.003625296906741806   -0.0009712774981970345
0.0002374843549969278   -0.003567682339640074   -0.0009399425342338978
0.00039801525240964786   -0.010957703114182331   -0.001774416652631155
0.0024712326984881803   -0.003741591503802548   -0.0008231076275054411
0.0002815327157962365   -0.0036304653700205947   -0.0009564229580369986
0.00039801525240964786   -0.010957703114182331   -0.001774416652631155
0.004502612190269181   -0.011136509061787134   -0.0016732205172415354
0.0024712326984881803   -0.003741591503802548   -0.0008231076275054411
0.0045229276112947175   -0.011136094056629362   -0.0017801671377408374
0.0002815327157962365   -0.0036304653700205947   -0.0009564229580369986
0.002475172640719108   -0.003761625947849489   -0.0009815234977759838
0.0045229276112947175   -0.011136094056629362   -0.0017801671377408374
0.0024712326984881803   -0.003741591503802548   -0.0008231076275054411
0.0002815327157962365   -0.0036304653700205947   -0.0009564229580369986
0.0045229276112947175   -0.011136094056629362   -0.0017801671377408374
0.00043436594412148854   -0.011015138996181473   -0.0017666314908524766
0.00039801525240964786   -0.010957703114182331   -0.001774416652631155
0.0002815327157962365   -0.0036304653700205947   -0.0009564229580369986
0.0045229276112947175   -0.011136094056629362   -0.0017801671377408374
0.00039801525240964786   -0.010957703114182331   -0.001774416652631155
0.0024712326984881803   -0.003741591503802548   -0.0008231076275054411
0.0002815327157962365   -0.0036304653700205947   -0.0009564229580369986
0.00043436594412148854   -0.011015138996181473   -0.0017666314908524766
0.002475172640719108   -0.003761625947849489   -0.0009815234977759838
0.0003162546446431868   -0.003625296906741806   -0.0009712774981970345
0.00043436594412148854   -0.011015138996181473   -0.0017666314908524766
0.0045229276112947175   -0.011136094056629362   -0.0017801671377408374
0.002475172640719108   -0.003761625947849489   -0.0009815234977759838
0.004501523036459341   -0.011075916989476018   -0.0019013644223097623
0.0003162546446431868   -0.003625296906741806   -0.0009712774981970345
0.0024641803063743632   -0.0037079080947299346   -0.0011334550364603846
0.004501523036459341   -0.011075916989476018   -0.0019013644223097623
0.002475172640719108   -0.003761625947849489   -0.0009815234977759838
0.0003162546446431868   -0.003625296906741806   -0.0009712774981970345
0.004501523036459341   -0.011075916989476018   -0.0019013644223097623
0.0004586728445469747   -0.011011642433772627   -0.0017714416935154151
0.00043436594412148854   -0.011015138996181473   -0.0017666314908524766
0.0003162546446431868   -0.003625296906741806   -0.0009712774981970345
0.004501523036459341   -0.011075916989476018   -0.0019013644223097623
0.00043436594412148854   -0.011015138996181473   -0.0017666314908524766
0.002475172640719108   -0.003761625947849489   -0.0009815234977759838
0.0003162546446431868   -0.003625296906741806   -0.0009712774981970345
0.0004586728445469747   -0.011011642433772627   -0.0017714416935154151
0.0024641803063743632   -0.0037079080947299346   -0.0011334550364603846
0.00036308324399072004   -0.0035465979479012075   -0.0009865057932120338
0.0004586728445469747   -0.011011642433772627   -0.0017714416935154151
0.004501523036459341   -0.011075916989476018   -0.0019013644223097623
0.0024641803063743632   -0.0037079080947299346   -0.0011334550364603846
0.004489074005991118   -0.010939503609827294   -0.002032329994671513
0.00036308324399072004   -0.0035465979479012075   -0.0009865057932120338
0.002511527856816111   -0.0035639552806202464   -0.0012824619227770333
0.004489074005991118   -0.010939503609827294   -0.002032329994671513
0.0024641803063743632   -0.0037079080947299346   -0.0011334550364603846
0.00036308324399072004   -0.0035465979479012075   -0.0009865057932120338
0.004489074005991118   -0.010939503609827294   -0.002032329994671513
0.0004847861522395871   -0.010945351721983826   -0.0017890470233937429
0.0004586728445469747   -0.011011642433772627   -0.0017714416935154151
0.00036308324399072004   -0.0035465979479012075   -0.0009865057932120338
0.004489074005991118   -0.010939503609827294   -0.002032329994671513
0.0004586728445469747   -0.011011642433772627   -0.0017714416935154151
0.0024641803063743632   -0.0037079080947299346   -0.0011334550364603846
0.0024712326984881803   -0.003741591503802548   -0.0008231076275054411
0.004502612190269181   -0.011136509061787134   -0.0016732205172415354
0.005576758508882832   -0.004182267046973435   -0.0007763962944616361
0.002475172640719108   -0.003761625947849489   -0.0009815234977759838
0.004502612190269181   -0.011136509061787134   -0.0016732205172415354
0.009455037094239985   -0.011468953909542943   -0.0016457685221546014
0.005576758508882832   -0.004182267046973435   -0.0007763962944616361
0.00926195266416456   -0.011437792522108402   -0.0018863044287258034
0.002475172640719108   -0.003761625947849489   -0.0009815234977759838
0.005236886073537409   -0.00413671468942838   -0.0011354401688840985
0.00926195266416456   -0.011437792522108402   -0.0018863044287258034
0.005576758508882832   -0.004182267046973435   -0.0007763962944616361
0.002475172640719108   -0.003761625947849489   -0.0009815234977759838
0.00926195266416456   -0.011437792522108402   -0.0018863044287258034
0.0045229276112947175   -0.011136094056629362   -0.0017801671377408374
0.004502612190269181   -0.011136509061787134   -0.0016732205172415354
0.002475172640719108   -0.003761625947849489   -0.0009815234977759838
0.00926195266416456   -0.011437792522108402   -0.0018863044287258034
0.004502612190269181   -0.011136509061787134   -0.0016732205172415354
0.005576758508882832   -0.004182267046973435   -0.0007763962944616361
0.002475172640719108   -0.003761625947849489   -0.0009815234977759838
0.0045229276112947175   -0.011136094056629362   -0.0017801671377408374
0.005236886073537409   -0.00413671468942838   -0.0011354401688840985
0.0024641803063743632   -0.0037079080947299346   -0.0011334550364603846
0.0045229276112947175   -0.011136094056629362   -0.0017801671377408374
0.00926195266416456   -0.011437792522108402   -0.0018863044287258034
0.005236886073537409   -0.00413671468942838   -0.0011354401688840985
0.009089458358342628   -0.011344994395080516   -0.0021568304931653594
0.0024641803063743632   -0.0037079080947299346   -0.0011334550364603846
0.00507998045431525   -0.00405070583523425   -0.001439026384211925
0.009089458358342628   -0.011344994395080516   -0.0021568304931653594
0.005236886073537409   -0.00413671468942838   -0.0011354401688840985
0.0024641803063743632   -0.0037079080947299346   -0.0011334550364603846
0.009089458358342628   -0.011344994395080516   -0.0021568304931653594
0.004501523036459341   -0.011075916989476018   -0.0019013644223097623
0.0045229276112947175   -0.011136094056629362   -0.0017801671377408374
0.0024641803063743632   -0.0037079080947299346   -0.0011334550364603846
0.009089458358342628   -0.011344994395080516   -0.0021568304931653594
0.0045229276112947175   -0.011136094056629362   -0.0017801671377408374
0.005236886073537409   -0.00413671468942838   -0.0011354401688840985
0.0024641803063743632   -0.0037079080947299346   -0.0011334550364603846
0.004501523036459341   -0.011075916989476018   -0.0019013644223097623
0.00507998045431525   -0.00405070583523425   -0.001439026384211925
0.002511527856816111   -0.0035639552806202464   -0.0012824619227770333
0.004501523036459341   -0.011075916989476018   -0.0019013644223097623
0.009089458358342628   -0.011344994395080516   -0.0021568304931653594
0.00507998045431525   -0.00405070583523425   -0.001439026384211925
0.008831290254140785   -0.011138372183828666   -0.002438394555982125
0.002511527856816111   -0.0035639552806202464   -0.0012824619227770333
0.004846665778338259   -0.0038305551769420893   -0.001760217351279063
0.008831290254140785   -0.011138372183828666   -0.002438394555982125
0.00507998045431525   -0.00405070583523425   -0.001439026384211925
0.002511527856816111   -0.0035639552806202464   -0.0012824619227770333
0.008831290254140785   -0.011138372183828666   -0.002438394555982125
0.004489074005991118   -0.010939503609827294   -0.002032329994671513
0.004501523036459341   -0.011075916989476018   -0.0019013644223097623
0.002511527856816111   -0.0035639552806202464   -0.0012824619227770333
0.008831290254140785   -0.011138372183828666   -0.002438394555982125
0.004501523036459341   -0.011075916989476018   -0.0019013644223097623
0.00507998045431525   -0.00405070583523425   -0.001439026384211925
-0.01173817495186697   -0.011503482726857582   -0.0028354177589988245
-0.016086092719078935   -0.021579351437398406   -0.003229213156051421
-0.007492127915141685   -0.0111274792397358   -0.002333647175634207
-0.012090477128265357   -0.01176892796181158   -0.0024584081966503523
-0.016086092719078935   -0.021579351437398406   -0.003229213156051421
-0.010341950933058033   -0.02129191058972764   -0.002822080767946645
-0.007492127915141685   -0.0111274792397358   -0.002333647175634207
-0.010365172899553481   -0.02145619328779029   -0.0026419270731235884
-0.012090477128265357   -0.01176892796181158   -0.0024584081966503523
-0.0075014448800281115   -0.011317743860466743   -0.002101518541774908
-0.010365172899553481   -0.02145619328779029   -0.0026419270731235884
-0.007492127915141685   -0.0111274792397358   -0.002333647175634207
-0.012090477128265357   -0.01176892796181158   -0.0024584081966503523
-0.010365172899553481   -0.02145619328779029   -0.0026419270731235884
-0.016372886730327545   -0.02180384055326982   -0.0029479189023995447
-0.016086092719078935   -0.021579351437398406   -0.003229213156051421
-0.012090477128265357   -0.01176892796181158   -0.0024584081966503523
-0.010365172899553481   -0.02145619328779029   -0.0026419270731235884
-0.016086092719078935   -0.021579351437398406   -0.003229213156051421
-0.007492127915141685   -0.0111274792397358   -0.002333647175634207
-0.012090477128265357   -0.01176892796181158   -0.0024584081966503523
-0.016372886730327545   -0.02180384055326982   -0.0029479189023995447
-0.0075014448800281115   -0.011317743860466743   -0.002101518541774908
-0.012335450401938257   -0.011918799628591345   -0.0020892098216215398
-0.016372886730327545   -0.02180384055326982   -0.0029479189023995447
-0.010365172899553481   -0.02145619328779029   -0.0026419270731235884
-0.0075014448800281115   -0.011317743860466743   -0.002101518541774908
-0.010392451937608939   -0.021570482974013528   -0.002474791682599135
-0.012335450401938257   -0.011918799628591345   -0.0020892098216215398
-0.007531488929063336   -0.01143368853651393   -0.001878422302060916
-0.010392451937608939   -0.021570482974013528   -0.002474791682599135
-0.0075014448800281115   -0.011317743860466743   -0.002101518541774908
-0.012335450401938257   -0.011918799628591345   -0.0020892098216215398
-0.010392451937608939   -0.021570482974013528   -0.002474791682599135
-0.01655393592878044   -0.021944569728211724   -0.0026857095241380998
-0.016372886730327545   -0.02180384055326982   -0.0029479189023995447
-0.012335450401938257   -0.011918799628591345   -0.0020892098216215398
-0.010392451937608939   -0.021570482974013528   -0.002474791682599135
-0.016372886730327545   -0.02180384055326982   -0.0029479189023995447
-0.0075014448800281115   -0.011317743860466743   -0.002101518541774908
-0.012335450401938257   -0.011918799628591345   -0.0020892098216215398
-0.01655393592878044   -0.021944569728211724   -0.0026857095241380998
-0.007531488929063336   -0.01143368853651393   -0.001878422302060916
-0.01262502038978253   -0.012005818285154513   -0.0017532411588716441
-0.01655393592878044   -0.021944569728211724   -0.0026857095241380998
-0.010392451937608939   -0.021570482974013528   -0.002474791682599135
-0.007531488929063336   -0.01143368853651393   -0.001878422302060916
-0.010373548824629547   -0.02164561893204254   -0.0023179024202056864
-0.01262502038978253   -0.012005818285154513   -0.0017532411588716441
-0.0075095695819492716   -0.011493786076911112   -0.0016695665301966086
-0.010373548824629547   -0.02164561893204254   -0.0023179024202056864
-0.007531488929063336   -0.01143368853651393   -0.001878422302060916
-0.01262502038978253   -0.012005818285154513   -0.0017532411588716441
-0.010373548824629547   -0.02164561893204254   -0.0023179024202056864
-0.01675993365417317   -0.022045688541387047   -0.002444369312525404
-0.01655393592878044   -0.021944569728211724   -0.0026857095241380998
-0.01262502038978253   -0.012005818285154513   -0.0017532411588716441
-0.010373548824629547   -0.02164561893204254   -0.0023179024202056864
-0.01655393592878044   -0.021944569728211724   -0.0026857095241380998
-0.007531488929063336   -0.01143368853651393   -0.001878422302060916
-0.007492127915141685   -0.0111274792397358   -0.002333647175634207
-0.010341950933058033   -0.02129191058972764   -0.002822080767946645
-0.003475519364846409   -0.010952522666222438   -0.001991080407924702
-0.0075014448800281115   -0.011317743860466743   -0.002101518541774908
-0.010341950933058033   -0.02129191058972764   -0.002822080767946645
-0.004925287601806105   -0.02114863513339712   -0.002539202622980128
-0.003475519364846409   -0.010952522666222438   -0.001991080407924702
-0.004913498836423526   -0.0212537162455684   -0.0024374372628503385
-0.0075014448800281115   -0.011317743860466743   -0.002101518541774908
-0.003446012925885083   -0.011073651346487433   -0.0018721703820618533
-0.004913498836423526   -0.0212537162455684   -0.0024374372628503385
-0.003475519364846409   -0.010952522666222438   -0.001991080407924702
-0.0075014448800281115   -0.011317743860466743   -0.002101518541774908
-0.004913498836423526   -0.0212537162455684   -0.0024374372628503385
-0.010365172899553481   -0.02145619328779029   -0.0026419270731235884
-0.010341950933058033   -0.02129191058972764   -0.002822080767946645
-0.0075014448800281115   -0.011317743860466743   -0.002101518541774908
-0.004913498836423526   -0.0212537162455684   -0.0024374372628503385
-0.010341950933058033   -0.02129191058972764   -0.002822080767946645
-0.003475519364846409   -0.010952522666222438   -0.001991080407924702
-0.0075014448800281115   -0.011317743860466743   -0.002101518541774908
-0.010365172899553481   -0.02145619328779029   -0.0026419270731235884
-0.003446012925885083   -0.011073651346487433   -0.0018721703820618533
-0.007531488929063336   -0.01143368853651393   -0.001878422302060916
-0.010365172899553481   -0.02145619328779029   -0.0026419270731235884
-0.004913498836423526   -0.0212537162455684   -0.0024374372628503385
-0.003446012925885083   -0.011073651346487433   -0.0018721703820618533
-0.0048989324189263   -0.02131542620860863   -0.002348071545752847
-0.007531488929063336   -0.01143368853651393   -0.001878422302060916
-0.003419919302753986   -0.011132383235494083   -0.0017643561465001435
-0.0048989324189263   -0.02131542620860863   -0.002348071545752847
-0.003446012925885083   -0.011073651346487433   -0.0018721703820618533
-0.007531488929063336   -0.01143368853651393   -0.001878422302060916
-0.0048989324189263   -0.02131542620860863   -0.002348071545752847
-0.010392451937608939   -0.021570482974013528   -0.002474791682599135
-0.010365172899553481   -0.02145619328779029   -0.0026419270731235884
-0.007531488929063336   -0.01143368853651393   -0.001878422302060916
-0.0048989324189263   -0.02131542620860863   -0.002348071545752847
-0.010365172899553481   -0.02145619328779029   -0.0026419270731235884
-0.003446012925885083   -0.011073651346487433   -0.0018721703820618533
-0.007531488929063336   -0.01143368853651393   -0.001878422302060916
-0.010392451937608939   -0.021570482974013528   -0.002474791682599135
-0.003419919302753986   -0.011132383235494083   -0.0017643561465001435
-0.0075095695819492716   -0.011493786076911112   -0.0016695665301966086
-0.010392451937608939   -0.021570482974013528   -0.002474791682599135
-0.0048989324189263   -0.02131542620860863   -0.002348071545752847
-0.003419919302753986   -0.011132383235494083   -0.0017643561465001435
-0.004874645492485938   -0.021334647336942937   -0.002271067040383184
-0.0075095695819492716   -0.011493786076911112   -0.0016695665301966086
-0.003380756804644345   -0.011130933408957475   -0.0016704674922533268
-0.004874645492485938   -0.021334647336942937   -0.002271067040383184
-0.003419919302753986   -0.011132383235494083   -0.0017643561465001435
-0.0075095695819492716   -0.011493786076911112   -0.0016695665301966086
-0.004874645492485938   -0.021334647336942937   -0.002271067040383184
-0.010373548824629547   -0.02164561893204254   -0.0023179024202056864
-0.010392451937608939   -0.021570482974013528   -0.002474791682599135
-0.0075095695819492716   -0.011493786076911112   -0.0016695665301966086
-0.004874645492485938   -0.021334647336942937   -0.002271067040383184
-0.010392451937608939   -0.021570482974013528   -0.002474791682599135
-0.003419919302753986   -0.011132383235494083   -0.0017643561465001435
-0.003475519364846409   -0.010952522666222438   -0.001991080407924702
-0.004925287601806105   -0.02114863513339712   -0.002539202622980128
0.00039801525240964786   -0.010957703114182331   -0.001774416652631155
-0.003446012925885083   -0.011073651346487433   -0.0018721703820618533
-0.004925287601806105   -0.02114863513339712   -0.002539202622980128
0.0003325226859601049   -0.02114101721387376   -0.0023637306239594432
0.00039801525240964786   -0.010957703114182331   -0.001774416652631155
0.00035464350756963793   -0.02118783751688437   -0.0023399302660206123
-0.003446012925885083   -0.011073651346487433   -0.0018721703820618533
0.00043436594412148854   -0.011015138996181473   -0.0017666314908524766
0.00035464350756963793   -0.02118783751688437   -0.0023399302660206123
0.00039801525240964786   -0.010957703114182331   -0.001774416652631155
-0.003446012925885083   -0.011073651346487433   -0.0018721703820618533
0.00035464350756963793   -0.02118783751688437   -0.0023399302660206123
-0.004913498836423526   -0.0212537162455684   -0.0024374372628503385
-0.004925287601806105   -0.02114863513339712   -0.002539202622980128
-0.003446012925885083   -0.011073651346487433   -0.0018721703820618533
0.00035464350756963793   -0.02118783751688437   -0.0023399302660206123
-0.004925287601806105   -0.02114863513339712   -0.002539202622980128
0.00039801525240964786   -0.010957703114182331   -0.001774416652631155
-0.003446012925885083   -0.011073651346487433   -0.0018721703820618533
-0.004913498836423526   -0.0212537162455684   -0.0024374372628503385
0.00043436594412148854   -0.011015138996181473   -0.0017666314908524766
-0.003419919302753986   -0.011132383235494083   -0.0017643561465001435
-0.004913498836423526   -0.0212537162455684   -0.0024374372628503385
0.00035464350756963793   -0.02118783751688437   -0.0023399302660206123
0.00043436594412148854   -0.011015138996181473   -0.0017666314908524766
0.0003686301296536228   -0.021191461790622885   -0.002328203880940969
-0.003419919302753986   -0.011132383235494083   -0.0017643561465001435
0.0004586728445469747   -0.011011642433772627   -0.0017714416935154151
0.0003686301296536228   -0.021191461790622885   -0.002328203880940969
0.00043436594412148854   -0.011015138996181473   -0.0017666314908524766
-0.003419919302753986   -0.011132383235494083   -0.0017643561465001435
0.0003686301296536228   -0.021191461790622885   -0.002328203880940969
-0.0048989324189263   -0.02131542620860863   -0.002348071545752847
-0.004913498836423526   -0.0212537162455684   -0.0024374372628503385
-0.003419919302753986   -0.011132383235494083   -0.0017643561465001435
0.0003686301296536228   -0.021191461790622885   -0.002328203880940969
-0.004913498836423526   -0.0212537162455684   -0.0024374372628503385
0.00043436594412148854   -0.011015138996181473   -0.0017666314908524766
-0.003419919302753986   -0.011132383235494083   -0.0017643561465001435
-0.0048989324189263   -0.02131542620860863   -0.002348071545752847
0.0004586728445469747   -0.011011642433772627   -0.0017714416935154151
-0.003380756804644345   -0.011130933408957475   -0.0016704674922533268
-0.0048989324189263   -0.02131542620860863   -0.002348071545752847
0.0003686301296536228   -0.021191461790622885   -0.002328203880940969
0.0004586728445469747   -0.011011642433772627   -0.0017714416935154151
0.0003785904199762887   -0.02115124531994577   -0.002329287205192319
-0.003380756804644345   -0.011130933408957475   -0.0016704674922533268
0.0004847861522395871   -0.010945351721983826   -0.0017890470233937429
0.0003785904199762887   -0.02115124531994577   -0.002329287205192319
0.0004586728445469747   -0.011011642433772627   -0.0017714416935154151
-0.003380756804644345   -0.011130933408957475   -0.0016704674922533268
0.0003785904199762887   -0.02115124531994577   -0.002329287205192319
-0.004874645492485938   -0.021334647336942937   -0.002271067040383184
-0.0048989324189263   -0.02131542620860863   -0.002348071545752847
-0.003380756804644345   -0.011130933408957475   -0.0016704674922533268
0.0003785904199762887   -0.02115124531994577   -0.002329287205192319
-0.0048989324189263   -0.02131542620860863   -0.002348071545752847
0.0004586728445469747   -0.011011642433772627   -0.0017714416935154151
0.00039801525240964786   -0.010957703114182331   -0.001774416652631155
0.0003325226859601049   -0.02114101721387376   -0.0023637306239594432
0.004502612190269181   -0.011136509061787134   -0.0016732205172415354
0.00043436594412148854   -0.011015138996181473   -0.0017666314908524766
0.0003325226859601049   -0.02114101721387376   -0.0023637306239594432
0.005814588910567773   -0.021260997799847258   -0.0022926515667846844
0.004502612190269181   -0.011136509061787134   -0.0016732205172415354
0.005833789072641906   -0.021254434862755123   -0.00234843953517665
0.00043436594412148854   -0.011015138996181473   -0.0017666314908524766
0.0045229276112947175   -0.011136094056629362   -0.0017801671377408374
0.005833789072641906   -0.021254434862755123   -0.00234843953517665
0.004502612190269181   -0.011136509061787134   -0.0016732205172415354
0.00043436594412148854   -0.011015138996181473   -0.0017666314908524766
0.005833789072641906   -0.021254434862755123   -0.00234843953517665
0.00035464350756963793   -0.02118783751688437   -0.0023399302660206123
0.0003325226859601049   -0.02114101721387376   -0.0023637306239594432
0.00043436594412148854   -0.011015138996181473   -0.0017666314908524766
0.005833789072641906   -0.021254434862755123   -0.00234843953517665
0.0003325226859601049   -0.02114101721387376   -0.0023637306239594432
0.004502612190269181   -0.011136509061787134   -0.0016732205172415354
0.00043436594412148854   -0.011015138996181473   -0.0017666314908524766
0.00035464350756963793   -0.02118783751688437   -0.0023399302660206123
0.0045229276112947175   -0.011136094056629362   -0.0017801671377408374
0.0004586728445469747   -0.011011642433772627   -0.0017714416935154151
0.00035464350756963793   -0.02118783751688437   -0.0023399302660206123
0.005833789072641906   -0.021254434862755123   -0.00234843953517665
0.0045229276112947175   -0.011136094056629362   -0.0017801671377408374
0.005818425318661924   -0.021205586090141375   -0.0024154142797263396
0.0004586728445469747   -0.011011642433772627   -0.0017714416935154151
0.004501523036459341   -0.011075916989476018   -0.0019013644223097623
0.005818425318661924   -0.021205586090141375   -0.0024154142797263396
0.0045229276112947175   -0.011136094056629362   -0.0017801671377408374
0.0004586728445469747   -0.011011642433772627   -0.0017714416935154151
0.005818425318661924   -0.021205586090141375   -0.0024154142797263396
0.0003686301296536228   -0.021191461790622885   -0.002328203880940969
0.00035464350756963793   -0.02118783751688437   -0.0023399302660206123
0.0004586728445469747   -0.011011642433772627   -0.0017714416935154151
0.005818425318661924   -0.021205586090141375   -0.0024154142797263396
0.00035464350756963793   -0.02118783751688437   -0.0023399302660206123
0.0045229276112947175   -0.011136094056629362   -0.0017801671377408374
0.0004586728445469747   -0.011011642433772627   -0.0017714416935154151
0.0003686301296536228   -0.021191461790622885   -0.002328203880940969
0.004501523036459341   -0.011075916989476018   -0.0019013644223097623
0.0004847861522395871   -0.010945351721983826   -0.0017890470233937429
0.0003686301296536228   -0.021191461790622885   -0.002328203880940969
0.005818425318661924   -0.021205586090141375   -0.0024154142797263396
0.004501523036459341   -0.011075916989476018   -0.0019013644223097623
0.0057957419823130105   -0.021103998736349282   -0.002494899599451892
0.0004847861522395871   -0.010945351721983826   -0.0017890470233937429
0.004489074005991118   -0.010939503609827294   -0.002032329994671513
0.0057957419823130105   -0.021103998736349282   -0.002494899599451892
0.004501523036459341   -0.011075916989476018   -0.0019013644223097623
0.0004847861522395871   -0.010945351721983826   -0.0017890470233937429
0.0057957419823130105   -0.021103998736349282   -0.002494899599451892
0.0003785904199762887   -0.02115124531994577   -0.002329287205192319
0.0003686301296536228   -0.021191461790622885   -0.002328203880940969
0.0004847861522395871   -0.010945351721983826   -0.0017890470233937429
0.0057957419823130105   -0.021103998736349282   -0.002494899599451892
0.0003686301296536228   -0.021191461790622885   -0.002328203880940969
0.004501523036459341   -0.011075916989476018   -0.0019013644223097623
0.004502612190269181   -0.011136509061787134   -0.0016732205172415354
0.005814588910567773   -0.021260997799847258   -0.0022926515667846844
0.009455037094239985   -0.011468953909542943   -0.0016457685221546014
0.0045229276112947175   -0.011136094056629362   -0.0017801671377408374
0.005814588910567773   -0.021260997799847258   -0.0022926515667846844
0.012057536517446791   -0.021478729588411932   -0.0022937140321175175
0.009455037094239985   -0.011468953909542943   -0.0016457685221546014
0.011951826821838096   -0.021441435387579838   -0.002439386595246764
0.0045229276112947175   -0.011136094056629362   -0.0017801671377408374
0.00926195266416456   -0.011437792522108402   -0.0018863044287258034
0.011951826821838096   -0.021441435387579838   -0.002439386595246764
0.009455037094239985   -0.011468953909542943   -0.0016457685221546014
0.0045229276112947175   -0.011136094056629362   -0.0017801671377408374
0.011951826821838096   -0.021441435387579838   -0.002439386595246764
0.005833789072641906   -0.021254434862755123   -0.00234843953517665
0.005814588910567773   -0.021260997799847258   -0.0022926515667846844
0.0045229276112947175   -0.011136094056629362   -0.0017801671377408374
0.011951826821838096   -0.021441435387579838   -0.002439386595246764
0.005814588910567773   -0.021260997799847258   -0.0022926515667846844
0.009455037094239985   -0.011468953909542943   -0.0016457685221546014
0.0045229276112947175   -0.011136094056629362   -0.0017801671377408374
0.005833789072641906   -0.021254434862755123   -0.00234843953517665
0.00926195266416456   -0.011437792522108402   -0.0018863044287258034
0.004501523036459341   -0.011075916989476018   -0.0019013644223097623
0.005833789072641906   -0.021254434862755123   -0.00234843953517665
0.011951826821838096   -0.021441435387579838   -0.002439386595246764
0.00926195266416456   -0.011437792522108402   -0.0018863044287258034
0.011846421421259265   -0.02136619474137424   -0.002605231296434788
0.004501523036459341   -0.011075916989476018   -0.0019013644223097623
0.009089458358342628   -0.011344994395080516   -0.0021568304931653594
0.011846421421259265   -0.02136619474137424   -0.002605231296434788
0.00926195266416456   -0.011437792522108402   -0.0018863044287258034
0.004501523036459341   -0.011075916989476018   -0.0019013644223097623
0.011846421421259265   -0.02136619474137424   -0.002605231296434788
0.005818425318661924   -0.021205586090141375   -0.0024154142797263396
0.005833789072641906   -0.021254434862755123   -0.00234843953517665
0.004501523036459341   -0.011075916989476018   -0.0019013644223097623
0.011846421421259265   -0.02136619474137424   -0.002605231296434788
0.005833789072641906   -0.021254434862755123   -0.00234843953517665
0.00926195266416456   -0.011437792522108402   -0.0018863044287258034
0.004501523036459341   -0.011075916989476018   -0.0019013644223097623
0.005818425318661924   -0.021205586090141375   -0.0024154142797263396
0.009089458358342628   -0.011344994395080516   -0.0021568304931653594
0.004489074005991118   -0.010939503609827294   -0.002032329994671513
0.005818425318661924   -0.021205586090141375   -0.0024154142797263396
0.011846421421259265   -0.02136619474137424   -0.002605231296434788
0.009089458358342628   -0.011344994395080516   -0.0021568304931653594
0.011659687416018034   -0.021208201928155694   -0.0027912694000138483
0.004489074005991118   -0.010939503609827294   -0.002032329994671513
0.008831290254140785   -0.011138372183828666   -0.002438394555982125
0.011659687416018034   -0.021208201928155694   -0.0027912694000138483
0.009089458358342628   -0.011344994395080516   -0.0021568304931653594
0.004489074005991118   -0.010939503609827294   -0.002032329994671513
0.011659687416018034   -0.021208201928155694   -0.0027912694000138483
0.0057957419823130105   -0.021103998736349282   -0.002494899599451892
0.005818425318661924   -0.021205586090141375   -0.0024154142797263396
0.004489074005991118   -0.010939503609827294   -0.002032329994671513
0.011659687416018034   -0.021208201928155694   -0.0027912694000138483
0.005818425318661924   -0.021205586090141375   -0.0024154142797263396
0.009089458358342628   -0.011344994395080516   -0.0021568304931653594
-0.016086092719078935   -0.021579351437398406   -0.003229213156051421
-0.01921271151358224   -0.033530251675638924   -0.003443447691353321
-0.010341950933058033   -0.02129191058972764   -0.002822080767946645
-0.016372886730327545   -0.02180384055326982   -0.0029479189023995447
-0.01921271151358224   -0.033530251675638924   -0.003443447691353321
-0.012470042383609065   -0.03334727754843252   -0.00311135739372552
-0.010341950933058033   -0.02129191058972764   -0.002822080767946645
-0.012485534012124162   -0.03348865046668479   -0.0029823639022116544
-0.016372886730327545   -0.02180384055326982   -0.0029479189023995447
-0.010365172899553481   -0.02145619328779029   -0.0026419270731235884
-0.012485534012124162   -0.03348865046668479   -0.0029823639022116544
-0.010341950933058033   -0.02129191058972764   -0.002822080767946645
-0.016372886730327545   -0.02180384055326982   -0.0029479189023995447
-0.012485534012124162   -0.03348865046668479   -0.0029823639022116544
-0.019406183272878602   -0.033721487240007335   -0.0032565543455484137
-0.01921271151358224   -0.033530251675638924   -0.003443447691353321
-0.016372886730327545   -0.02180384055326982   -0.0029479189023995447
-0.012485534012124162   -0.03348865046668479   -0.0029823639022116544
-0.01921271151358224   -0.033530251675638924   -0.003443447691353321
-0.010341950933058033   -0.02129191058972764   -0.002822080767946645
-0.016372886730327545   -0.02180384055326982   -0.0029479189023995447
-0.019406183272878602   -0.033721487240007335   -0.0032565543455484137
-0.010365172899553481   -0.02145619328779029   -0.0026419270731235884
-0.01655393592878044   -0.021944569728211724   -0.0026857095241380998
-0.019406183272878602   -0.033721487240007335   -0.0032565543455484137
-0.012485534012124162   -0.03348865046668479   -0.0029823639022116544
-0.010365172899553481   -0.02145619328779029   -0.0026419270731235884
-0.012496743549194047   -0.033600692486287   -0.0028662161530669233
-0.01655393592878044   -0.021944569728211724   -0.0026857095241380998
-0.010392451937608939   -0.021570482974013528   -0.002474791682599135
-0.012496743549194047   -0.033600692486287   -0.0028662161530669233
-0.010365172899553481   -0.02145619328779029   -0.0026419270731235884
-0.01655393592878044   -0.021944569728211724   -0.0026857095241380998
-0.012496743549194047   -0.033600692486287   -0.0028662161530669233
-0.019517437923713125   -0.03385674584693778   -0.0030875741909392506
-0.019406183272878602   -0.033721487240007335   -0.0032565543455484137
-0.01655393592878044   -0.021944569728211724   -0.0026857095241380998
-0.012496743549194047   -0.033600692486287   -0.0028662161530669233
-0.019406183272878602   -0.033721487240007335   -0.0032565543455484137
-0.010365172899553481   -0.02145619328779029   -0.0026419270731235884
-0.01655393592878044   -0.021944569728211724   -0.0026857095241380998
-0.019517437923713125   -0.03385674584693778   -0.0030875741909392506
-0.010392451937608939   -0.021570482974013528   -0.002474791682599135
-0.01675993365417317   -0.022045688541387047   -0.002444369312525404
-0.019517437923713125   -0.03385674584693778   -0.0030875741909392506
-0.012496743549194047   -0.033600692486287   -0.0028662161530669233
-0.010392451937608939   -0.021570482974013528   -0.002474791682599135
-0.012471385787322589   -0.03369269115663375   -0.0027612095907370332
-0.01675993365417317   -0.022045688541387047   -0.002444369312525404
-0.010373548824629547   -0.02164561893204254   -0.0023179024202056864
-0.012471385787322589   -0.03369269115663375   -0.0027612095907370332
-0.010392451937608939   -0.021570482974013528   -0.002474791682599135
-0.01675993365417317   -0.022045688541387047   -0.002444369312525404
-0.012471385787322589   -0.03369269115663375   -0.0027612095907370332
-0.019632076158831637   -0.033977914841902726   -0.002938633708743648
-0.019517437923713125   -0.03385674584693778   -0.0030875741909392506
-0.01675993365417317   -0.022045688541387047   -0.002444369312525404
-0.012471385787322589   -0.03369269115663375   -0.0027612095907370332
-0.019517437923713125   -0.03385674584693778   -0.0030875741909392506
-0.010392451937608939   -0.021570482974013528   -0.002474791682599135
-0.010341950933058033   -0.02129191058972764   -0.002822080767946645
-0.012470042383609065   -0.03334727754843252   -0.00311135739372552
-0.004925287601806105   -0.02114863513339712   -0.002539202622980128
-0.010365172899553481   -0.02145619328779029   -0.0026419270731235884
-0.012470042383609065   -0.03334727754843252   -0.00311135739372552
-0.006148559162413068   -0.03325275850458208   -0.0028813896980042497
-0.004925287601806105   -0.02114863513339712   -0.002539202622980128
-0.006137356768132788   -0.03334150079866069   -0.0027962782137192863
-0.010365172899553481   -0.02145619328779029   -0.0026419270731235884
-0.004913498836423526   -0.0212537162455684   -0.0024374372628503385
-0.006137356768132788   -0.03334150079866069   -0.0027962782137192863
-0.004925287601806105   -0.02114863513339712   -0.002539202622980128
-0.010365172899553481   -0.02145619328779029   -0.0026419270731235884
-0.006137356768132788   -0.03334150079866069   -0.0027962782137192863
-0.012485534012124162   -0.03348865046668479   -0.0029823639022116544
-0.012470042383609065   -0.03334727754843252   -0.00311135739372552
-0.010365172899553481   -0.02145619328779029   -0.0026419270731235884
-0.006137356768132788   -0.03334150079866069   -0.0027962782137192863
-0.012470042383609065   -0.03334727754843252   -0.00311135739372552
-0.004925287601806105   -0.02114863513339712   -0.002539202622980128
-0.010365172899553481   -0.02145619328779029   -0.0026419270731235884
-0.012485534012124162   -0.03348865046668479   -0.0029823639022116544
-0.004913498836423526   -0.0212537162455684   -0.0024374372628503385
-0.010392451937608939   -0.021570482974013528   -0.002474791682599135
-0.012485534012124162   -0.03348865046668479   -0.0029823639022116544
-0.006137356768132788   -0.03334150079866069   -0.0027962782137192863
-0.004913498836423526   -0.0212537162455684   -0.0024374372628503385
-0.006121872571554311   -0.033405668176385836   -0.0027238217809639562
-0.010392451937608939   -0.021570482974013528   -0.002474791682599135
-0.0048989324189263   -0.02131542620860863   -0.002348071545752847
-0.006121872571554311   -0.033405668176385836   -0.0027238217809639562
-0.004913498836423526   -0.0212537162455684   -0.0024374372628503385
-0.010392451937608939   -0.021570482974013528   -0.002474791682599135
-0.006121872571554311   -0.033405668176385836   -0.0027238217809639562
-0.012496743549194047   -0.033600692486287   -0.0028662161530669233
-0.012485534012124162   -0.03348865046668479   -0.0029823639022116544
-0.010392451937608939   -0.021570482974013528   -0.002474791682599135
-0.006121872571554311   -0.033405668176385836   -0.0027238217809639562
-0.012485534012124162   -0.03348865046668479   -0.0029823639022116544
-0.004913498836423526   -0.0212537162455684   -0.0024374372628503385
-0.010392451937608939   -0.021570482974013528   -0.002474791682599135
-0.012496743549194047   -0.033600692486287   -0.0028662161530669233
-0.0048989324189263   -0.02131542620860863   -0.002348071545752847
-0.010373548824629547   -0.02164561893204254   -0.0023179024202056864
-0.012496743549194047   -0.033600692486287   -0.0028662161530669233
-0.006121872571554311   -0.033405668176385836   -0.0027238217809639562
-0.0048989324189263   -0.02131542620860863   -0.002348071545752847
-0.0060985449044713685   -0.033445680758732436   -0.002664228378140636
-0.010373548824629547   -0.02164561893204254   -0.0023179024202056864
-0.004874645492485938   -0.021334647336942937   -0.002271067040383184
-0.0060985449044713685   -0.033445680758732436   -0.002664228378140636
-0.0048989324189263   -0.02131542620860863   -0.002348071545752847
-0.010373548824629547   -0.02164561893204254   -0.0023179024202056864
-0.0060985449044713685   -0.033445680758732436   -0.002664228378140636
-0.012471385787322589   -0.03369269115663375   -0.0027612095907370332
-0.012496743549194047   -0.033600692486287   -0.0028662161530669233
-0.010373548824629547   -0.02164561893204254   -0.0023179024202056864
-0.0060985449044713685   -0.033445680758732436   -0.002664228378140636
-0.012496743549194047   -0.033600692486287   -0.0028662161530669233
-0.0048989324189263   -0.02131542620860863   -0.002348071545752847
-0.004925287601806105   -0.02114863513339712   -0.002539202622980128
-0.006148559162413068   -0.03325275850458208   -0.0028813896980042497
0.0003325226859601049   -0.02114101721387376   -0.0023637306239594432
-0.004913498836423526   -0.0212537162455684   -0.0024374372628503385
-0.006148559162413068   -0.03325275850458208   -0.0028813896980042497
1.3772403393957751e-06   -0.03323653496641004   -0.0027473687057042446
0.0003325226859601049   -0.02114101721387376   -0.0023637306239594432
2.2882610721892907e-05   -0.033272377471655505   -0.002706474620089795
-0.004913498836423526   -0.0212537162455684   -0.0024374372628503385
0.00035464350756963793   -0.02118783751688437   -0.0023399302660206123
2.2882610721892907e-05   -0.033272377471655505   -0.002706474620089795
0.0003325226859601049   -0.02114101721387376   -0.0023637306239594432
-0.004913498836423526   -0.0212537162455684   -0.0024374372628503385
2.2882610721892907e-05   -0.033272377471655505   -0.002706474620089795
-0.006137356768132788   -0.03334150079866069   -0.0027962782137192863
-0.006148559162413068   -0.03325275850458208   -0.0028813896980042497
-0.004913498836423526   -0.0212537162455684   -0.0024374372628503385
2.2882610721892907e-05   -0.033272377471655505   -0.002706474620089795
-0.006148559162413068   -0.03325275850458208   -0.0028813896980042497
0.0003325226859601049   -0.02114101721387376   -0.0023637306239594432
-0.004913498836423526   -0.0212537162455684   -0.0024374372628503385
-0.006137356768132788   -0.03334150079866069   -0.0027962782137192863
0.00035464350756963793   -0.02118783751688437   -0.0023399302660206123
-0.0048989324189263   -0.02131542620860863   -0.002348071545752847
-0.006137356768132788   -0.03334150079866069   -0.0027962782137192863
2.2882610721892907e-05   -0.033272377471655505   -0.002706474620089795
0.00035464350756963793   -0.02118783751688437   -0.0023399302660206123
3.805319588374289e-05   -0.03328347620564966   -0.0026780735228715794
-0.0048989324189263   -0.02131542620860863   -0.002348071545752847
0.0003686301296536228   -0.021191461790622885   -0.002328203880940969
3.805319588374289e-05   -0.03328347620564966   -0.0026780735228715794
0.00035464350756963793   -0.02118783751688437   -0.0023399302660206123
-0.0048989324189263   -0.02131542620860863   -0.002348071545752847
3.805319588374289e-05   -0.03328347620564966   -0.0026780735228715794
-0.006121872571554311   -0.033405668176385836   -0.0027238217809639562
-0.006137356768132788   -0.03334150079866069   -0.0027962782137192863
-0.0048989324189263   -0.02131542620860863   -0.002348071545752847
3.805319588374289e-05   -0.03328347620564966   -0.0026780735228715794
-0.006137356768132788   -0.03334150079866069   -0.0027962782137192863
0.00035464350756963793   -0.02118783751688437   -0.0023399302660206123
-0.0048989324189263   -0.02131542620860863   -0.002348071545752847
-0.006121872571554311   -0.033405668176385836   -0.0027238217809639562
0.0003686301296536228   -0.021191461790622885   -0.002328203880940969
-0.004874645492485938   -0.021334647336942937   -0.002271067040383184
-0.006121872571554311   -0.033405668176385836   -0.0027238217809639562
3.805319588374289e-05   -0.03328347620564966   -0.0026780735228715794
0.0003686301296536228   -0.021191461790622885   -0.002328203880940969
4.7499551556683545e-05   -0.03326949228246259   -0.0026627196675704746
-0.004874645492485938   -0.021334647336942937   -0.002271067040383184
0.0003785904199762887   -0.02115124531994577   -0.002329287205192319
4.7499551556683545e-05   -0.03326949228246259   -0.0026627196675704746
0.0003686301296536228   -0.021191461790622885   -0.002328203880940969
-0.004874645492485938   -0.021334647336942937   -0.002271067040383184
4.7499551556683545e-05   -0.03326949228246259   -0.0026627196675704746
-0.0060985449044713685   -0.033445680758732436   -0.002664228378140636
-0.006121872571554311   -0.033405668176385836   -0.0027238217809639562
-0.004874645492485938   -0.021334647336942937   -0.002271067040383184
4.7499551556683545e-05   -0.03326949228246259   -0.0026627196675704746
-0.006121872571554311   -0.033405668176385836   -0.0027238217809639562
0.0003686301296536228   -0.021191461790622885   -0.002328203880940969
0.0003325226859601049   -0.02114101721387376   -0.0023637306239594432
1.3772403393957751e-06   -0.03323653496641004   -0.0027473687057042446
0.005814588910567773   -0.021260997799847258   -0.0022926515667846844
0.00035464350756963793   -0.02118783751688437   -0.0023399302660206123
1.3772403393957751e-06   -0.03323653496641004   -0.0027473687057042446
0.006362770168692304   -0.033291930026434186   -0.0027087362372316187
0.005814588910567773   -0.021260997799847258   -0.0022926515667846844
0.0063891565838506805   -0.03327796288970471   -0.0027129952551437925
0.00035464350756963793   -0.02118783751688437   -0.0023399302660206123
0.005833789072641906   -0.021254434862755123   -0.00234843953517665
0.0063891565838506805   -0.03327796288970471   -0.0027129952551437925
0.005814588910567773   -0.021260997799847258   -0.0022926515667846844
0.00035464350756963793   -0.02118783751688437   -0.0023399302660206123
0.0063891565838506805   -0.03327796288970471   -0.0027129952551437925
2.2882610721892907e-05   -0.033272377471655505   -0.002706474620089795
1.3772403393957751e-06   -0.03323653496641004   -0.0027473687057042446
0.00035464350756963793   -0.02118783751688437   -0.0023399302660206123
0.0063891565838506805   -0.03327796288970471   -0.0027129952551437925
1.3772403393957751e-06   -0.03323653496641004   -0.0027473687057042446
0.005814588910567773   -0.021260997799847258   -0.0022926515667846844
0.00035464350756963793   -0.02118783751688437   -0.0023399302660206123
2.2882610721892907e-05   -0.033272377471655505   -0.002706474620089795
0.005833789072641906   -0.021254434862755123   -0.00234843953517665
0.0003686301296536228   -0.021191461790622885   -0.002328203880940969
2.2882610721892907e-05   -0.033272377471655505   -0.002706474620089795
0.0063891565838506805   -0.03327796288970471   -0.0027129952551437925
0.005833789072641906   -0.021254434862755123   -0.00234843953517665
0.006390683979898261   -0.0332411275639374   -0.0027290759848665256
0.0003686301296536228   -0.021191461790622885   -0.002328203880940969
0.005818425318661924   -0.021205586090141375   -0.0024154142797263396
0.006390683979898261   -0.0332411275639374   -0.0027290759848665256
0.005833789072641906   -0.021254434862755123   -0.00234843953517665
0.0003686301296536228   -0.021191461790622885   -0.002328203880940969
0.006390683979898261   -0.0332411275639374   -0.0027290759848665256
3.805319588374289e-05   -0.03328347620564966   -0.0026780735228715794
2.2882610721892907e-05   -0.033272377471655505   -0.002706474620089795
0.0003686301296536228   -0.021191461790622885   -0.002328203880940969
0.006390683979898261   -0.0332411275639374   -0.0027290759848665256
2.2882610721892907e-05   -0.033272377471655505   -0.002706474620089795
0.005833789072641906   -0.021254434862755123   -0.00234843953517665
0.0003686301296536228   -0.021191461790622885   -0.002328203880940969
3.805319588374289e-05   -0.03328347620564966   -0.0026780735228715794
0.005818425318661924   -0.021205586090141375   -0.0024154142797263396
0.0003785904199762887   -0.02115124531994577   -0.002329287205192319
3.805319588374289e-05   -0.03328347620564966   -0.0026780735228715794
0.006390683979898261   -0.0332411275639374   -0.0027290759848665256
0.005818425318661924   -0.021205586090141375   -0.0024154142797263396
0.006376255856727703   -0.03317218722408062   -0.0027574269810802243
0.0003785904199762887   -0.02115124531994577   -0.002329287205192319
0.0057957419823130105   -0.021103998736349282   -0.002494899599451892
0.006376255856727703   -0.03317218722408062   -0.0027574269810802243
0.005818425318661924   -0.021205586090141375   -0.0024154142797263396
0.0003785904199762887   -0.02115124531994577   -0.002329287205192319
0.006376255856727703   -0.03317218722408062   -0.0027574269810802243
4.7499551556683545e-05   -0.03326949228246259   -0.0026627196675704746
3.805319588374289e-05   -0.03328347620564966   -0.0026780735228715794
0.0003785904199762887   -0.02115124531994577   -0.002329287205192319
0.006376255856727703   -0.03317218722408062   -0.0027574269810802243
3.805319588374289e-05   -0.03328347620564966   -0.0026780735228715794
0.005818425318661924   -0.021205586090141375   -0.0024154142797263396
0.005814588910567773   -0.021260997799847258   -0.0022926515667846844
0.006362770168692304   -0.033291930026434186   -0.0027087362372316187
0.012057536517446791   -0.021478729588411932   -0.0022937140321175175
0.005833789072641906   -0.021254434862755123   -0.00234843953517665
0.006362770168692304   -0.033291930026434186   -0.0027087362372316187
0.013387363724102649   -0.033393817599953975   -0.0027445761094575826
0.012057536517446791   -0.021478729588411932   -0.0022937140321175175
0.013374252631417142   -0.033346134912191815   -0.0027976105033464473
0.005833789072641906   -0.021254434862755123   -0.00234843953517665
0.011951826821838096   -0.021441435387579838   -0.002439386595246764
0.013374252631417142   -0.033346134912191815   -0.0027976105033464473
0.012057536517446791   -0.021478729588411932   -0.0022937140321175175
0.005833789072641906   -0.021254434862755123   -0.00234843953517665
0.013374252631417142   -0.033346134912191815   -0.0027976105033464473
0.0063891565838506805   -0.03327796288970471   -0.0027129952551437925
0.006362770168692304   -0.033291930026434186   -0.0027087362372316187
0.005833789072641906   -0.021254434862755123   -0.00234843953517665
0.013374252631417142   -0.033346134912191815   -0.0027976105033464473
0.006362770168692304   -0.033291930026434186   -0.0027087362372316187
0.012057536517446791   -0.021478729588411932   -0.0022937140321175175
0.005833789072641906   -0.021254434862755123   -0.00234843953517665
0.0063891565838506805   -0.03327796288970471   -0.0027129952551437925
0.011951826821838096   -0.021441435387579838   -0.002439386595246764
0.005818425318661924   -0.021205586090141375   -0.0024154142797263396
0.0063891565838506805   -0.03327796288970471   -0.0027129952551437925
0.013374252631417142   -0.033346134912191815   -0.0027976105033464473
0.011951826821838096   -0.021441435387579838   -0.002439386595246764
0.013340093989984094   -0.03328600419623345   -0.0028698214280356215
0.005818425318661924   -0.021205586090141375   -0.0024154142797263396
0.011846421421259265   -0.02136619474137424   -0.002605231296434788
0.013340093989984094   -0.03328600419623345   -0.0028698214280356215
0.011951826821838096   -0.021441435387579838   -0.002439386595246764
0.005818425318661924   -0.021205586090141375   -0.0024154142797263396
0.013340093989984094   -0.03328600419623345   -0.0028698214280356215
0.006390683979898261   -0.0332411275639374   -0.0027290759848665256
0.0063891565838506805   -0.03327796288970471   -0.0027129952551437925
0.005818425318661924   -0.021205586090141375   -0.0024154142797263396
0.013340093989984094   -0.03328600419623345   -0.0028698214280356215
0.0063891565838506805   -0.03327796288970471   -0.0027129952551437925
0.011951826821838096   -0.021441435387579838   -0.002439386595246764
0.005818425318661924   -0.021205586090141375   -0.0024154142797263396
0.006390683979898261   -0.0332411275639374   -0.0027290759848665256
0.011846421421259265   -0.02136619474137424   -0.002605231296434788
0.0057957419823130105   -0.021103998736349282   -0.002494899599451892
0.006390683979898261   -0.0332411275639374   -0.0027290759848665256
0.013340093989984094   -0.03328600419623345   -0.0028698214280356215
0.011846421421259265   -0.02136619474137424   -0.002605231296434788
0.013248003640494325   -0.03317123211923778   -0.0029610699047479183
0.0057957419823130105   -0.021103998736349282   -0.002494899599451892
0.011659687416018034   -0.021208201928155694   -0.0027912694000138483
0.013248003640494325   -0.03317123211923778   -0.0029610699047479183
0.011846421421259265   -0.02136619474137424   -0.002605231296434788
0.0057957419823130105   -0.021103998736349282   -0.002494899599451892
0.013248003640494325   -0.03317123211923778   -0.0029610699047479183
0.006376255856727703   -0.03317218722408062   -0.0027574269810802243
0.006390683979898261   -0.0332411275639374   -0.0027290759848665256
0.0057957419823130105   -0.021103998736349282   -0.002494899599451892
0.013248003640494325   -0.03317123211923778   -0.0029610699047479183
0.006390683979898261   -0.0332411275639374   -0.0027290759848665256
0.011846421421259265   -0.02136619474137424   -0.002605231296434788
-0.01921271151358224   -0.033530251675638924   -0.003443447691353321
-0.021107119786361206   -0.046542225757884914   -0.0035060427756999925
-0.012470042383609065   -0.03334727754843252   -0.00311135739372552
-0.019406183272878602   -0.033721487240007335   -0.0032565543455484137
-0.021107119786361206   -0.046542225757884914   -0.0035060427756999925
-0.013867884583605532   -0.046467580898461446   -0.003241395640816693
-0.012470042383609065   -0.03334727754843252   -0.00311135739372552
-0.01386276417985199   -0.04658821796662849   -0.0031622478240008207
-0.019406183272878602   -0.033721487240007335   -0.0032565543455484137
-0.012485534012124162   -0.03348865046668479   -0.0029823639022116544
-0.01386276417985199   -0.04658821796662849   -0.0031622478240008207
-0.012470042383609065   -0.03334727754843252   -0.00311135739372552
-0.019406183272878602   -0.033721487240007335   -0.0032565543455484137
-0.01386276417985199   -0.04658821796662849   -0.0031622478240008207
-0.02119777194769198   -0.046704374075782   -0.0034095726279570427
-0.021107119786361206   -0.046542225757884914   -0.0035060427756999925
-0.019406183272878602   -0.033721487240007335   -0.0032565543455484137
-0.01386276417985199   -0.04658821796662849   -0.0031622478240008207
-0.021107119786361206   -0.046542225757884914   -0.0035060427756999925
-0.012470042383609065   -0.03334727754843252   -0.00311135739372552
-0.019406183272878602   -0.033721487240007335   -0.0032565543455484137
-0.02119777194769198   -0.046704374075782   -0.0034095726279570427
-0.012485534012124162   -0.03348865046668479   -0.0029823639022116544
-0.019517437923713125   -0.03385674584693778   -0.0030875741909392506
-0.02119777194769198   -0.046704374075782   -0.0034095726279570427
-0.01386276417985199   -0.04658821796662849   -0.0031622478240008207
-0.012485534012124162   -0.03348865046668479   -0.0029823639022116544
-0.013844571669196998   -0.04669946790484791   -0.003096240969826327
-0.019517437923713125   -0.03385674584693778   -0.0030875741909392506
-0.012496743549194047   -0.033600692486287   -0.0028662161530669233
-0.013844571669196998   -0.04669946790484791   -0.003096240969826327
-0.012485534012124162   -0.03348865046668479   -0.0029823639022116544
-0.019517437923713125   -0.03385674584693778   -0.0030875741909392506
-0.013844571669196998   -0.04669946790484791   -0.003096240969826327
-0.021226964078382274   -0.046836580247079505   -0.003332017794930279
-0.02119777194769198   -0.046704374075782   -0.0034095726279570427
-0.019517437923713125   -0.03385674584693778   -0.0030875741909392506
-0.013844571669196998   -0.04669946790484791   -0.003096240969826327
-0.02119777194769198   -0.046704374075782   -0.0034095726279570427
-0.012485534012124162   -0.03348865046668479   -0.0029823639022116544
-0.019517437923713125   -0.03385674584693778   -0.0030875741909392506
-0.021226964078382274   -0.046836580247079505   -0.003332017794930279
-0.012496743549194047   -0.033600692486287   -0.0028662161530669233
-0.019632076158831637   -0.033977914841902726   -0.002938633708743648
-0.021226964078382274   -0.046836580247079505   -0.003332017794930279
-0.013844571669196998   -0.04669946790484791   -0.003096240969826327
-0.012496743549194047   -0.033600692486287   -0.0028662161530669233
-0.013799140459816435   -0.04680980729149454   -0.003042457492330808
-0.019632076158831637   -0.033977914841902726   -0.002938633708743648
-0.012471385787322589   -0.03369269115663375   -0.0027612095907370332
-0.013799140459816435   -0.04680980729149454   -0.003042457492330808
-0.012496743549194047   -0.033600692486287   -0.0028662161530669233
-0.019632076158831637   -0.033977914841902726   -0.002938633708743648
-0.013799140459816435   -0.04680980729149454   -0.003042457492330808
-0.021237096000231773   -0.04698010673390472   -0.0032749992906316036
-0.021226964078382274   -0.046836580247079505   -0.003332017794930279
-0.019632076158831637   -0.033977914841902726   -0.002938633708743648
-0.013799140459816435   -0.04680980729149454   -0.003042457492330808
-0.021226964078382274   -0.046836580247079505   -0.003332017794930279
-0.012496743549194047   -0.033600692486287   -0.0028662161530669233
-0.012470042383609065   -0.03334727754843252   -0.00311135739372552
-0.013867884583605532   -0.046467580898461446   -0.003241395640816693
-0.006148559162413068   -0.03325275850458208   -0.0028813896980042497
-0.012485534012124162   -0.03348865046668479   -0.0029823639022116544
-0.013867884583605532   -0.046467580898461446   -0.003241395640816693
-0.007143049391400572   -0.04642481955275018   -0.0030612132093371216
-0.006148559162413068   -0.03325275850458208   -0.0028813896980042497
-0.007118315074426763   -0.04649786698986442   -0.0029922664523091592
-0.012485534012124162   -0.03348865046668479   -0.0029823639022116544
-0.006137356768132788   -0.03334150079866069   -0.0027962782137192863
-0.007118315074426763   -0.04649786698986442   -0.0029922664523091592
-0.006148559162413068   -0.03325275850458208   -0.0028813896980042497
-0.012485534012124162   -0.03348865046668479   -0.0029823639022116544
-0.007118315074426763   -0.04649786698986442   -0.0029922664523091592
-0.01386276417985199   -0.04658821796662849   -0.0031622478240008207
-0.013867884583605532   -0.046467580898461446   -0.003241395640816693
-0.012485534012124162   -0.03348865046668479   -0.0029823639022116544
-0.007118315074426763   -0.04649786698986442   -0.0029922664523091592
-0.013867884583605532   -0.046467580898461446   -0.003241395640816693
-0.006148559162413068   -0.03325275850458208   -0.0028813896980042497
-0.012485534012124162   -0.03348865046668479   -0.0029823639022116544
-0.01386276417985199   -0.04658821796662849   -0.0031622478240008207
-0.006137356768132788   -0.03334150079866069   -0.0027962782137192863
-0.012496743549194047   -0.033600692486287   -0.0028662161530669233
-0.01386276417985199   -0.04658821796662849   -0.0031622478240008207
-0.007118315074426763   -0.04649786698986442   -0.0029922664523091592
-0.006137356768132788   -0.03334150079866069   -0.0027962782137192863
-0.007087891014547921   -0.046564880611018857   -0.002936473295006329
-0.012496743549194047   -0.033600692486287   -0.0028662161530669233
-0.006121872571554311   -0.033405668176385836   -0.0027238217809639562
-0.007087891014547921   -0.046564880611018857   -0.002936473295006329
-0.006137356768132788   -0.03334150079866069   -0.0027962782137192863
-0.012496743549194047   -0.033600692486287   -0.0028662161530669233
-0.007087891014547921   -0.046564880611018857   -0.002936473295006329
-0.013844571669196998   -0.04669946790484791   -0.003096240969826327
-0.01386276417985199   -0.04658821796662849   -0.0031622478240008207
-0.012496743549194047   -0.033600692486287   -0.0028662161530669233
-0.007087891014547921   -0.046564880611018857   -0.002936473295006329
-0.01386276417985199   -0.04658821796662849   -0.0031622478240008207
-0.006137356768132788   -0.03334150079866069   -0.0027962782137192863
-0.012496743549194047   -0.033600692486287   -0.0028662161530669233
-0.013844571669196998   -0.04669946790484791   -0.003096240969826327
-0.006121872571554311   -0.033405668176385836   -0.0027238217809639562
-0.012471385787322589   -0.03369269115663375   -0.0027612095907370332
-0.013844571669196998   -0.04669946790484791   -0.003096240969826327
-0.007087891014547921   -0.046564880611018857   -0.002936473295006329
-0.006121872571554311   -0.033405668176385836   -0.0027238217809639562
-0.007051263079707535   -0.04662608010195413   -0.0028941482075664866
-0.012471385787322589   -0.03369269115663375   -0.0027612095907370332
-0.0060985449044713685   -0.033445680758732436   -0.002664228378140636
-0.007051263079707535   -0.04662608010195413   -0.0028941482075664866
-0.006121872571554311   -0.033405668176385836   -0.0027238217809639562
-0.012471385787322589   -0.03369269115663375   -0.0027612095907370332
-0.007051263079707535   -0.04662608010195413   -0.0028941482075664866
-0.013799140459816435   -0.04680980729149454   -0.003042457492330808
-0.013844571669196998   -0.04669946790484791   -0.003096240969826327
-0.012471385787322589   -0.03369269115663375   -0.0027612095907370332
-0.007051263079707535   -0.04662608010195413   -0.0028941482075664866
-0.013844571669196998   -0.04669946790484791   -0.003096240969826327
-0.006121872571554311   -0.033405668176385836   -0.0027238217809639562
-0.006148559162413068   -0.03325275850458208   -0.0028813896980042497
-0.007143049391400572   -0.04642481955275018   -0.0030612132093371216
1.3772403393957751e-06   -0.03323653496641004   -0.0027473687057042446
-0.006137356768132788   -0.03334150079866069   -0.0027962782137192863
-0.007143049391400572   -0.04642481955275018   -0.0030612132093371216
-0.0006001628599430046   -0.04640037415696634   -0.0029679233585703088
1.3772403393957751e-06   -0.03323653496641004   -0.0027473687057042446
-0.0005654611022265508   -0.0464249670351745   -0.0029098625441485388
-0.006137356768132788   -0.03334150079866069   -0.0027962782137192863
2.2882610721892907e-05   -0.033272377471655505   -0.002706474620089795
-0.0005654611022265508   -0.0464249670351745   -0.0029098625441485388
1.3772403393957751e-06   -0.03323653496641004   -0.0027473687057042446
-0.006137356768132788   -0.03334150079866069   -0.0027962782137192863
-0.0005654611022265508   -0.0464249670351745   -0.0029098625441485388
-0.007118315074426763   -0.04649786698986442   -0.0029922664523091592
-0.007143049391400572   -0.04642481955275018   -0.0030612132093371216
-0.006137356768132788   -0.03334150079866069   -0.0027962782137192863
-0.0005654611022265508   -0.0464249670351745   -0.0029098625441485388
-0.007143049391400572   -0.04642481955275018   -0.0030612132093371216
1.3772403393957751e-06   -0.03323653496641004   -0.0027473687057042446
-0.006137356768132788   -0.03334150079866069   -0.0027962782137192863
-0.007118315074426763   -0.04649786698986442   -0.0029922664523091592
2.2882610721892907e-05   -0.033272377471655505   -0.002706474620089795
-0.006121872571554311   -0.033405668176385836   -0.0027238217809639562
-0.007118315074426763   -0.04649786698986442   -0.0029922664523091592
-0.0005654611022265508   -0.0464249670351745   -0.0029098625441485388
2.2882610721892907e-05   -0.033272377471655505   -0.002706474620089795
-0.0005354586968871195   -0.046443100864635635   -0.0028648403700932577
-0.006121872571554311   -0.033405668176385836   -0.0027238217809639562
3.805319588374289e-05   -0.03328347620564966   -0.0026780735228715794
-0.0005354586968871195   -0.046443100864635635   -0.0028648403700932577
2.2882610721892907e-05   -0.033272377471655505   -0.002706474620089795
-0.006121872571554311   -0.033405668176385836   -0.0027238217809639562
-0.0005354586968871195   -0.046443100864635635   -0.0028648403700932577
-0.007087891014547921   -0.046564880611018857   -0.002936473295006329
-0.007118315074426763   -0.04649786698986442   -0.0029922664523091592
-0.006121872571554311   -0.033405668176385836   -0.0027238217809639562
-0.0005354586968871195   -0.046443100864635635   -0.0028648403700932577
-0.007118315074426763   -0.04649786698986442   -0.0029922664523091592
2.2882610721892907e-05   -0.033272377471655505   -0.002706474620089795
-0.006121872571554311   -0.033405668176385836   -0.0027238217809639562
-0.007087891014547921   -0.046564880611018857   -0.002936473295006329
3.805319588374289e-05   -0.03328347620564966   -0.0026780735228715794
-0.0060985449044713685   -0.033445680758732436   -0.002664228378140636
-0.007087891014547921   -0.046564880611018857   -0.002936473295006329
-0.0005354586968871195   -0.046443100864635635   -0.0028648403700932577
3.805319588374289e-05   -0.03328347620564966   -0.0026780735228715794
-0.0005126827277203244   -0.04645468375802389   -0.0028333331575253772
-0.0060985449044713685   -0.033445680758732436   -0.002664228378140636
4.7499551556683545e-05   -0.03326949228246259   -0.0026627196675704746
-0.0005126827277203244   -0.04645468375802389   -0.0028333331575253772
3.805319588374289e-05   -0.03328347620564966   -0.0026780735228715794
-0.0060985449044713685   -0.033445680758732436   -0.002664228378140636
-0.0005126827277203244   -0.04645468375802389   -0.0028333331575253772
-0.007051263079707535   -0.04662608010195413   -0.0028941482075664866
-0.007087891014547921   -0.046564880611018857   -0.002936473295006329
-0.0060985449044713685   -0.033445680758732436   -0.002664228378140636
-0.0005126827277203244   -0.04645468375802389   -0.0028333331575253772
-0.007087891014547921   -0.046564880611018857   -0.002936473295006329
3.805319588374289e-05   -0.03328347620564966   -0.0026780735228715794
1.3772403393957751e-06   -0.03323653496641004   -0.0027473687057042446
-0.0006001628599430046   -0.04640037415696634   -0.0029679233585703088
0.006362770168692304   -0.033291930026434186   -0.0027087362372316187
2.2882610721892907e-05   -0.033272377471655505   -0.002706474620089795
-0.0006001628599430046   -0.04640037415696634   -0.0029679233585703088
0.006142501436150124   -0.046390036274600886   -0.002962330057144022
0.006362770168692304   -0.033291930026434186   -0.0027087362372316187
0.006188568969855475   -0.04636770563652302   -0.0029157029724152534
2.2882610721892907e-05   -0.033272377471655505   -0.002706474620089795
0.0063891565838506805   -0.03327796288970471   -0.0027129952551437925
0.006188568969855475   -0.04636770563652302   -0.0029157029724152534
0.006362770168692304   -0.033291930026434186   -0.0027087362372316187
2.2882610721892907e-05   -0.033272377471655505   -0.002706474620089795
0.006188568969855475   -0.04636770563652302   -0.0029157029724152534
-0.0005654611022265508   -0.0464249670351745   -0.0029098625441485388
-0.0006001628599430046   -0.04640037415696634   -0.0029679233585703088
2.2882610721892907e-05   -0.033272377471655505   -0.002706474620089795
0.006188568969855475   -0.04636770563652302   -0.0029157029724152534
-0.0006001628599430046   -0.04640037415696634   -0.0029679233585703088
0.006362770168692304   -0.033291930026434186   -0.0027087362372316187
2.2882610721892907e-05   -0.033272377471655505   -0.002706474620089795
-0.0005654611022265508   -0.0464249670351745   -0.0029098625441485388
0.0063891565838506805   -0.03327796288970471   -0.0027129952551437925
3.805319588374289e-05   -0.03328347620564966   -0.0026780735228715794
-0.0005654611022265508   -0.0464249670351745   -0.0029098625441485388
0.006188568969855475   -0.04636770563652302   -0.0029157029724152534
0.0063891565838506805   -0.03327796288970471   -0.0027129952551437925
0.006219258627381405   -0.046341608498372454   -0.0028817420163524976
3.805319588374289e-05   -0.03328347620564966   -0.0026780735228715794
0.006390683979898261   -0.0332411275639374   -0.0027290759848665256
0.006219258627381405   -0.046341608498372454   -0.0028817420163524976
0.0063891565838506805   -0.03327796288970471   -0.0027129952551437925
3.805319588374289e-05   -0.03328347620564966   -0.0026780735228715794
0.006219258627381405   -0.046341608498372454   -0.0028817420163524976
-0.0005354586968871195   -0.046443100864635635   -0.0028648403700932577
-0.0005654611022265508   -0.0464249670351745   -0.0029098625441485388
3.805319588374289e-05   -0.03328347620564966   -0.0026780735228715794
0.006219258627381405   -0.046341608498372454   -0.0028817420163524976
-0.0005654611022265508   -0.0464249670351745   -0.0029098625441485388
0.0063891565838506805   -0.03327796288970471   -0.0027129952551437925
3.805319588374289e-05   -0.03328347620564966   -0.0026780735228715794
-0.0005354586968871195   -0.046443100864635635   -0.0028648403700932577
0.006390683979898261   -0.0332411275639374   -0.0027290759848665256
4.7499551556683545e-05   -0.03326949228246259   -0.0026627196675704746
-0.0005354586968871195   -0.046443100864635635   -0.0028648403700932577
0.006219258627381405   -0.046341608498372454   -0.0028817420163524976
0.006390683979898261   -0.0332411275639374   -0.0027290759848665256
0.006225201493899845   -0.04630316187594271   -0.0028601865549609477
4.7499551556683545e-05   -0.03326949228246259   -0.0026627196675704746
0.006376255856727703   -0.03317218722408062   -0.0027574269810802243
0.006225201493899845   -0.04630316187594271   -0.0028601865549609477
0.006390683979898261   -0.0332411275639374   -0.0027290759848665256
4.7499551556683545e-05   -0.03326949228246259   -0.0026627196675704746
0.006225201493899845   -0.04630316187594271   -0.0028601865549609477
-0.0005126827277203244   -0.04645468375802389   -0.0028333331575253772
-0.0005354586968871195   -0.046443100864635635   -0.0028648403700932577
4.7499551556683545e-05   -0.03326949228246259   -0.0026627196675704746
0.006225201493899845   -0.04630316187594271   -0.0028601865549609477
-0.0005354586968871195   -0.046443100864635635   -0.0028648403700932577
0.006390683979898261   -0.0332411275639374   -0.0027290759848665256
0.006362770168692304   -0.033291930026434186   -0.0027087362372316187
0.006142501436150124   -0.046390036274600886   -0.002962330057144022
0.013387363724102649   -0.033393817599953975   -0.0027445761094575826
0.0063891565838506805   -0.03327796288970471   -0.0027129952551437925
0.006142501436150124   -0.046390036274600886   -0.002962330057144022
0.013449860831172986   -0.04637582507656212   -0.0030355774009662257
0.013387363724102649   -0.033393817599953975   -0.0027445761094575826
0.013540217341087143   -0.046316422514851255   -0.0029975083130547434
0.0063891565838506805   -0.03327796288970471   -0.0027129952551437925
0.013374252631417142   -0.033346134912191815   -0.0027976105033464473
0.013540217341087143   -0.046316422514851255   -0.0029975083130547434
0.013387363724102649   -0.033393817599953975   -0.0027445761094575826
0.0063891565838506805   -0.03327796288970471   -0.0027129952551437925
0.013540217341087143   -0.046316422514851255   -0.0029975083130547434
0.006188568969855475   -0.04636770563652302   -0.0029157029724152534
0.006142501436150124   -0.046390036274600886   -0.002962330057144022
0.0063891565838506805   -0.03327796288970471   -0.0027129952551437925
0.013540217341087143   -0.046316422514851255   -0.0029975083130547434
0.006142501436150124   -0.046390036274600886   -0.002962330057144022
0.013387363724102649   -0.033393817599953975   -0.0027445761094575826
0.0063891565838506805   -0.03327796288970471   -0.0027129952551437925
0.006188568969855475   -0.04636770563652302   -0.0029157029724152534
0.013374252631417142   -0.033346134912191815   -0.0027976105033464473
0.006390683979898261   -0.0332411275639374   -0.0027290759848665256
0.006188568969855475   -0.04636770563652302   -0.0029157029724152534
0.013540217341087143   -0.046316422514851255   -0.0029975083130547434
0.013374252631417142   -0.033346134912191815   -0.0027976105033464473
0.013587747577086482   -0.0462694677365189   -0.002978680263654098
0.006390683979898261   -0.0332411275639374   -0.0027290759848665256
0.013340093989984094   -0.03328600419623345   -0.0028698214280356215
0.013587747577086482   -0.0462694677365189   -0.002978680263654098
0.013374252631417142   -0.033346134912191815   -0.0027976105033464473
0.006390683979898261   -0.0332411275639374   -0.0027290759848665256
0.013587747577086482   -0.0462694677365189   -0.002978680263654098
0.006219258627381405   -0.046341608498372454   -0.0028817420163524976
0.006188568969855475   -0.04636770563652302   -0.0029157029724152534
0.006390683979898261   -0.0332411275639374   -0.0027290759848665256
0.013587747577086482   -0.0462694677365189   -0.002978680263654098
0.006188568969855475   -0.04636770563652302   -0.0029157029724152534
0.013374252631417142   -0.033346134912191815   -0.0027976105033464473
0.006390683979898261   -0.0332411275639374   -0.0027290759848665256
0.006219258627381405   -0.046341608498372454   -0.0028817420163524976
0.013340093989984094   -0.03328600419623345   -0.0028698214280356215
0.006376255856727703   -0.03317218722408062   -0.0027574269810802243
0.006219258627381405   -0.046341608498372454   -0.0028817420163524976
0.013587747577086482   -0.0462694677365189   -0.002978680263654098
0.013340093989984094   -0.03328600419623345   -0.0028698214280356215
0.013598678122098517   -0.04619399321621196   -0.0029794209190084826
0.006376255856727703   -0.03317218722408062   -0.0027574269810802243
0.013248003640494325   -0.03317123211923778   -0.0029610699047479183
0.013598678122098517   -0.04619399321621196   -0.0029794209190084826
0.013340093989984094   -0.03328600419623345   -0.0028698214280356215
0.006376255856727703   -0.03317218722408062   -0.0027574269810802243
0.013598678122098517   -0.04619399321621196   -0.0029794209190084826
0.006225201493899845   -0.04630316187594271   -0.0028601865549609477
0.006219258627381405   -0.046341608498372454   -0.0028817420163524976
0.006376255856727703   -0.03317218722408062   -0.0027574269810802243
0.013598678122098517   -0.04619399321621196   -0.0029794209190084826
0.006219258627381405   -0.046341608498372454   -0.0028817420163524976
0.013340093989984094   -0.03328600419623345   -0.0028698214280356215
-0.021107119786361206   -0.046542225757884914   -0.0035060427756999925
-0.021768870304184007   -0.059791574880672195   -0.003446388371022798
-0.013867884583605532   -0.046467580898461446   -0.003241395640816693
-0.02119777194769198   -0.046704374075782   -0.0034095726279570427
-0.021768870304184007   -0.059791574880672195   -0.003446388371022798
-0.014536818794775988   -0.05982613548109438   -0.0032506002903281415
-0.013867884583605532   -0.046467580898461446   -0.003241395640816693
-0.014498092979481231   -0.059925602800510264   -0.00322056549652643
-0.02119777194769198   -0.046704374075782   -0.0034095726279570427
-0.01386276417985199   -0.04658821796662849   -0.0031622478240008207
-0.014498092979481231   -0.059925602800510264   -0.00322056549652643
-0.013867884583605532   -0.046467580898461446   -0.003241395640816693
-0.02119777194769198   -0.046704374075782   -0.0034095726279570427
-0.014498092979481231   -0.059925602800510264   -0.00322056549652643
-0.021744218103497165   -0.05992464335924166   -0.0034400132564213334
-0.021768870304184007   -0.059791574880672195   -0.003446388371022798
-0.02119777194769198   -0.046704374075782   -0.0034095726279570427
-0.014498092979481231   -0.059925602800510264   -0.00322056549652643
-0.021768870304184007   -0.059791574880672195   -0.003446388371022798
-0.013867884583605532   -0.046467580898461446   -0.003241395640816693
-0.02119777194769198   -0.046704374075782   -0.0034095726279570427
-0.021744218103497165   -0.05992464335924166   -0.0034400132564213334
-0.01386276417985199   -0.04658821796662849   -0.0031622478240008207
-0.021226964078382274   -0.046836580247079505   -0.003332017794930279
-0.021744218103497165   -0.05992464335924166   -0.0034400132564213334
-0.014498092979481231   -0.059925602800510264   -0.00322056549652643
-0.01386276417985199   -0.04658821796662849   -0.0031622478240008207
-0.014437529824937753   -0.060035760221254696   -0.003204085893684117
-0.021226964078382274   -0.046836580247079505   -0.003332017794930279
-0.013844571669196998   -0.04669946790484791   -0.003096240969826327
-0.014437529824937753   -0.060035760221254696   -0.003204085893684117
-0.01386276417985199   -0.04658821796662849   -0.0031622478240008207
-0.021226964078382274   -0.046836580247079505   -0.003332017794930279
-0.014437529824937753   -0.060035760221254696   -0.003204085893684117
-0.021678001706837757   -0.06005378851092361   -0.0034538960168252995
-0.021744218103497165   -0.05992464335924166   -0.0034400132564213334
-0.021226964078382274   -0.046836580247079505   -0.003332017794930279
-0.014437529824937753   -0.060035760221254696   -0.003204085893684117
-0.021744218103497165   -0.05992464335924166   -0.0034400132564213334
-0.01386276417985199   -0.04658821796662849   -0.0031622478240008207
-0.021226964078382274   -0.046836580247079505   -0.003332017794930279
-0.021678001706837757   -0.06005378851092361   -0.0034538960168252995
-0.013844571669196998   -0.04669946790484791   -0.003096240969826327
-0.021237096000231773   -0.04698010673390472   -0.0032749992906316036
-0.021678001706837757   -0.06005378851092361   -0.0034538960168252995
-0.014437529824937753   -0.060035760221254696   -0.003204085893684117
-0.013844571669196998   -0.04669946790484791   -0.003096240969826327
-0.014359003162981096   -0.06016418926688482   -0.0032009451732257868
-0.021237096000231773   -0.04698010673390472   -0.0032749992906316036
-0.013799140459816435   -0.04680980729149454   -0.003042457492330808
-0.014359003162981096   -0.06016418926688482   -0.0032009451732257868
-0.013844571669196998   -0.04669946790484791   -0.003096240969826327
-0.021237096000231773   -0.04698010673390472   -0.0032749992906316036
-0.014359003162981096   -0.06016418926688482   -0.0032009451732257868
-0.021570334817758746   -0.060220094274358614   -0.0034890563605614613
-0.021678001706837757   -0.06005378851092361   -0.0034538960168252995
-0.021237096000231773   -0.04698010673390472   -0.0032749992906316036
-0.014359003162981096   -0.06016418926688482   -0.0032009451732257868
-0.021678001706837757   -0.06005378851092361   -0.0034538960168252995
-0.013844571669196998   -0.04669946790484791   -0.003096240969826327
-0.013867884583605532   -0.046467580898461446   -0.003241395640816693
-0.014536818794775988   -0.05982613548109438   -0.0032506002903281415
-0.007143049391400572   -0.04642481955275018   -0.0030612132093371216
-0.01386276417985199   -0.04658821796662849   -0.0031622478240008207
-0.014536818794775988   -0.05982613548109438   -0.0032506002903281415
-0.007912472627860328   -0.05983368747841197   -0.0031204528239851307
-0.007143049391400572   -0.04642481955275018   -0.0030612132093371216
-0.007860548462065626   -0.05989077167990362   -0.0030672069264541858
-0.01386276417985199   -0.04658821796662849   -0.0031622478240008207
-0.007118315074426763   -0.04649786698986442   -0.0029922664523091592
-0.007860548462065626   -0.05989077167990362   -0.0030672069264541858
-0.007143049391400572   -0.04642481955275018   -0.0030612132093371216
-0.01386276417985199   -0.04658821796662849   -0.0031622478240008207
-0.007860548462065626   -0.05989077167990362   -0.0030672069264541858
-0.014498092979481231   -0.059925602800510264   -0.00322056549652643
-0.014536818794775988   -0.05982613548109438   -0.0032506002903281415
-0.01386276417985199   -0.04658821796662849   -0.0031622478240008207
-0.007860548462065626   -0.05989077167990362   -0.0030672069264541858
-0.014536818794775988   -0.05982613548109438   -0.0032506002903281415
-0.007143049391400572   -0.04642481955275018   -0.0030612132093371216
-0.01386276417985199   -0.04658821796662849   -0.0031622478240008207
-0.014498092979481231   -0.059925602800510264   -0.00322056549652643
-0.007118315074426763   -0.04649786698986442   -0.0029922664523091592
-0.013844571669196998   -0.04669946790484791   -0.003096240969826327
-0.014498092979481231   -0.059925602800510264   -0.00322056549652643
-0.007860548462065626   -0.05989077167990362   -0.0030672069264541858
-0.007118315074426763   -0.04649786698986442   -0.0029922664523091592
-0.007801849024647726   -0.0599601368128182   -0.003027568821876284
-0.013844571669196998   -0.04669946790484791   -0.003096240969826327
-0.007087891014547921   -0.046564880611018857   -0.002936473295006329
-0.007801849024647726   -0.0599601368128182   -0.003027568821876284
-0.007118315074426763   -0.04649786698986442   -0.0029922664523091592
-0.013844571669196998   -0.04669946790484791   -0.003096240969826327
-0.007801849024647726   -0.0599601368128182   -0.003027568821876284
-0.014437529824937753   -0.060035760221254696   -0.003204085893684117
-0.014498092979481231   -0.059925602800510264   -0.00322056549652643
-0.013844571669196998   -0.04669946790484791   -0.003096240969826327
-0.007801849024647726   -0.0599601368128182   -0.003027568821876284
-0.014498092979481231   -0.059925602800510264   -0.00322056549652643
-0.007118315074426763   -0.04649786698986442   -0.0029922664523091592
-0.013844571669196998   -0.04669946790484791   -0.003096240969826327
-0.014437529824937753   -0.060035760221254696   -0.003204085893684117
-0.007087891014547921   -0.046564880611018857   -0.002936473295006329
-0.013799140459816435   -0.04680980729149454   -0.003042457492330808
-0.014437529824937753   -0.060035760221254696   -0.003204085893684117
-0.007801849024647726   -0.0599601368128182   -0.003027568821876284
-0.007087891014547921   -0.046564880611018857   -0.002936473295006329
-0.007738577748278321   -0.060041999026837455   -0.003001978004945777
-0.013799140459816435   -0.04680980729149454   -0.003042457492330808
-0.007051263079707535   -0.04662608010195413   -0.0028941482075664866
-0.007738577748278321   -0.060041999026837455   -0.003001978004945777
-0.007087891014547921   -0.046564880611018857   -0.002936473295006329
-0.013799140459816435   -0.04680980729149454   -0.003042457492330808
-0.007738577748278321   -0.060041999026837455   -0.003001978004945777
-0.014359003162981096   -0.06016418926688482   -0.0032009451732257868
-0.014437529824937753   -0.060035760221254696   -0.003204085893684117
-0.013799140459816435   -0.04680980729149454   -0.003042457492330808
-0.007738577748278321   -0.060041999026837455   -0.003001978004945777
-0.014437529824937753   -0.060035760221254696   -0.003204085893684117
-0.007087891014547921   -0.046564880611018857   -0.002936473295006329
-0.007143049391400572   -0.04642481955275018   -0.0030612132093371216
-0.007912472627860328   -0.05983368747841197   -0.0031204528239851307
-0.0006001628599430046   -0.04640037415696634   -0.0029679233585703088
-0.007118315074426763   -0.04649786698986442   -0.0029922664523091592
-0.007912472627860328   -0.05983368747841197   -0.0031204528239851307
-0.0014755820769350074   -0.05979863063341181   -0.0030671443977583436
-0.0006001628599430046   -0.04640037415696634   -0.0029679233585703088
-0.001414150385309575   -0.05981192540797489   -0.0029918420289567317
-0.007118315074426763   -0.04649786698986442   -0.0029922664523091592
-0.0005654611022265508   -0.0464249670351745   -0.0029098625441485388
-0.001414150385309575   -0.05981192540797489   -0.0029918420289567317
-0.0006001628599430046   -0.04640037415696634   -0.0029679233585703088
-0.007118315074426763   -0.04649786698986442   -0.0029922664523091592
-0.001414150385309575   -0.05981192540797489   -0.0029918420289567317
-0.007860548462065626   -0.05989077167990362   -0.0030672069264541858
-0.007912472627860328   -0.05983368747841197   -0.0031204528239851307
-0.007118315074426763   -0.04649786698986442   -0.0029922664523091592
-0.001414150385309575   -0.05981192540797489   -0.0029918420289567317
-0.007912472627860328   -0.05983368747841197   -0.0031204528239851307
-0.0006001628599430046   -0.04640037415696634   -0.0029679233585703088
-0.007118315074426763   -0.04649786698986442   -0.0029922664523091592
-0.007860548462065626   -0.05989077167990362   -0.0030672069264541858
-0.0005654611022265508   -0.0464249670351745   -0.0029098625441485388
-0.007087891014547921   -0.046564880611018857   -0.002936473295006329
-0.007860548462065626   -0.05989077167990362   -0.0030672069264541858
-0.001414150385309575   -0.05981192540797489   -0.0029918420289567317
-0.0005654611022265508   -0.0464249670351745   -0.0029098625441485388
-0.001356047268472684   -0.05983653578359182   -0.00293004978893471
-0.007087891014547921   -0.046564880611018857   -0.002936473295006329
-0.0005354586968871195   -0.046443100864635635   -0.0028648403700932577
-0.001356047268472684   -0.05983653578359182   -0.00293004978893471
-0.0005654611022265508   -0.0464249670351745   -0.0029098625441485388
-0.007087891014547921   -0.046564880611018857   -0.002936473295006329
-0.001356047268472684   -0.05983653578359182   -0.00293004978893471
-0.007801849024647726   -0.0599601368128182   -0.003027568821876284
-0.007860548462065626   -0.05989077167990362   -0.0030672069264541858
-0.007087891014547921   -0.046564880611018857   -0.002936473295006329
-0.001356047268472684   -0.05983653578359182   -0.00293004978893471
-0.007860548462065626   -0.05989077167990362   -0.0030672069264541858
-0.0005654611022265508   -0.0464249670351745   -0.0029098625441485388
-0.007087891014547921   -0.046564880611018857   -0.002936473295006329
-0.007801849024647726   -0.0599601368128182   -0.003027568821876284
-0.0005354586968871195   -0.046443100864635635   -0.0028648403700932577
-0.007051263079707535   -0.04662608010195413   -0.0028941482075664866
-0.007801849024647726   -0.0599601368128182   -0.003027568821876284
-0.001356047268472684   -0.05983653578359182   -0.00293004978893471
-0.0005354586968871195   -0.046443100864635635   -0.0028648403700932577
-0.0013067650866948825   -0.0598730251657076   -0.002882240300252899
-0.007051263079707535   -0.04662608010195413   -0.0028941482075664866
-0.0005126827277203244   -0.04645468375802389   -0.0028333331575253772
-0.0013067650866948825   -0.0598730251657076   -0.002882240300252899
-0.0005354586968871195   -0.046443100864635635   -0.0028648403700932577
-0.007051263079707535   -0.04662608010195413   -0.0028941482075664866
-0.0013067650866948825   -0.0598730251657076   -0.002882240300252899
-0.007738577748278321   -0.060041999026837455   -0.003001978004945777
-0.007801849024647726   -0.0599601368128182   -0.003027568821876284
-0.007051263079707535   -0.04662608010195413   -0.0028941482075664866
-0.0013067650866948825   -0.0598730251657076   -0.002882240300252899
-0.007801849024647726   -0.0599601368128182   -0.003027568821876284
-0.0005354586968871195   -0.046443100864635635   -0.0028648403700932577
-0.0006001628599430046   -0.04640037415696634   -0.0029679233585703088
-0.0014755820769350074   -0.05979863063341181   -0.0030671443977583436
0.006142501436150124   -0.046390036274600886   -0.002962330057144022
-0.0005654611022265508   -0.0464249670351745   -0.0029098625441485388
-0.0014755820769350074   -0.05979863063341181   -0.0030671443977583436
0.005155282683449208   -0.0597206761054725   -0.003093205334216685
0.006142501436150124   -0.046390036274600886   -0.002962330057144022
0.005233667271931435   -0.059690042630995345   -0.0029962432276848553
-0.0005654611022265508   -0.0464249670351745   -0.0029098625441485388
0.006188568969855475   -0.04636770563652302   -0.0029157029724152534
0.005233667271931435   -0.059690042630995345   -0.0029962432276848553
0.006142501436150124   -0.046390036274600886   -0.002962330057144022
-0.0005654611022265508   -0.0464249670351745   -0.0029098625441485388
0.005233667271931435   -0.059690042630995345   -0.0029962432276848553
-0.001414150385309575   -0.05981192540797489   -0.0029918420289567317
-0.0014755820769350074   -0.05979863063341181   -0.0030671443977583436
-0.0005654611022265508   -0.0464249670351745   -0.0029098625441485388
0.005233667271931435   -0.059690042630995345   -0.0029962432276848553
-0.0014755820769350074   -0.05979863063341181   -0.0030671443977583436
0.006142501436150124   -0.046390036274600886   -0.002962330057144022
-0.0005654611022265508   -0.0464249670351745   -0.0029098625441485388
-0.001414150385309575   -0.05981192540797489   -0.0029918420289567317
0.006188568969855475   -0.04636770563652302   -0.0029157029724152534
-0.0005354586968871195   -0.046443100864635635   -0.0028648403700932577
-0.001414150385309575   -0.05981192540797489   -0.0029918420289567317
0.005233667271931435   -0.059690042630995345   -0.0029962432276848553
0.006188568969855475   -0.04636770563652302   -0.0029157029724152534
0.005306061885182996   -0.0596741175286543   -0.002912751709252873
-0.0005354586968871195   -0.046443100864635635   -0.0028648403700932577
0.006219258627381405   -0.046341608498372454   -0.0028817420163524976
0.005306061885182996   -0.0596741175286543   -0.002912751709252873
0.006188568969855475   -0.04636770563652302   -0.0029157029724152534
-0.0005354586968871195   -0.046443100864635635   -0.0028648403700932577
0.005306061885182996   -0.0596741175286543   -0.002912751709252873
-0.001356047268472684   -0.05983653578359182   -0.00293004978893471
-0.001414150385309575   -0.05981192540797489   -0.0029918420289567317
-0.0005354586968871195   -0.046443100864635635   -0.0028648403700932577
0.005306061885182996   -0.0596741175286543   -0.002912751709252873
-0.001414150385309575   -0.05981192540797489   -0.0029918420289567317
0.006188568969855475   -0.04636770563652302   -0.0029157029724152534
-0.0005354586968871195   -0.046443100864635635   -0.0028648403700932577
-0.001356047268472684   -0.05983653578359182   -0.00293004978893471
0.006219258627381405   -0.046341608498372454   -0.0028817420163524976
-0.0005126827277203244   -0.04645468375802389   -0.0028333331575253772
-0.001356047268472684   -0.05983653578359182   -0.00293004978893471
0.005306061885182996   -0.0596741175286543   -0.002912751709252873
0.006219258627381405   -0.046341608498372454   -0.0028817420163524976
0.0053447827348555785   -0.05966516181670311   -0.002841851374540418
-0.0005126827277203244   -0.04645468375802389   -0.0028333331575253772
0.006225201493899845   -0.04630316187594271   -0.0028601865549609477
0.0053447827348555785   -0.05966516181670311   -0.002841851374540418
0.006219258627381405   -0.046341608498372454   -0.0028817420163524976
-0.0005126827277203244   -0.04645468375802389   -0.0028333331575253772
0.0053447827348555785   -0.05966516181670311   -0.002841851374540418
-0.0013067650866948825   -0.0598730251657076   -0.002882240300252899
-0.001356047268472684   -0.05983653578359182   -0.00293004978893471
-0.0005126827277203244   -0.04645468375802389   -0.0028333331575253772
0.0053447827348555785   -0.05966516181670311   -0.002841851374540418
-0.001356047268472684   -0.05983653578359182   -0.00293004978893471
0.006219258627381405   -0.046341608498372454   -0.0028817420163524976
0.006142501436150124   -0.046390036274600886   -0.002962330057144022
0.005155282683449208   -0.0597206761054725   -0.003093205334216685
0.013449860831172986   -0.04637582507656212   -0.0030355774009662257
0.006188568969855475   -0.04636770563652302   -0.0029157029724152534
0.005155282683449208   -0.0597206761054725   -0.003093205334216685
0.012255328534351587   -0.059589746443209954   -0.003202747390916773
0.013449860831172986   -0.04637582507656212   -0.0030355774009662257
0.012460090587093818   -0.05951930302195227   -0.0030755364289896782
0.006188568969855475   -0.04636770563652302   -0.0029157029724152534
0.013540217341087143   -0.046316422514851255   -0.0029975083130547434
0.012460090587093818   -0.05951930302195227   -0.0030755364289896782
0.013449860831172986   -0.04637582507656212   -0.0030355774009662257
0.006188568969855475   -0.04636770563652302   -0.0029157029724152534
0.012460090587093818   -0.05951930302195227   -0.0030755364289896782
0.005233667271931435   -0.059690042630995345   -0.0029962432276848553
0.005155282683449208   -0.0597206761054725   -0.003093205334216685
0.006188568969855475   -0.04636770563652302   -0.0029157029724152534
0.012460090587093818   -0.05951930302195227   -0.0030755364289896782
0.005155282683449208   -0.0597206761054725   -0.003093205334216685
0.013449860831172986   -0.04637582507656212   -0.0030355774009662257
0.006188568969855475   -0.04636770563652302   -0.0029157029724152534
0.005233667271931435   -0.059690042630995345   -0.0029962432276848553
0.013540217341087143   -0.046316422514851255   -0.0029975083130547434
0.006219258627381405   -0.046341608498372454   -0.0028817420163524976
0.005233667271931435   -0.059690042630995345   -0.0029962432276848553
0.012460090587093818   -0.05951930302195227   -0.0030755364289896782
0.013540217341087143   -0.046316422514851255   -0.0029975083130547434
0.012600673767837845   -0.05948514871356386   -0.002967504697960807
0.006219258627381405   -0.046341608498372454   -0.0028817420163524976
0.013587747577086482   -0.0462694677365189   -0.002978680263654098
0.012600673767837845   -0.05948514871356386   -0.002967504697960807
0.013540217341087143   -0.046316422514851255   -0.0029975083130547434
0.006219258627381405   -0.046341608498372454   -0.0028817420163524976
0.012600673767837845   -0.05948514871356386   -0.002967504697960807
0.005306061885182996   -0.0596741175286543   -0.002912751709252873
0.005233667271931435   -0.059690042630995345   -0.0029962432276848553
0.006219258627381405   -0.046341608498372454   -0.0028817420163524976
0.012600673767837845   -0.05948514871356386   -0.002967504697960807
0.005233667271931435   -0.059690042630995345   -0.0029962432276848553
0.013540217341087143   -0.046316422514851255   -0.0029975083130547434
0.006219258627381405   -0.046341608498372454   -0.0028817420163524976
0.005306061885182996   -0.0596741175286543   -0.002912751709252873
0.013587747577086482   -0.0462694677365189   -0.002978680263654098
0.006225201493899845   -0.04630316187594271   -0.0028601865549609477
0.005306061885182996   -0.0596741175286543   -0.002912751709252873
0.012600673767837845   -0.05948514871356386   -0.002967504697960807
0.013587747577086482   -0.0462694677365189   -0.002978680263654098
0.012725349882245244   -0.05944790429950624   -0.0028794472358210236
0.006225201493899845   -0.04630316187594271   -0.0028601865549609477
0.013598678122098517   -0.04619399321621196   -0.0029794209190084826
0.012725349882245244   -0.05944790429950624   -0.0028794472358210236
0.013587747577086482   -0.0462694677365189   -0.002978680263654098
0.006225201493899845   -0.04630316187594271   -0.0028601865549609477
0.012725349882245244   -0.05944790429950624   -0.0028794472358210236
0.0053447827348555785   -0.05966516181670311   -0.002841851374540418
0.005306061885182996   -0.0596741175286543   -0.002912751709252873
0.006225201493899845   -0.04630316187594271   -0.0028601865549609477
0.012725349882245244   -0.05944790429950624   -0.0028794472358210236
0.005306061885182996   -0.0596741175286543   -0.002912751709252873
0.013587747577086482   -0.0462694677365189   -0.002978680263654098
-0.021768870304184007   -0.059791574880672195   -0.003446388371022798
-0.021186980969429586   -0.07244605024793158   -0.003294717812345381
-0.014536818794775988   -0.05982613548109438   -0.0032506002903281415
-0.021744218103497165   -0.05992464335924166   -0.0034400132564213334
-0.021186980969429586   -0.07244605024793158   -0.003294717812345381
-0.014477429967499057   -0.07259185735039216   -0.0031767108598364023
-0.014536818794775988   -0.05982613548109438   -0.0032506002903281415
-0.014392608345314572   -0.07266614393120203   -0.003194512699217239
-0.021744218103497165   -0.05992464335924166   -0.0034400132564213334
-0.014498092979481231   -0.059925602800510264   -0.00322056549652643
-0.014392608345314572   -0.07266614393120203   -0.003194512699217239
-0.014536818794775988   -0.05982613548109438   -0.0032506002903281415
-0.021744218103497165   -0.05992464335924166   -0.0034400132564213334
-0.014392608345314572   -0.07266614393120203   -0.003194512699217239
-0.021033881263561024   -0.07254634717712234   -0.0033786868287959296
-0.021186980969429586   -0.07244605024793158   -0.003294717812345381
-0.021744218103497165   -0.05992464335924166   -0.0034400132564213334
-0.014392608345314572   -0.07266614393120203   -0.003194512699217239
-0.021186980969429586   -0.07244605024793158   -0.003294717812345381
-0.014536818794775988   -0.05982613548109438   -0.0032506002903281415
-0.021744218103497165   -0.05992464335924166   -0.0034400132564213334
-0.021033881263561024   -0.07254634717712234   -0.0033786868287959296
-0.014498092979481231   -0.059925602800510264   -0.00322056549652643
-0.021678001706837757   -0.06005378851092361   -0.0034538960168252995
-0.021033881263561024   -0.07254634717712234   -0.0033786868287959296
-0.014392608345314572   -0.07266614393120203   -0.003194512699217239
-0.014498092979481231   -0.059925602800510264   -0.00322056549652643
-0.014277723960191063   -0.07277184015389722   -0.0032262231701335902
-0.021678001706837757   -0.06005378851092361   -0.0034538960168252995
-0.014437529824937753   -0.060035760221254696   -0.003204085893684117
-0.014277723960191063   -0.07277184015389722   -0.0032262231701335902
-0.014498092979481231   -0.059925602800510264   -0.00322056549652643
-0.021678001706837757   -0.06005378851092361   -0.0034538960168252995
-0.014277723960191063   -0.07277184015389722   -0.0032262231701335902
-0.02085903325948614   -0.07266936046523183   -0.0034845320524759197
-0.021033881263561024   -0.07254634717712234   -0.0033786868287959296
-0.021678001706837757   -0.06005378851092361   -0.0034538960168252995
-0.014277723960191063   -0.07277184015389722   -0.0032262231701335902
-0.021033881263561024   -0.07254634717712234   -0.0033786868287959296
-0.014498092979481231   -0.059925602800510264   -0.00322056549652643
-0.021678001706837757   -0.06005378851092361   -0.0034538960168252995
-0.02085903325948614   -0.07266936046523183   -0.0034845320524759197
-0.014437529824937753   -0.060035760221254696   -0.003204085893684117
-0.021570334817758746   -0.060220094274358614   -0.0034890563605614613
-0.02085903325948614   -0.07266936046523183   -0.0034845320524759197
-0.014277723960191063   -0.07277184015389722   -0.0032262231701335902
-0.014437529824937753   -0.060035760221254696   -0.003204085893684117
-0.014154434099105183   -0.07291539049314562   -0.0032722555808840847
-0.021570334817758746   -0.060220094274358614   -0.0034890563605614613
-0.014359003162981096   -0.06016418926688482   -0.0032009451732257868
-0.014154434099105183   -0.07291539049314562   -0.0032722555808840847
-0.014437529824937753   -0.060035760221254696   -0.003204085893684117
-0.021570334817758746   -0.060220094274358614   -0.0034890563605614613
-0.014154434099105183   -0.07291539049314562   -0.0032722555808840847
-0.02062087769822487   -0.07285656849633547   -0.0036126524161265447
-0.02085903325948614   -0.07266936046523183   -0.0034845320524759197
-0.021570334817758746   -0.060220094274358614   -0.0034890563605614613
-0.014154434099105183   -0.07291539049314562   -0.0032722555808840847
-0.02085903325948614   -0.07266936046523183   -0.0034845320524759197
-0.014437529824937753   -0.060035760221254696   -0.003204085893684117
-0.014536818794775988   -0.05982613548109438   -0.0032506002903281415
-0.014477429967499057   -0.07259185735039216   -0.0031767108598364023
-0.007912472627860328   -0.05983368747841197   -0.0031204528239851307
-0.014498092979481231   -0.059925602800510264   -0.00322056549652643
-0.014477429967499057   -0.07259185735039216   -0.0031767108598364023
-0.00846357076170446   -0.0726496282630916   -0.003101162066191618
-0.007912472627860328   -0.05983368747841197   -0.0031204528239851307
-0.008371178142431563   -0.07268827973307726   -0.003062395529702331
-0.014498092979481231   -0.059925602800510264   -0.00322056549652643
-0.007860548462065626   -0.05989077167990362   -0.0030672069264541858
-0.008371178142431563   -0.07268827973307726   -0.003062395529702331
-0.007912472627860328   -0.05983368747841197   -0.0031204528239851307
-0.014498092979481231   -0.059925602800510264   -0.00322056549652643
-0.008371178142431563   -0.07268827973307726   -0.003062395529702331
-0.014392608345314572   -0.07266614393120203   -0.003194512699217239
-0.014477429967499057   -0.07259185735039216   -0.0031767108598364023
-0.014498092979481231   -0.059925602800510264   -0.00322056549652643
-0.008371178142431563   -0.07268827973307726   -0.003062395529702331
-0.014477429967499057   -0.07259185735039216   -0.0031767108598364023
-0.007912472627860328   -0.05983368747841197   -0.0031204528239851307
-0.014498092979481231   -0.059925602800510264   -0.00322056549652643
-0.014392608345314572   -0.07266614393120203   -0.003194512699217239
-0.007860548462065626   -0.05989077167990362   -0.0030672069264541858
-0.014437529824937753   -0.060035760221254696   -0.003204085893684117
-0.014392608345314572   -0.07266614393120203   -0.003194512699217239
-0.008371178142431563   -0.07268827973307726   -0.003062395529702331
-0.007860548462065626   -0.05989077167990362   -0.0030672069264541858
-0.00827178088423738   -0.07275713674542288   -0.0030373687510316396
-0.014437529824937753   -0.060035760221254696   -0.003204085893684117
-0.007801849024647726   -0.0599601368128182   -0.003027568821876284
-0.00827178088423738   -0.07275713674542288   -0.0030373687510316396
-0.007860548462065626   -0.05989077167990362   -0.0030672069264541858
-0.014437529824937753   -0.060035760221254696   -0.003204085893684117
-0.00827178088423738   -0.07275713674542288   -0.0030373687510316396
-0.014277723960191063   -0.07277184015389722   -0.0032262231701335902
-0.014392608345314572   -0.07266614393120203   -0.003194512699217239
-0.014437529824937753   -0.060035760221254696   -0.003204085893684117
-0.00827178088423738   -0.07275713674542288   -0.0030373687510316396
-0.014392608345314572   -0.07266614393120203   -0.003194512699217239
-0.007860548462065626   -0.05989077167990362   -0.0030672069264541858
-0.014437529824937753   -0.060035760221254696   -0.003204085893684117
-0.014277723960191063   -0.07277184015389722   -0.0032262231701335902
-0.007801849024647726   -0.0599601368128182   -0.003027568821876284
-0.014359003162981096   -0.06016418926688482   -0.0032009451732257868
-0.014277723960191063   -0.07277184015389722   -0.0032262231701335902
-0.00827178088423738   -0.07275713674542288   -0.0030373687510316396
-0.007801849024647726   -0.0599601368128182   -0.003027568821876284
-0.00816961179506143   -0.07285707282860424   -0.003026751774356902
-0.014359003162981096   -0.06016418926688482   -0.0032009451732257868
-0.007738577748278321   -0.060041999026837455   -0.003001978004945777
-0.00816961179506143   -0.07285707282860424   -0.003026751774356902
-0.007801849024647726   -0.0599601368128182   -0.003027568821876284
-0.014359003162981096   -0.06016418926688482   -0.0032009451732257868
-0.00816961179506143   -0.07285707282860424   -0.003026751774356902
-0.014154434099105183   -0.07291539049314562   -0.0032722555808840847
-0.014277723960191063   -0.07277184015389722   -0.0032262231701335902
-0.014359003162981096   -0.06016418926688482   -0.0032009451732257868
-0.00816961179506143   -0.07285707282860424   -0.003026751774356902
-0.014277723960191063   -0.07277184015389722   -0.0032262231701335902
-0.007801849024647726   -0.0599601368128182   -0.003027568821876284
-0.007912472627860328   -0.05983368747841197   -0.0031204528239851307
-0.00846357076170446   -0.0726496282630916   -0.003101162066191618
-0.0014755820769350074   -0.05979863063341181   -0.0030671443977583436
-0.007860548462065626   -0.05989077167990362   -0.0030672069264541858
-0.00846357076170446   -0.0726496282630916   -0.003101162066191618
-0.0026319293461000495   -0.07260543053747465   -0.0030885226641441856
-0.0014755820769350074   -0.05979863063341181   -0.0030671443977583436
-0.0025297340375144825   -0.07260639586009324   -0.002995128118010583
-0.007860548462065626   -0.05989077167990362   -0.0030672069264541858
-0.001414150385309575   -0.05981192540797489   -0.0029918420289567317
-0.0025297340375144825   -0.07260639586009324   -0.002995128118010583
-0.0014755820769350074   -0.05979863063341181   -0.0030671443977583436
-0.007860548462065626   -0.05989077167990362   -0.0030672069264541858
-0.0025297340375144825   -0.07260639586009324   -0.002995128118010583
-0.008371178142431563   -0.07268827973307726   -0.003062395529702331
-0.00846357076170446   -0.0726496282630916   -0.003101162066191618
-0.007860548462065626   -0.05989077167990362   -0.0030672069264541858
-0.0025297340375144825   -0.07260639586009324   -0.002995128118010583
-0.00846357076170446   -0.0726496282630916   -0.003101162066191618
-0.0014755820769350074   -0.05979863063341181   -0.0030671443977583436
-0.007860548462065626   -0.05989077167990362   -0.0030672069264541858
-0.008371178142431563   -0.07268827973307726   -0.003062395529702331
-0.001414150385309575   -0.05981192540797489   -0.0029918420289567317
-0.007801849024647726   -0.0599601368128182   -0.003027568821876284
-0.008371178142431563   -0.07268827973307726   -0.003062395529702331
-0.0025297340375144825   -0.07260639586009324   -0.002995128118010583
-0.001414150385309575   -0.05981192540797489   -0.0029918420289567317
-0.0024302231140904546   -0.07263534610321533   -0.002915506035798253
-0.007801849024647726   -0.0599601368128182   -0.003027568821876284
-0.001356047268472684   -0.05983653578359182   -0.00293004978893471
-0.0024302231140904546   -0.07263534610321533   -0.002915506035798253
-0.001414150385309575   -0.05981192540797489   -0.0029918420289567317
-0.007801849024647726   -0.0599601368128182   -0.003027568821876284
-0.0024302231140904546   -0.07263534610321533   -0.002915506035798253
-0.00827178088423738   -0.07275713674542288   -0.0030373687510316396
-0.008371178142431563   -0.07268827973307726   -0.003062395529702331
-0.007801849024647726   -0.0599601368128182   -0.003027568821876284
-0.0024302231140904546   -0.07263534610321533   -0.002915506035798253
-0.008371178142431563   -0.07268827973307726   -0.003062395529702331
-0.001414150385309575   -0.05981192540797489   -0.0029918420289567317
-0.007801849024647726   -0.0599601368128182   -0.003027568821876284
-0.00827178088423738   -0.07275713674542288   -0.0030373687510316396
-0.001356047268472684   -0.05983653578359182   -0.00293004978893471
-0.007738577748278321   -0.060041999026837455   -0.003001978004945777
-0.00827178088423738   -0.07275713674542288   -0.0030373687510316396
-0.0024302231140904546   -0.07263534610321533   -0.002915506035798253
-0.001356047268472684   -0.05983653578359182   -0.00293004978893471
-0.0023414540708657887   -0.07269468649137482   -0.0028501357906743265
-0.007738577748278321   -0.060041999026837455   -0.003001978004945777
-0.0013067650866948825   -0.0598730251657076   -0.002882240300252899
-0.0023414540708657887   -0.07269468649137482   -0.0028501357906743265
-0.001356047268472684   -0.05983653578359182   -0.00293004978893471
-0.007738577748278321   -0.060041999026837455   -0.003001978004945777
-0.0023414540708657887   -0.07269468649137482   -0.0028501357906743265
-0.00816961179506143   -0.07285707282860424   -0.003026751774356902
-0.00827178088423738   -0.07275713674542288   -0.0030373687510316396
-0.007738577748278321   -0.060041999026837455   -0.003001978004945777
-0.0023414540708657887   -0.07269468649137482   -0.0028501357906743265
-0.00827178088423738   -0.07275713674542288   -0.0030373687510316396
-0.001356047268472684   -0.05983653578359182   -0.00293004978893471
-0.0014755820769350074   -0.05979863063341181   -0.0030671443977583436
-0.0026319293461000495   -0.07260543053747465   -0.0030885226641441856
0.005155282683449208   -0.0597206761054725   -0.003093205334216685
-0.001414150385309575   -0.05981192540797489   -0.0029918420289567317
-0.0026319293461000495   -0.07260543053747465   -0.0030885226641441856
0.0034011307191475614   -0.07246230504301551   -0.0031437335455220777
0.005155282683449208   -0.0597206761054725   -0.003093205334216685
0.0035260729444590187   -0.07242304538200448   -0.0029962328120059366
-0.001414150385309575   -0.05981192540797489   -0.0029918420289567317
0.005233667271931435   -0.059690042630995345   -0.0029962432276848553
0.0035260729444590187   -0.07242304538200448   -0.0029962328120059366
0.005155282683449208   -0.0597206761054725   -0.003093205334216685
-0.001414150385309575   -0.05981192540797489   -0.0029918420289567317
0.0035260729444590187   -0.07242304538200448   -0.0029962328120059366
-0.0025297340375144825   -0.07260639586009324   -0.002995128118010583
-0.0026319293461000495   -0.07260543053747465   -0.0030885226641441856
-0.001414150385309575   -0.05981192540797489   -0.0029918420289567317
0.0035260729444590187   -0.07242304538200448   -0.0029962328120059366
-0.0026319293461000495   -0.07260543053747465   -0.0030885226641441856
0.005155282683449208   -0.0597206761054725   -0.003093205334216685
-0.001414150385309575   -0.05981192540797489   -0.0029918420289567317
-0.0025297340375144825   -0.07260639586009324   -0.002995128118010583
0.005233667271931435   -0.059690042630995345   -0.0029962432276848553
-0.001356047268472684   -0.05983653578359182   -0.00293004978893471
-0.0025297340375144825   -0.07260639586009324   -0.002995128118010583
0.0035260729444590187   -0.07242304538200448   -0.0029962328120059366
0.005233667271931435   -0.059690042630995345   -0.0029962432276848553
0.003654158604445551   -0.07241575387672972   -0.0028633885936780344
-0.001356047268472684   -0.05983653578359182   -0.00293004978893471
0.005306061885182996   -0.0596741175286543   -0.002912751709252873
0.003654158604445551   -0.07241575387672972   -0.0028633885936780344
0.005233667271931435   -0.059690042630995345   -0.0029962432276848553
-0.001356047268472684   -0.05983653578359182   -0.00293004978893471
0.003654158604445551   -0.07241575387672972   -0.0028633885936780344
-0.0024302231140904546   -0.07263534610321533   -0.002915506035798253
-0.0025297340375144825   -0.07260639586009324   -0.002995128118010583
-0.001356047268472684   -0.05983653578359182   -0.00293004978893471
0.003654158604445551   -0.07241575387672972   -0.0028633885936780344
-0.0025297340375144825   -0.07260639586009324   -0.002995128118010583
0.005233667271931435   -0.059690042630995345   -0.0029962432276848553
-0.001356047268472684   -0.05983653578359182   -0.00293004978893471
-0.0024302231140904546   -0.07263534610321533   -0.002915506035798253
0.005306061885182996   -0.0596741175286543   -0.002912751709252873
-0.0013067650866948825   -0.0598730251657076   -0.002882240300252899
-0.0024302231140904546   -0.07263534610321533   -0.002915506035798253
0.003654158604445551   -0.07241575387672972   -0.0028633885936780344
0.005306061885182996   -0.0596741175286543   -0.002912751709252873
0.003739290710962301   -0.07243452601110031   -0.002743268736109173
-0.0013067650866948825   -0.0598730251657076   -0.002882240300252899
0.0053447827348555785   -0.05966516181670311   -0.002841851374540418
0.003739290710962301   -0.07243452601110031   -0.002743268736109173
0.005306061885182996   -0.0596741175286543   -0.002912751709252873
-0.0013067650866948825   -0.0598730251657076   -0.002882240300252899
0.003739290710962301   -0.07243452601110031   -0.002743268736109173
-0.0023414540708657887   -0.07269468649137482   -0.0028501357906743265
-0.0024302231140904546   -0.07263534610321533   -0.002915506035798253
-0.0013067650866948825   -0.0598730251657076   -0.002882240300252899
0.003739290710962301   -0.07243452601110031   -0.002743268736109173
-0.0024302231140904546   -0.07263534610321533   -0.002915506035798253
0.005306061885182996   -0.0596741175286543   -0.002912751709252873
0.005155282683449208   -0.0597206761054725   -0.003093205334216685
0.0034011307191475614   -0.07246230504301551   -0.0031437335455220777
0.012255328534351587   -0.059589746443209954   -0.003202747390916773
0.005233667271931435   -0.059690042630995345   -0.0029962432276848553
0.0034011307191475614   -0.07246230504301551   -0.0031437335455220777
0.009820122919979657   -0.07221626489148837   -0.0032865049343679563
0.012255328534351587   -0.059589746443209954   -0.003202747390916773
0.01015250340996982   -0.07213525881951621   -0.0030719218716208935
0.005233667271931435   -0.059690042630995345   -0.0029962432276848553
0.012460090587093818   -0.05951930302195227   -0.0030755364289896782
0.01015250340996982   -0.07213525881951621   -0.0030719218716208935
0.012255328534351587   -0.059589746443209954   -0.003202747390916773
0.005233667271931435   -0.059690042630995345   -0.0029962432276848553
0.01015250340996982   -0.07213525881951621   -0.0030719218716208935
0.0035260729444590187   -0.07242304538200448   -0.0029962328120059366
0.0034011307191475614   -0.07246230504301551   -0.0031437335455220777
0.005233667271931435   -0.059690042630995345   -0.0029962432276848553
0.01015250340996982   -0.07213525881951621   -0.0030719218716208935
0.0034011307191475614   -0.07246230504301551   -0.0031437335455220777
0.012255328534351587   -0.059589746443209954   -0.003202747390916773
0.005233667271931435   -0.059690042630995345   -0.0029962432276848553
0.0035260729444590187   -0.07242304538200448   -0.0029962328120059366
0.012460090587093818   -0.05951930302195227   -0.0030755364289896782
0.005306061885182996   -0.0596741175286543   -0.002912751709252873
0.0035260729444590187   -0.07242304538200448   -0.0029962328120059366
0.01015250340996982   -0.07213525881951621   -0.0030719218716208935
0.012460090587093818   -0.05951930302195227   -0.0030755364289896782
0.010398566507013615   -0.07211301425072428   -0.0028768257816610024
0.005306061885182996   -0.0596741175286543   -0.002912751709252873
0.012600673767837845   -0.05948514871356386   -0.002967504697960807
0.010398566507013615   -0.07211301425072428   -0.0028768257816610024
0.012460090587093818   -0.05951930302195227   -0.0030755364289896782
0.005306061885182996   -0.0596741175286543   -0.002912751709252873
0.010398566507013615   -0.07211301425072428   -0.0028768257816610024
0.003654158604445551   -0.07241575387672972   -0.0028633885936780344
0.0035260729444590187   -0.07242304538200448   -0.0029962328120059366
0.005306061885182996   -0.0596741175286543   -0.002912751709252873
0.010398566507013615   -0.07211301425072428   -0.0028768257816610024
0.0035260729444590187   -0.07242304538200448   -0.0029962328120059366
0.012460090587093818   -0.05951930302195227   -0.0030755364289896782
0.005306061885182996   -0.0596741175286543   -0.002912751709252873
0.003654158604445551   -0.07241575387672972   -0.0028633885936780344
0.012600673767837845   -0.05948514871356386   -0.002967504697960807
0.0053447827348555785   -0.05966516181670311   -0.002841851374540418
0.003654158604445551   -0.07241575387672972   -0.0028633885936780344
0.010398566507013615   -0.07211301425072428   -0.0028768257816610024
0.012600673767837845   -0.05948514871356386   -0.002967504697960807
0.010647914716064192   -0.07211277732513927   -0.002702101541488902
0.0053447827348555785   -0.05966516181670311   -0.002841851374540418
0.012725349882245244   -0.05944790429950624   -0.0028794472358210236
0.010647914716064192   -0.07211277732513927   -0.002702101541488902
0.012600673767837845   -0.05948514871356386   -0.002967504697960807
0.0053447827348555785   -0.05966516181670311   -0.002841851374540418
0.010647914716064192   -0.07211277732513927   -0.002702101541488902
0.003739290710962301   -0.07243452601110031   -0.002743268736109173
0.003654158604445551   -0.07241575387672972   -0.0028633885936780344
0.0053447827348555785   -0.05966516181670311   -0.002841851374540418
0.010647914716064192   -0.07211277732513927   -0.002702101541488902
0.003654158604445551   -0.07241575387672972   -0.0028633885936780344
0.012600673767837845   -0.05948514871356386   -0.002967504697960807
-0.021186980969429586   -0.07244605024793158   -0.003294717812345381
-0.019335285125662176   -0.08364545638091238   -0.0030721750665611658
-0.014477429967499057   -0.07259185735039216   -0.0031767108598364023
-0.021033881263561024   -0.07254634717712234   -0.0033786868287959296
-0.019335285125662176   -0.08364545638091238   -0.0030721750665611658
-0.013687774018713406   -0.08390869994709849   -0.003053085813111045
-0.014477429967499057   -0.07259185735039216   -0.0031767108598364023
-0.013546712029690263   -0.0839467885107222   -0.0031153048074598665
-0.021033881263561024   -0.07254634717712234   -0.0033786868287959296
-0.014392608345314572   -0.07266614393120203   -0.003194512699217239
-0.013546712029690263   -0.0839467885107222   -0.0031153048074598665
-0.014477429967499057   -0.07259185735039216   -0.0031767108598364023
-0.021033881263561024   -0.07254634717712234   -0.0033786868287959296
-0.013546712029690263   -0.0839467885107222   -0.0031153048074598665
-0.01904162586350652   -0.0837019969461262   -0.003246288589879869
-0.019335285125662176   -0.08364545638091238   -0.0030721750665611658
-0.021033881263561024   -0.07254634717712234   -0.0033786868287959296
-0.013546712029690263   -0.0839467885107222   -0.0031153048074598665
-0.019335285125662176   -0.08364545638091238   -0.0030721750665611658
-0.014477429967499057   -0.07259185735039216   -0.0031767108598364023
-0.021033881263561024   -0.07254634717712234   -0.0033786868287959296
-0.01904162586350652   -0.0837019969461262   -0.003246288589879869
-0.014392608345314572   -0.07266614393120203   -0.003194512699217239
-0.02085903325948614   -0.07266936046523183   -0.0034845320524759197
-0.01904162586350652   -0.0837019969461262   -0.003246288589879869
-0.013546712029690263   -0.0839467885107222   -0.0031153048074598665
-0.014392608345314572   -0.07266614393120203   -0.003194512699217239
-0.013369540968471028   -0.0840379731149726   -0.0031916488541853835
-0.02085903325948614   -0.07266936046523183   -0.0034845320524759197
-0.014277723960191063   -0.07277184015389722   -0.0032262231701335902
-0.013369540968471028   -0.0840379731149726   -0.0031916488541853835
-0.014392608345314572   -0.07266614393120203   -0.003194512699217239
-0.02085903325948614   -0.07266936046523183   -0.0034845320524759197
-0.013369540968471028   -0.0840379731149726   -0.0031916488541853835
-0.01874863692636514   -0.08380900547386257   -0.0034434028687926033
-0.01904162586350652   -0.0837019969461262   -0.003246288589879869
-0.02085903325948614   -0.07266936046523183   -0.0034845320524759197
-0.013369540968471028   -0.0840379731149726   -0.0031916488541853835
-0.01904162586350652   -0.0837019969461262   -0.003246288589879869
-0.014392608345314572   -0.07266614393120203   -0.003194512699217239
-0.02085903325948614   -0.07266936046523183   -0.0034845320524759197
-0.01874863692636514   -0.08380900547386257   -0.0034434028687926033
-0.014277723960191063   -0.07277184015389722   -0.0032262231701335902
-0.02062087769822487   -0.07285656849633547   -0.0036126524161265447
-0.01874863692636514   -0.08380900547386257   -0.0034434028687926033
-0.013369540968471028   -0.0840379731149726   -0.0031916488541853835
-0.014277723960191063   -0.07277184015389722   -0.0032262231701335902
-0.013194715160822226   -0.08418743160333077   -0.0032819855589499842
-0.02062087769822487   -0.07285656849633547   -0.0036126524161265447
-0.014154434099105183   -0.07291539049314562   -0.0032722555808840847
-0.013194715160822226   -0.08418743160333077   -0.0032819855589499842
-0.014277723960191063   -0.07277184015389722   -0.0032262231701335902
-0.02062087769822487   -0.07285656849633547   -0.0036126524161265447
-0.013194715160822226   -0.08418743160333077   -0.0032819855589499842
-0.018373315488378235   -0.08400854382111032   -0.0036630880233364574
-0.01874863692636514   -0.08380900547386257   -0.0034434028687926033
-0.02062087769822487   -0.07285656849633547   -0.0036126524161265447
-0.013194715160822226   -0.08418743160333077   -0.0032819855589499842
-0.01874863692636514   -0.08380900547386257   -0.0034434028687926033
-0.014277723960191063   -0.07277184015389722   -0.0032262231701335902
-0.014477429967499057   -0.07259185735039216   -0.0031767108598364023
-0.013687774018713406   -0.08390869994709849   -0.003053085813111045
-0.00846357076170446   -0.0726496282630916   -0.003101162066191618
-0.014392608345314572   -0.07266614393120203   -0.003194512699217239
-0.013687774018713406   -0.08390869994709849   -0.003053085813111045
-0.008798669638733532   -0.0840321553077982   -0.0030454664293724054
-0.00846357076170446   -0.0726496282630916   -0.003101162066191618
-0.00865391450098504   -0.0840446684715416   -0.0030176600077682332
-0.014392608345314572   -0.07266614393120203   -0.003194512699217239
-0.008371178142431563   -0.07268827973307726   -0.003062395529702331
-0.00865391450098504   -0.0840446684715416   -0.0030176600077682332
-0.00846357076170446   -0.0726496282630916   -0.003101162066191618
-0.014392608345314572   -0.07266614393120203   -0.003194512699217239
-0.00865391450098504   -0.0840446684715416   -0.0030176600077682332
-0.013546712029690263   -0.0839467885107222   -0.0031153048074598665
-0.013687774018713406   -0.08390869994709849   -0.003053085813111045
-0.014392608345314572   -0.07266614393120203   -0.003194512699217239
-0.00865391450098504   -0.0840446684715416   -0.0030176600077682332
-0.013687774018713406   -0.08390869994709849   -0.003053085813111045
-0.00846357076170446   -0.0726496282630916   -0.003101162066191618
-0.014392608345314572   -0.07266614393120203   -0.003194512699217239
-0.013546712029690263   -0.0839467885107222   -0.0031153048074598665
-0.008371178142431563   -0.07268827973307726   -0.003062395529702331
-0.014277723960191063   -0.07277184015389722   -0.0032262231701335902
-0.013546712029690263   -0.0839467885107222   -0.0031153048074598665
-0.00865391450098504   -0.0840446684715416   -0.0030176600077682332
-0.008371178142431563   -0.07268827973307726   -0.003062395529702331
-0.008504520567828754   -0.08410458565729716   -0.003003560591164346
-0.014277723960191063   -0.07277184015389722   -0.0032262231701335902
-0.00827178088423738   -0.07275713674542288   -0.0030373687510316396
-0.008504520567828754   -0.08410458565729716   -0.003003560591164346
-0.008371178142431563   -0.07268827973307726   -0.003062395529702331
-0.014277723960191063   -0.07277184015389722   -0.0032262231701335902
-0.008504520567828754   -0.08410458565729716   -0.003003560591164346
-0.013369540968471028   -0.0840379731149726   -0.0031916488541853835
-0.013546712029690263   -0.0839467885107222   -0.0031153048074598665
-0.014277723960191063   -0.07277184015389722   -0.0032262231701335902
-0.008504520567828754   -0.08410458565729716   -0.003003560591164346
-0.013546712029690263   -0.0839467885107222   -0.0031153048074598665
-0.008371178142431563   -0.07268827973307726   -0.003062395529702331
-0.014277723960191063   -0.07277184015389722   -0.0032262231701335902
-0.013369540968471028   -0.0840379731149726   -0.0031916488541853835
-0.00827178088423738   -0.07275713674542288   -0.0030373687510316396
-0.014154434099105183   -0.07291539049314562   -0.0032722555808840847
-0.013369540968471028   -0.0840379731149726   -0.0031916488541853835
-0.008504520567828754   -0.08410458565729716   -0.003003560591164346
-0.00827178088423738   -0.07275713674542288   -0.0030373687510316396
-0.008355376706370704   -0.08421471406533738   -0.003002988021404642
-0.014154434099105183   -0.07291539049314562   -0.0032722555808840847
-0.00816961179506143   -0.07285707282860424   -0.003026751774356902
-0.008355376706370704   -0.08421471406533738   -0.003002988021404642
-0.00827178088423738   -0.07275713674542288   -0.0030373687510316396
-0.014154434099105183   -0.07291539049314562   -0.0032722555808840847
-0.008355376706370704   -0.08421471406533738   -0.003002988021404642
-0.013194715160822226   -0.08418743160333077   -0.0032819855589499842
-0.013369540968471028   -0.0840379731149726   -0.0031916488541853835
-0.014154434099105183   -0.07291539049314562   -0.0032722555808840847
-0.008355376706370704   -0.08421471406533738   -0.003002988021404642
-0.013369540968471028   -0.0840379731149726   -0.0031916488541853835
-0.00827178088423738   -0.07275713674542288   -0.0030373687510316396
-0.00846357076170446   -0.0726496282630916   -0.003101162066191618
-0.008798669638733532   -0.0840321553077982   -0.0030454664293724054
-0.0026319293461000495   -0.07260543053747465   -0.0030885226641441856
-0.008371178142431563   -0.07268827973307726   -0.003062395529702331
-0.008798669638733532   -0.0840321553077982   -0.0030454664293724054
-0.004071974102933843   -0.08401003332787488   -0.003080423301733227
-0.0026319293461000495   -0.07260543053747465   -0.0030885226641441856
-0.003913413837734543   -0.08399383388265018   -0.0029657531348661922
-0.008371178142431563   -0.07268827973307726   -0.003062395529702331
-0.0025297340375144825   -0.07260639586009324   -0.002995128118010583
-0.003913413837734543   -0.08399383388265018   -0.0029657531348661922
-0.0026319293461000495   -0.07260543053747465   -0.0030885226641441856
-0.008371178142431563   -0.07268827973307726   -0.003062395529702331
-0.003913413837734543   -0.08399383388265018   -0.0029657531348661922
-0.00865391450098504   -0.0840446684715416   -0.0030176600077682332
-0.008798669638733532   -0.0840321553077982   -0.0030454664293724054
-0.008371178142431563   -0.07268827973307726   -0.003062395529702331
-0.003913413837734543   -0.08399383388265018   -0.0029657531348661922
-0.008798669638733532   -0.0840321553077982   -0.0030454664293724054
-0.0026319293461000495   -0.07260543053747465   -0.0030885226641441856
-0.008371178142431563   -0.07268827973307726   -0.003062395529702331
-0.00865391450098504   -0.0840446684715416   -0.0030176600077682332
-0.0025297340375144825   -0.07260639586009324   -0.002995128118010583
-0.00827178088423738   -0.07275713674542288   -0.0030373687510316396
-0.00865391450098504   -0.0840446684715416   -0.0030176600077682332
-0.003913413837734543   -0.08399383388265018   -0.0029657531348661922
-0.0025297340375144825   -0.07260639586009324   -0.002995128118010583
-0.0037595454237808073   -0.08402048311910093   -0.0028656933581635803
-0.00827178088423738   -0.07275713674542288   -0.0030373687510316396
-0.0024302231140904546   -0.07263534610321533   -0.002915506035798253
-0.0037595454237808073   -0.08402048311910093   -0.0028656933581635803
-0.0025297340375144825   -0.07260639586009324   -0.002995128118010583
-0.00827178088423738   -0.07275713674542288   -0.0030373687510316396
-0.0037595454237808073   -0.08402048311910093   -0.0028656933581635803
-0.008504520567828754   -0.08410458565729716   -0.003003560591164346
-0.00865391450098504   -0.0840446684715416   -0.0030176600077682332
-0.00827178088423738   -0.07275713674542288   -0.0030373687510316396
-0.0037595454237808073   -0.08402048311910093   -0.0028656933581635803
-0.00865391450098504   -0.0840446684715416   -0.0030176600077682332
-0.0025297340375144825   -0.07260639586009324   -0.002995128118010583
-0.00827178088423738   -0.07275713674542288   -0.0030373687510316396
-0.008504520567828754   -0.08410458565729716   -0.003003560591164346
-0.0024302231140904546   -0.07263534610321533   -0.002915506035798253
-0.00816961179506143   -0.07285707282860424   -0.003026751774356902
-0.008504520567828754   -0.08410458565729716   -0.003003560591164346
-0.0037595454237808073   -0.08402048311910093   -0.0028656933581635803
-0.0024302231140904546   -0.07263534610321533   -0.002915506035798253
-0.003620545841925956   -0.08409622676311952   -0.0027789763880240507
-0.00816961179506143   -0.07285707282860424   -0.003026751774356902
-0.0023414540708657887   -0.07269468649137482   -0.0028501357906743265
-0.003620545841925956   -0.08409622676311952   -0.0027789763880240507
-0.0024302231140904546   -0.07263534610321533   -0.002915506035798253
-0.00816961179506143   -0.07285707282860424   -0.003026751774356902
-0.003620545841925956   -0.08409622676311952   -0.0027789763880240507
-0.008355376706370704   -0.08421471406533738   -0.003002988021404642
-0.008504520567828754   -0.08410458565729716   -0.003003560591164346
-0.00816961179506143   -0.07285707282860424   -0.003026751774356902
-0.003620545841925956   -0.08409622676311952   -0.0027789763880240507
-0.008504520567828754   -0.08410458565729716   -0.003003560591164346
-0.0024302231140904546   -0.07263534610321533   -0.002915506035798253
-0.0026319293461000495   -0.07260543053747465   -0.0030885226641441856
-0.004071974102933843   -0.08401003332787488   -0.003080423301733227
0.0034011307191475614   -0.07246230504301551   -0.0031437335455220777
-0.0025297340375144825   -0.07260639586009324   -0.002995128118010583
-0.004071974102933843   -0.08401003332787488   -0.003080423301733227
0.0008769380350040236   -0.08383713198753251   -0.003165676133489335
0.0034011307191475614   -0.07246230504301551   -0.0031437335455220777
0.0010697968969299596   -0.08378444794733277   -0.002964449129407456
-0.0025297340375144825   -0.07260639586009324   -0.002995128118010583
0.0035260729444590187   -0.07242304538200448   -0.0029962328120059366
0.0010697968969299596   -0.08378444794733277   -0.002964449129407456
0.0034011307191475614   -0.07246230504301551   -0.0031437335455220777
-0.0025297340375144825   -0.07260639586009324   -0.002995128118010583
0.0010697968969299596   -0.08378444794733277   -0.002964449129407456
-0.003913413837734543   -0.08399383388265018   -0.0029657531348661922
-0.004071974102933843   -0.08401003332787488   -0.003080423301733227
-0.0025297340375144825   -0.07260639586009324   -0.002995128118010583
0.0010697968969299596   -0.08378444794733277   -0.002964449129407456
-0.004071974102933843   -0.08401003332787488   -0.003080423301733227
0.0034011307191475614   -0.07246230504301551   -0.0031437335455220777
-0.0025297340375144825   -0.07260639586009324   -0.002995128118010583
-0.003913413837734543   -0.08399383388265018   -0.0029657531348661922
0.0035260729444590187   -0.07242304538200448   -0.0029962328120059366
-0.0024302231140904546   -0.07263534610321533   -0.002915506035798253
-0.003913413837734543   -0.08399383388265018   -0.0029657531348661922
0.0010697968969299596   -0.08378444794733277   -0.002964449129407456
0.0035260729444590187   -0.07242304538200448   -0.0029962328120059366
0.0012729896771140896   -0.08377967323418926   -0.0027817467618695356
-0.0024302231140904546   -0.07263534610321533   -0.002915506035798253
0.003654158604445551   -0.07241575387672972   -0.0028633885936780344
0.0012729896771140896   -0.08377967323418926   -0.0027817467618695356
0.0035260729444590187   -0.07242304538200448   -0.0029962328120059366
-0.0024302231140904546   -0.07263534610321533   -0.002915506035798253
0.0012729896771140896   -0.08377967323418926   -0.0027817467618695356
-0.0037595454237808073   -0.08402048311910093   -0.0028656933581635803
-0.003913413837734543   -0.08399383388265018   -0.0029657531348661922
-0.0024302231140904546   -0.07263534610321533   -0.002915506035798253
0.0012729896771140896   -0.08377967323418926   -0.0027817467618695356
-0.003913413837734543   -0.08399383388265018   -0.0029657531348661922
0.0035260729444590187   -0.07242304538200448   -0.0029962328120059366
-0.0024302231140904546   -0.07263534610321533   -0.002915506035798253
-0.0037595454237808073   -0.08402048311910093   -0.0028656933581635803
0.003654158604445551   -0.07241575387672972   -0.0028633885936780344
-0.0023414540708657887   -0.07269468649137482   -0.0028501357906743265
-0.0037595454237808073   -0.08402048311910093   -0.0028656933581635803
0.0012729896771140896   -0.08377967323418926   -0.0027817467618695356
0.003654158604445551   -0.07241575387672972   -0.0028633885936780344
0.0014215992091393959   -0.08382063516865126   -0.002611801538047667
-0.0023414540708657887   -0.07269468649137482   -0.0028501357906743265
0.003739290710962301   -0.07243452601110031   -0.002743268736109173
0.0014215992091393959   -0.08382063516865126   -0.002611801538047667
0.003654158604445551   -0.07241575387672972   -0.0028633885936780344
-0.0023414540708657887   -0.07269468649137482   -0.0028501357906743265
0.0014215992091393959   -0.08382063516865126   -0.002611801538047667
-0.003620545841925956   -0.08409622676311952   -0.0027789763880240507
-0.0037595454237808073   -0.08402048311910093   -0.0028656933581635803
-0.0023414540708657887   -0.07269468649137482   -0.0028501357906743265
0.0014215992091393959   -0.08382063516865126   -0.002611801538047667
-0.0037595454237808073   -0.08402048311910093   -0.0028656933581635803
0.003654158604445551   -0.07241575387672972   -0.0028633885936780344
0.0034011307191475614   -0.07246230504301551   -0.0031437335455220777
0.0008769380350040236   -0.08383713198753251   -0.003165676133489335
0.009820122919979657   -0.07221626489148837   -0.0032865049343679563
0.0035260729444590187   -0.07242304538200448   -0.0029962328120059366
0.0008769380350040236   -0.08383713198753251   -0.003165676133489335
0.006154429664491848   -0.083497035226203   -0.0033481984561227252
0.009820122919979657   -0.07221626489148837   -0.0032865049343679563
0.006642487436633052   -0.08339587828847404   -0.003040249833393307
0.0035260729444590187   -0.07242304538200448   -0.0029962328120059366
0.01015250340996982   -0.07213525881951621   -0.0030719218716208935
0.006642487436633052   -0.08339587828847404   -0.003040249833393307
0.009820122919979657   -0.07221626489148837   -0.0032865049343679563
0.0035260729444590187   -0.07242304538200448   -0.0029962328120059366
0.006642487436633052   -0.08339587828847404   -0.003040249833393307
0.0010697968969299596   -0.08378444794733277   -0.002964449129407456
0.0008769380350040236   -0.08383713198753251   -0.003165676133489335
0.0035260729444590187   -0.07242304538200448   -0.0029962328120059366
0.006642487436633052   -0.08339587828847404   -0.003040249833393307
0.0008769380350040236   -0.08383713198753251   -0.003165676133489335
0.009820122919979657   -0.07221626489148837   -0.0032865049343679563
0.0035260729444590187   -0.07242304538200448   -0.0029962328120059366
0.0010697968969299596   -0.08378444794733277   -0.002964449129407456
0.01015250340996982   -0.07213525881951621   -0.0030719218716208935
0.003654158604445551   -0.07241575387672972   -0.0028633885936780344
0.0010697968969299596   -0.08378444794733277   -0.002964449129407456
0.006642487436633052   -0.08339587828847404   -0.003040249833393307
0.01015250340996982   -0.07213525881951621   -0.0030719218716208935
0.007016662414420594   -0.0833783639165485   -0.002755271792981699
0.003654158604445551   -0.07241575387672972   -0.0028633885936780344
0.010398566507013615   -0.07211301425072428   -0.0028768257816610024
0.007016662414420594   -0.0833783639165485   -0.002755271792981699
0.01015250340996982   -0.07213525881951621   -0.0030719218716208935
0.003654158604445551   -0.07241575387672972   -0.0028633885936780344
0.007016662414420594   -0.0833783639165485   -0.002755271792981699
0.0012729896771140896   -0.08377967323418926   -0.0027817467618695356
0.0010697968969299596   -0.08378444794733277   -0.002964449129407456
0.003654158604445551   -0.07241575387672972   -0.0028633885936780344
0.007016662414420594   -0.0833783639165485   -0.002755271792981699
0.0010697968969299596   -0.08378444794733277   -0.002964449129407456
0.01015250340996982   -0.07213525881951621   -0.0030719218716208935
0.003654158604445551   -0.07241575387672972   -0.0028633885936780344
0.0012729896771140896   -0.08377967323418926   -0.0027817467618695356
0.010398566507013615   -0.07211301425072428   -0.0028768257816610024
0.003739290710962301   -0.07243452601110031   -0.002743268736109173
0.0012729896771140896   -0.08377967323418926   -0.0027817467618695356
0.007016662414420594   -0.0833783639165485   -0.002755271792981699
0.010398566507013615   -0.07211301425072428   -0.0028768257816610024
0.007404141870180384   -0.08340829689102942   -0.0024955959361158456
0.003739290710962301   -0.07243452601110031   -0.002743268736109173
0.010647914716064192   -0.07211277732513927   -0.002702101541488902
0.007404141870180384   -0.08340829689102942   -0.0024955959361158456
0.010398566507013615   -0.07211301425072428   -0.0028768257816610024
0.003739290710962301   -0.07243452601110031   -0.002743268736109173
0.007404141870180384   -0.08340829689102942   -0.0024955959361158456
0.0014215992091393959   -0.08382063516865126   -0.002611801538047667
0.0012729896771140896   -0.08377967323418926   -0.0027817467618695356
0.003739290710962301   -0.07243452601110031   -0.002743268736109173
0.007404141870180384   -0.08340829689102942   -0.0024955959361158456
0.0012729896771140896   -0.08377967323418926   -0.0027817467618695356
0.010398566507013615   -0.07211301425072428   -0.0028768257816610024
-0.019335285125662176   -0.08364545638091238   -0.0030721750665611658
-0.016190107825313937   -0.09243734439365142   -0.0027870809140250097
-0.013687774018713406   -0.08390869994709849   -0.003053085813111045
-0.01904162586350652   -0.0837019969461262   -0.003246288589879869
-0.016190107825313937   -0.09243734439365142   -0.0027870809140250097
-0.012171411643819791   -0.09282739660734594   -0.0029041252799276765
-0.013687774018713406   -0.08390869994709849   -0.003053085813111045
-0.011968002797388631   -0.09280722265283   -0.0029998917333571348
-0.01904162586350652   -0.0837019969461262   -0.003246288589879869
-0.013546712029690263   -0.0839467885107222   -0.0031153048074598665
-0.011968002797388631   -0.09280722265283   -0.0029998917333571348
-0.013687774018713406   -0.08390869994709849   -0.003053085813111045
-0.01904162586350652   -0.0837019969461262   -0.003246288589879869
-0.011968002797388631   -0.09280722265283   -0.0029998917333571348
-0.01575196728463433   -0.09242631090023117   -0.003045306086848633
-0.016190107825313937   -0.09243734439365142   -0.0027870809140250097
-0.01904162586350652   -0.0837019969461262   -0.003246288589879869
-0.011968002797388631   -0.09280722265283   -0.0029998917333571348
-0.016190107825313937   -0.09243734439365142   -0.0027870809140250097
-0.013687774018713406   -0.08390869994709849   -0.003053085813111045
-0.01904162586350652   -0.0837019969461262   -0.003246288589879869
-0.01575196728463433   -0.09242631090023117   -0.003045306086848633
-0.013546712029690263   -0.0839467885107222   -0.0031153048074598665
-0.01874863692636514   -0.08380900547386257   -0.0034434028687926033
-0.01575196728463433   -0.09242631090023117   -0.003045306086848633
-0.011968002797388631   -0.09280722265283   -0.0029998917333571348
-0.013546712029690263   -0.0839467885107222   -0.0031153048074598665
-0.011728817220174808   -0.09286321845070983   -0.0031100998027148324
-0.01874863692636514   -0.08380900547386257   -0.0034434028687926033
-0.013369540968471028   -0.0840379731149726   -0.0031916488541853835
-0.011728817220174808   -0.09286321845070983   -0.0031100998027148324
-0.013546712029690263   -0.0839467885107222   -0.0031153048074598665
-0.01874863692636514   -0.08380900547386257   -0.0034434028687926033
-0.011728817220174808   -0.09286321845070983   -0.0031100998027148324
-0.015348037815988284   -0.09249552031419056   -0.0033238661138977606
-0.01575196728463433   -0.09242631090023117   -0.003045306086848633
-0.01874863692636514   -0.08380900547386257   -0.0034434028687926033
-0.011728817220174808   -0.09286321845070983   -0.0031100998027148324
-0.01575196728463433   -0.09242631090023117   -0.003045306086848633
-0.013546712029690263   -0.0839467885107222   -0.0031153048074598665
-0.01874863692636514   -0.08380900547386257   -0.0034434028687926033
-0.015348037815988284   -0.09249552031419056   -0.0033238661138977606
-0.013369540968471028   -0.0840379731149726   -0.0031916488541853835
-0.018373315488378235   -0.08400854382111032   -0.0036630880233364574
-0.015348037815988284   -0.09249552031419056   -0.0033238661138977606
-0.011728817220174808   -0.09286321845070983   -0.0031100998027148324
-0.013369540968471028   -0.0840379731149726   -0.0031916488541853835
-0.011511825941902247   -0.09299665147652432   -0.0032338246518993463
-0.018373315488378235   -0.08400854382111032   -0.0036630880233364574
-0.013194715160822226   -0.08418743160333077   -0.0032819855589499842
-0.011511825941902247   -0.09299665147652432   -0.0032338246518993463
-0.013369540968471028   -0.0840379731149726   -0.0031916488541853835
-0.018373315488378235   -0.08400854382111032   -0.0036630880233364574
-0.011511825941902247   -0.09299665147652432   -0.0032338246518993463
-0.014855418826750228   -0.09268053097613067   -0.003621556714704026
-0.015348037815988284   -0.09249552031419056   -0.0033238661138977606
-0.018373315488378235   -0.08400854382111032   -0.0036630880233364574
-0.011511825941902247   -0.09299665147652432   -0.0032338246518993463
-0.015348037815988284   -0.09249552031419056   -0.0033238661138977606
-0.013369540968471028   -0.0840379731149726   -0.0031916488541853835
-0.013687774018713406   -0.08390869994709849   -0.003053085813111045
-0.012171411643819791   -0.09282739660734594   -0.0029041252799276765
-0.008798669638733532   -0.0840321553077982   -0.0030454664293724054
-0.013546712029690263   -0.0839467885107222   -0.0031153048074598665
-0.012171411643819791   -0.09282739660734594   -0.0029041252799276765
-0.008889230640867836   -0.09308061303707815   -0.00299571025367861
-0.008798669638733532   -0.0840321553077982   -0.0030454664293724054
-0.008680450306849628   -0.09304837882564736   -0.00296640611464537
-0.013546712029690263   -0.0839467885107222   -0.0031153048074598665
-0.00865391450098504   -0.0840446684715416   -0.0030176600077682332
-0.008680450306849628   -0.09304837882564736   -0.00296640611464537
-0.008798669638733532   -0.0840321553077982   -0.0030454664293724054
-0.013546712029690263   -0.0839467885107222   -0.0031153048074598665
-0.008680450306849628   -0.09304837882564736   -0.00296640611464537
-0.011968002797388631   -0.09280722265283   -0.0029998917333571348
-0.012171411643819791   -0.09282739660734594   -0.0029041252799276765
-0.013546712029690263   -0.0839467885107222   -0.0031153048074598665
-0.008680450306849628   -0.09304837882564736   -0.00296640611464537
-0.012171411643819791   -0.09282739660734594   -0.0029041252799276765
-0.008798669638733532   -0.0840321553077982   -0.0030454664293724054
-0.013546712029690263   -0.0839467885107222   -0.0031153048074598665
-0.011968002797388631   -0.09280722265283   -0.0029998917333571348
-0.00865391450098504   -0.0840446684715416   -0.0030176600077682332
-0.013369540968471028   -0.0840379731149726   -0.0031916488541853835
-0.011968002797388631   -0.09280722265283   -0.0029998917333571348
-0.008680450306849628   -0.09304837882564736   -0.00296640611464537
-0.00865391450098504   -0.0840446684715416   -0.0030176600077682332
-0.008474638776525547   -0.09308187537029887   -0.002951124884532396
-0.013369540968471028   -0.0840379731149726   -0.0031916488541853835
-0.008504520567828754   -0.08410458565729716   -0.003003560591164346
-0.008474638776525547   -0.09308187537029887   -0.002951124884532396
-0.00865391450098504   -0.0840446684715416   -0.0030176600077682332
-0.013369540968471028   -0.0840379731149726   -0.0031916488541853835
-0.008474638776525547   -0.09308187537029887   -0.002951124884532396
-0.011728817220174808   -0.09286321845070983   -0.0031100998027148324
-0.011968002797388631   -0.09280722265283   -0.0029998917333571348
-0.013369540968471028   -0.0840379731149726   -0.0031916488541853835
-0.008474638776525547   -0.09308187537029887   -0.002951124884532396
-0.011968002797388631   -0.09280722265283   -0.0029998917333571348
-0.00865391450098504   -0.0840446684715416   -0.0030176600077682332
-0.013369540968471028   -0.0840379731149726   -0.0031916488541853835
-0.011728817220174808   -0.09286321845070983   -0.0031100998027148324
-0.008504520567828754   -0.08410458565729716   -0.003003560591164346
-0.013194715160822226   -0.08418743160333077   -0.0032819855589499842
-0.011728817220174808   -0.09286321845070983   -0.0031100998027148324
-0.008474638776525547   -0.09308187537029887   -0.002951124884532396
-0.008504520567828754   -0.08410458565729716   -0.003003560591164346
-0.008285302043855705   -0.09318330060206355   -0.002952809866231635
-0.013194715160822226   -0.08418743160333077   -0.0032819855589499842
-0.008355376706370704   -0.08421471406533738   -0.003002988021404642
-0.008285302043855705   -0.09318330060206355   -0.002952809866231635
-0.008504520567828754   -0.08410458565729716   -0.003003560591164346
-0.013194715160822226   -0.08418743160333077   -0.0032819855589499842
-0.008285302043855705   -0.09318330060206355   -0.002952809866231635
-0.011511825941902247   -0.09299665147652432   -0.0032338246518993463
-0.011728817220174808   -0.09286321845070983   -0.0031100998027148324
-0.013194715160822226   -0.08418743160333077   -0.0032819855589499842
-0.008285302043855705   -0.09318330060206355   -0.002952809866231635
-0.011728817220174808   -0.09286321845070983   -0.0031100998027148324
-0.008504520567828754   -0.08410458565729716   -0.003003560591164346
-0.008798669638733532   -0.0840321553077982   -0.0030454664293724054
-0.008889230640867836   -0.09308061303707815   -0.00299571025367861
-0.004071974102933843   -0.08401003332787488   -0.003080423301733227
-0.00865391450098504   -0.0840446684715416   -0.0030176600077682332
-0.008889230640867836   -0.09308061303707815   -0.00299571025367861
-0.005745716925322071   -0.09321427344380705   -0.0031037994684520024
-0.004071974102933843   -0.08401003332787488   -0.003080423301733227
-0.005510348412429505   -0.09316784876927324   -0.002956569948947278
-0.00865391450098504   -0.0840446684715416   -0.0030176600077682332
-0.003913413837734543   -0.08399383388265018   -0.0029657531348661922
-0.005510348412429505   -0.09316784876927324   -0.002956569948947278
-0.004071974102933843   -0.08401003332787488   -0.003080423301733227
-0.00865391450098504   -0.0840446684715416   -0.0030176600077682332
-0.005510348412429505   -0.09316784876927324   -0.002956569948947278
-0.008680450306849628   -0.09304837882564736   -0.00296640611464537
-0.008889230640867836   -0.09308061303707815   -0.00299571025367861
-0.00865391450098504   -0.0840446684715416   -0.0030176600077682332
-0.005510348412429505   -0.09316784876927324   -0.002956569948947278
-0.008889230640867836   -0.09308061303707815   -0.00299571025367861
-0.004071974102933843   -0.08401003332787488   -0.003080423301733227
-0.00865391450098504   -0.0840446684715416   -0.0030176600077682332
-0.008680450306849628   -0.09304837882564736   -0.00296640611464537
-0.003913413837734543   -0.08399383388265018   -0.0029657531348661922
-0.008504520567828754   -0.08410458565729716   -0.003003560591164346
-0.008680450306849628   -0.09304837882564736   -0.00296640611464537
-0.005510348412429505   -0.09316784876927324   -0.002956569948947278
-0.003913413837734543   -0.08399383388265018   -0.0029657531348661922
-0.005286011148789151   -0.09317918830632878   -0.002821720923399942
-0.008504520567828754   -0.08410458565729716   -0.003003560591164346
-0.0037595454237808073   -0.08402048311910093   -0.0028656933581635803
-0.005286011148789151   -0.09317918830632878   -0.002821720923399942
-0.003913413837734543   -0.08399383388265018   -0.0029657531348661922
-0.008504520567828754   -0.08410458565729716   -0.003003560591164346
-0.005286011148789151   -0.09317918830632878   -0.002821720923399942
-0.008474638776525547   -0.09308187537029887   -0.002951124884532396
-0.008680450306849628   -0.09304837882564736   -0.00296640611464537
-0.008504520567828754   -0.08410458565729716   -0.003003560591164346
-0.005286011148789151   -0.09317918830632878   -0.002821720923399942
-0.008680450306849628   -0.09304837882564736   -0.00296640611464537
-0.003913413837734543   -0.08399383388265018   -0.0029657531348661922
-0.008504520567828754   -0.08410458565729716   -0.003003560591164346
-0.008474638776525547   -0.09308187537029887   -0.002951124884532396
-0.0037595454237808073   -0.08402048311910093   -0.0028656933581635803
-0.008355376706370704   -0.08421471406533738   -0.003002988021404642
-0.008474638776525547   -0.09308187537029887   -0.002951124884532396
-0.005286011148789151   -0.09317918830632878   -0.002821720923399942
-0.0037595454237808073   -0.08402048311910093   -0.0028656933581635803
-0.005099488317516589   -0.09325961154504814   -0.0027070223274359316
-0.008355376706370704   -0.08421471406533738   -0.003002988021404642
-0.003620545841925956   -0.08409622676311952   -0.0027789763880240507
-0.005099488317516589   -0.09325961154504814   -0.0027070223274359316
-0.0037595454237808073   -0.08402048311910093   -0.0028656933581635803
-0.008355376706370704   -0.08421471406533738   -0.003002988021404642
-0.005099488317516589   -0.09325961154504814   -0.0027070223274359316
-0.008285302043855705   -0.09318330060206355   -0.002952809866231635
-0.008474638776525547   -0.09308187537029887   -0.002951124884532396
-0.008355376706370704   -0.08421471406533738   -0.003002988021404642
-0.005099488317516589   -0.09325961154504814   -0.0027070223274359316
-0.008474638776525547   -0.09308187537029887   -0.002951124884532396
-0.0037595454237808073   -0.08402048311910093   -0.0028656933581635803
-0.004071974102933843   -0.08401003332787488   -0.003080423301733227
-0.005745716925322071   -0.09321427344380705   -0.0031037994684520024
0.0008769380350040236   -0.08383713198753251   -0.003165676133489335
-0.003913413837734543   -0.08399383388265018   -0.0029657531348661922
-0.005745716925322071   -0.09321427344380705   -0.0031037994684520024
-0.002401907242896711   -0.09318184354529194   -0.0032310053675184257
0.0008769380350040236   -0.08383713198753251   -0.003165676133489335
-0.002099715516002449   -0.09310908577423227   -0.00297099421629532
-0.003913413837734543   -0.08399383388265018   -0.0029657531348661922
0.0010697968969299596   -0.08378444794733277   -0.002964449129407456
-0.002099715516002449   -0.09310908577423227   -0.00297099421629532
0.0008769380350040236   -0.08383713198753251   -0.003165676133489335
-0.003913413837734543   -0.08399383388265018   -0.0029657531348661922
-0.002099715516002449   -0.09310908577423227   -0.00297099421629532
-0.005510348412429505   -0.09316784876927324   -0.002956569948947278
-0.005745716925322071   -0.09321427344380705   -0.0031037994684520024
-0.003913413837734543   -0.08399383388265018   -0.0029657531348661922
-0.002099715516002449   -0.09310908577423227   -0.00297099421629532
-0.005745716925322071   -0.09321427344380705   -0.0031037994684520024
0.0008769380350040236   -0.08383713198753251   -0.003165676133489335
-0.003913413837734543   -0.08399383388265018   -0.0029657531348661922
-0.005510348412429505   -0.09316784876927324   -0.002956569948947278
0.0010697968969299596   -0.08378444794733277   -0.002964449129407456
-0.0037595454237808073   -0.08402048311910093   -0.0028656933581635803
-0.005510348412429505   -0.09316784876927324   -0.002956569948947278
-0.002099715516002449   -0.09310908577423227   -0.00297099421629532
0.0010697968969299596   -0.08378444794733277   -0.002964449129407456
-0.001790883236986466   -0.09309617423139639   -0.002724236263784972
-0.0037595454237808073   -0.08402048311910093   -0.0028656933581635803
0.0012729896771140896   -0.08377967323418926   -0.0027817467618695356
-0.001790883236986466   -0.09309617423139639   -0.002724236263784972
0.0010697968969299596   -0.08378444794733277   -0.002964449129407456
-0.0037595454237808073   -0.08402048311910093   -0.0028656933581635803
-0.001790883236986466   -0.09309617423139639   -0.002724236263784972
-0.005286011148789151   -0.09317918830632878   -0.002821720923399942
-0.005510348412429505   -0.09316784876927324   -0.002956569948947278
-0.0037595454237808073   -0.08402048311910093   -0.0028656933581635803
-0.001790883236986466   -0.09309617423139639   -0.002724236263784972
-0.005510348412429505   -0.09316784876927324   -0.002956569948947278
0.0010697968969299596   -0.08378444794733277   -0.002964449129407456
-0.0037595454237808073   -0.08402048311910093   -0.0028656933581635803
-0.005286011148789151   -0.09317918830632878   -0.002821720923399942
0.0012729896771140896   -0.08377967323418926   -0.0027817467618695356
-0.003620545841925956   -0.08409622676311952   -0.0027789763880240507
-0.005286011148789151   -0.09317918830632878   -0.002821720923399942
-0.001790883236986466   -0.09309617423139639   -0.002724236263784972
0.0012729896771140896   -0.08377967323418926   -0.0027817467618695356
-0.0015620632390251324   -0.0931560626091879   -0.0025001906855525767
-0.003620545841925956   -0.08409622676311952   -0.0027789763880240507
0.0014215992091393959   -0.08382063516865126   -0.002611801538047667
-0.0015620632390251324   -0.0931560626091879   -0.0025001906855525767
0.0012729896771140896   -0.08377967323418926   -0.0027817467618695356
-0.003620545841925956   -0.08409622676311952   -0.0027789763880240507
-0.0015620632390251324   -0.0931560626091879   -0.0025001906855525767
-0.005099488317516589   -0.09325961154504814   -0.0027070223274359316
-0.005286011148789151   -0.09317918830632878   -0.002821720923399942
-0.003620545841925956   -0.08409622676311952   -0.0027789763880240507
-0.0015620632390251324   -0.0931560626091879   -0.0025001906855525767
-0.005286011148789151   -0.09317918830632878   -0.002821720923399942
0.0012729896771140896   -0.08377967323418926   -0.0027817467618695356
0.0008769380350040236   -0.08383713198753251   -0.003165676133489335
-0.002401907242896711   -0.09318184354529194   -0.0032310053675184257
0.006154429664491848   -0.083497035226203   -0.0033481984561227252
0.0010697968969299596   -0.08378444794733277   -0.002964449129407456
-0.002401907242896711   -0.09318184354529194   -0.0032310053675184257
0.001199040397871092   -0.09286105525001528   -0.003492094275273923
0.006154429664491848   -0.083497035226203   -0.0033481984561227252
0.0019023710642231584   -0.09270259841844812   -0.003066702290770532
0.0010697968969299596   -0.08378444794733277   -0.002964449129407456
0.006642487436633052   -0.08339587828847404   -0.003040249833393307
0.0019023710642231584   -0.09270259841844812   -0.003066702290770532
0.006154429664491848   -0.083497035226203   -0.0033481984561227252
0.0010697968969299596   -0.08378444794733277   -0.002964449129407456
0.0019023710642231584   -0.09270259841844812   -0.003066702290770532
-0.002099715516002449   -0.09310908577423227   -0.00297099421629532
-0.002401907242896711   -0.09318184354529194   -0.0032310053675184257
0.0010697968969299596   -0.08378444794733277   -0.002964449129407456
0.0019023710642231584   -0.09270259841844812   -0.003066702290770532
-0.002401907242896711   -0.09318184354529194   -0.0032310053675184257
0.006154429664491848   -0.083497035226203   -0.0033481984561227252
0.0010697968969299596   -0.08378444794733277   -0.002964449129407456
-0.002099715516002449   -0.09310908577423227   -0.00297099421629532
0.006642487436633052   -0.08339587828847404   -0.003040249833393307
0.0012729896771140896   -0.08377967323418926   -0.0027817467618695356
-0.002099715516002449   -0.09310908577423227   -0.00297099421629532
0.0019023710642231584   -0.09270259841844812   -0.003066702290770532
0.006642487436633052   -0.08339587828847404   -0.003040249833393307
0.0024551544044212254   -0.09267044466620879   -0.002667366979467527
0.0012729896771140896   -0.08377967323418926   -0.0027817467618695356
0.007016662414420594   -0.0833783639165485   -0.002755271792981699
0.0024551544044212254   -0.09267044466620879   -0.002667366979467527
0.006642487436633052   -0.08339587828847404   -0.003040249833393307
0.0012729896771140896   -0.08377967323418926   -0.0027817467618695356
0.0024551544044212254   -0.09267044466620879   -0.002667366979467527
-0.001790883236986466   -0.09309617423139639   -0.002724236263784972
-0.002099715516002449   -0.09310908577423227   -0.00297099421629532
0.0012729896771140896   -0.08377967323418926   -0.0027817467618695356
0.0024551544044212254   -0.09267044466620879   -0.002667366979467527
-0.002099715516002449   -0.09310908577423227   -0.00297099421629532
0.006642487436633052   -0.08339587828847404   -0.003040249833393307
0.0012729896771140896   -0.08377967323418926   -0.0027817467618695356
-0.001790883236986466   -0.09309617423139639   -0.002724236263784972
0.007016662414420594   -0.0833783639165485   -0.002755271792981699
0.0014215992091393959   -0.08382063516865126   -0.002611801538047667
-0.001790883236986466   -0.09309617423139639   -0.002724236263784972
0.0024551544044212254   -0.09267044466620879   -0.002667366979467527
0.007016662414420594   -0.0833783639165485   -0.002755271792981699
0.0030293663532898686   -0.09269716834758926   -0.0023027613176287904
0.0014215992091393959   -0.08382063516865126   -0.002611801538047667
0.007404141870180384   -0.08340829689102942   -0.0024955959361158456
0.0030293663532898686   -0.09269716834758926   -0.0023027613176287904
0.007016662414420594   -0.0833783639165485   -0.002755271792981699
0.0014215992091393959   -0.08382063516865126   -0.002611801538047667
0.0030293663532898686   -0.09269716834758926   -0.0023027613176287904
-0.0015620632390251324   -0.0931560626091879   -0.0025001906855525767
-0.001790883236986466   -0.09309617423139639   -0.002724236263784972
0.0014215992091393959   -0.08382063516865126   -0.002611801538047667
0.0030293663532898686   -0.09269716834758926   -0.0023027613176287904
-0.001790883236986466   -0.09309617423139639   -0.002724236263784972
0.007016662414420594   -0.0833783639165485   -0.002755271792981699
-0.016190107825313937   -0.09243734439365142   -0.0027870809140250097
-0.011864054594667998   -0.09766165523468584   -0.002452361944283297
-0.012171411643819791   -0.09282739660734594   -0.0029041252799276765
-0.01575196728463433   -0.09242631090023117   -0.003045306086848633
-0.011864054594667998   -0.09766165523468584   -0.002452361944283297
-0.009996166096146234   -0.09815514762451334   -0.002749184146063749
-0.012171411643819791   -0.09282739660734594   -0.0029041252799276765
-0.009739372447409472   -0.09805744129336048   -0.0028510140138480987
-0.01575196728463433   -0.09242631090023117   -0.003045306086848633
-0.011968002797388631   -0.09280722265283   -0.0029998917333571348
-0.009739372447409472   -0.09805744129336048   -0.0028510140138480987
-0.012171411643819791   -0.09282739660734594   -0.0029041252799276765
-0.01575196728463433   -0.09242631090023117   -0.003045306086848633
-0.009739372447409472   -0.09805744129336048   -0.0028510140138480987
-0.011317806460286153   -0.09755160511406581   -0.002762209684967104
-0.011864054594667998   -0.09766165523468584   -0.002452361944283297
-0.01575196728463433   -0.09242631090023117   -0.003045306086848633
-0.009739372447409472   -0.09805744129336048   -0.0028510140138480987
-0.011864054594667998   -0.09766165523468584   -0.002452361944283297
-0.012171411643819791   -0.09282739660734594   -0.0029041252799276765
-0.01575196728463433   -0.09242631090023117   -0.003045306086848633
-0.011317806460286153   -0.09755160511406581   -0.002762209684967104
-0.011968002797388631   -0.09280722265283   -0.0029998917333571348
-0.015348037815988284   -0.09249552031419056   -0.0033238661138977606
-0.011317806460286153   -0.09755160511406581   -0.002762209684967104
-0.009739372447409472   -0.09805744129336048   -0.0028510140138480987
-0.011968002797388631   -0.09280722265283   -0.0029998917333571348
-0.009455057978238424   -0.09806201258209786   -0.00295387143728826
-0.015348037815988284   -0.09249552031419056   -0.0033238661138977606
-0.011728817220174808   -0.09286321845070983   -0.0031100998027148324
-0.009455057978238424   -0.09806201258209786   -0.00295387143728826
-0.011968002797388631   -0.09280722265283   -0.0029998917333571348
-0.015348037815988284   -0.09249552031419056   -0.0033238661138977606
-0.009455057978238424   -0.09806201258209786   -0.00295387143728826
-0.01084647911171293   -0.09756073122009053   -0.003070841426690568
-0.011317806460286153   -0.09755160511406581   -0.002762209684967104
-0.015348037815988284   -0.09249552031419056   -0.0033238661138977606
-0.009455057978238424   -0.09806201258209786   -0.00295387143728826
-0.011317806460286153   -0.09755160511406581   -0.002762209684967104
-0.011968002797388631   -0.09280722265283   -0.0029998917333571348
-0.015348037815988284   -0.09249552031419056   -0.0033238661138977606
-0.01084647911171293   -0.09756073122009053   -0.003070841426690568
-0.011728817220174808   -0.09286321845070983   -0.0031100998027148324
-0.014855418826750228   -0.09268053097613067   -0.003621556714704026
-0.01084647911171293   -0.09756073122009053   -0.003070841426690568
-0.009455057978238424   -0.09806201258209786   -0.00295387143728826
-0.011728817220174808   -0.09286321845070983   -0.0031100998027148324
-0.009190882532605037   -0.0981693244457815   -0.003058187682238666
-0.014855418826750228   -0.09268053097613067   -0.003621556714704026
-0.011511825941902247   -0.09299665147652432   -0.0032338246518993463
-0.009190882532605037   -0.0981693244457815   -0.003058187682238666
-0.011728817220174808   -0.09286321845070983   -0.0031100998027148324
-0.014855418826750228   -0.09268053097613067   -0.003621556714704026
-0.009190882532605037   -0.0981693244457815   -0.003058187682238666
-0.010287499250012702   -0.09769584912527524   -0.0033861281910375716
-0.01084647911171293   -0.09756073122009053   -0.003070841426690568
-0.014855418826750228   -0.09268053097613067   -0.003621556714704026
-0.009190882532605037   -0.0981693244457815   -0.003058187682238666
-0.01084647911171293   -0.09756073122009053   -0.003070841426690568
-0.011728817220174808   -0.09286321845070983   -0.0031100998027148324
-0.012171411643819791   -0.09282739660734594   -0.0029041252799276765
-0.009996166096146234   -0.09815514762451334   -0.002749184146063749
-0.008889230640867836   -0.09308061303707815   -0.00299571025367861
-0.011968002797388631   -0.09280722265283   -0.0029998917333571348
-0.009996166096146234   -0.09815514762451334   -0.002749184146063749
-0.008629211159268372   -0.09865133089382677   -0.0030115796946529115
-0.008889230640867836   -0.09308061303707815   -0.00299571025367861
-0.008358188260114472   -0.09855112906452251   -0.0029399721406894665
-0.011968002797388631   -0.09280722265283   -0.0029998917333571348
-0.008680450306849628   -0.09304837882564736   -0.00296640611464537
-0.008358188260114472   -0.09855112906452251   -0.0029399721406894665
-0.008889230640867836   -0.09308061303707815   -0.00299571025367861
-0.011968002797388631   -0.09280722265283   -0.0029998917333571348
-0.008358188260114472   -0.09855112906452251   -0.0029399721406894665
-0.009739372447409472   -0.09805744129336048   -0.0028510140138480987
-0.009996166096146234   -0.09815514762451334   -0.002749184146063749
-0.011968002797388631   -0.09280722265283   -0.0029998917333571348
-0.008358188260114472   -0.09855112906452251   -0.0029399721406894665
-0.009996166096146234   -0.09815514762451334   -0.002749184146063749
-0.008889230640867836   -0.09308061303707815   -0.00299571025367861
-0.011968002797388631   -0.09280722265283   -0.0029998917333571348
-0.009739372447409472   -0.09805744129336048   -0.0028510140138480987
-0.008680450306849628   -0.09304837882564736   -0.00296640611464537
-0.011728817220174808   -0.09286321845070983   -0.0031100998027148324
-0.009739372447409472   -0.09805744129336048   -0.0028510140138480987
-0.008358188260114472   -0.09855112906452251   -0.0029399721406894665
-0.008680450306849628   -0.09304837882564736   -0.00296640611464537
-0.008096189687345004   -0.09854914079806458   -0.0028674679319656013
-0.011728817220174808   -0.09286321845070983   -0.0031100998027148324
-0.008474638776525547   -0.09308187537029887   -0.002951124884532396
-0.008096189687345004   -0.09854914079806458   -0.0028674679319656013
-0.008680450306849628   -0.09304837882564736   -0.00296640611464537
-0.011728817220174808   -0.09286321845070983   -0.0031100998027148324
-0.008096189687345004   -0.09854914079806458   -0.0028674679319656013
-0.009455057978238424   -0.09806201258209786   -0.00295387143728826
-0.009739372447409472   -0.09805744129336048   -0.0028510140138480987
-0.011728817220174808   -0.09286321845070983   -0.0031100998027148324
-0.008096189687345004   -0.09854914079806458   -0.0028674679319656013
-0.009739372447409472   -0.09805744129336048   -0.0028510140138480987
-0.008680450306849628   -0.09304837882564736   -0.00296640611464537
-0.011728817220174808   -0.09286321845070983   -0.0031100998027148324
-0.009455057978238424   -0.09806201258209786   -0.00295387143728826
-0.008474638776525547   -0.09308187537029887   -0.002951124884532396
-0.011511825941902247   -0.09299665147652432   -0.0032338246518993463
-0.009455057978238424   -0.09806201258209786   -0.00295387143728826
-0.008096189687345004   -0.09854914079806458   -0.0028674679319656013
-0.008474638776525547   -0.09308187537029887   -0.002951124884532396
-0.007823014465194886   -0.09864330409499693   -0.0027978120086678262
-0.011511825941902247   -0.09299665147652432   -0.0032338246518993463
-0.008285302043855705   -0.09318330060206355   -0.002952809866231635
-0.007823014465194886   -0.09864330409499693   -0.0027978120086678262
-0.008474638776525547   -0.09308187537029887   -0.002951124884532396
-0.011511825941902247   -0.09299665147652432   -0.0032338246518993463
-0.007823014465194886   -0.09864330409499693   -0.0027978120086678262
-0.009190882532605037   -0.0981693244457815   -0.003058187682238666
-0.009455057978238424   -0.09806201258209786   -0.00295387143728826
-0.011511825941902247   -0.09299665147652432   -0.0032338246518993463
-0.007823014465194886   -0.09864330409499693   -0.0027978120086678262
-0.009455057978238424   -0.09806201258209786   -0.00295387143728826
-0.008474638776525547   -0.09308187537029887   -0.002951124884532396
-0.008889230640867836   -0.09308061303707815   -0.00299571025367861
-0.008629211159268372   -0.09865133089382677   -0.0030115796946529115
-0.005745716925322071   -0.09321427344380705   -0.0031037994684520024
-0.008680450306849628   -0.09304837882564736   -0.00296640611464537
-0.008629211159268372   -0.09865133089382677   -0.0030115796946529115
-0.007381200624275256   -0.09925107163766204   -0.0033004052658144583
-0.005745716925322071   -0.09321427344380705   -0.0031037994684520024
-0.007048898287095635   -0.0991642127850741   -0.0030456121193803217
-0.008680450306849628   -0.09304837882564736   -0.00296640611464537
-0.005510348412429505   -0.09316784876927324   -0.002956569948947278
-0.007048898287095635   -0.0991642127850741   -0.0030456121193803217
-0.005745716925322071   -0.09321427344380705   -0.0031037994684520024
-0.008680450306849628   -0.09304837882564736   -0.00296640611464537
-0.007048898287095635   -0.0991642127850741   -0.0030456121193803217
-0.008358188260114472   -0.09855112906452251   -0.0029399721406894665
-0.008629211159268372   -0.09865133089382677   -0.0030115796946529115
-0.008680450306849628   -0.09304837882564736   -0.00296640611464537
-0.007048898287095635   -0.0991642127850741   -0.0030456121193803217
-0.008629211159268372   -0.09865133089382677   -0.0030115796946529115
-0.005745716925322071   -0.09321427344380705   -0.0031037994684520024
-0.008680450306849628   -0.09304837882564736   -0.00296640611464537
-0.008358188260114472   -0.09855112906452251   -0.0029399721406894665
-0.005510348412429505   -0.09316784876927324   -0.002956569948947278
-0.008474638776525547   -0.09308187537029887   -0.002951124884532396
-0.008358188260114472   -0.09855112906452251   -0.0029399721406894665
-0.007048898287095635   -0.0991642127850741   -0.0030456121193803217
-0.005510348412429505   -0.09316784876927324   -0.002956569948947278
-0.0067410549220907005   -0.09915945234461446   -0.002791718368449065
-0.008474638776525547   -0.09308187537029887   -0.002951124884532396
-0.005286011148789151   -0.09317918830632878   -0.002821720923399942
-0.0067410549220907005   -0.09915945234461446   -0.002791718368449065
-0.005510348412429505   -0.09316784876927324   -0.002956569948947278
-0.008474638776525547   -0.09308187537029887   -0.002951124884532396
-0.0067410549220907005   -0.09915945234461446   -0.002791718368449065
-0.008096189687345004   -0.09854914079806458   -0.0028674679319656013
-0.008358188260114472   -0.09855112906452251   -0.0029399721406894665
-0.008474638776525547   -0.09308187537029887   -0.002951124884532396
-0.0067410549220907005   -0.09915945234461446   -0.002791718368449065
-0.008358188260114472   -0.09855112906452251   -0.0029399721406894665
-0.005510348412429505   -0.09316784876927324   -0.002956569948947278
-0.008474638776525547   -0.09308187537029887   -0.002951124884532396
-0.008096189687345004   -0.09854914079806458   -0.0028674679319656013
-0.005286011148789151   -0.09317918830632878   -0.002821720923399942
-0.008285302043855705   -0.09318330060206355   -0.002952809866231635
-0.008096189687345004   -0.09854914079806458   -0.0028674679319656013
-0.0067410549220907005   -0.09915945234461446   -0.002791718368449065
-0.005286011148789151   -0.09317918830632878   -0.002821720923399942
-0.006410468414819888   -0.09923232726953364   -0.002537193682089552
-0.008285302043855705   -0.09318330060206355   -0.002952809866231635
-0.005099488317516589   -0.09325961154504814   -0.0027070223274359316
-0.006410468414819888   -0.09923232726953364   -0.002537193682089552
-0.005286011148789151   -0.09317918830632878   -0.002821720923399942
-0.008285302043855705   -0.09318330060206355   -0.002952809866231635
-0.006410468414819888   -0.09923232726953364   -0.002537193682089552
-0.007823014465194886   -0.09864330409499693   -0.0027978120086678262
-0.008096189687345004   -0.09854914079806458   -0.0028674679319656013
-0.008285302043855705   -0.09318330060206355   -0.002952809866231635
-0.006410468414819888   -0.09923232726953364   -0.002537193682089552
-0.008096189687345004   -0.09854914079806458   -0.0028674679319656013
-0.005286011148789151   -0.09317918830632878   -0.002821720923399942
-0.005745716925322071   -0.09321427344380705   -0.0031037994684520024
-0.007381200624275256   -0.09925107163766204   -0.0033004052658144583
-0.002401907242896711   -0.09318184354529194   -0.0032310053675184257
-0.005510348412429505   -0.09316784876927324   -0.002956569948947278
-0.007381200624275256   -0.09925107163766204   -0.0033004052658144583
-0.0061529414505823166   -0.1   -0.003521785080998629
-0.002401907242896711   -0.09318184354529194   -0.0032310053675184257
-0.005735135306632499   -0.1   -0.003135200125744172
-0.005510348412429505   -0.09316784876927324   -0.002956569948947278
-0.002099715516002449   -0.09310908577423227   -0.00297099421629532
-0.005735135306632499   -0.1   -0.003135200125744172
-0.002401907242896711   -0.09318184354529194   -0.0032310053675184257
-0.005510348412429505   -0.09316784876927324   -0.002956569948947278
-0.005735135306632499   -0.1   -0.003135200125744172
-0.007048898287095635   -0.0991642127850741   -0.0030456121193803217
-0.007381200624275256   -0.09925107163766204   -0.0033004052658144583
-0.005510348412429505   -0.09316784876927324   -0.002956569948947278
-0.005735135306632499   -0.1   -0.003135200125744172
-0.007381200624275256   -0.09925107163766204   -0.0033004052658144583
-0.002401907242896711   -0.09318184354529194   -0.0032310053675184257
-0.005510348412429505   -0.09316784876927324   -0.002956569948947278
-0.007048898287095635   -0.0991642127850741   -0.0030456121193803217
-0.002099715516002449   -0.09310908577423227   -0.00297099421629532
-0.005286011148789151   -0.09317918830632878   -0.002821720923399942
-0.007048898287095635   -0.0991642127850741   -0.0030456121193803217
-0.005735135306632499   -0.1   -0.003135200125744172
-0.002099715516002449   -0.09310908577423227   -0.00297099421629532
-0.0053154594447729995   -0.1   -0.0027440266409463135
-0.005286011148789151   -0.09317918830632878   -0.002821720923399942
-0.001790883236986466   -0.09309617423139639   -0.002724236263784972
-0.0053154594447729995   -0.1   -0.0027440266409463135
-0.002099715516002449   -0.09310908577423227   -0.00297099421629532
-0.005286011148789151   -0.09317918830632878   -0.002821720923399942
-0.0053154594447729995   -0.1   -0.0027440266409463135
-0.0067410549220907005   -0.09915945234461446   -0.002791718368449065
-0.007048898287095635   -0.0991642127850741   -0.0030456121193803217
-0.005286011148789151   -0.09317918830632878   -0.002821720923399942
-0.0053154594447729995   -0.1   -0.0027440266409463135
-0.007048898287095635   -0.0991642127850741   -0.0030456121193803217
-0.002099715516002449   -0.09310908577423227   -0.00297099421629532
-0.005286011148789151   -0.09317918830632878   -0.002821720923399942
-0.0067410549220907005   -0.09915945234461446   -0.002791718368449065
-0.001790883236986466   -0.09309617423139639   -0.002724236263784972
-0.005099488317516589   -0.09325961154504814   -0.0027070223274359316
-0.0067410549220907005   -0.09915945234461446   -0.002791718368449065
-0.0053154594447729995   -0.1   -0.0027440266409463135
-0.001790883236986466   -0.09309617423139639   -0.002724236263784972
-0.004905070664007914   -0.1   -0.002358014632984307
-0.005099488317516589   -0.09325961154504814   -0.0027070223274359316
-0.0015620632390251324   -0.0931560626091879   -0.0025001906855525767
-0.004905070664007914   -0.1   -0.002358014632984307
-0.001790883236986466   -0.09309617423139639   -0.002724236263784972
-0.005099488317516589   -0.09325961154504814   -0.0027070223274359316
-0.004905070664007914   -0.1   -0.002358014632984307
-0.006410468414819888   -0.09923232726953364   -0.002537193682089552
-0.0067410549220907005   -0.09915945234461446   -0.002791718368449065
-0.005099488317516589   -0.09325961154504814   -0.0027070223274359316
-0.004905070664007914   -0.1   -0.002358014632984307
-0.0067410549220907005   -0.09915945234461446   -0.002791718368449065
-0.001790883236986466   -0.09309617423139639   -0.002724236263784972
-0.002401907242896711   -0.09318184354529194   -0.0032310053675184257
-0.0061529414505823166   -0.1   -0.003521785080998629
0.001199040397871092   -0.09286105525001528   -0.003492094275273923
-0.002099715516002449   -0.09310908577423227   -0.00297099421629532
-0.0061529414505823166   -0.1   -0.003521785080998629
-0.005263253417690067   -0.1   -0.0037899016957365526
0.001199040397871092   -0.09286105525001528   -0.003492094275273923
-0.004390626558328645   -0.1   -0.00323084276440313
-0.002099715516002449   -0.09310908577423227   -0.00297099421629532
0.0019023710642231584   -0.09270259841844812   -0.003066702290770532
-0.004390626558328645   -0.1   -0.00323084276440313
0.001199040397871092   -0.09286105525001528   -0.003492094275273923
-0.002099715516002449   -0.09310908577423227   -0.00297099421629532
-0.004390626558328645   -0.1   -0.00323084276440313
-0.005735135306632499   -0.1   -0.003135200125744172
-0.0061529414505823166   -0.1   -0.003521785080998629
-0.002099715516002449   -0.09310908577423227   -0.00297099421629532
-0.004390626558328645   -0.1   -0.00323084276440313
-0.0061529414505823166   -0.1   -0.003521785080998629
0.001199040397871092   -0.09286105525001528   -0.003492094275273923
-0.002099715516002449   -0.09310908577423227   -0.00297099421629532
-0.005735135306632499   -0.1   -0.003135200125744172
0.0019023710642231584   -0.09270259841844812   -0.003066702290770532
-0.001790883236986466   -0.09309617423139639   -0.002724236263784972
-0.005735135306632499   -0.1   -0.003135200125744172
-0.004390626558328645   -0.1   -0.00323084276440313
0.0019023710642231584   -0.09270259841844812   -0.003066702290770532
-0.0036947099341395396   -0.1   -0.0026960209898459872
-0.001790883236986466   -0.09309617423139639   -0.002724236263784972
0.0024551544044212254   -0.09267044466620879   -0.002667366979467527
-0.0036947099341395396   -0.1   -0.0026960209898459872
0.0019023710642231584   -0.09270259841844812   -0.003066702290770532
-0.001790883236986466   -0.09309617423139639   -0.002724236263784972
-0.0036947099341395396   -0.1   -0.0026960209898459872
-0.0053154594447729995   -0.1   -0.0027440266409463135
-0.005735135306632499   -0.1   -0.003135200125744172
-0.001790883236986466   -0.09309617423139639   -0.002724236263784972
-0.0036947099341395396   -0.1   -0.0026960209898459872
-0.005735135306632499   -0.1   -0.003135200125744172
0.0019023710642231584   -0.09270259841844812   -0.003066702290770532
-0.001790883236986466   -0.09309617423139639   -0.002724236263784972
-0.0053154594447729995   -0.1   -0.0027440266409463135
0.0024551544044212254   -0.09267044466620879   -0.002667366979467527
-0.0015620632390251324   -0.0931560626091879   -0.0025001906855525767
-0.0053154594447729995   -0.1   -0.0027440266409463135
-0.0036947099341395396   -0.1   -0.0026960209898459872
0.0024551544044212254   -0.09267044466620879   -0.002667366979467527
-0.0028350025281002112   -0.1   -0.002140826453825797
-0.0015620632390251324   -0.0931560626091879   -0.0025001906855525767
0.0030293663532898686   -0.09269716834758926   -0.0023027613176287904
-0.0028350025281002112   -0.1   -0.002140826453825797
0.0024551544044212254   -0.09267044466620879   -0.002667366979467527
-0.0015620632390251324   -0.0931560626091879   -0.0025001906855525767
-0.0028350025281002112   -0.1   -0.002140826453825797
-0.004905070664007914   -0.1   -0.002358014632984307
-0.0053154594447729995   -0.1   -0.0027440266409463135
-0.0015620632390251324   -0.0931560626091879   -0.0025001906855525767
-0.0028350025281002112   -0.1   -0.002140826453825797
-0.0053154594447729995   -0.1   -0.0027440266409463135
0.0024551544044212254   -0.09267044466620879   -0.002667366979467527
-0.011864054594667998   -0.09766165523468584   -0.002452361944283297
-0.007077913418854667   -0.09791667929618715   -0.002098823439609283
-0.009996166096146234   -0.09815514762451334   -0.002749184146063749
-0.011317806460286153   -0.09755160511406581   -0.002762209684967104
-0.007077913418854667   -0.09791667929618715   -0.002098823439609283
-0.007512160621321727   -0.09829659047059135   -0.0024809798642986013
-0.009996166096146234   -0.09815514762451334   -0.002749184146063749
-0.007318020083041341   -0.09816320430581946   -0.002620048215803342
-0.011317806460286153   -0.09755160511406581   -0.002762209684967104
-0.009739372447409472   -0.09805744129336048   -0.0028510140138480987
-0.007318020083041341   -0.09816320430581946   -0.002620048215803342
-0.009996166096146234   -0.09815514762451334   -0.002749184146063749
-0.011317806460286153   -0.09755160511406581   -0.002762209684967104
-0.007318020083041341   -0.09816320430581946   -0.002620048215803342
-0.006583078486740662   -0.09774543792917216   -0.00242434343060752
-0.007077913418854667   -0.09791667929618715   -0.002098823439609283
-0.011317806460286153   -0.09755160511406581   -0.002762209684967104
-0.007318020083041341   -0.09816320430581946   -0.002620048215803342
-0.007077913418854667   -0.09791667929618715   -0.002098823439609283
-0.009996166096146234   -0.09815514762451334   -0.002749184146063749
-0.011317806460286153   -0.09755160511406581   -0.002762209684967104
-0.006583078486740662   -0.09774543792917216   -0.00242434343060752
-0.009739372447409472   -0.09805744129336048   -0.0028510140138480987
-0.01084647911171293   -0.09756073122009053   -0.003070841426690568
-0.006583078486740662   -0.09774543792917216   -0.00242434343060752
-0.007318020083041341   -0.09816320430581946   -0.002620048215803342
-0.009739372447409472   -0.09805744129336048   -0.0028510140138480987
-0.0070903681226307585   -0.09811370203689355   -0.002748309199523186
-0.01084647911171293   -0.09756073122009053   -0.003070841426690568
-0.009455057978238424   -0.09806201258209786   -0.00295387143728826
-0.0070903681226307585   -0.09811370203689355   -0.002748309199523186
-0.009739372447409472   -0.09805744129336048   -0.0028510140138480987
-0.01084647911171293   -0.09756073122009053   -0.003070841426690568
-0.0070903681226307585   -0.09811370203689355   -0.002748309199523186
-0.006171154308591512   -0.09769242563551875   -0.0027364497221214162
-0.006583078486740662   -0.09774543792917216   -0.00242434343060752
-0.01084647911171293   -0.09756073122009053   -0.003070841426690568
-0.0070903681226307585   -0.09811370203689355   -0.002748309199523186
-0.006583078486740662   -0.09774543792917216   -0.00242434343060752
-0.009739372447409472   -0.09805744129336048   -0.0028510140138480987
-0.01084647911171293   -0.09756073122009053   -0.003070841426690568
-0.006171154308591512   -0.09769242563551875   -0.0027364497221214162
-0.009455057978238424   -0.09806201258209786   -0.00295387143728826
-0.010287499250012702   -0.09769584912527524   -0.0033861281910375716
-0.006171154308591512   -0.09769242563551875   -0.0027364497221214162
-0.0070903681226307585   -0.09811370203689355   -0.002748309199523186
-0.009455057978238424   -0.09806201258209786   -0.00295387143728826
-0.006895314357907936   -0.09814878727001014   -0.002865087265394166
-0.010287499250012702   -0.09769584912527524   -0.0033861281910375716
-0.009190882532605037   -0.0981693244457815   -0.003058187682238666
-0.006895314357907936   -0.09814878727001014   -0.002865087265394166
-0.009455057978238424   -0.09806201258209786   -0.00295387143728826
-0.010287499250012702   -0.09769584912527524   -0.0033861281910375716
-0.006895314357907936   -0.09814878727001014   -0.002865087265394166
-0.00570524342810548   -0.09773621031133872   -0.0030337458627710603
-0.006171154308591512   -0.09769242563551875   -0.0027364497221214162
-0.010287499250012702   -0.09769584912527524   -0.0033861281910375716
-0.006895314357907936   -0.09814878727001014   -0.002865087265394166
-0.006171154308591512   -0.09769242563551875   -0.0027364497221214162
-0.009455057978238424   -0.09806201258209786   -0.00295387143728826
-0.009996166096146234   -0.09815514762451334   -0.002749184146063749
-0.007512160621321727   -0.09829659047059135   -0.0024809798642986013
-0.008629211159268372   -0.09865133089382677   -0.0030115796946529115
-0.009739372447409472   -0.09805744129336048   -0.0028510140138480987
-0.007512160621321727   -0.09829659047059135   -0.0024809798642986013
-0.008097873422648361   -0.09853191452942807   -0.002786600993020288
-0.008629211159268372   -0.09865133089382677   -0.0030115796946529115
-0.00792601117007411   -0.09841282748357558   -0.002790306363792108
-0.009739372447409472   -0.09805744129336048   -0.0028510140138480987
-0.008358188260114472   -0.09855112906452251   -0.0029399721406894665
-0.00792601117007411   -0.09841282748357558   -0.002790306363792108
-0.008629211159268372   -0.09865133089382677   -0.0030115796946529115
-0.009739372447409472   -0.09805744129336048   -0.0028510140138480987
-0.00792601117007411   -0.09841282748357558   -0.002790306363792108
-0.007318020083041341   -0.09816320430581946   -0.002620048215803342
-0.007512160621321727   -0.09829659047059135   -0.0024809798642986013
-0.009739372447409472   -0.09805744129336048   -0.0028510140138480987
-0.00792601117007411   -0.09841282748357558   -0.002790306363792108
-0.007512160621321727   -0.09829659047059135   -0.0024809798642986013
-0.008629211159268372   -0.09865133089382677   -0.0030115796946529115
-0.009739372447409472   -0.09805744129336048   -0.0028510140138480987
-0.007318020083041341   -0.09816320430581946   -0.002620048215803342
-0.008358188260114472   -0.09855112906452251   -0.0029399721406894665
-0.009455057978238424   -0.09806201258209786   -0.00295387143728826
-0.007318020083041341   -0.09816320430581946   -0.002620048215803342
-0.00792601117007411   -0.09841282748357558   -0.002790306363792108
-0.008358188260114472   -0.09855112906452251   -0.0029399721406894665
-0.007734700701021079   -0.09836971847455309   -0.0027799996482631172
-0.009455057978238424   -0.09806201258209786   -0.00295387143728826
-0.008096189687345004   -0.09854914079806458   -0.0028674679319656013
-0.007734700701021079   -0.09836971847455309   -0.0027799996482631172
-0.008358188260114472   -0.09855112906452251   -0.0029399721406894665
-0.009455057978238424   -0.09806201258209786   -0.00295387143728826
-0.007734700701021079   -0.09836971847455309   -0.0027799996482631172
-0.0070903681226307585   -0.09811370203689355   -0.002748309199523186
-0.007318020083041341   -0.09816320430581946   -0.002620048215803342
-0.009455057978238424   -0.09806201258209786   -0.00295387143728826
-0.007734700701021079   -0.09836971847455309   -0.0027799996482631172
-0.007318020083041341   -0.09816320430581946   -0.002620048215803342
-0.008358188260114472   -0.09855112906452251   -0.0029399721406894665
-0.009455057978238424   -0.09806201258209786   -0.00295387143728826
-0.0070903681226307585   -0.09811370203689355   -0.002748309199523186
-0.008096189687345004   -0.09854914079806458   -0.0028674679319656013
-0.009190882532605037   -0.0981693244457815   -0.003058187682238666
-0.0070903681226307585   -0.09811370203689355   -0.002748309199523186
-0.007734700701021079   -0.09836971847455309   -0.0027799996482631172
-0.008096189687345004   -0.09854914079806458   -0.0028674679319656013
-0.007540169252931384   -0.09839909304456242   -0.0027586988252909822
-0.009190882532605037   -0.0981693244457815   -0.003058187682238666
-0.007823014465194886   -0.09864330409499693   -0.0027978120086678262
-0.007540169252931384   -0.09839909304456242   -0.0027586988252909822
-0.008096189687345004   -0.09854914079806458   -0.0028674679319656013
-0.009190882532605037   -0.0981693244457815   -0.003058187682238666
-0.007540169252931384   -0.09839909304456242   -0.0027586988252909822
-0.006895314357907936   -0.09814878727001014   -0.002865087265394166
-0.0070903681226307585   -0.09811370203689355   -0.002748309199523186
-0.009190882532605037   -0.0981693244457815   -0.003058187682238666
-0.007540169252931384   -0.09839909304456242   -0.0027586988252909822
-0.0070903681226307585   -0.09811370203689355   -0.002748309199523186
-0.008096189687345004   -0.09854914079806458   -0.0028674679319656013
-0.008629211159268372   -0.09865133089382677   -0.0030115796946529115
-0.008097873422648361   -0.09853191452942807   -0.002786600993020288
-0.007381200624275256   -0.09925107163766204   -0.0033004052658144583
-0.008358188260114472   -0.09855112906452251   -0.0029399721406894665
-0.008097873422648361   -0.09853191452942807   -0.002786600993020288
-0.00872548678953977   -0.09863151148539097   -0.0030873306983793167
-0.007381200624275256   -0.09925107163766204   -0.0033004052658144583
-0.008547458752190068   -0.09851801685253565   -0.0029608820530308264
-0.008358188260114472   -0.09855112906452251   -0.0029399721406894665
-0.007048898287095635   -0.0991642127850741   -0.0030456121193803217
-0.008547458752190068   -0.09851801685253565   -0.0029608820530308264
-0.007381200624275256   -0.09925107163766204   -0.0033004052658144583
-0.008358188260114472   -0.09855112906452251   -0.0029399721406894665
-0.008547458752190068   -0.09851801685253565   -0.0029608820530308264
-0.00792601117007411   -0.09841282748357558   -0.002790306363792108
-0.008097873422648361   -0.09853191452942807   -0.002786600993020288
-0.008358188260114472   -0.09855112906452251   -0.0029399721406894665
-0.008547458752190068   -0.09851801685253565   -0.0029608820530308264
-0.008097873422648361   -0.09853191452942807   -0.002786600993020288
-0.007381200624275256   -0.09925107163766204   -0.0033004052658144583
-0.008358188260114472   -0.09855112906452251   -0.0029399721406894665
-0.00792601117007411   -0.09841282748357558   -0.002790306363792108
-0.007048898287095635   -0.0991642127850741   -0.0030456121193803217
-0.008096189687345004   -0.09854914079806458   -0.0028674679319656013
-0.00792601117007411   -0.09841282748357558   -0.002790306363792108
-0.008547458752190068   -0.09851801685253565   -0.0029608820530308264
-0.007048898287095635   -0.0991642127850741   -0.0030456121193803217
-0.00833386859179163   -0.09848174808838887   -0.0028173697210323637
-0.008096189687345004   -0.09854914079806458   -0.0028674679319656013
-0.0067410549220907005   -0.09915945234461446   -0.002791718368449065
-0.00833386859179163   -0.09848174808838887   -0.0028173697210323637
-0.007048898287095635   -0.0991642127850741   -0.0030456121193803217
-0.008096189687345004   -0.09854914079806458   -0.0028674679319656013
-0.00833386859179163   -0.09848174808838887   -0.0028173697210323637
-0.007734700701021079   -0.09836971847455309   -0.0027799996482631172
-0.00792601117007411   -0.09841282748357558   -0.002790306363792108
-0.008096189687345004   -0.09854914079806458   -0.0028674679319656013
-0.00833386859179163   -0.09848174808838887   -0.0028173697210323637
-0.00792601117007411   -0.09841282748357558   -0.002790306363792108
-0.007048898287095635   -0.0991642127850741   -0.0030456121193803217
-0.008096189687345004   -0.09854914079806458   -0.0028674679319656013
-0.007734700701021079   -0.09836971847455309   -0.0027799996482631172
-0.0067410549220907005   -0.09915945234461446   -0.002791718368449065
-0.007823014465194886   -0.09864330409499693   -0.0027978120086678262
-0.007734700701021079   -0.09836971847455309   -0.0027799996482631172
-0.00833386859179163   -0.09848174808838887   -0.0028173697210323637
-0.0067410549220907005   -0.09915945234461446   -0.002791718368449065
-0.008114184854988951   -0.09851051222098359   -0.00266448120531918
-0.007823014465194886   -0.09864330409499693   -0.0027978120086678262
-0.006410468414819888   -0.09923232726953364   -0.002537193682089552
-0.008114184854988951   -0.09851051222098359   -0.00266448120531918
-0.0067410549220907005   -0.09915945234461446   -0.002791718368449065
-0.007823014465194886   -0.09864330409499693   -0.0027978120086678262
-0.008114184854988951   -0.09851051222098359   -0.00266448120531918
-0.007540169252931384   -0.09839909304456242   -0.0027586988252909822
-0.007734700701021079   -0.09836971847455309   -0.0027799996482631172
-0.007823014465194886   -0.09864330409499693   -0.0027978120086678262
-0.008114184854988951   -0.09851051222098359   -0.00266448120531918
-0.007734700701021079   -0.09836971847455309   -0.0027799996482631172
-0.0067410549220907005   -0.09915945234461446   -0.002791718368449065
-0.007381200624275256   -0.09925107163766204   -0.0033004052658144583
-0.00872548678953977   -0.09863151148539097   -0.0030873306983793167
-0.0061529414505823166   -0.1   -0.003521785080998629
-0.007048898287095635   -0.0991642127850741   -0.0030456121193803217
-0.00872548678953977   -0.09863151148539097   -0.0030873306983793167
-0.00963425779873012   -0.09852624403985884   -0.003372863758653285
-0.0061529414505823166   -0.1   -0.003521785080998629
-0.00940169176189475   -0.09841920127020927   -0.003122541508897929
-0.007048898287095635   -0.0991642127850741   -0.0030456121193803217
-0.005735135306632499   -0.1   -0.003135200125744172
-0.00940169176189475   -0.09841920127020927   -0.003122541508897929
-0.0061529414505823166   -0.1   -0.003521785080998629
-0.007048898287095635   -0.0991642127850741   -0.0030456121193803217
-0.00940169176189475   -0.09841920127020927   -0.003122541508897929
-0.008547458752190068   -0.09851801685253565   -0.0029608820530308264
-0.00872548678953977   -0.09863151148539097   -0.0030873306983793167
-0.007048898287095635   -0.0991642127850741   -0.0030456121193803217
-0.00940169176189475   -0.09841920127020927   -0.003122541508897929
-0.00872548678953977   -0.09863151148539097   -0.0030873306983793167
-0.0061529414505823166   -0.1   -0.003521785080998629
-0.007048898287095635   -0.0991642127850741   -0.0030456121193803217
-0.008547458752190068   -0.09851801685253565   -0.0029608820530308264
-0.005735135306632499   -0.1   -0.003135200125744172
-0.0067410549220907005   -0.09915945234461446   -0.002791718368449065
-0.008547458752190068   -0.09851801685253565   -0.0029608820530308264
-0.00940169176189475   -0.09841920127020927   -0.003122541508897929
-0.005735135306632499   -0.1   -0.003135200125744172
-0.009094951435551807   -0.09839470974126646   -0.002853236497396772
-0.0067410549220907005   -0.09915945234461446   -0.002791718368449065
-0.0053154594447729995   -0.1   -0.0027440266409463135
-0.009094951435551807   -0.09839470974126646   -0.002853236497396772
-0.005735135306632499   -0.1   -0.003135200125744172
-0.0067410549220907005   -0.09915945234461446   -0.002791718368449065
-0.009094951435551807   -0.09839470974126646   -0.002853236497396772
-0.00833386859179163   -0.09848174808838887   -0.0028173697210323637
-0.008547458752190068   -0.09851801685253565   -0.0029608820530308264
-0.0067410549220907005   -0.09915945234461446   -0.002791718368449065
-0.009094951435551807   -0.09839470974126646   -0.002853236497396772
-0.008547458752190068   -0.09851801685253565   -0.0029608820530308264
-0.005735135306632499   -0.1   -0.003135200125744172
-0.0067410549220907005   -0.09915945234461446   -0.002791718368449065
-0.00833386859179163   -0.09848174808838887   -0.0028173697210323637
-0.0053154594447729995   -0.1   -0.0027440266409463135
-0.006410468414819888   -0.09923232726953364   -0.002537193682089552
-0.00833386859179163   -0.09848174808838887   -0.0028173697210323637
-0.009094951435551807   -0.09839470974126646   -0.002853236497396772
-0.0053154594447729995   -0.1   -0.0027440266409463135
-0.008806211367015431   -0.09843679327209276   -0.002573491702985035
-0.006410468414819888   -0.09923232726953364   -0.002537193682089552
-0.004905070664007914   -0.1   -0.002358014632984307
-0.008806211367015431   -0.09843679327209276   -0.002573491702985035
-0.0053154594447729995   -0.1   -0.0027440266409463135
-0.006410468414819888   -0.09923232726953364   -0.002537193682089552
-0.008806211367015431   -0.09843679327209276   -0.002573491702985035
-0.008114184854988951   -0.09851051222098359   -0.00266448120531918
-0.00833386859179163   -0.09848174808838887   -0.0028173697210323637
-0.006410468414819888   -0.09923232726953364   -0.002537193682089552
-0.008806211367015431   -0.09843679327209276   -0.002573491702985035
-0.00833386859179163   -0.09848174808838887   -0.0028173697210323637
-0.0053154594447729995   -0.1   -0.0027440266409463135
-0.0061529414505823166   -0.1   -0.003521785080998629
-0.00963425779873012   -0.09852624403985884   -0.003372863758653285
-0.005263253417690067   -0.1   -0.0037899016957365526
-0.005735135306632499   -0.1   -0.003135200125744172
-0.00963425779873012   -0.09852624403985884   -0.003372863758653285
-0.011398168059914303   -0.09804384312905558   -0.0036752643351340925
-0.005263253417690067   -0.1   -0.0037899016957365526
-0.01078128863180278   -0.09795380723450699   -0.0032645498773109932
-0.005735135306632499   -0.1   -0.003135200125744172
-0.004390626558328645   -0.1   -0.00323084276440313
-0.01078128863180278   -0.09795380723450699   -0.0032645498773109932
-0.005263253417690067   -0.1   -0.0037899016957365526
-0.005735135306632499   -0.1   -0.003135200125744172
-0.01078128863180278   -0.09795380723450699   -0.0032645498773109932
-0.00940169176189475   -0.09841920127020927   -0.003122541508897929
-0.00963425779873012   -0.09852624403985884   -0.003372863758653285
-0.005735135306632499   -0.1   -0.003135200125744172
-0.01078128863180278   -0.09795380723450699   -0.0032645498773109932
-0.00963425779873012   -0.09852624403985884   -0.003372863758653285
-0.005263253417690067   -0.1   -0.0037899016957365526
-0.005735135306632499   -0.1   -0.003135200125744172
-0.00940169176189475   -0.09841920127020927   -0.003122541508897929
-0.004390626558328645   -0.1   -0.00323084276440313
-0.0053154594447729995   -0.1   -0.0027440266409463135
-0.00940169176189475   -0.09841920127020927   -0.003122541508897929
-0.01078128863180278   -0.09795380723450699   -0.0032645498773109932
-0.004390626558328645   -0.1   -0.00323084276440313
-0.010214209248772388   -0.09794132496481274   -0.0028260270162733065
-0.0053154594447729995   -0.1   -0.0027440266409463135
-0.0036947099341395396   -0.1   -0.0026960209898459872
-0.010214209248772388   -0.09794132496481274   -0.0028260270162733065
-0.004390626558328645   -0.1   -0.00323084276440313
-0.0053154594447729995   -0.1   -0.0027440266409463135
-0.010214209248772388   -0.09794132496481274   -0.0028260270162733065
-0.009094951435551807   -0.09839470974126646   -0.002853236497396772
-0.00940169176189475   -0.09841920127020927   -0.003122541508897929
-0.0053154594447729995   -0.1   -0.0027440266409463135
-0.010214209248772388   -0.09794132496481274   -0.0028260270162733065
-0.00940169176189475   -0.09841920127020927   -0.003122541508897929
-0.004390626558328645   -0.1   -0.00323084276440313
-0.0053154594447729995   -0.1   -0.0027440266409463135
-0.009094951435551807   -0.09839470974126646   -0.002853236497396772
-0.0036947099341395396   -0.1   -0.0026960209898459872
-0.004905070664007914   -0.1   -0.002358014632984307
-0.009094951435551807   -0.09839470974126646   -0.002853236497396772
-0.010214209248772388   -0.09794132496481274   -0.0028260270162733065
-0.0036947099341395396   -0.1   -0.0026960209898459872
-0.0094981028178184   -0.09805953786087163   -0.0023672855432643803
-0.004905070664007914   -0.1   -0.002358014632984307
-0.0028350025281002112   -0.1   -0.002140826453825797
-0.0094981028178184   -0.09805953786087163   -0.0023672855432643803
-0.0036947099341395396   -0.1   -0.0026960209898459872
-0.004905070664007914   -0.1   -0.002358014632984307
-0.0094981028178184   -0.09805953786087163   -0.0023672855432643803
-0.008806211367015431   -0.09843679327209276   -0.002573491702985035
-0.009094951435551807   -0.09839470974126646   -0.002853236497396772
-0.004905070664007914   -0.1   -0.002358014632984307
-0.0094981028178184   -0.09805953786087163   -0.0023672855432643803
-0.009094951435551807   -0.09839470974126646   -0.002853236497396772
-0.0036947099341395396   -0.1   -0.0026960209898459872
-0.007077913418854667   -0.09791667929618715   -0.002098823439609283
-0.00287089241297542   -0.09420380920993003   -0.0018140319654919462
-0.007512160621321727   -0.09829659047059135   -0.0024809798642986013
-0.006583078486740662   -0.09774543792917216   -0.00242434343060752
-0.00287089241297542   -0.09420380920993003   -0.0018140319654919462
-0.005383870419798303   -0.09449004055241378   -0.0022198545487506108
-0.007512160621321727   -0.09829659047059135   -0.0024809798642986013
-0.005246049526401432   -0.09432866234869013   -0.002343763102890657
-0.006583078486740662   -0.09774543792917216   -0.00242434343060752
-0.007318020083041341   -0.09816320430581946   -0.002620048215803342
-0.005246049526401432   -0.09432866234869013   -0.002343763102890657
-0.007512160621321727   -0.09829659047059135   -0.0024809798642986013
-0.006583078486740662   -0.09774543792917216   -0.00242434343060752
-0.005246049526401432   -0.09432866234869013   -0.002343763102890657
-0.002476675963106929   -0.0940041722726304   -0.0020951415383973176
-0.00287089241297542   -0.09420380920993003   -0.0018140319654919462
-0.006583078486740662   -0.09774543792917216   -0.00242434343060752
-0.005246049526401432   -0.09432866234869013   -0.002343763102890657
-0.00287089241297542   -0.09420380920993003   -0.0018140319654919462
-0.007512160621321727   -0.09829659047059135   -0.0024809798642986013
-0.006583078486740662   -0.09774543792917216   -0.00242434343060752
-0.002476675963106929   -0.0940041722726304   -0.0020951415383973176
-0.007318020083041341   -0.09816320430581946   -0.002620048215803342
-0.006171154308591512   -0.09769242563551875   -0.0027364497221214162
-0.002476675963106929   -0.0940041722726304   -0.0020951415383973176
-0.005246049526401432   -0.09432866234869013   -0.002343763102890657
-0.007318020083041341   -0.09816320430581946   -0.002620048215803342
-0.00509097185978834   -0.09423895539756393   -0.002456456579445493
-0.006171154308591512   -0.09769242563551875   -0.0027364497221214162
-0.0070903681226307585   -0.09811370203689355   -0.002748309199523186
-0.00509097185978834   -0.09423895539756393   -0.002456456579445493
-0.007318020083041341   -0.09816320430581946   -0.002620048215803342
-0.006171154308591512   -0.09769242563551875   -0.0027364497221214162
-0.00509097185978834   -0.09423895539756393   -0.002456456579445493
-0.002166482367941825   -0.09390875894673549   -0.0023596247254372748
-0.002476675963106929   -0.0940041722726304   -0.0020951415383973176
-0.006171154308591512   -0.09769242563551875   -0.0027364497221214162
-0.00509097185978834   -0.09423895539756393   -0.002456456579445493
-0.002476675963106929   -0.0940041722726304   -0.0020951415383973176
-0.007318020083041341   -0.09816320430581946   -0.002620048215803342
-0.006171154308591512   -0.09769242563551875   -0.0027364497221214162
-0.002166482367941825   -0.09390875894673549   -0.0023596247254372748
-0.0070903681226307585   -0.09811370203689355   -0.002748309199523186
-0.00570524342810548   -0.09773621031133872   -0.0030337458627710603
-0.002166482367941825   -0.09390875894673549   -0.0023596247254372748
-0.00509097185978834   -0.09423895539756393   -0.002456456579445493
-0.0070903681226307585   -0.09811370203689355   -0.002748309199523186
-0.004972049706078736   -0.09421841734335043   -0.002558290473799355
-0.00570524342810548   -0.09773621031133872   -0.0030337458627710603
-0.006895314357907936   -0.09814878727001014   -0.002865087265394166
-0.004972049706078736   -0.09421841734335043   -0.002558290473799355
-0.0070903681226307585   -0.09811370203689355   -0.002748309199523186
-0.00570524342810548   -0.09773621031133872   -0.0030337458627710603
-0.004972049706078736   -0.09421841734335043   -0.002558290473799355
-0.0018279066895870834   -0.09389022240718838   -0.0026067751315447733
-0.002166482367941825   -0.09390875894673549   -0.0023596247254372748
-0.00570524342810548   -0.09773621031133872   -0.0030337458627710603
-0.004972049706078736   -0.09421841734335043   -0.002558290473799355
-0.002166482367941825   -0.09390875894673549   -0.0023596247254372748
-0.0070903681226307585   -0.09811370203689355   -0.002748309199523186
-0.007512160621321727   -0.09829659047059135   -0.0024809798642986013
-0.005383870419798303   -0.09449004055241378   -0.0022198545487506108
-0.008097873422648361   -0.09853191452942807   -0.002786600993020288
-0.007318020083041341   -0.09816320430581946   -0.002620048215803342
-0.005383870419798303   -0.09449004055241378   -0.0022198545487506108
-0.007863201693641853   -0.09459113923842669   -0.0025509995089311724
-0.008097873422648361   -0.09853191452942807   -0.002786600993020288
-0.007747270891140382   -0.09445033884042338   -0.0025578964251344806
-0.007318020083041341   -0.09816320430581946   -0.002620048215803342
-0.00792601117007411   -0.09841282748357558   -0.002790306363792108
-0.007747270891140382   -0.09445033884042338   -0.0025578964251344806
-0.008097873422648361   -0.09853191452942807   -0.002786600993020288
-0.007318020083041341   -0.09816320430581946   -0.002620048215803342
-0.007747270891140382   -0.09445033884042338   -0.0025578964251344806
-0.005246049526401432   -0.09432866234869013   -0.002343763102890657
-0.005383870419798303   -0.09449004055241378   -0.0022198545487506108
-0.007318020083041341   -0.09816320430581946   -0.002620048215803342
-0.007747270891140382   -0.09445033884042338   -0.0025578964251344806
-0.005383870419798303   -0.09449004055241378   -0.0022198545487506108
-0.008097873422648361   -0.09853191452942807   -0.002786600993020288
-0.007318020083041341   -0.09816320430581946   -0.002620048215803342
-0.005246049526401432   -0.09432866234869013   -0.002343763102890657
-0.00792601117007411   -0.09841282748357558   -0.002790306363792108
-0.0070903681226307585   -0.09811370203689355   -0.002748309199523186
-0.005246049526401432   -0.09432866234869013   -0.002343763102890657
-0.007747270891140382   -0.09445033884042338   -0.0025578964251344806
-0.00792601117007411   -0.09841282748357558   -0.002790306363792108
-0.007627375529172242   -0.09437415109546553   -0.002554408090503841
-0.0070903681226307585   -0.09811370203689355   -0.002748309199523186
-0.007734700701021079   -0.09836971847455309   -0.0027799996482631172
-0.007627375529172242   -0.09437415109546553   -0.002554408090503841
-0.00792601117007411   -0.09841282748357558   -0.002790306363792108
-0.0070903681226307585   -0.09811370203689355   -0.002748309199523186
-0.007627375529172242   -0.09437415109546553   -0.002554408090503841
-0.00509097185978834   -0.09423895539756393   -0.002456456579445493
-0.005246049526401432   -0.09432866234869013   -0.002343763102890657
-0.0070903681226307585   -0.09811370203689355   -0.002748309199523186
-0.007627375529172242   -0.09437415109546553   -0.002554408090503841
-0.005246049526401432   -0.09432866234869013   -0.002343763102890657
-0.00792601117007411   -0.09841282748357558   -0.002790306363792108
-0.0070903681226307585   -0.09811370203689355   -0.002748309199523186
-0.00509097185978834   -0.09423895539756393   -0.002456456579445493
-0.007734700701021079   -0.09836971847455309   -0.0027799996482631172
-0.006895314357907936   -0.09814878727001014   -0.002865087265394166
-0.00509097185978834   -0.09423895539756393   -0.002456456579445493
-0.007627375529172242   -0.09437415109546553   -0.002554408090503841
-0.007734700701021079   -0.09836971847455309   -0.0027799996482631172
-0.007511737326985266   -0.09435944195955372   -0.002540431571382921
-0.006895314357907936   -0.09814878727001014   -0.002865087265394166
-0.007540169252931384   -0.09839909304456242   -0.0027586988252909822
-0.007511737326985266   -0.09435944195955372   -0.002540431571382921
-0.007734700701021079   -0.09836971847455309   -0.0027799996482631172
-0.006895314357907936   -0.09814878727001014   -0.002865087265394166
-0.007511737326985266   -0.09435944195955372   -0.002540431571382921
-0.004972049706078736   -0.09421841734335043   -0.002558290473799355
-0.00509097185978834   -0.09423895539756393   -0.002456456579445493
-0.006895314357907936   -0.09814878727001014   -0.002865087265394166
-0.007511737326985266   -0.09435944195955372   -0.002540431571382921
-0.00509097185978834   -0.09423895539756393   -0.002456456579445493
-0.007734700701021079   -0.09836971847455309   -0.0027799996482631172
-0.008097873422648361   -0.09853191452942807   -0.002786600993020288
-0.007863201693641853   -0.09459113923842669   -0.0025509995089311724
-0.00872548678953977   -0.09863151148539097   -0.0030873306983793167
-0.00792601117007411   -0.09841282748357558   -0.002790306363792108
-0.007863201693641853   -0.09459113923842669   -0.0025509995089311724
-0.010325188526695216   -0.09450151190300236   -0.0028608855931017483
-0.00872548678953977   -0.09863151148539097   -0.0030873306983793167
-0.010210173083542396   -0.09437649294936502   -0.002755596633476185
-0.00792601117007411   -0.09841282748357558   -0.002790306363792108
-0.008547458752190068   -0.09851801685253565   -0.0029608820530308264
-0.010210173083542396   -0.09437649294936502   -0.002755596633476185
-0.00872548678953977   -0.09863151148539097   -0.0030873306983793167
-0.00792601117007411   -0.09841282748357558   -0.002790306363792108
-0.010210173083542396   -0.09437649294936502   -0.002755596633476185
-0.007747270891140382   -0.09445033884042338   -0.0025578964251344806
-0.007863201693641853   -0.09459113923842669   -0.0025509995089311724
-0.00792601117007411   -0.09841282748357558   -0.002790306363792108
-0.010210173083542396   -0.09437649294936502   -0.002755596633476185
-0.007863201693641853   -0.09459113923842669   -0.0025509995089311724
-0.00872548678953977   -0.09863151148539097   -0.0030873306983793167
-0.00792601117007411   -0.09841282748357558   -0.002790306363792108
-0.007747270891140382   -0.09445033884042338   -0.0025578964251344806
-0.008547458752190068   -0.09851801685253565   -0.0029608820530308264
-0.007734700701021079   -0.09836971847455309   -0.0027799996482631172
-0.007747270891140382   -0.09445033884042338   -0.0025578964251344806
-0.010210173083542396   -0.09437649294936502   -0.002755596633476185
-0.008547458752190068   -0.09851801685253565   -0.0029608820530308264
-0.010081097896424415   -0.09431499617968597   -0.0026400736779462136
-0.007734700701021079   -0.09836971847455309   -0.0027799996482631172
-0.00833386859179163   -0.09848174808838887   -0.0028173697210323637
-0.010081097896424415   -0.09431499617968597   -0.0026400736779462136
-0.008547458752190068   -0.09851801685253565   -0.0029608820530308264
-0.007734700701021079   -0.09836971847455309   -0.0027799996482631172
-0.010081097896424415   -0.09431499617968597   -0.0026400736779462136
-0.007627375529172242   -0.09437415109546553   -0.002554408090503841
-0.007747270891140382   -0.09445033884042338   -0.0025578964251344806
-0.007734700701021079   -0.09836971847455309   -0.0027799996482631172
-0.010081097896424415   -0.09431499617968597   -0.0026400736779462136
-0.007747270891140382   -0.09445033884042338   -0.0025578964251344806
-0.008547458752190068   -0.09851801685253565   -0.0029608820530308264
-0.007734700701021079   -0.09836971847455309   -0.0027799996482631172
-0.007627375529172242   -0.09437415109546553   -0.002554408090503841
-0.00833386859179163   -0.09848174808838887   -0.0028173697210323637
-0.007540169252931384   -0.09839909304456242   -0.0027586988252909822
-0.007627375529172242   -0.09437415109546553   -0.002554408090503841
-0.010081097896424415   -0.09431499617968597   -0.0026400736779462136
-0.00833386859179163   -0.09848174808838887   -0.0028173697210323637
-0.009951459707626068   -0.09431087669383895   -0.002513069396926523
-0.007540169252931384   -0.09839909304456242   -0.0027586988252909822
-0.008114184854988951   -0.09851051222098359   -0.00266448120531918
-0.009951459707626068   -0.09431087669383895   -0.002513069396926523
-0.00833386859179163   -0.09848174808838887   -0.0028173697210323637
-0.007540169252931384   -0.09839909304456242   -0.0027586988252909822
-0.009951459707626068   -0.09431087669383895   -0.002513069396926523
-0.007511737326985266   -0.09435944195955372   -0.002540431571382921
-0.007627375529172242   -0.09437415109546553   -0.002554408090503841
-0.007540169252931384   -0.09839909304456242   -0.0027586988252909822
-0.009951459707626068   -0.09431087669383895   -0.002513069396926523
-0.007627375529172242   -0.09437415109546553   -0.002554408090503841
-0.00833386859179163   -0.09848174808838887   -0.0028173697210323637
-0.00872548678953977   -0.09863151148539097   -0.0030873306983793167
-0.010325188526695216   -0.09450151190300236   -0.0028608855931017483
-0.00963425779873012   -0.09852624403985884   -0.003372863758653285
-0.008547458752190068   -0.09851801685253565   -0.0029608820530308264
-0.010325188526695216   -0.09450151190300236   -0.0028608855931017483
-0.013030616277283576   -0.09420924381607325   -0.0031454154328748964
-0.00963425779873012   -0.09852624403985884   -0.003372863758653285
-0.012889901676355679   -0.09410006353920701   -0.002930469803811228
-0.008547458752190068   -0.09851801685253565   -0.0029608820530308264
-0.00940169176189475   -0.09841920127020927   -0.003122541508897929
-0.012889901676355679   -0.09410006353920701   -0.002930469803811228
-0.00963425779873012   -0.09852624403985884   -0.003372863758653285
-0.008547458752190068   -0.09851801685253565   -0.0029608820530308264
-0.012889901676355679   -0.09410006353920701   -0.002930469803811228
-0.010210173083542396   -0.09437649294936502   -0.002755596633476185
-0.010325188526695216   -0.09450151190300236   -0.0028608855931017483
-0.008547458752190068   -0.09851801685253565   -0.0029608820530308264
-0.012889901676355679   -0.09410006353920701   -0.002930469803811228
-0.010325188526695216   -0.09450151190300236   -0.0028608855931017483
-0.00963425779873012   -0.09852624403985884   -0.003372863758653285
-0.008547458752190068   -0.09851801685253565   -0.0029608820530308264
-0.010210173083542396   -0.09437649294936502   -0.002755596633476185
-0.00940169176189475   -0.09841920127020927   -0.003122541508897929
-0.00833386859179163   -0.09848174808838887   -0.0028173697210323637
-0.010210173083542396   -0.09437649294936502   -0.002755596633476185
-0.012889901676355679   -0.09410006353920701   -0.002930469803811228
-0.00940169176189475   -0.09841920127020927   -0.003122541508897929
-0.012695698987619046   -0.0940531990041326   -0.0027060332906067336
-0.00833386859179163   -0.09848174808838887   -0.0028173697210323637
-0.009094951435551807   -0.09839470974126646   -0.002853236497396772
-0.012695698987619046   -0.0940531990041326   -0.0027060332906067336
-0.00940169176189475   -0.09841920127020927   -0.003122541508897929
-0.00833386859179163   -0.09848174808838887   -0.0028173697210323637
-0.012695698987619046   -0.0940531990041326   -0.0027060332906067336
-0.010081097896424415   -0.09431499617968597   -0.0026400736779462136
-0.010210173083542396   -0.09437649294936502   -0.002755596633476185
-0.00833386859179163   -0.09848174808838887   -0.0028173697210323637
-0.012695698987619046   -0.0940531990041326   -0.0027060332906067336
-0.010210173083542396   -0.09437649294936502   -0.002755596633476185
-0.00940169176189475   -0.09841920127020927   -0.003122541508897929
-0.00833386859179163   -0.09848174808838887   -0.0028173697210323637
-0.010081097896424415   -0.09431499617968597   -0.0026400736779462136
-0.009094951435551807   -0.09839470974126646   -0.002853236497396772
-0.008114184854988951   -0.09851051222098359   -0.00266448120531918
-0.010081097896424415   -0.09431499617968597   -0.0026400736779462136
-0.012695698987619046   -0.0940531990041326   -0.0027060332906067336
-0.009094951435551807   -0.09839470974126646   -0.002853236497396772
-0.012526063191703204   -0.09406873133232947   -0.00246583101277657
-0.008114184854988951   -0.09851051222098359   -0.00266448120531918
-0.008806211367015431   -0.09843679327209276   -0.002573491702985035
-0.012526063191703204   -0.09406873133232947   -0.00246583101277657
-0.009094951435551807   -0.09839470974126646   -0.002853236497396772
-0.008114184854988951   -0.09851051222098359   -0.00266448120531918
-0.012526063191703204   -0.09406873133232947   -0.00246583101277657
-0.009951459707626068   -0.09431087669383895   -0.002513069396926523
-0.010081097896424415   -0.09431499617968597   -0.0026400736779462136
-0.008114184854988951   -0.09851051222098359   -0.00266448120531918
-0.012526063191703204   -0.09406873133232947   -0.00246583101277657
-0.010081097896424415   -0.09431499617968597   -0.0026400736779462136
-0.009094951435551807   -0.09839470974126646   -0.002853236497396772
-0.00963425779873012   -0.09852624403985884   -0.003372863758653285
-0.013030616277283576   -0.09420924381607325   -0.0031454154328748964
-0.011398168059914303   -0.09804384312905558   -0.0036752643351340925
-0.00940169176189475   -0.09841920127020927   -0.003122541508897929
-0.013030616277283576   -0.09420924381607325   -0.0031454154328748964
-0.01651467285324956   -0.09373392191522897   -0.003418155047862355
-0.011398168059914303   -0.09804384312905558   -0.0036752643351340925
-0.01606263244528802   -0.09361570502484494   -0.003078830569616771
-0.00940169176189475   -0.09841920127020927   -0.003122541508897929
-0.01078128863180278   -0.09795380723450699   -0.0032645498773109932
-0.01606263244528802   -0.09361570502484494   -0.003078830569616771
-0.011398168059914303   -0.09804384312905558   -0.0036752643351340925
-0.00940169176189475   -0.09841920127020927   -0.003122541508897929
-0.01606263244528802   -0.09361570502484494   -0.003078830569616771
-0.012889901676355679   -0.09410006353920701   -0.002930469803811228
-0.013030616277283576   -0.09420924381607325   -0.0031454154328748964
-0.00940169176189475   -0.09841920127020927   -0.003122541508897929
-0.01606263244528802   -0.09361570502484494   -0.003078830569616771
-0.013030616277283576   -0.09420924381607325   -0.0031454154328748964
-0.011398168059914303   -0.09804384312905558   -0.0036752643351340925
-0.00940169176189475   -0.09841920127020927   -0.003122541508897929
-0.012889901676355679   -0.09410006353920701   -0.002930469803811228
-0.01078128863180278   -0.09795380723450699   -0.0032645498773109932
-0.009094951435551807   -0.09839470974126646   -0.002853236497396772
-0.012889901676355679   -0.09410006353920701   -0.002930469803811228
-0.01606263244528802   -0.09361570502484494   -0.003078830569616771
-0.01078128863180278   -0.09795380723450699   -0.0032645498773109932
-0.015657205615187606   -0.09357235671851569   -0.002719620798046567
-0.009094951435551807   -0.09839470974126646   -0.002853236497396772
-0.010214209248772388   -0.09794132496481274   -0.0028260270162733065
-0.015657205615187606   -0.09357235671851569   -0.002719620798046567
-0.01078128863180278   -0.09795380723450699   -0.0032645498773109932
-0.009094951435551807   -0.09839470974126646   -0.002853236497396772
-0.015657205615187606   -0.09357235671851569   -0.002719620798046567
-0.012695698987619046   -0.0940531990041326   -0.0027060332906067336
-0.012889901676355679   -0.09410006353920701   -0.002930469803811228
-0.009094951435551807   -0.09839470974126646   -0.002853236497396772
-0.015657205615187606   -0.09357235671851569   -0.002719620798046567
-0.012889901676355679   -0.09410006353920701   -0.002930469803811228
-0.01078128863180278   -0.09795380723450699   -0.0032645498773109932
-0.009094951435551807   -0.09839470974126646   -0.002853236497396772
-0.012695698987619046   -0.0940531990041326   -0.0027060332906067336
-0.010214209248772388   -0.09794132496481274   -0.0028260270162733065
-0.008806211367015431   -0.09843679327209276   -0.002573491702985035
-0.012695698987619046   -0.0940531990041326   -0.0027060332906067336
-0.015657205615187606   -0.09357235671851569   -0.002719620798046567
-0.010214209248772388   -0.09794132496481274   -0.0028260270162733065
-0.015131721708812265   -0.09362616475755312   -0.0023439483383350715
-0.008806211367015431   -0.09843679327209276   -0.002573491702985035
-0.0094981028178184   -0.09805953786087163   -0.0023672855432643803
-0.015131721708812265   -0.09362616475755312   -0.0023439483383350715
-0.010214209248772388   -0.09794132496481274   -0.0028260270162733065
-0.008806211367015431   -0.09843679327209276   -0.002573491702985035
-0.015131721708812265   -0.09362616475755312   -0.0023439483383350715
-0.012526063191703204   -0.09406873133232947   -0.00246583101277657
-0.012695698987619046   -0.0940531990041326   -0.0027060332906067336
-0.008806211367015431   -0.09843679327209276   -0.002573491702985035
-0.015131721708812265   -0.09362616475755312   -0.0023439483383350715
-0.012695698987619046   -0.0940531990041326   -0.0027060332906067336
-0.010214209248772388   -0.09794132496481274   -0.0028260270162733065
-0.00287089241297542   -0.09420380920993003   -0.0018140319654919462
0.0005381750449703551   -0.08738248988302949   -0.0015010152925751712
-0.005383870419798303   -0.09449004055241378   -0.0022198545487506108
-0.002476675963106929   -0.0940041722726304   -0.0020951415383973176
0.0005381750449703551   -0.08738248988302949   -0.0015010152925751712
-0.0036956102877362114   -0.08759211353798009   -0.0018993461780500336
-0.005383870419798303   -0.09449004055241378   -0.0022198545487506108
-0.0036226564847631143   -0.08742300980468283   -0.0019975426579005614
-0.002476675963106929   -0.0940041722726304   -0.0020951415383973176
-0.005246049526401432   -0.09432866234869013   -0.002343763102890657
-0.0036226564847631143   -0.08742300980468283   -0.0019975426579005614
-0.005383870419798303   -0.09449004055241378   -0.0022198545487506108
-0.002476675963106929   -0.0940041722726304   -0.0020951415383973176
-0.0036226564847631143   -0.08742300980468283   -0.0019975426579005614
0.0008130718623959925   -0.08717971514544569   -0.0017245996236518071
0.0005381750449703551   -0.08738248988302949   -0.0015010152925751712
-0.002476675963106929   -0.0940041722726304   -0.0020951415383973176
-0.0036226564847631143   -0.08742300980468283   -0.0019975426579005614
0.0005381750449703551   -0.08738248988302949   -0.0015010152925751712
-0.005383870419798303   -0.09449004055241378   -0.0022198545487506108
-0.002476675963106929   -0.0940041722726304   -0.0020951415383973176
0.0008130718623959925   -0.08717971514544569   -0.0017245996236518071
-0.005246049526401432   -0.09432866234869013   -0.002343763102890657
-0.002166482367941825   -0.09390875894673549   -0.0023596247254372748
0.0008130718623959925   -0.08717971514544569   -0.0017245996236518071
-0.0036226564847631143   -0.08742300980468283   -0.0019975426579005614
-0.005246049526401432   -0.09432866234869013   -0.002343763102890657
-0.0035396450079905975   -0.08731228551552975   -0.0020842542656396333
-0.002166482367941825   -0.09390875894673549   -0.0023596247254372748
-0.00509097185978834   -0.09423895539756393   -0.002456456579445493
-0.0035396450079905975   -0.08731228551552975   -0.0020842542656396333
-0.005246049526401432   -0.09432866234869013   -0.002343763102890657
-0.002166482367941825   -0.09390875894673549   -0.0023596247254372748
-0.0035396450079905975   -0.08731228551552975   -0.0020842542656396333
0.001015246005713298   -0.0870622127762295   -0.001932109287728996
0.0008130718623959925   -0.08717971514544569   -0.0017245996236518071
-0.002166482367941825   -0.09390875894673549   -0.0023596247254372748
-0.0035396450079905975   -0.08731228551552975   -0.0020842542656396333
0.0008130718623959925   -0.08717971514544569   -0.0017245996236518071
-0.005246049526401432   -0.09432866234869013   -0.002343763102890657
-0.002166482367941825   -0.09390875894673549   -0.0023596247254372748
0.001015246005713298   -0.0870622127762295   -0.001932109287728996
-0.00509097185978834   -0.09423895539756393   -0.002456456579445493
-0.0018279066895870834   -0.09389022240718838   -0.0026067751315447733
0.001015246005713298   -0.0870622127762295   -0.001932109287728996
-0.0035396450079905975   -0.08731228551552975   -0.0020842542656396333
-0.00509097185978834   -0.09423895539756393   -0.002456456579445493
-0.003490023492884442   -0.08725667395617173   -0.0021606145071879257
-0.0018279066895870834   -0.09389022240718838   -0.0026067751315447733
-0.004972049706078736   -0.09421841734335043   -0.002558290473799355
-0.003490023492884442   -0.08725667395617173   -0.0021606145071879257
-0.00509097185978834   -0.09423895539756393   -0.002456456579445493
-0.0018279066895870834   -0.09389022240718838   -0.0026067751315447733
-0.003490023492884442   -0.08725667395617173   -0.0021606145071879257
0.0012315072902158348   -0.08700379147816766   -0.002123462834370649
0.001015246005713298   -0.0870622127762295   -0.001932109287728996
-0.0018279066895870834   -0.09389022240718838   -0.0026067751315447733
-0.003490023492884442   -0.08725667395617173   -0.0021606145071879257
0.001015246005713298   -0.0870622127762295   -0.001932109287728996
-0.00509097185978834   -0.09423895539756393   -0.002456456579445493
-0.005383870419798303   -0.09449004055241378   -0.0022198545487506108
-0.0036956102877362114   -0.08759211353798009   -0.0018993461780500336
-0.007863201693641853   -0.09459113923842669   -0.0025509995089311724
-0.005246049526401432   -0.09432866234869013   -0.002343763102890657
-0.0036956102877362114   -0.08759211353798009   -0.0018993461780500336
-0.007790156689542479   -0.08763218042650081   -0.002227752597878832
-0.007863201693641853   -0.09459113923842669   -0.0025509995089311724
-0.007736482121266313   -0.08748696996583209   -0.002230332859272835
-0.005246049526401432   -0.09432866234869013   -0.002343763102890657
-0.007747270891140382   -0.09445033884042338   -0.0025578964251344806
-0.007736482121266313   -0.08748696996583209   -0.002230332859272835
-0.007863201693641853   -0.09459113923842669   -0.0025509995089311724
-0.005246049526401432   -0.09432866234869013   -0.002343763102890657
-0.007736482121266313   -0.08748696996583209   -0.002230332859272835
-0.0036226564847631143   -0.08742300980468283   -0.0019975426579005614
-0.0036956102877362114   -0.08759211353798009   -0.0018993461780500336
-0.005246049526401432   -0.09432866234869013   -0.002343763102890657
-0.007736482121266313   -0.08748696996583209   -0.002230332859272835
-0.0036956102877362114   -0.08759211353798009   -0.0018993461780500336
-0.007863201693641853   -0.09459113923842669   -0.0025509995089311724
-0.005246049526401432   -0.09432866234869013   -0.002343763102890657
-0.0036226564847631143   -0.08742300980468283   -0.0019975426579005614
-0.007747270891140382   -0.09445033884042338   -0.0025578964251344806
-0.00509097185978834   -0.09423895539756393   -0.002456456579445493
-0.0036226564847631143   -0.08742300980468283   -0.0019975426579005614
-0.007736482121266313   -0.08748696996583209   -0.002230332859272835
-0.007747270891140382   -0.09445033884042338   -0.0025578964251344806
-0.007681297094440696   -0.08739401679969652   -0.0022219123469610852
-0.00509097185978834   -0.09423895539756393   -0.002456456579445493
-0.007627375529172242   -0.09437415109546553   -0.002554408090503841
-0.007681297094440696   -0.08739401679969652   -0.0022219123469610852
-0.007747270891140382   -0.09445033884042338   -0.0025578964251344806
-0.00509097185978834   -0.09423895539756393   -0.002456456579445493
-0.007681297094440696   -0.08739401679969652   -0.0022219123469610852
-0.0035396450079905975   -0.08731228551552975   -0.0020842542656396333
-0.0036226564847631143   -0.08742300980468283   -0.0019975426579005614
-0.00509097185978834   -0.09423895539756393   -0.002456456579445493
-0.007681297094440696   -0.08739401679969652   -0.0022219123469610852
-0.0036226564847631143   -0.08742300980468283   -0.0019975426579005614
-0.007747270891140382   -0.09445033884042338   -0.0025578964251344806
-0.00509097185978834   -0.09423895539756393   -0.002456456579445493
-0.0035396450079905975   -0.08731228551552975   -0.0020842542656396333
-0.007627375529172242   -0.09437415109546553   -0.002554408090503841
-0.004972049706078736   -0.09421841734335043   -0.002558290473799355
-0.0035396450079905975   -0.08731228551552975   -0.0020842542656396333
-0.007681297094440696   -0.08739401679969652   -0.0022219123469610852
-0.007627375529172242   -0.09437415109546553   -0.002554408090503841
-0.007633026480238131   -0.08735245054940598   -0.0022032191022967927
-0.004972049706078736   -0.09421841734335043   -0.002558290473799355
-0.007511737326985266   -0.09435944195955372   -0.002540431571382921
-0.007633026480238131   -0.08735245054940598   -0.0022032191022967927
-0.007627375529172242   -0.09437415109546553   -0.002554408090503841
-0.004972049706078736   -0.09421841734335043   -0.002558290473799355
-0.007633026480238131   -0.08735245054940598   -0.0022032191022967927
-0.003490023492884442   -0.08725667395617173   -0.0021606145071879257
-0.0035396450079905975   -0.08731228551552975   -0.0020842542656396333
-0.004972049706078736   -0.09421841734335043   -0.002558290473799355
-0.007633026480238131   -0.08735245054940598   -0.0022032191022967927
-0.0035396450079905975   -0.08731228551552975   -0.0020842542656396333
-0.007627375529172242   -0.09437415109546553   -0.002554408090503841
-0.007863201693641853   -0.09459113923842669   -0.0025509995089311724
-0.007790156689542479   -0.08763218042650081   -0.002227752597878832
-0.010325188526695216   -0.09450151190300236   -0.0028608855931017483
-0.007747270891140382   -0.09445033884042338   -0.0025578964251344806
-0.007790156689542479   -0.08763218042650081   -0.002227752597878832
-0.011820082204430928   -0.08750190700110708   -0.002524214522760087
-0.010325188526695216   -0.09450151190300236   -0.0028608855931017483
-0.011770106520527146   -0.08737660409897884   -0.002433487789800335
-0.007747270891140382   -0.09445033884042338   -0.0025578964251344806
-0.010210173083542396   -0.09437649294936502   -0.002755596633476185
-0.011770106520527146   -0.08737660409897884   -0.002433487789800335
-0.010325188526695216   -0.09450151190300236   -0.0028608855931017483
-0.007747270891140382   -0.09445033884042338   -0.0025578964251344806
-0.011770106520527146   -0.08737660409897884   -0.002433487789800335
-0.007736482121266313   -0.08748696996583209   -0.002230332859272835
-0.007790156689542479   -0.08763218042650081   -0.002227752597878832
-0.007747270891140382   -0.09445033884042338   -0.0025578964251344806
-0.011770106520527146   -0.08737660409897884   -0.002433487789800335
-0.007790156689542479   -0.08763218042650081   -0.002227752597878832
-0.010325188526695216   -0.09450151190300236   -0.0028608855931017483
-0.007747270891140382   -0.09445033884042338   -0.0025578964251344806
-0.007736482121266313   -0.08748696996583209   -0.002230332859272835
-0.010210173083542396   -0.09437649294936502   -0.002755596633476185
-0.007627375529172242   -0.09437415109546553   -0.002554408090503841
-0.007736482121266313   -0.08748696996583209   -0.002230332859272835
-0.011770106520527146   -0.08737660409897884   -0.002433487789800335
-0.010210173083542396   -0.09437649294936502   -0.002755596633476185
-0.011709722695672472   -0.08730298230347033   -0.0023319964980883104
-0.007627375529172242   -0.09437415109546553   -0.002554408090503841
-0.010081097896424415   -0.09431499617968597   -0.0026400736779462136
-0.011709722695672472   -0.08730298230347033   -0.0023319964980883104
-0.010210173083542396   -0.09437649294936502   -0.002755596633476185
-0.007627375529172242   -0.09437415109546553   -0.002554408090503841
-0.011709722695672472   -0.08730298230347033   -0.0023319964980883104
-0.007681297094440696   -0.08739401679969652   -0.0022219123469610852
-0.007736482121266313   -0.08748696996583209   -0.002230332859272835
-0.007627375529172242   -0.09437415109546553   -0.002554408090503841
-0.011709722695672472   -0.08730298230347033   -0.0023319964980883104
-0.007736482121266313   -0.08748696996583209   -0.002230332859272835
-0.010210173083542396   -0.09437649294936502   -0.002755596633476185
-0.007627375529172242   -0.09437415109546553   -0.002554408090503841
-0.007681297094440696   -0.08739401679969652   -0.0022219123469610852
-0.010081097896424415   -0.09431499617968597   -0.0026400736779462136
-0.007511737326985266   -0.09435944195955372   -0.002540431571382921
-0.007681297094440696   -0.08739401679969652   -0.0022219123469610852
-0.011709722695672472   -0.08730298230347033   -0.0023319964980883104
-0.010081097896424415   -0.09431499617968597   -0.0026400736779462136
-0.011650974530017595   -0.08727862487648032   -0.002220072740732502
-0.007511737326985266   -0.09435944195955372   -0.002540431571382921
-0.009951459707626068   -0.09431087669383895   -0.002513069396926523
-0.011650974530017595   -0.08727862487648032   -0.002220072740732502
-0.010081097896424415   -0.09431499617968597   -0.0026400736779462136
-0.007511737326985266   -0.09435944195955372   -0.002540431571382921
-0.011650974530017595   -0.08727862487648032   -0.002220072740732502
-0.007633026480238131   -0.08735245054940598   -0.0022032191022967927
-0.007681297094440696   -0.08739401679969652   -0.0022219123469610852
-0.007511737326985266   -0.09435944195955372   -0.002540431571382921
-0.011650974530017595   -0.08727862487648032   -0.002220072740732502
-0.007681297094440696   -0.08739401679969652   -0.0022219123469610852
-0.010081097896424415   -0.09431499617968597   -0.0026400736779462136
-0.010325188526695216   -0.09450151190300236   -0.0028608855931017483
-0.011820082204430928   -0.08750190700110708   -0.002524214522760087
-0.013030616277283576   -0.09420924381607325   -0.0031454154328748964
-0.010210173083542396   -0.09437649294936502   -0.002755596633476185
-0.011820082204430928   -0.08750190700110708   -0.002524214522760087
-0.016043633046312483   -0.08720594581671011   -0.002787546919794806
-0.013030616277283576   -0.09420924381607325   -0.0031454154328748964
-0.015978430739416228   -0.08709967605995382   -0.002603408765585692
-0.010210173083542396   -0.09437649294936502   -0.002755596633476185
-0.012889901676355679   -0.09410006353920701   -0.002930469803811228
-0.015978430739416228   -0.08709967605995382   -0.002603408765585692
-0.013030616277283576   -0.09420924381607325   -0.0031454154328748964
-0.010210173083542396   -0.09437649294936502   -0.002755596633476185
-0.015978430739416228   -0.08709967605995382   -0.002603408765585692
-0.011770106520527146   -0.08737660409897884   -0.002433487789800335
-0.011820082204430928   -0.08750190700110708   -0.002524214522760087
-0.010210173083542396   -0.09437649294936502   -0.002755596633476185
-0.015978430739416228   -0.08709967605995382   -0.002603408765585692
-0.011820082204430928   -0.08750190700110708   -0.002524214522760087
-0.013030616277283576   -0.09420924381607325   -0.0031454154328748964
-0.010210173083542396   -0.09437649294936502   -0.002755596633476185
-0.011770106520527146   -0.08737660409897884   -0.002433487789800335
-0.012889901676355679   -0.09410006353920701   -0.002930469803811228
-0.010081097896424415   -0.09431499617968597   -0.0026400736779462136
-0.011770106520527146   -0.08737660409897884   -0.002433487789800335
-0.015978430739416228   -0.08709967605995382   -0.002603408765585692
-0.012889901676355679   -0.09410006353920701   -0.002930469803811228
-0.015867940300158   -0.08704358095547059   -0.0024101563779620897
-0.010081097896424415   -0.09431499617968597   -0.0026400736779462136
-0.012695698987619046   -0.0940531990041326   -0.0027060332906067336
-0.015867940300158   -0.08704358095547059   -0.0024101563779620897
-0.012889901676355679   -0.09410006353920701   -0.002930469803811228
-0.010081097896424415   -0.09431499617968597   -0.0026400736779462136
-0.015867940300158   -0.08704358095547059   -0.0024101563779620897
-0.011709722695672472   -0.08730298230347033   -0.0023319964980883104
-0.011770106520527146   -0.08737660409897884   -0.002433487789800335
-0.010081097896424415   -0.09431499617968597   -0.0026400736779462136
-0.015867940300158   -0.08704358095547059   -0.0024101563779620897
-0.011770106520527146   -0.08737660409897884   -0.002433487789800335
-0.012889901676355679   -0.09410006353920701   -0.002930469803811228
-0.010081097896424415   -0.09431499617968597   -0.0026400736779462136
-0.011709722695672472   -0.08730298230347033   -0.0023319964980883104
-0.012695698987619046   -0.0940531990041326   -0.0027060332906067336
-0.009951459707626068   -0.09431087669383895   -0.002513069396926523
-0.011709722695672472   -0.08730298230347033   -0.0023319964980883104
-0.015867940300158   -0.08704358095547059   -0.0024101563779620897
-0.012695698987619046   -0.0940531990041326   -0.0027060332906067336
-0.015778098327698557   -0.08704060978931104   -0.0022049559452696154
-0.009951459707626068   -0.09431087669383895   -0.002513069396926523
-0.012526063191703204   -0.09406873133232947   -0.00246583101277657
-0.015778098327698557   -0.08704060978931104   -0.0022049559452696154
-0.012695698987619046   -0.0940531990041326   -0.0027060332906067336
-0.009951459707626068   -0.09431087669383895   -0.002513069396926523
-0.015778098327698557   -0.08704060978931104   -0.0022049559452696154
-0.011650974530017595   -0.08727862487648032   -0.002220072740732502
-0.011709722695672472   -0.08730298230347033   -0.0023319964980883104
-0.009951459707626068   -0.09431087669383895   -0.002513069396926523
-0.015778098327698557   -0.08704060978931104   -0.0022049559452696154
-0.011709722695672472   -0.08730298230347033   -0.0023319964980883104
-0.012695698987619046   -0.0940531990041326   -0.0027060332906067336
-0.013030616277283576   -0.09420924381607325   -0.0031454154328748964
-0.016043633046312483   -0.08720594581671011   -0.002787546919794806
-0.01651467285324956   -0.09373392191522897   -0.003418155047862355
-0.012889901676355679   -0.09410006353920701   -0.002930469803811228
-0.016043633046312483   -0.08720594581671011   -0.002787546919794806
-0.02096944487607595   -0.08678006244184772   -0.003032817543070825
-0.01651467285324956   -0.09373392191522897   -0.003418155047862355
-0.020636310110328012   -0.08666935016355237   -0.002744654624716018
-0.012889901676355679   -0.09410006353920701   -0.002930469803811228
-0.01606263244528802   -0.09361570502484494   -0.003078830569616771
-0.020636310110328012   -0.08666935016355237   -0.002744654624716018
-0.01651467285324956   -0.09373392191522897   -0.003418155047862355
-0.012889901676355679   -0.09410006353920701   -0.002930469803811228
-0.020636310110328012   -0.08666935016355237   -0.002744654624716018
-0.015978430739416228   -0.08709967605995382   -0.002603408765585692
-0.016043633046312483   -0.08720594581671011   -0.002787546919794806
-0.012889901676355679   -0.09410006353920701   -0.002930469803811228
-0.020636310110328012   -0.08666935016355237   -0.002744654624716018
-0.016043633046312483   -0.08720594581671011   -0.002787546919794806
-0.01651467285324956   -0.09373392191522897   -0.003418155047862355
-0.012889901676355679   -0.09410006353920701   -0.002930469803811228
-0.015978430739416228   -0.08709967605995382   -0.002603408765585692
-0.01606263244528802   -0.09361570502484494   -0.003078830569616771
-0.012695698987619046   -0.0940531990041326   -0.0027060332906067336
-0.015978430739416228   -0.08709967605995382   -0.002603408765585692
-0.020636310110328012   -0.08666935016355237   -0.002744654624716018
-0.01606263244528802   -0.09361570502484494   -0.003078830569616771
-0.020347019392088772   -0.08661801224454586   -0.0024414755685172713
-0.012695698987619046   -0.0940531990041326   -0.0027060332906067336
-0.015657205615187606   -0.09357235671851569   -0.002719620798046567
-0.020347019392088772   -0.08661801224454586   -0.0024414755685172713
-0.01606263244528802   -0.09361570502484494   -0.003078830569616771
-0.012695698987619046   -0.0940531990041326   -0.0027060332906067336
-0.020347019392088772   -0.08661801224454586   -0.0024414755685172713
-0.015867940300158   -0.08704358095547059   -0.0024101563779620897
-0.015978430739416228   -0.08709967605995382   -0.002603408765585692
-0.012695698987619046   -0.0940531990041326   -0.0027060332906067336
-0.020347019392088772   -0.08661801224454586   -0.0024414755685172713
-0.015978430739416228   -0.08709967605995382   -0.002603408765585692
-0.01606263244528802   -0.09361570502484494   -0.003078830569616771
-0.012695698987619046   -0.0940531990041326   -0.0027060332906067336
-0.015867940300158   -0.08704358095547059   -0.0024101563779620897
-0.015657205615187606   -0.09357235671851569   -0.002719620798046567
-0.012526063191703204   -0.09406873133232947   -0.00246583101277657
-0.015867940300158   -0.08704358095547059   -0.0024101563779620897
-0.020347019392088772   -0.08661801224454586   -0.0024414755685172713
-0.015657205615187606   -0.09357235671851569   -0.002719620798046567
-0.019957199549295448   -0.08664790901324892   -0.0021252144665953603
-0.012526063191703204   -0.09406873133232947   -0.00246583101277657
-0.015131721708812265   -0.09362616475755312   -0.0023439483383350715
-0.019957199549295448   -0.08664790901324892   -0.0021252144665953603
-0.015657205615187606   -0.09357235671851569   -0.002719620798046567
-0.012526063191703204   -0.09406873133232947   -0.00246583101277657
-0.019957199549295448   -0.08664790901324892   -0.0021252144665953603
-0.015778098327698557   -0.08704060978931104   -0.0022049559452696154
-0.015867940300158   -0.08704358095547059   -0.0024101563779620897
-0.012526063191703204   -0.09406873133232947   -0.00246583101277657
-0.019957199549295448   -0.08664790901324892   -0.0021252144665953603
-0.015867940300158   -0.08704358095547059   -0.0024101563779620897
-0.015657205615187606   -0.09357235671851569   -0.002719620798046567
0.0005381750449703551   -0.08738248988302949   -0.0015010152925751712
0.0031231954460990696   -0.07812992996394023   -0.0011439961564406428
-0.0036956102877362114   -0.08759211353798009   -0.0018993461780500336
0.0008130718623959925   -0.08717971514544569   -0.0017245996236518071
0.0031231954460990696   -0.07812992996394023   -0.0011439961564406428
-0.002478380652092817   -0.07826824677655721   -0.0015241630506805089
-0.0036956102877362114   -0.08759211353798009   -0.0018993461780500336
-0.002463336415430372   -0.07810005282122919   -0.0015921290390464207
0.0008130718623959925   -0.08717971514544569   -0.0017245996236518071
-0.0036226564847631143   -0.08742300980468283   -0.0019975426579005614
-0.002463336415430372   -0.07810005282122919   -0.0015921290390464207
-0.0036956102877362114   -0.08759211353798009   -0.0018993461780500336
0.0008130718623959925   -0.08717971514544569   -0.0017245996236518071
-0.002463336415430372   -0.07810005282122919   -0.0015921290390464207
0.0032860707863335285   -0.07793209211190696   -0.0013091258722416341
0.0031231954460990696   -0.07812992996394023   -0.0011439961564406428
0.0008130718623959925   -0.08717971514544569   -0.0017245996236518071
-0.002463336415430372   -0.07810005282122919   -0.0015921290390464207
0.0031231954460990696   -0.07812992996394023   -0.0011439961564406428
-0.0036956102877362114   -0.08759211353798009   -0.0018993461780500336
0.0008130718623959925   -0.08717971514544569   -0.0017245996236518071
0.0032860707863335285   -0.07793209211190696   -0.0013091258722416341
-0.0036226564847631143   -0.08742300980468283   -0.0019975426579005614
0.001015246005713298   -0.0870622127762295   -0.001932109287728996
0.0032860707863335285   -0.07793209211190696   -0.0013091258722416341
-0.002463336415430372   -0.07810005282122919   -0.0015921290390464207
-0.0036226564847631143   -0.08742300980468283   -0.0019975426579005614
-0.0024442214224453846   -0.07797785714143489   -0.0016496113027904351
0.001015246005713298   -0.0870622127762295   -0.001932109287728996
-0.0035396450079905975   -0.08731228551552975   -0.0020842542656396333
-0.0024442214224453846   -0.07797785714143489   -0.0016496113027904351
-0.0036226564847631143   -0.08742300980468283   -0.0019975426579005614
0.001015246005713298   -0.0870622127762295   -0.001932109287728996
-0.0024442214224453846   -0.07797785714143489   -0.0016496113027904351
0.003390097322499031   -0.07780196485791772   -0.0014594432092106206
0.0032860707863335285   -0.07793209211190696   -0.0013091258722416341
0.001015246005713298   -0.0870622127762295   -0.001932109287728996
-0.0024442214224453846   -0.07797785714143489   -0.0016496113027904351
0.0032860707863335285   -0.07793209211190696   -0.0013091258722416341
-0.0036226564847631143   -0.08742300980468283   -0.0019975426579005614
0.001015246005713298   -0.0870622127762295   -0.001932109287728996
0.003390097322499031   -0.07780196485791772   -0.0014594432092106206
-0.0035396450079905975   -0.08731228551552975   -0.0020842542656396333
0.0012315072902158348   -0.08700379147816766   -0.002123462834370649
0.003390097322499031   -0.07780196485791772   -0.0014594432092106206
-0.0024442214224453846   -0.07797785714143489   -0.0016496113027904351
-0.0035396450079905975   -0.08731228551552975   -0.0020842542656396333
-0.0024535875489883467   -0.07789776435782517   -0.0016973750231337092
0.0012315072902158348   -0.08700379147816766   -0.002123462834370649
-0.003490023492884442   -0.08725667395617173   -0.0021606145071879257
-0.0024535875489883467   -0.07789776435782517   -0.0016973750231337092
-0.0035396450079905975   -0.08731228551552975   -0.0020842542656396333
0.0012315072902158348   -0.08700379147816766   -0.002123462834370649
-0.0024535875489883467   -0.07789776435782517   -0.0016973750231337092
0.0034967387644119436   -0.07771440278514999   -0.0015952562238621057
0.003390097322499031   -0.07780196485791772   -0.0014594432092106206
0.0012315072902158348   -0.08700379147816766   -0.002123462834370649
-0.0024535875489883467   -0.07789776435782517   -0.0016973750231337092
0.003390097322499031   -0.07780196485791772   -0.0014594432092106206
-0.0035396450079905975   -0.08731228551552975   -0.0020842542656396333
-0.0036956102877362114   -0.08759211353798009   -0.0018993461780500336
-0.002478380652092817   -0.07826824677655721   -0.0015241630506805089
-0.007790156689542479   -0.08763218042650081   -0.002227752597878832
-0.0036226564847631143   -0.08742300980468283   -0.0019975426579005614
-0.002478380652092817   -0.07826824677655721   -0.0015241630506805089
-0.00786771783943693   -0.07826883982354291   -0.0018379522945827802
-0.007790156689542479   -0.08763218042650081   -0.002227752597878832
-0.00786847427380284   -0.07812645256386919   -0.001831544334909442
-0.0036226564847631143   -0.08742300980468283   -0.0019975426579005614
-0.007736482121266313   -0.08748696996583209   -0.002230332859272835
-0.00786847427380284   -0.07812645256386919   -0.001831544334909442
-0.007790156689542479   -0.08763218042650081   -0.002227752597878832
-0.0036226564847631143   -0.08742300980468283   -0.0019975426579005614
-0.00786847427380284   -0.07812645256386919   -0.001831544334909442
-0.002463336415430372   -0.07810005282122919   -0.0015921290390464207
-0.002478380652092817   -0.07826824677655721   -0.0015241630506805089
-0.0036226564847631143   -0.08742300980468283   -0.0019975426579005614
-0.00786847427380284   -0.07812645256386919   -0.001831544334909442
-0.002478380652092817   -0.07826824677655721   -0.0015241630506805089
-0.007790156689542479   -0.08763218042650081   -0.002227752597878832
-0.0036226564847631143   -0.08742300980468283   -0.0019975426579005614
-0.002463336415430372   -0.07810005282122919   -0.0015921290390464207
-0.007736482121266313   -0.08748696996583209   -0.002230332859272835
-0.0035396450079905975   -0.08731228551552975   -0.0020842542656396333
-0.002463336415430372   -0.07810005282122919   -0.0015921290390464207
-0.00786847427380284   -0.07812645256386919   -0.001831544334909442
-0.007736482121266313   -0.08748696996583209   -0.002230332859272835
-0.007868873392231916   -0.07802462026829121   -0.0018146966392450796
-0.0035396450079905975   -0.08731228551552975   -0.0020842542656396333
-0.007681297094440696   -0.08739401679969652   -0.0022219123469610852
-0.007868873392231916   -0.07802462026829121   -0.0018146966392450796
-0.007736482121266313   -0.08748696996583209   -0.002230332859272835
-0.0035396450079905975   -0.08731228551552975   -0.0020842542656396333
-0.007868873392231916   -0.07802462026829121   -0.0018146966392450796
-0.0024442214224453846   -0.07797785714143489   -0.0016496113027904351
-0.002463336415430372   -0.07810005282122919   -0.0015921290390464207
-0.0035396450079905975   -0.08731228551552975   -0.0020842542656396333
-0.007868873392231916   -0.07802462026829121   -0.0018146966392450796
-0.002463336415430372   -0.07810005282122919   -0.0015921290390464207
-0.007736482121266313   -0.08748696996583209   -0.002230332859272835
-0.0035396450079905975   -0.08731228551552975   -0.0020842542656396333
-0.0024442214224453846   -0.07797785714143489   -0.0016496113027904351
-0.007681297094440696   -0.08739401679969652   -0.0022219123469610852
-0.003490023492884442   -0.08725667395617173   -0.0021606145071879257
-0.0024442214224453846   -0.07797785714143489   -0.0016496113027904351
-0.007868873392231916   -0.07802462026829121   -0.0018146966392450796
-0.007681297094440696   -0.08739401679969652   -0.0022219123469610852
-0.007876485451617449   -0.07796341327656864   -0.0017879466553638785
-0.003490023492884442   -0.08725667395617173   -0.0021606145071879257
-0.007633026480238131   -0.08735245054940598   -0.0022032191022967927
-0.007876485451617449   -0.07796341327656864   -0.0017879466553638785
-0.007681297094440696   -0.08739401679969652   -0.0022219123469610852
-0.003490023492884442   -0.08725667395617173   -0.0021606145071879257
-0.007876485451617449   -0.07796341327656864   -0.0017879466553638785
-0.0024535875489883467   -0.07789776435782517   -0.0016973750231337092
-0.0024442214224453846   -0.07797785714143489   -0.0016496113027904351
-0.003490023492884442   -0.08725667395617173   -0.0021606145071879257
-0.007876485451617449   -0.07796341327656864   -0.0017879466553638785
-0.0024442214224453846   -0.07797785714143489   -0.0016496113027904351
-0.007681297094440696   -0.08739401679969652   -0.0022219123469610852
-0.007790156689542479   -0.08763218042650081   -0.002227752597878832
-0.00786771783943693   -0.07826883982354291   -0.0018379522945827802
-0.011820082204430928   -0.08750190700110708   -0.002524214522760087
-0.007736482121266313   -0.08748696996583209   -0.002230332859272835
-0.00786771783943693   -0.07826883982354291   -0.0018379522945827802
-0.013165273828559865   -0.07813479709201958   -0.0021129029315823836
-0.011820082204430928   -0.08750190700110708   -0.002524214522760087
-0.013170010093273517   -0.07801510965299996   -0.0020330150095904135
-0.007736482121266313   -0.08748696996583209   -0.002230332859272835
-0.011770106520527146   -0.08737660409897884   -0.002433487789800335
-0.013170010093273517   -0.07801510965299996   -0.0020330150095904135
-0.011820082204430928   -0.08750190700110708   -0.002524214522760087
-0.007736482121266313   -0.08748696996583209   -0.002230332859272835
-0.013170010093273517   -0.07801510965299996   -0.0020330150095904135
-0.00786847427380284   -0.07812645256386919   -0.001831544334909442
-0.00786771783943693   -0.07826883982354291   -0.0018379522945827802
-0.007736482121266313   -0.08748696996583209   -0.002230332859272835
-0.013170010093273517   -0.07801510965299996   -0.0020330150095904135
-0.00786771783943693   -0.07826883982354291   -0.0018379522945827802
-0.011820082204430928   -0.08750190700110708   -0.002524214522760087
-0.007736482121266313   -0.08748696996583209   -0.002230332859272835
-0.00786847427380284   -0.07812645256386919   -0.001831544334909442
-0.011770106520527146   -0.08737660409897884   -0.002433487789800335
-0.007681297094440696   -0.08739401679969652   -0.0022219123469610852
-0.00786847427380284   -0.07812645256386919   -0.001831544334909442
-0.013170010093273517   -0.07801510965299996   -0.0020330150095904135
-0.011770106520527146   -0.08737660409897884   -0.002433487789800335
-0.013165711041261624   -0.0779356180212333   -0.0019428877873606692
-0.007681297094440696   -0.08739401679969652   -0.0022219123469610852
-0.011709722695672472   -0.08730298230347033   -0.0023319964980883104
-0.013165711041261624   -0.0779356180212333   -0.0019428877873606692
-0.011770106520527146   -0.08737660409897884   -0.002433487789800335
-0.007681297094440696   -0.08739401679969652   -0.0022219123469610852
-0.013165711041261624   -0.0779356180212333   -0.0019428877873606692
-0.007868873392231916   -0.07802462026829121   -0.0018146966392450796
-0.00786847427380284   -0.07812645256386919   -0.001831544334909442
-0.007681297094440696   -0.08739401679969652   -0.0022219123469610852
-0.013165711041261624   -0.0779356180212333   -0.0019428877873606692
-0.00786847427380284   -0.07812645256386919   -0.001831544334909442
-0.011770106520527146   -0.08737660409897884   -0.002433487789800335
-0.007681297094440696   -0.08739401679969652   -0.0022219123469610852
-0.007868873392231916   -0.07802462026829121   -0.0018146966392450796
-0.011709722695672472   -0.08730298230347033   -0.0023319964980883104
-0.007633026480238131   -0.08735245054940598   -0.0022032191022967927
-0.007868873392231916   -0.07802462026829121   -0.0018146966392450796
-0.013165711041261624   -0.0779356180212333   -0.0019428877873606692
-0.011709722695672472   -0.08730298230347033   -0.0023319964980883104
-0.013163031327377533   -0.07789561230156171   -0.0018428209060503725
-0.007633026480238131   -0.08735245054940598   -0.0022032191022967927
-0.011650974530017595   -0.08727862487648032   -0.002220072740732502
-0.013163031327377533   -0.07789561230156171   -0.0018428209060503725
-0.011709722695672472   -0.08730298230347033   -0.0023319964980883104
-0.007633026480238131   -0.08735245054940598   -0.0022032191022967927
-0.013163031327377533   -0.07789561230156171   -0.0018428209060503725
-0.007876485451617449   -0.07796341327656864   -0.0017879466553638785
-0.007868873392231916   -0.07802462026829121   -0.0018146966392450796
-0.007633026480238131   -0.08735245054940598   -0.0022032191022967927
-0.013163031327377533   -0.07789561230156171   -0.0018428209060503725
-0.007868873392231916   -0.07802462026829121   -0.0018146966392450796
-0.011709722695672472   -0.08730298230347033   -0.0023319964980883104
-0.011820082204430928   -0.08750190700110708   -0.002524214522760087
-0.013165273828559865   -0.07813479709201958   -0.0021129029315823836
-0.016043633046312483   -0.08720594581671011   -0.002787546919794806
-0.011770106520527146   -0.08737660409897884   -0.002433487789800335
-0.013165273828559865   -0.07813479709201958   -0.0021129029315823836
-0.01862811416443232   -0.07787122429658967   -0.002349493509792539
-0.016043633046312483   -0.08720594581671011   -0.002787546919794806
-0.0186217728042716   -0.07777329743813123   -0.002195261778379691
-0.011770106520527146   -0.08737660409897884   -0.002433487789800335
-0.015978430739416228   -0.08709967605995382   -0.002603408765585692
-0.0186217728042716   -0.07777329743813123   -0.002195261778379691
-0.016043633046312483   -0.08720594581671011   -0.002787546919794806
-0.011770106520527146   -0.08737660409897884   -0.002433487789800335
-0.0186217728042716   -0.07777329743813123   -0.002195261778379691
-0.013170010093273517   -0.07801510965299996   -0.0020330150095904135
-0.013165273828559865   -0.07813479709201958   -0.0021129029315823836
-0.011770106520527146   -0.08737660409897884   -0.002433487789800335
-0.0186217728042716   -0.07777329743813123   -0.002195261778379691
-0.013165273828559865   -0.07813479709201958   -0.0021129029315823836
-0.016043633046312483   -0.08720594581671011   -0.002787546919794806
-0.011770106520527146   -0.08737660409897884   -0.002433487789800335
-0.013170010093273517   -0.07801510965299996   -0.0020330150095904135
-0.015978430739416228   -0.08709967605995382   -0.002603408765585692
-0.011709722695672472   -0.08730298230347033   -0.0023319964980883104
-0.013170010093273517   -0.07801510965299996   -0.0020330150095904135
-0.0186217728042716   -0.07777329743813123   -0.002195261778379691
-0.015978430739416228   -0.08709967605995382   -0.002603408765585692
-0.01857609593569284   -0.07771406144309281   -0.0020323327681294676
-0.011709722695672472   -0.08730298230347033   -0.0023319964980883104
-0.015867940300158   -0.08704358095547059   -0.0024101563779620897
-0.01857609593569284   -0.07771406144309281   -0.0020323327681294676
-0.015978430739416228   -0.08709967605995382   -0.002603408765585692
-0.011709722695672472   -0.08730298230347033   -0.0023319964980883104
-0.01857609593569284   -0.07771406144309281   -0.0020323327681294676
-0.013165711041261624   -0.0779356180212333   -0.0019428877873606692
-0.013170010093273517   -0.07801510965299996   -0.0020330150095904135
-0.011709722695672472   -0.08730298230347033   -0.0023319964980883104
-0.01857609593569284   -0.07771406144309281   -0.0020323327681294676
-0.013170010093273517   -0.07801510965299996   -0.0020330150095904135
-0.015978430739416228   -0.08709967605995382   -0.002603408765585692
-0.011709722695672472   -0.08730298230347033   -0.0023319964980883104
-0.013165711041261624   -0.0779356180212333   -0.0019428877873606692
-0.015867940300158   -0.08704358095547059   -0.0024101563779620897
-0.011650974530017595   -0.08727862487648032   -0.002220072740732502
-0.013165711041261624   -0.0779356180212333   -0.0019428877873606692
-0.01857609593569284   -0.07771406144309281   -0.0020323327681294676
-0.015867940300158   -0.08704358095547059   -0.0024101563779620897
-0.018545536585626018   -0.07769762534317638   -0.001858667737027159
-0.011650974530017595   -0.08727862487648032   -0.002220072740732502
-0.015778098327698557   -0.08704060978931104   -0.0022049559452696154
-0.018545536585626018   -0.07769762534317638   -0.001858667737027159
-0.015867940300158   -0.08704358095547059   -0.0024101563779620897
-0.011650974530017595   -0.08727862487648032   -0.002220072740732502
-0.018545536585626018   -0.07769762534317638   -0.001858667737027159
-0.013163031327377533   -0.07789561230156171   -0.0018428209060503725
-0.013165711041261624   -0.0779356180212333   -0.0019428877873606692
-0.011650974530017595   -0.08727862487648032   -0.002220072740732502
-0.018545536585626018   -0.07769762534317638   -0.001858667737027159
-0.013165711041261624   -0.0779356180212333   -0.0019428877873606692
-0.015867940300158   -0.08704358095547059   -0.0024101563779620897
-0.016043633046312483   -0.08720594581671011   -0.002787546919794806
-0.01862811416443232   -0.07787122429658967   -0.002349493509792539
-0.02096944487607595   -0.08678006244184772   -0.003032817543070825
-0.015978430739416228   -0.08709967605995382   -0.002603408765585692
-0.01862811416443232   -0.07787122429658967   -0.002349493509792539
-0.024729960860743035   -0.0775082420402382   -0.002562687930376168
-0.02096944487607595   -0.08678006244184772   -0.003032817543070825
-0.02450256983909793   -0.07741220810255846   -0.002326833132406457
-0.015978430739416228   -0.08709967605995382   -0.002603408765585692
-0.020636310110328012   -0.08666935016355237   -0.002744654624716018
-0.02450256983909793   -0.07741220810255846   -0.002326833132406457
-0.02096944487607595   -0.08678006244184772   -0.003032817543070825
-0.015978430739416228   -0.08709967605995382   -0.002603408765585692
-0.02450256983909793   -0.07741220810255846   -0.002326833132406457
-0.0186217728042716   -0.07777329743813123   -0.002195261778379691
-0.01862811416443232   -0.07787122429658967   -0.002349493509792539
-0.015978430739416228   -0.08709967605995382   -0.002603408765585692
-0.02450256983909793   -0.07741220810255846   -0.002326833132406457
-0.01862811416443232   -0.07787122429658967   -0.002349493509792539
-0.02096944487607595   -0.08678006244184772   -0.003032817543070825
-0.015978430739416228   -0.08709967605995382   -0.002603408765585692
-0.0186217728042716   -0.07777329743813123   -0.002195261778379691
-0.020636310110328012   -0.08666935016355237   -0.002744654624716018
-0.015867940300158   -0.08704358095547059   -0.0024101563779620897
-0.0186217728042716   -0.07777329743813123   -0.002195261778379691
-0.02450256983909793   -0.07741220810255846   -0.002326833132406457
-0.020636310110328012   -0.08666935016355237   -0.002744654624716018
-0.024307994388312142   -0.07736035634241806   -0.0020763698045863825
-0.015867940300158   -0.08704358095547059   -0.0024101563779620897
-0.020347019392088772   -0.08661801224454586   -0.0024414755685172713
-0.024307994388312142   -0.07736035634241806   -0.0020763698045863825
-0.020636310110328012   -0.08666935016355237   -0.002744654624716018
-0.015867940300158   -0.08704358095547059   -0.0024101563779620897
-0.024307994388312142   -0.07736035634241806   -0.0020763698045863825
-0.01857609593569284   -0.07771406144309281   -0.0020323327681294676
-0.0186217728042716   -0.07777329743813123   -0.002195261778379691
-0.015867940300158   -0.08704358095547059   -0.0024101563779620897
-0.024307994388312142   -0.07736035634241806   -0.0020763698045863825
-0.0186217728042716   -0.07777329743813123   -0.002195261778379691
-0.020636310110328012   -0.08666935016355237   -0.002744654624716018
-0.015867940300158   -0.08704358095547059   -0.0024101563779620897
-0.01857609593569284   -0.07771406144309281   -0.0020323327681294676
-0.020347019392088772   -0.08661801224454586   -0.0024414755685172713
-0.015778098327698557   -0.08704060978931104   -0.0022049559452696154
-0.01857609593569284   -0.07771406144309281   -0.0020323327681294676
-0.024307994388312142   -0.07736035634241806   -0.0020763698045863825
-0.020347019392088772   -0.08661801224454586   -0.0024414755685172713
-0.024027042929423224   -0.07737643115968036   -0.001813295682542003
-0.015778098327698557   -0.08704060978931104   -0.0022049559452696154
-0.019957199549295448   -0.08664790901324892   -0.0021252144665953603
-0.024027042929423224   -0.07737643115968036   -0.001813295682542003
-0.020347019392088772   -0.08661801224454586   -0.0024414755685172713
-0.015778098327698557   -0.08704060978931104   -0.0022049559452696154
-0.024027042929423224   -0.07737643115968036   -0.001813295682542003
-0.018545536585626018   -0.07769762534317638   -0.001858667737027159
-0.01857609593569284   -0.07771406144309281   -0.0020323327681294676
-0.015778098327698557   -0.08704060978931104   -0.0022049559452696154
-0.024027042929423224   -0.07737643115968036   -0.001813295682542003
-0.01857609593569284   -0.07771406144309281   -0.0020323327681294676
-0.020347019392088772   -0.08661801224454586   -0.0024414755685172713
0.0031231954460990696   -0.07812992996394023   -0.0011439961564406428
0.004901376656777305   -0.06700798661682518   -0.0007619110359353953
-0.002478380652092817   -0.07826824677655721   -0.0015241630506805089
0.0032860707863335285   -0.07793209211190696   -0.0013091258722416341
0.004901376656777305   -0.06700798661682518   -0.0007619110359353953
-0.001740721086936386   -0.06707573582538366   -0.0011196065636956815
-0.002478380652092817   -0.07826824677655721   -0.0015241630506805089
-0.0017722160431083555   -0.06691162172910017   -0.0011561155234010763
0.0032860707863335285   -0.07793209211190696   -0.0013091258722416341
-0.002463336415430372   -0.07810005282122919   -0.0015921290390464207
-0.0017722160431083555   -0.06691162172910017   -0.0011561155234010763
-0.002478380652092817   -0.07826824677655721   -0.0015241630506805089
0.0032860707863335285   -0.07793209211190696   -0.0013091258722416341
-0.0017722160431083555   -0.06691162172910017   -0.0011561155234010763
0.0049652358885157195   -0.0668173860840782   -0.0008698605826366628
0.004901376656777305   -0.06700798661682518   -0.0007619110359353953
0.0032860707863335285   -0.07793209211190696   -0.0013091258722416341
-0.0017722160431083555   -0.06691162172910017   -0.0011561155234010763
0.004901376656777305   -0.06700798661682518   -0.0007619110359353953
-0.002478380652092817   -0.07826824677655721   -0.0015241630506805089
0.0032860707863335285   -0.07793209211190696   -0.0013091258722416341
0.0049652358885157195   -0.0668173860840782   -0.0008698605826366628
-0.002463336415430372   -0.07810005282122919   -0.0015921290390464207
0.003390097322499031   -0.07780196485791772   -0.0014594432092106206
0.0049652358885157195   -0.0668173860840782   -0.0008698605826366628
-0.0017722160431083555   -0.06691162172910017   -0.0011561155234010763
-0.002463336415430372   -0.07810005282122919   -0.0015921290390464207
-0.001805346692656775   -0.06678154565664764   -0.0011832780410700296
0.003390097322499031   -0.07780196485791772   -0.0014594432092106206
-0.0024442214224453846   -0.07797785714143489   -0.0016496113027904351
-0.001805346692656775   -0.06678154565664764   -0.0011832780410700296
-0.002463336415430372   -0.07810005282122919   -0.0015921290390464207
0.003390097322499031   -0.07780196485791772   -0.0014594432092106206
-0.001805346692656775   -0.06678154565664764   -0.0011832780410700296
0.0049842891526160355   -0.06667817604169121   -0.0009640243930001451
0.0049652358885157195   -0.0668173860840782   -0.0008698605826366628
0.003390097322499031   -0.07780196485791772   -0.0014594432092106206
-0.001805346692656775   -0.06678154565664764   -0.0011832780410700296
0.0049652358885157195   -0.0668173860840782   -0.0008698605826366628
-0.002463336415430372   -0.07810005282122919   -0.0015921290390464207
0.003390097322499031   -0.07780196485791772   -0.0014594432092106206
0.0049842891526160355   -0.06667817604169121   -0.0009640243930001451
-0.0024442214224453846   -0.07797785714143489   -0.0016496113027904351
0.0034967387644119436   -0.07771440278514999   -0.0015952562238621057
0.0049842891526160355   -0.06667817604169121   -0.0009640243930001451
-0.001805346692656775   -0.06678154565664764   -0.0011832780410700296
-0.0024442214224453846   -0.07797785714143489   -0.0016496113027904351
-0.0018615352017459104   -0.06668144080366366   -0.0012014108443268601
0.0034967387644119436   -0.07771440278514999   -0.0015952562238621057
-0.0024535875489883467   -0.07789776435782517   -0.0016973750231337092
-0.0018615352017459104   -0.06668144080366366   -0.0012014108443268601
-0.0024442214224453846   -0.07797785714143489   -0.0016496113027904351
0.0034967387644119436   -0.07771440278514999   -0.0015952562238621057
-0.0018615352017459104   -0.06668144080366366   -0.0012014108443268601
0.0049945959511077205   -0.06656594524718837   -0.0010450532840046666
0.0049842891526160355   -0.06667817604169121   -0.0009640243930001451
0.0034967387644119436   -0.07771440278514999   -0.0015952562238621057
-0.0018615352017459104   -0.06668144080366366   -0.0012014108443268601
0.0049842891526160355   -0.06667817604169121   -0.0009640243930001451
-0.0024442214224453846   -0.07797785714143489   -0.0016496113027904351
-0.002478380652092817   -0.07826824677655721   -0.0015241630506805089
-0.001740721086936386   -0.06707573582538366   -0.0011196065636956815
-0.00786771783943693   -0.07826883982354291   -0.0018379522945827802
-0.002463336415430372   -0.07810005282122919   -0.0015921290390464207
-0.001740721086936386   -0.06707573582538366   -0.0011196065636956815
-0.008106700047481442   -0.06704054727322895   -0.0014144619921581396
-0.00786771783943693   -0.07826883982354291   -0.0018379522945827802
-0.008150208740179734   -0.0669032754101176   -0.0013972881020538378
-0.002463336415430372   -0.07810005282122919   -0.0015921290390464207
-0.00786847427380284   -0.07812645256386919   -0.001831544334909442
-0.008150208740179734   -0.0669032754101176   -0.0013972881020538378
-0.00786771783943693   -0.07826883982354291   -0.0018379522945827802
-0.002463336415430372   -0.07810005282122919   -0.0015921290390464207
-0.008150208740179734   -0.0669032754101176   -0.0013972881020538378
-0.0017722160431083555   -0.06691162172910017   -0.0011561155234010763
-0.001740721086936386   -0.06707573582538366   -0.0011196065636956815
-0.002463336415430372   -0.07810005282122919   -0.0015921290390464207
-0.008150208740179734   -0.0669032754101176   -0.0013972881020538378
-0.001740721086936386   -0.06707573582538366   -0.0011196065636956815
-0.00786771783943693   -0.07826883982354291   -0.0018379522945827802
-0.002463336415430372   -0.07810005282122919   -0.0015921290390464207
-0.0017722160431083555   -0.06691162172910017   -0.0011561155234010763
-0.00786847427380284   -0.07812645256386919   -0.001831544334909442
-0.0024442214224453846   -0.07797785714143489   -0.0016496113027904351
-0.0017722160431083555   -0.06691162172910017   -0.0011561155234010763
-0.008150208740179734   -0.0669032754101176   -0.0013972881020538378
-0.00786847427380284   -0.07812645256386919   -0.001831544334909442
-0.008194313317247771   -0.06679518435234884   -0.0013704953481736358
-0.0024442214224453846   -0.07797785714143489   -0.0016496113027904351
-0.007868873392231916   -0.07802462026829121   -0.0018146966392450796
-0.008194313317247771   -0.06679518435234884   -0.0013704953481736358
-0.00786847427380284   -0.07812645256386919   -0.001831544334909442
-0.0024442214224453846   -0.07797785714143489   -0.0016496113027904351
-0.008194313317247771   -0.06679518435234884   -0.0013704953481736358
-0.001805346692656775   -0.06678154565664764   -0.0011832780410700296
-0.0017722160431083555   -0.06691162172910017   -0.0011561155234010763
-0.0024442214224453846   -0.07797785714143489   -0.0016496113027904351
-0.008194313317247771   -0.06679518435234884   -0.0013704953481736358
-0.0017722160431083555   -0.06691162172910017   -0.0011561155234010763
-0.00786847427380284   -0.07812645256386919   -0.001831544334909442
-0.0024442214224453846   -0.07797785714143489   -0.0016496113027904351
-0.001805346692656775   -0.06678154565664764   -0.0011832780410700296
-0.007868873392231916   -0.07802462026829121   -0.0018146966392450796
-0.0024535875489883467   -0.07789776435782517   -0.0016973750231337092
-0.001805346692656775   -0.06678154565664764   -0.0011832780410700296
-0.008194313317247771   -0.06679518435234884   -0.0013704953481736358
-0.007868873392231916   -0.07802462026829121   -0.0018146966392450796
-0.00824525936596616   -0.06671677123915601   -0.0013345435868249494
-0.0024535875489883467   -0.07789776435782517   -0.0016973750231337092
-0.007876485451617449   -0.07796341327656864   -0.0017879466553638785
-0.00824525936596616   -0.06671677123915601   -0.0013345435868249494
-0.007868873392231916   -0.07802462026829121   -0.0018146966392450796
-0.0024535875489883467   -0.07789776435782517   -0.0016973750231337092
-0.00824525936596616   -0.06671677123915601   -0.0013345435868249494
-0.0018615352017459104   -0.06668144080366366   -0.0012014108443268601
-0.001805346692656775   -0.06678154565664764   -0.0011832780410700296
-0.0024535875489883467   -0.07789776435782517   -0.0016973750231337092
-0.00824525936596616   -0.06671677123915601   -0.0013345435868249494
-0.001805346692656775   -0.06678154565664764   -0.0011832780410700296
-0.007868873392231916   -0.07802462026829121   -0.0018146966392450796
-0.00786771783943693   -0.07826883982354291   -0.0018379522945827802
-0.008106700047481442   -0.06704054727322895   -0.0014144619921581396
-0.013165273828559865   -0.07813479709201958   -0.0021129029315823836
-0.00786847427380284   -0.07812645256386919   -0.001831544334909442
-0.008106700047481442   -0.06704054727322895   -0.0014144619921581396
-0.014364896850902217   -0.06690870887100057   -0.0016668968852037096
-0.013165273828559865   -0.07813479709201958   -0.0021129029315823836
-0.014411799407255508   -0.06679585170991653   -0.0015962919525170525
-0.00786847427380284   -0.07812645256386919   -0.001831544334909442
-0.013170010093273517   -0.07801510965299996   -0.0020330150095904135
-0.014411799407255508   -0.06679585170991653   -0.0015962919525170525
-0.013165273828559865   -0.07813479709201958   -0.0021129029315823836
-0.00786847427380284   -0.07812645256386919   -0.001831544334909442
-0.014411799407255508   -0.06679585170991653   -0.0015962919525170525
-0.008150208740179734   -0.0669032754101176   -0.0013972881020538378
-0.008106700047481442   -0.06704054727322895   -0.0014144619921581396
-0.00786847427380284   -0.07812645256386919   -0.001831544334909442
-0.014411799407255508   -0.06679585170991653   -0.0015962919525170525
-0.008106700047481442   -0.06704054727322895   -0.0014144619921581396
-0.013165273828559865   -0.07813479709201958   -0.0021129029315823836
-0.00786847427380284   -0.07812645256386919   -0.001831544334909442
-0.008150208740179734   -0.0669032754101176   -0.0013972881020538378
-0.013170010093273517   -0.07801510965299996   -0.0020330150095904135
-0.007868873392231916   -0.07802462026829121   -0.0018146966392450796
-0.008150208740179734   -0.0669032754101176   -0.0013972881020538378
-0.014411799407255508   -0.06679585170991653   -0.0015962919525170525
-0.013170010093273517   -0.07801510965299996   -0.0020330150095904135
-0.014450685885396247   -0.06671189603128774   -0.0015162364097317796
-0.007868873392231916   -0.07802462026829121   -0.0018146966392450796
-0.013165711041261624   -0.0779356180212333   -0.0019428877873606692
-0.014450685885396247   -0.06671189603128774   -0.0015162364097317796
-0.013170010093273517   -0.07801510965299996   -0.0020330150095904135
-0.007868873392231916   -0.07802462026829121   -0.0018146966392450796
-0.014450685885396247   -0.06671189603128774   -0.0015162364097317796
-0.008194313317247771   -0.06679518435234884   -0.0013704953481736358
-0.008150208740179734   -0.0669032754101176   -0.0013972881020538378
-0.007868873392231916   -0.07802462026829121   -0.0018146966392450796
-0.014450685885396247   -0.06671189603128774   -0.0015162364097317796
-0.008150208740179734   -0.0669032754101176   -0.0013972881020538378
-0.013170010093273517   -0.07801510965299996   -0.0020330150095904135
-0.007868873392231916   -0.07802462026829121   -0.0018146966392450796
-0.008194313317247771   -0.06679518435234884   -0.0013704953481736358
-0.013165711041261624   -0.0779356180212333   -0.0019428877873606692
-0.007876485451617449   -0.07796341327656864   -0.0017879466553638785
-0.008194313317247771   -0.06679518435234884   -0.0013704953481736358
-0.014450685885396247   -0.06671189603128774   -0.0015162364097317796
-0.013165711041261624   -0.0779356180212333   -0.0019428877873606692
-0.014490694060383533   -0.06665672217763248   -0.0014270097382322368
-0.007876485451617449   -0.07796341327656864   -0.0017879466553638785
-0.013163031327377533   -0.07789561230156171   -0.0018428209060503725
-0.014490694060383533   -0.06665672217763248   -0.0014270097382322368
-0.013165711041261624   -0.0779356180212333   -0.0019428877873606692
-0.007876485451617449   -0.07796341327656864   -0.0017879466553638785
-0.014490694060383533   -0.06665672217763248   -0.0014270097382322368
-0.00824525936596616   -0.06671677123915601   -0.0013345435868249494
-0.008194313317247771   -0.06679518435234884   -0.0013704953481736358
-0.007876485451617449   -0.07796341327656864   -0.0017879466553638785
-0.014490694060383533   -0.06665672217763248   -0.0014270097382322368
-0.008194313317247771   -0.06679518435234884   -0.0013704953481736358
-0.013165711041261624   -0.0779356180212333   -0.0019428877873606692
-0.013165273828559865   -0.07813479709201958   -0.0021129029315823836
-0.014364896850902217   -0.06690870887100057   -0.0016668968852037096
-0.01862811416443232   -0.07787122429658967   -0.002349493509792539
-0.013170010093273517   -0.07801510965299996   -0.0020330150095904135
-0.014364896850902217   -0.06690870887100057   -0.0016668968852037096
-0.020771966443054506   -0.06668286393537154   -0.00187784017495885
-0.01862811416443232   -0.07787122429658967   -0.002349493509792539
-0.02081084084693223   -0.06659387411722706   -0.0017530805877503464
-0.013170010093273517   -0.07801510965299996   -0.0020330150095904135
-0.0186217728042716   -0.07777329743813123   -0.002195261778379691
-0.02081084084693223   -0.06659387411722706   -0.0017530805877503464
-0.01862811416443232   -0.07787122429658967   -0.002349493509792539
-0.013170010093273517   -0.07801510965299996   -0.0020330150095904135
-0.02081084084693223   -0.06659387411722706   -0.0017530805877503464
-0.014411799407255508   -0.06679585170991653   -0.0015962919525170525
-0.014364896850902217   -0.06690870887100057   -0.0016668968852037096
-0.013170010093273517   -0.07801510965299996   -0.0020330150095904135
-0.02081084084693223   -0.06659387411722706   -0.0017530805877503464
-0.014364896850902217   -0.06690870887100057   -0.0016668968852037096
-0.01862811416443232   -0.07787122429658967   -0.002349493509792539
-0.013170010093273517   -0.07801510965299996   -0.0020330150095904135
-0.014411799407255508   -0.06679585170991653   -0.0015962919525170525
-0.0186217728042716   -0.07777329743813123   -0.002195261778379691
-0.013165711041261624   -0.0779356180212333   -0.0019428877873606692
-0.014411799407255508   -0.06679585170991653   -0.0015962919525170525
-0.02081084084693223   -0.06659387411722706   -0.0017530805877503464
-0.0186217728042716   -0.07777329743813123   -0.002195261778379691
-0.020816065109956098   -0.06653198466367737   -0.001620178763398042
-0.013165711041261624   -0.0779356180212333   -0.0019428877873606692
-0.01857609593569284   -0.07771406144309281   -0.0020323327681294676
-0.020816065109956098   -0.06653198466367737   -0.001620178763398042
-0.0186217728042716   -0.07777329743813123   -0.002195261778379691
-0.013165711041261624   -0.0779356180212333   -0.0019428877873606692
-0.020816065109956098   -0.06653198466367737   -0.001620178763398042
-0.014450685885396247   -0.06671189603128774   -0.0015162364097317796
-0.014411799407255508   -0.06679585170991653   -0.0015962919525170525
-0.013165711041261624   -0.0779356180212333   -0.0019428877873606692
-0.020816065109956098   -0.06653198466367737   -0.001620178763398042
-0.014411799407255508   -0.06679585170991653   -0.0015962919525170525
-0.0186217728042716   -0.07777329743813123   -0.002195261778379691
-0.013165711041261624   -0.0779356180212333   -0.0019428877873606692
-0.014450685885396247   -0.06671189603128774   -0.0015162364097317796
-0.01857609593569284   -0.07771406144309281   -0.0020323327681294676
-0.013163031327377533   -0.07789561230156171   -0.0018428209060503725
-0.014450685885396247   -0.06671189603128774   -0.0015162364097317796
-0.020816065109956098   -0.06653198466367737   -0.001620178763398042
-0.01857609593569284   -0.07771406144309281   -0.0020323327681294676
-0.02083078392910173   -0.06650146008056117   -0.0014774122921564856
-0.013163031327377533   -0.07789561230156171   -0.0018428209060503725
-0.018545536585626018   -0.07769762534317638   -0.001858667737027159
-0.02083078392910173   -0.06650146008056117   -0.0014774122921564856
-0.01857609593569284   -0.07771406144309281   -0.0020323327681294676
-0.013163031327377533   -0.07789561230156171   -0.0018428209060503725
-0.02083078392910173   -0.06650146008056117   -0.0014774122921564856
-0.014490694060383533   -0.06665672217763248   -0.0014270097382322368
-0.014450685885396247   -0.06671189603128774   -0.0015162364097317796
-0.013163031327377533   -0.07789561230156171   -0.0018428209060503725
-0.02083078392910173   -0.06650146008056117   -0.0014774122921564856
-0.014450685885396247   -0.06671189603128774   -0.0015162364097317796
-0.01857609593569284   -0.07771406144309281   -0.0020323327681294676
-0.01862811416443232   -0.07787122429658967   -0.002349493509792539
-0.020771966443054506   -0.06668286393537154   -0.00187784017495885
-0.024729960860743035   -0.0775082420402382   -0.002562687930376168
-0.0186217728042716   -0.07777329743813123   -0.002195261778379691
-0.020771966443054506   -0.06668286393537154   -0.00187784017495885
-0.027758353953834025   -0.06638689055889785   -0.0020580209250753603
-0.024729960860743035   -0.0775082420402382   -0.002562687930376168
-0.0276254432719801   -0.06630560494069888   -0.0018760849653567872
-0.0186217728042716   -0.07777329743813123   -0.002195261778379691
-0.02450256983909793   -0.07741220810255846   -0.002326833132406457
-0.0276254432719801   -0.06630560494069888   -0.0018760849653567872
-0.024729960860743035   -0.0775082420402382   -0.002562687930376168
-0.0186217728042716   -0.07777329743813123   -0.002195261778379691
-0.0276254432719801   -0.06630560494069888   -0.0018760849653567872
-0.02081084084693223   -0.06659387411722706   -0.0017530805877503464
-0.020771966443054506   -0.06668286393537154   -0.00187784017495885
-0.0186217728042716   -0.07777329743813123   -0.002195261778379691
-0.0276254432719801   -0.06630560494069888   -0.0018760849653567872
-0.020771966443054506   -0.06668286393537154   -0.00187784017495885
-0.024729960860743035   -0.0775082420402382   -0.002562687930376168
-0.0186217728042716   -0.07777329743813123   -0.002195261778379691
-0.02081084084693223   -0.06659387411722706   -0.0017530805877503464
-0.02450256983909793   -0.07741220810255846   -0.002326833132406457
-0.01857609593569284   -0.07771406144309281   -0.0020323327681294676
-0.02081084084693223   -0.06659387411722706   -0.0017530805877503464
-0.0276254432719801   -0.06630560494069888   -0.0018760849653567872
-0.02450256983909793   -0.07741220810255846   -0.002326833132406457
-0.027513339929685653   -0.06625306601122136   -0.0016799389495860716
-0.01857609593569284   -0.07771406144309281   -0.0020323327681294676
-0.024307994388312142   -0.07736035634241806   -0.0020763698045863825
-0.027513339929685653   -0.06625306601122136   -0.0016799389495860716
-0.02450256983909793   -0.07741220810255846   -0.002326833132406457
-0.01857609593569284   -0.07771406144309281   -0.0020323327681294676
-0.027513339929685653   -0.06625306601122136   -0.0016799389495860716
-0.020816065109956098   -0.06653198466367737   -0.001620178763398042
-0.02081084084693223   -0.06659387411722706   -0.0017530805877503464
-0.01857609593569284   -0.07771406144309281   -0.0020323327681294676
-0.027513339929685653   -0.06625306601122136   -0.0016799389495860716
-0.02081084084693223   -0.06659387411722706   -0.0017530805877503464
-0.02450256983909793   -0.07741220810255846   -0.002326833132406457
-0.01857609593569284   -0.07771406144309281   -0.0020323327681294676
-0.020816065109956098   -0.06653198466367737   -0.001620178763398042
-0.024307994388312142   -0.07736035634241806   -0.0020763698045863825
-0.018545536585626018   -0.07769762534317638   -0.001858667737027159
-0.020816065109956098   -0.06653198466367737   -0.001620178763398042
-0.027513339929685653   -0.06625306601122136   -0.0016799389495860716
-0.024307994388312142   -0.07736035634241806   -0.0020763698045863825
-0.027328090549430598   -0.06625386761086945   -0.001471352535056672
-0.018545536585626018   -0.07769762534317638   -0.001858667737027159
-0.024027042929423224   -0.07737643115968036   -0.001813295682542003
-0.027328090549430598   -0.06625386761086945   -0.001471352535056672
-0.024307994388312142   -0.07736035634241806   -0.0020763698045863825
-0.018545536585626018   -0.07769762534317638   -0.001858667737027159
-0.027328090549430598   -0.06625386761086945   -0.001471352535056672
-0.02083078392910173   -0.06650146008056117   -0.0014774122921564856
-0.020816065109956098   -0.06653198466367737   -0.001620178763398042
-0.018545536585626018   -0.07769762534317638   -0.001858667737027159
-0.027328090549430598   -0.06625386761086945   -0.001471352535056672
-0.020816065109956098   -0.06653198466367737   -0.001620178763398042
-0.024307994388312142   -0.07736035634241806   -0.0020763698045863825
0.004901376656777305   -0.06700798661682518   -0.0007619110359353953
0.005885689330483255   -0.05453438875650005   -0.00038760491063802457
-0.001740721086936386   -0.06707573582538366   -0.0011196065636956815
0.0049652358885157195   -0.0668173860840782   -0.0008698605826366628
0.005885689330483255   -0.05453438875650005   -0.00038760491063802457
-0.0014845817750410418   -0.05453238318465719   -0.0007194020656829329
-0.001740721086936386   -0.06707573582538366   -0.0011196065636956815
-0.001550835859012062   -0.054373598477117896   -0.0007240972556607903
0.0049652358885157195   -0.0668173860840782   -0.0008698605826366628
-0.0017722160431083555   -0.06691162172910017   -0.0011561155234010763
-0.001550835859012062   -0.054373598477117896   -0.0007240972556607903
-0.001740721086936386   -0.06707573582538366   -0.0011196065636956815
0.0049652358885157195   -0.0668173860840782   -0.0008698605826366628
-0.001550835859012062   -0.054373598477117896   -0.0007240972556607903
0.005863667594427697   -0.05435188885144896   -0.00043908974091786426
0.005885689330483255   -0.05453438875650005   -0.00038760491063802457
0.0049652358885157195   -0.0668173860840782   -0.0008698605826366628
-0.001550835859012062   -0.054373598477117896   -0.0007240972556607903
0.005885689330483255   -0.05453438875650005   -0.00038760491063802457
-0.001740721086936386   -0.06707573582538366   -0.0011196065636956815
0.0049652358885157195   -0.0668173860840782   -0.0008698605826366628
0.005863667594427697   -0.05435188885144896   -0.00043908974091786426
-0.0017722160431083555   -0.06691162172910017   -0.0011561155234010763
0.0049842891526160355   -0.06667817604169121   -0.0009640243930001451
0.005863667594427697   -0.05435188885144896   -0.00043908974091786426
-0.001550835859012062   -0.054373598477117896   -0.0007240972556607903
-0.0017722160431083555   -0.06691162172910017   -0.0011561155234010763
-0.001624449914009512   -0.05423670161396371   -0.0007205173453463152
0.0049842891526160355   -0.06667817604169121   -0.0009640243930001451
-0.001805346692656775   -0.06678154565664764   -0.0011832780410700296
-0.001624449914009512   -0.05423670161396371   -0.0007205173453463152
-0.0017722160431083555   -0.06691162172910017   -0.0011561155234010763
0.0049842891526160355   -0.06667817604169121   -0.0009640243930001451
-0.001624449914009512   -0.05423670161396371   -0.0007205173453463152
0.00581003600526131   -0.05420474372977938   -0.0004773111379576441
0.005863667594427697   -0.05435188885144896   -0.00043908974091786426
0.0049842891526160355   -0.06667817604169121   -0.0009640243930001451
-0.001624449914009512   -0.05423670161396371   -0.0007205173453463152
0.005863667594427697   -0.05435188885144896   -0.00043908974091786426
-0.0017722160431083555   -0.06691162172910017   -0.0011561155234010763
0.0049842891526160355   -0.06667817604169121   -0.0009640243930001451
0.00581003600526131   -0.05420474372977938   -0.0004773111379576441
-0.001805346692656775   -0.06678154565664764   -0.0011832780410700296
0.0049945959511077205   -0.06656594524718837   -0.0010450532840046666
0.00581003600526131   -0.05420474372977938   -0.0004773111379576441
-0.001624449914009512   -0.05423670161396371   -0.0007205173453463152
-0.001805346692656775   -0.06678154565664764   -0.0011832780410700296
-0.0017157005013139646   -0.05411816485531972   -0.0007083361051357215
0.0049945959511077205   -0.06656594524718837   -0.0010450532840046666
-0.0018615352017459104   -0.06668144080366366   -0.0012014108443268601
-0.0017157005013139646   -0.05411816485531972   -0.0007083361051357215
-0.001805346692656775   -0.06678154565664764   -0.0011832780410700296
0.0049945959511077205   -0.06656594524718837   -0.0010450532840046666
-0.0017157005013139646   -0.05411816485531972   -0.0007083361051357215
0.005735271375524028   -0.054069092313659334   -0.0005031952298346602
0.00581003600526131   -0.05420474372977938   -0.0004773111379576441
0.0049945959511077205   -0.06656594524718837   -0.0010450532840046666
-0.0017157005013139646   -0.05411816485531972   -0.0007083361051357215
0.00581003600526131   -0.05420474372977938   -0.0004773111379576441
-0.001805346692656775   -0.06678154565664764   -0.0011832780410700296
-0.001740721086936386   -0.06707573582538366   -0.0011196065636956815
-0.0014845817750410418   -0.05453238318465719   -0.0007194020656829329
-0.008106700047481442   -0.06704054727322895   -0.0014144619921581396
-0.0017722160431083555   -0.06691162172910017   -0.0011561155234010763
-0.0014845817750410418   -0.05453238318465719   -0.0007194020656829329
-0.008514167941678981   -0.05446565726557584   -0.0009935877651783176
-0.008106700047481442   -0.06704054727322895   -0.0014144619921581396
-0.008588197455067451   -0.054333701770937375   -0.000964766738394787
-0.0017722160431083555   -0.06691162172910017   -0.0011561155234010763
-0.008150208740179734   -0.0669032754101176   -0.0013972881020538378
-0.008588197455067451   -0.054333701770937375   -0.000964766738394787
-0.008106700047481442   -0.06704054727322895   -0.0014144619921581396
-0.0017722160431083555   -0.06691162172910017   -0.0011561155234010763
-0.008588197455067451   -0.054333701770937375   -0.000964766738394787
-0.001550835859012062   -0.054373598477117896   -0.0007240972556607903
-0.0014845817750410418   -0.05453238318465719   -0.0007194020656829329
-0.0017722160431083555   -0.06691162172910017   -0.0011561155234010763
-0.008588197455067451   -0.054333701770937375   -0.000964766738394787
-0.0014845817750410418   -0.05453238318465719   -0.0007194020656829329
-0.008106700047481442   -0.06704054727322895   -0.0014144619921581396
-0.0017722160431083555   -0.06691162172910017   -0.0011561155234010763
-0.001550835859012062   -0.054373598477117896   -0.0007240972556607903
-0.008150208740179734   -0.0669032754101176   -0.0013972881020538378
-0.001805346692656775   -0.06678154565664764   -0.0011832780410700296
-0.001550835859012062   -0.054373598477117896   -0.0007240972556607903
-0.008588197455067451   -0.054333701770937375   -0.000964766738394787
-0.008150208740179734   -0.0669032754101176   -0.0013972881020538378
-0.008663708119138847   -0.05421956537674767   -0.0009273292191848648
-0.001805346692656775   -0.06678154565664764   -0.0011832780410700296
-0.008194313317247771   -0.06679518435234884   -0.0013704953481736358
-0.008663708119138847   -0.05421956537674767   -0.0009273292191848648
-0.008150208740179734   -0.0669032754101176   -0.0013972881020538378
-0.001805346692656775   -0.06678154565664764   -0.0011832780410700296
-0.008663708119138847   -0.05421956537674767   -0.0009273292191848648
-0.001624449914009512   -0.05423670161396371   -0.0007205173453463152
-0.001550835859012062   -0.054373598477117896   -0.0007240972556607903
-0.001805346692656775   -0.06678154565664764   -0.0011832780410700296
-0.008663708119138847   -0.05421956537674767   -0.0009273292191848648
-0.001550835859012062   -0.054373598477117896   -0.0007240972556607903
-0.008150208740179734   -0.0669032754101176   -0.0013972881020538378
-0.001805346692656775   -0.06678154565664764   -0.0011832780410700296
-0.001624449914009512   -0.05423670161396371   -0.0007205173453463152
-0.008194313317247771   -0.06679518435234884   -0.0013704953481736358
-0.0018615352017459104   -0.06668144080366366   -0.0012014108443268601
-0.001624449914009512   -0.05423670161396371   -0.0007205173453463152
-0.008663708119138847   -0.05421956537674767   -0.0009273292191848648
-0.008194313317247771   -0.06679518435234884   -0.0013704953481736358
-0.008745584873558965   -0.0541243158882869   -0.000881675413753517
-0.0018615352017459104   -0.06668144080366366   -0.0012014108443268601
-0.00824525936596616   -0.06671677123915601   -0.0013345435868249494
-0.008745584873558965   -0.0541243158882869   -0.000881675413753517
-0.008194313317247771   -0.06679518435234884   -0.0013704953481736358
-0.0018615352017459104   -0.06668144080366366   -0.0012014108443268601
-0.008745584873558965   -0.0541243158882869   -0.000881675413753517
-0.0017157005013139646   -0.05411816485531972   -0.0007083361051357215
-0.001624449914009512   -0.05423670161396371   -0.0007205173453463152
-0.0018615352017459104   -0.06668144080366366   -0.0012014108443268601
-0.008745584873558965   -0.0541243158882869   -0.000881675413753517
-0.001624449914009512   -0.05423670161396371   -0.0007205173453463152
-0.008194313317247771   -0.06679518435234884   -0.0013704953481736358
-0.008106700047481442   -0.06704054727322895   -0.0014144619921581396
-0.008514167941678981   -0.05446565726557584   -0.0009935877651783176
-0.014364896850902217   -0.06690870887100057   -0.0016668968852037096
-0.008150208740179734   -0.0669032754101176   -0.0013972881020538378
-0.008514167941678981   -0.05446565726557584   -0.0009935877651783176
-0.015424876839433777   -0.05434144929210836   -0.0012250966274998131
-0.014364896850902217   -0.06690870887100057   -0.0016668968852037096
-0.015501050999687052   -0.054234251697211106   -0.0011628085199605971
-0.008150208740179734   -0.0669032754101176   -0.0013972881020538378
-0.014411799407255508   -0.06679585170991653   -0.0015962919525170525
-0.015501050999687052   -0.054234251697211106   -0.0011628085199605971
-0.014364896850902217   -0.06690870887100057   -0.0016668968852037096
-0.008150208740179734   -0.0669032754101176   -0.0013972881020538378
-0.015501050999687052   -0.054234251697211106   -0.0011628085199605971
-0.008588197455067451   -0.054333701770937375   -0.000964766738394787
-0.008514167941678981   -0.05446565726557584   -0.0009935877651783176
-0.008150208740179734   -0.0669032754101176   -0.0013972881020538378
-0.015501050999687052   -0.054234251697211106   -0.0011628085199605971
-0.008514167941678981   -0.05446565726557584   -0.0009935877651783176
-0.014364896850902217   -0.06690870887100057   -0.0016668968852037096
-0.008150208740179734   -0.0669032754101176   -0.0013972881020538378
-0.008588197455067451   -0.054333701770937375   -0.000964766738394787
-0.014411799407255508   -0.06679585170991653   -0.0015962919525170525
-0.008194313317247771   -0.06679518435234884   -0.0013704953481736358
-0.008588197455067451   -0.054333701770937375   -0.000964766738394787
-0.015501050999687052   -0.054234251697211106   -0.0011628085199605971
-0.014411799407255508   -0.06679585170991653   -0.0015962919525170525
-0.01557017377644699   -0.05414474711997243   -0.0010921035155842978
-0.008194313317247771   -0.06679518435234884   -0.0013704953481736358
-0.014450685885396247   -0.06671189603128774   -0.0015162364097317796
-0.01557017377644699   -0.05414474711997243   -0.0010921035155842978
-0.014411799407255508   -0.06679585170991653   -0.0015962919525170525
-0.008194313317247771   -0.06679518435234884   -0.0013704953481736358
-0.01557017377644699   -0.05414474711997243   -0.0010921035155842978
-0.008663708119138847   -0.05421956537674767   -0.0009273292191848648
-0.008588197455067451   -0.054333701770937375   -0.000964766738394787
-0.008194313317247771   -0.06679518435234884   -0.0013704953481736358
-0.01557017377644699   -0.05414474711997243   -0.0010921035155842978
-0.008588197455067451   -0.054333701770937375   -0.000964766738394787
-0.014411799407255508   -0.06679585170991653   -0.0015962919525170525
-0.008194313317247771   -0.06679518435234884   -0.0013704953481736358
-0.008663708119138847   -0.05421956537674767   -0.0009273292191848648
-0.014450685885396247   -0.06671189603128774   -0.0015162364097317796
-0.00824525936596616   -0.06671677123915601   -0.0013345435868249494
-0.008663708119138847   -0.05421956537674767   -0.0009273292191848648
-0.01557017377644699   -0.05414474711997243   -0.0010921035155842978
-0.014450685885396247   -0.06671189603128774   -0.0015162364097317796
-0.015639949392307815   -0.05407308945031884   -0.0010133040076418264
-0.00824525936596616   -0.06671677123915601   -0.0013345435868249494
-0.014490694060383533   -0.06665672217763248   -0.0014270097382322368
-0.015639949392307815   -0.05407308945031884   -0.0010133040076418264
-0.014450685885396247   -0.06671189603128774   -0.0015162364097317796
-0.00824525936596616   -0.06671677123915601   -0.0013345435868249494
-0.015639949392307815   -0.05407308945031884   -0.0010133040076418264
-0.008745584873558965   -0.0541243158882869   -0.000881675413753517
-0.008663708119138847   -0.05421956537674767   -0.0009273292191848648
-0.00824525936596616   -0.06671677123915601   -0.0013345435868249494
-0.015639949392307815   -0.05407308945031884   -0.0010133040076418264
-0.008663708119138847   -0.05421956537674767   -0.0009273292191848648
-0.014450685885396247   -0.06671189603128774   -0.0015162364097317796
-0.014364896850902217   -0.06690870887100057   -0.0016668968852037096
-0.015424876839433777   -0.05434144929210836   -0.0012250966274998131
-0.020771966443054506   -0.06668286393537154   -0.00187784017495885
-0.014411799407255508   -0.06679585170991653   -0.0015962919525170525
-0.015424876839433777   -0.05434144929210836   -0.0012250966274998131
-0.022472373747556187   -0.05415711106206454   -0.0014144256942398837
-0.020771966443054506   -0.06668286393537154   -0.00187784017495885
-0.0225431391707936   -0.054074892479309224   -0.0013184167022961429
-0.014411799407255508   -0.06679585170991653   -0.0015962919525170525
-0.02081084084693223   -0.06659387411722706   -0.0017530805877503464
-0.0225431391707936   -0.054074892479309224   -0.0013184167022961429
-0.020771966443054506   -0.06668286393537154   -0.00187784017495885
-0.014411799407255508   -0.06679585170991653   -0.0015962919525170525
-0.0225431391707936   -0.054074892479309224   -0.0013184167022961429
-0.015501050999687052   -0.054234251697211106   -0.0011628085199605971
-0.015424876839433777   -0.05434144929210836   -0.0012250966274998131
-0.014411799407255508   -0.06679585170991653   -0.0015962919525170525
-0.0225431391707936   -0.054074892479309224   -0.0013184167022961429
-0.015424876839433777   -0.05434144929210836   -0.0012250966274998131
-0.020771966443054506   -0.06668286393537154   -0.00187784017495885
-0.014411799407255508   -0.06679585170991653   -0.0015962919525170525
-0.015501050999687052   -0.054234251697211106   -0.0011628085199605971
-0.02081084084693223   -0.06659387411722706   -0.0017530805877503464
-0.014450685885396247   -0.06671189603128774   -0.0015162364097317796
-0.015501050999687052   -0.054234251697211106   -0.0011628085199605971
-0.0225431391707936   -0.054074892479309224   -0.0013184167022961429
-0.02081084084693223   -0.06659387411722706   -0.0017530805877503464
-0.02258614874584691   -0.05400808148089195   -0.001215129846557681
-0.014450685885396247   -0.06671189603128774   -0.0015162364097317796
-0.020816065109956098   -0.06653198466367737   -0.001620178763398042
-0.02258614874584691   -0.05400808148089195   -0.001215129846557681
-0.02081084084693223   -0.06659387411722706   -0.0017530805877503464
-0.014450685885396247   -0.06671189603128774   -0.0015162364097317796
-0.02258614874584691   -0.05400808148089195   -0.001215129846557681
-0.01557017377644699   -0.05414474711997243   -0.0010921035155842978
-0.015501050999687052   -0.054234251697211106   -0.0011628085199605971
-0.014450685885396247   -0.06671189603128774   -0.0015162364097317796
-0.02258614874584691   -0.05400808148089195   -0.001215129846557681
-0.015501050999687052   -0.054234251697211106   -0.0011628085199605971
-0.02081084084693223   -0.06659387411722706   -0.0017530805877503464
-0.014450685885396247   -0.06671189603128774   -0.0015162364097317796
-0.01557017377644699   -0.05414474711997243   -0.0010921035155842978
-0.020816065109956098   -0.06653198466367737   -0.001620178763398042
-0.014490694060383533   -0.06665672217763248   -0.0014270097382322368
-0.01557017377644699   -0.05414474711997243   -0.0010921035155842978
-0.02258614874584691   -0.05400808148089195   -0.001215129846557681
-0.020816065109956098   -0.06653198466367737   -0.001620178763398042
-0.022633313955584444   -0.053960658086468   -0.001103058767060793
-0.014490694060383533   -0.06665672217763248   -0.0014270097382322368
-0.02083078392910173   -0.06650146008056117   -0.0014774122921564856
-0.022633313955584444   -0.053960658086468   -0.001103058767060793
-0.020816065109956098   -0.06653198466367737   -0.001620178763398042
-0.014490694060383533   -0.06665672217763248   -0.0014270097382322368
-0.022633313955584444   -0.053960658086468   -0.001103058767060793
-0.015639949392307815   -0.05407308945031884   -0.0010133040076418264
-0.01557017377644699   -0.05414474711997243   -0.0010921035155842978
-0.014490694060383533   -0.06665672217763248   -0.0014270097382322368
-0.022633313955584444   -0.053960658086468   -0.001103058767060793
-0.01557017377644699   -0.05414474711997243   -0.0010921035155842978
-0.020816065109956098   -0.06653198466367737   -0.001620178763398042
-0.020771966443054506   -0.06668286393537154   -0.00187784017495885
-0.022472373747556187   -0.05415711106206454   -0.0014144256942398837
-0.027758353953834025   -0.06638689055889785   -0.0020580209250753603
-0.02081084084693223   -0.06659387411722706   -0.0017530805877503464
-0.022472373747556187   -0.05415711106206454   -0.0014144256942398837
-0.030035441921427267   -0.05393059063645555   -0.0015650846097945794
-0.027758353953834025   -0.06638689055889785   -0.0020580209250753603
-0.029984247955226362   -0.05386120472925682   -0.0014373364114594468
-0.02081084084693223   -0.06659387411722706   -0.0017530805877503464
-0.0276254432719801   -0.06630560494069888   -0.0018760849653567872
-0.029984247955226362   -0.05386120472925682   -0.0014373364114594468
-0.027758353953834025   -0.06638689055889785   -0.0020580209250753603
-0.02081084084693223   -0.06659387411722706   -0.0017530805877503464
-0.029984247955226362   -0.05386120472925682   -0.0014373364114594468
-0.0225431391707936   -0.054074892479309224   -0.0013184167022961429
-0.022472373747556187   -0.05415711106206454   -0.0014144256942398837
-0.02081084084693223   -0.06659387411722706   -0.0017530805877503464
-0.029984247955226362   -0.05386120472925682   -0.0014373364114594468
-0.022472373747556187   -0.05415711106206454   -0.0014144256942398837
-0.027758353953834025   -0.06638689055889785   -0.0020580209250753603
-0.02081084084693223   -0.06659387411722706   -0.0017530805877503464
-0.0225431391707936   -0.054074892479309224   -0.0013184167022961429
-0.0276254432719801   -0.06630560494069888   -0.0018760849653567872
-0.020816065109956098   -0.06653198466367737   -0.001620178763398042
-0.0225431391707936   -0.054074892479309224   -0.0013184167022961429
-0.029984247955226362   -0.05386120472925682   -0.0014373364114594468
-0.0276254432719801   -0.06630560494069888   -0.0018760849653567872
-0.029942540461217807   -0.05380508144005565   -0.001296234294719274
-0.020816065109956098   -0.06653198466367737   -0.001620178763398042
-0.027513339929685653   -0.06625306601122136   -0.0016799389495860716
-0.029942540461217807   -0.05380508144005565   -0.001296234294719274
-0.0276254432719801   -0.06630560494069888   -0.0018760849653567872
-0.020816065109956098   -0.06653198466367737   -0.001620178763398042
-0.029942540461217807   -0.05380508144005565   -0.001296234294719274
-0.02258614874584691   -0.05400808148089195   -0.001215129846557681
-0.0225431391707936   -0.054074892479309224   -0.0013184167022961429
-0.020816065109956098   -0.06653198466367737   -0.001620178763398042
-0.029942540461217807   -0.05380508144005565   -0.001296234294719274
-0.0225431391707936   -0.054074892479309224   -0.0013184167022961429
-0.0276254432719801   -0.06630560494069888   -0.0018760849653567872
-0.020816065109956098   -0.06653198466367737   -0.001620178763398042
-0.02258614874584691   -0.05400808148089195   -0.001215129846557681
-0.027513339929685653   -0.06625306601122136   -0.0016799389495860716
-0.02083078392910173   -0.06650146008056117   -0.0014774122921564856
-0.02258614874584691   -0.05400808148089195   -0.001215129846557681
-0.029942540461217807   -0.05380508144005565   -0.001296234294719274
-0.027513339929685653   -0.06625306601122136   -0.0016799389495860716
-0.02984158684303288   -0.05378667171304764   -0.0011433024191360407
-0.02083078392910173   -0.06650146008056117   -0.0014774122921564856
-0.027328090549430598   -0.06625386761086945   -0.001471352535056672
-0.02984158684303288   -0.05378667171304764   -0.0011433024191360407
-0.027513339929685653   -0.06625306601122136   -0.0016799389495860716
-0.02083078392910173   -0.06650146008056117   -0.0014774122921564856
-0.02984158684303288   -0.05378667171304764   -0.0011433024191360407
-0.022633313955584444   -0.053960658086468   -0.001103058767060793
-0.02258614874584691   -0.05400808148089195   -0.001215129846557681
-0.02083078392910173   -0.06650146008056117   -0.0014774122921564856
-0.02984158684303288   -0.05378667171304764   -0.0011433024191360407
-0.02258614874584691   -0.05400808148089195   -0.001215129846557681
-0.027513339929685653   -0.06625306601122136   -0.0016799389495860716
0.005885689330483255   -0.05453438875650005   -0.00038760491063802457
0.006077506864645523   -0.04120515392699223   -5.9691048731899844e-05
-0.0014845817750410418   -0.05453238318465719   -0.0007194020656829329
0.005863667594427697   -0.05435188885144896   -0.00043908974091786426
0.006077506864645523   -0.04120515392699223   -5.9691048731899844e-05
-0.0017078138826383301   -0.04113625852856284   -0.00035820102853904623
-0.0014845817750410418   -0.05453238318465719   -0.0007194020656829329
-0.0017986021399761347   -0.040984225422709804   -0.00033113692775759877
0.005863667594427697   -0.05435188885144896   -0.00043908974091786426
-0.001550835859012062   -0.054373598477117896   -0.0007240972556607903
-0.0017986021399761347   -0.040984225422709804   -0.00033113692775759877
-0.0014845817750410418   -0.05453238318465719   -0.0007194020656829329
0.005863667594427697   -0.05435188885144896   -0.00043908974091786426
-0.0017986021399761347   -0.040984225422709804   -0.00033113692775759877
0.005980749610689685   -0.04103100095976862   -5.379657111159556e-05
0.006077506864645523   -0.04120515392699223   -5.9691048731899844e-05
0.005863667594427697   -0.05435188885144896   -0.00043908974091786426
-0.0017986021399761347   -0.040984225422709804   -0.00033113692775759877
0.006077506864645523   -0.04120515392699223   -5.9691048731899844e-05
-0.0014845817750410418   -0.05453238318465719   -0.0007194020656829329
0.005863667594427697   -0.05435188885144896   -0.00043908974091786426
0.005980749610689685   -0.04103100095976862   -5.379657111159556e-05
-0.001550835859012062   -0.054373598477117896   -0.0007240972556607903
0.00581003600526131   -0.05420474372977938   -0.0004773111379576441
0.005980749610689685   -0.04103100095976862   -5.379657111159556e-05
-0.0017986021399761347   -0.040984225422709804   -0.00033113692775759877
-0.001550835859012062   -0.054373598477117896   -0.0007240972556607903
-0.0019025097630297693   -0.04084056780546934   -0.00029658081995064293
0.00581003600526131   -0.05420474372977938   -0.0004773111379576441
-0.001624449914009512   -0.05423670161396371   -0.0007205173453463152
-0.0019025097630297693   -0.04084056780546934   -0.00029658081995064293
-0.001550835859012062   -0.054373598477117896   -0.0007240972556607903
0.00581003600526131   -0.05420474372977938   -0.0004773111379576441
-0.0019025097630297693   -0.04084056780546934   -0.00029658081995064293
0.005862303215608474   -0.04087513381726823   -3.258604667994651e-05
0.005980749610689685   -0.04103100095976862   -5.379657111159556e-05
0.00581003600526131   -0.05420474372977938   -0.0004773111379576441
-0.0019025097630297693   -0.04084056780546934   -0.00029658081995064293
0.005980749610689685   -0.04103100095976862   -5.379657111159556e-05
-0.001550835859012062   -0.054373598477117896   -0.0007240972556607903
0.00581003600526131   -0.05420474372977938   -0.0004773111379576441
0.005862303215608474   -0.04087513381726823   -3.258604667994651e-05
-0.001624449914009512   -0.05423670161396371   -0.0007205173453463152
0.005735271375524028   -0.054069092313659334   -0.0005031952298346602
0.005862303215608474   -0.04087513381726823   -3.258604667994651e-05
-0.0019025097630297693   -0.04084056780546934   -0.00029658081995064293
-0.001624449914009512   -0.05423670161396371   -0.0007205173453463152
-0.0020190548585764224   -0.040703328056272935   -0.0002526531202102366
0.005735271375524028   -0.054069092313659334   -0.0005031952298346602
-0.0017157005013139646   -0.05411816485531972   -0.0007083361051357215
-0.0020190548585764224   -0.040703328056272935   -0.0002526531202102366
-0.001624449914009512   -0.05423670161396371   -0.0007205173453463152
0.005735271375524028   -0.054069092313659334   -0.0005031952298346602
-0.0020190548585764224   -0.040703328056272935   -0.0002526531202102366
0.0057062529838004476   -0.04071196588924679   3.245030934208515e-06
0.005862303215608474   -0.04087513381726823   -3.258604667994651e-05
0.005735271375524028   -0.054069092313659334   -0.0005031952298346602
-0.0020190548585764224   -0.040703328056272935   -0.0002526531202102366
0.005862303215608474   -0.04087513381726823   -3.258604667994651e-05
-0.001624449914009512   -0.05423670161396371   -0.0007205173453463152
-0.0014845817750410418   -0.05453238318465719   -0.0007194020656829329
-0.0017078138826383301   -0.04113625852856284   -0.00035820102853904623
-0.008514167941678981   -0.05446565726557584   -0.0009935877651783176
-0.001550835859012062   -0.054373598477117896   -0.0007240972556607903
-0.0017078138826383301   -0.04113625852856284   -0.00035820102853904623
-0.00908491189422873   -0.04105639897256045   -0.000611181754874726
-0.008514167941678981   -0.05446565726557584   -0.0009935877651783176
-0.009177414586155902   -0.04092908607743106   -0.0005699982108480191
-0.001550835859012062   -0.054373598477117896   -0.0007240972556607903
-0.008588197455067451   -0.054333701770937375   -0.000964766738394787
-0.009177414586155902   -0.04092908607743106   -0.0005699982108480191
-0.008514167941678981   -0.05446565726557584   -0.0009935877651783176
-0.001550835859012062   -0.054373598477117896   -0.0007240972556607903
-0.009177414586155902   -0.04092908607743106   -0.0005699982108480191
-0.0017986021399761347   -0.040984225422709804   -0.00033113692775759877
-0.0017078138826383301   -0.04113625852856284   -0.00035820102853904623
-0.001550835859012062   -0.054373598477117896   -0.0007240972556607903
-0.009177414586155902   -0.04092908607743106   -0.0005699982108480191
-0.0017078138826383301   -0.04113625852856284   -0.00035820102853904623
-0.008514167941678981   -0.05446565726557584   -0.0009935877651783176
-0.001550835859012062   -0.054373598477117896   -0.0007240972556607903
-0.0017986021399761347   -0.040984225422709804   -0.00033113692775759877
-0.008588197455067451   -0.054333701770937375   -0.000964766738394787
-0.001624449914009512   -0.05423670161396371   -0.0007205173453463152
-0.0017986021399761347   -0.040984225422709804   -0.00033113692775759877
-0.009177414586155902   -0.04092908607743106   -0.0005699982108480191
-0.008588197455067451   -0.054333701770937375   -0.000964766738394787
-0.009271975072165052   -0.04080827807508746   -0.0005216814495814375
-0.001624449914009512   -0.05423670161396371   -0.0007205173453463152
-0.008663708119138847   -0.05421956537674767   -0.0009273292191848648
-0.009271975072165052   -0.04080827807508746   -0.0005216814495814375
-0.008588197455067451   -0.054333701770937375   -0.000964766738394787
-0.001624449914009512   -0.05423670161396371   -0.0007205173453463152
-0.009271975072165052   -0.04080827807508746   -0.0005216814495814375
-0.0019025097630297693   -0.04084056780546934   -0.00029658081995064293
-0.0017986021399761347   -0.040984225422709804   -0.00033113692775759877
-0.001624449914009512   -0.05423670161396371   -0.0007205173453463152
-0.009271975072165052   -0.04080827807508746   -0.0005216814495814375
-0.0017986021399761347   -0.040984225422709804   -0.00033113692775759877
-0.008588197455067451   -0.054333701770937375   -0.000964766738394787
-0.001624449914009512   -0.05423670161396371   -0.0007205173453463152
-0.0019025097630297693   -0.04084056780546934   -0.00029658081995064293
-0.008663708119138847   -0.05421956537674767   -0.0009273292191848648
-0.0017157005013139646   -0.05411816485531972   -0.0007083361051357215
-0.0019025097630297693   -0.04084056780546934   -0.00029658081995064293
-0.009271975072165052   -0.04080827807508746   -0.0005216814495814375
-0.008663708119138847   -0.05421956537674767   -0.0009273292191848648
-0.009372527531561753   -0.04069582567279693   -0.0004661493337549988
-0.0017157005013139646   -0.05411816485531972   -0.0007083361051357215
-0.008745584873558965   -0.0541243158882869   -0.000881675413753517
-0.009372527531561753   -0.04069582567279693   -0.0004661493337549988
-0.008663708119138847   -0.05421956537674767   -0.0009273292191848648
-0.0017157005013139646   -0.05411816485531972   -0.0007083361051357215
-0.009372527531561753   -0.04069582567279693   -0.0004661493337549988
-0.0020190548585764224   -0.040703328056272935   -0.0002526531202102366
-0.0019025097630297693   -0.04084056780546934   -0.00029658081995064293
-0.0017157005013139646   -0.05411816485531972   -0.0007083361051357215
-0.009372527531561753   -0.04069582567279693   -0.0004661493337549988
-0.0019025097630297693   -0.04084056780546934   -0.00029658081995064293
-0.008663708119138847   -0.05421956537674767   -0.0009273292191848648
-0.008514167941678981   -0.05446565726557584   -0.0009935877651783176
-0.00908491189422873   -0.04105639897256045   -0.000611181754874726
-0.015424876839433777   -0.05434144929210836   -0.0012250966274998131
-0.008588197455067451   -0.054333701770937375   -0.000964766738394787
-0.00908491189422873   -0.04105639897256045   -0.000611181754874726
-0.016342226271614694   -0.04096083359261489   -0.0008262344595369961
-0.015424876839433777   -0.05434144929210836   -0.0012250966274998131
-0.016434015732628197   -0.04085645308510231   -0.0007709241206085497
-0.008588197455067451   -0.054333701770937375   -0.000964766738394787
-0.015501050999687052   -0.054234251697211106   -0.0011628085199605971
-0.016434015732628197   -0.04085645308510231   -0.0007709241206085497
-0.015424876839433777   -0.05434144929210836   -0.0012250966274998131
-0.008588197455067451   -0.054333701770937375   -0.000964766738394787
-0.016434015732628197   -0.04085645308510231   -0.0007709241206085497
-0.009177414586155902   -0.04092908607743106   -0.0005699982108480191
-0.00908491189422873   -0.04105639897256045   -0.000611181754874726
-0.008588197455067451   -0.054333701770937375   -0.000964766738394787
-0.016434015732628197   -0.04085645308510231   -0.0007709241206085497
-0.00908491189422873   -0.04105639897256045   -0.000611181754874726
-0.015424876839433777   -0.05434144929210836   -0.0012250966274998131
-0.008588197455067451   -0.054333701770937375   -0.000964766738394787
-0.009177414586155902   -0.04092908607743106   -0.0005699982108480191
-0.015501050999687052   -0.054234251697211106   -0.0011628085199605971
-0.008663708119138847   -0.05421956537674767   -0.0009273292191848648
-0.009177414586155902   -0.04092908607743106   -0.0005699982108480191
-0.016434015732628197   -0.04085645308510231   -0.0007709241206085497
-0.015501050999687052   -0.054234251697211106   -0.0011628085199605971
-0.01651987887129724   -0.040758954884186606   -0.0007087247669142978
-0.008663708119138847   -0.05421956537674767   -0.0009273292191848648
-0.01557017377644699   -0.05414474711997243   -0.0010921035155842978
-0.01651987887129724   -0.040758954884186606   -0.0007087247669142978
-0.015501050999687052   -0.054234251697211106   -0.0011628085199605971
-0.008663708119138847   -0.05421956537674767   -0.0009273292191848648
-0.01651987887129724   -0.040758954884186606   -0.0007087247669142978
-0.009271975072165052   -0.04080827807508746   -0.0005216814495814375
-0.009177414586155902   -0.04092908607743106   -0.0005699982108480191
-0.008663708119138847   -0.05421956537674767   -0.0009273292191848648
-0.01651987887129724   -0.040758954884186606   -0.0007087247669142978
-0.009177414586155902   -0.04092908607743106   -0.0005699982108480191
-0.015501050999687052   -0.054234251697211106   -0.0011628085199605971
-0.008663708119138847   -0.05421956537674767   -0.0009273292191848648
-0.009271975072165052   -0.04080827807508746   -0.0005216814495814375
-0.01557017377644699   -0.05414474711997243   -0.0010921035155842978
-0.008745584873558965   -0.0541243158882869   -0.000881675413753517
-0.009271975072165052   -0.04080827807508746   -0.0005216814495814375
-0.01651987887129724   -0.040758954884186606   -0.0007087247669142978
-0.01557017377644699   -0.05414474711997243   -0.0010921035155842978
-0.016606048730083426   -0.04066861225037972   -0.0006399791226559428
-0.008745584873558965   -0.0541243158882869   -0.000881675413753517
-0.015639949392307815   -0.05407308945031884   -0.0010133040076418264
-0.016606048730083426   -0.04066861225037972   -0.0006399791226559428
-0.01557017377644699   -0.05414474711997243   -0.0010921035155842978
-0.008745584873558965   -0.0541243158882869   -0.000881675413753517
-0.016606048730083426   -0.04066861225037972   -0.0006399791226559428
-0.009372527531561753   -0.04069582567279693   -0.0004661493337549988
-0.009271975072165052   -0.04080827807508746   -0.0005216814495814375
-0.008745584873558965   -0.0541243158882869   -0.000881675413753517
-0.016606048730083426   -0.04066861225037972   -0.0006399791226559428
-0.009271975072165052   -0.04080827807508746   -0.0005216814495814375
-0.01557017377644699   -0.05414474711997243   -0.0010921035155842978
-0.015424876839433777   -0.05434144929210836   -0.0012250966274998131
-0.016342226271614694   -0.04096083359261489   -0.0008262344595369961
-0.022472373747556187   -0.05415711106206454   -0.0014144256942398837
-0.015501050999687052   -0.054234251697211106   -0.0011628085199605971
-0.016342226271614694   -0.04096083359261489   -0.0008262344595369961
-0.02373048816597422   -0.04083176947531383   -0.0010015245535242945
-0.022472373747556187   -0.05415711106206454   -0.0014144256942398837
-0.02381840469778074   -0.040751518722674566   -0.000932254423705223
-0.015501050999687052   -0.054234251697211106   -0.0011628085199605971
-0.0225431391707936   -0.054074892479309224   -0.0013184167022961429
-0.02381840469778074   -0.040751518722674566   -0.000932254423705223
-0.022472373747556187   -0.05415711106206454   -0.0014144256942398837
-0.015501050999687052   -0.054234251697211106   -0.0011628085199605971
-0.02381840469778074   -0.040751518722674566   -0.000932254423705223
-0.016434015732628197   -0.04085645308510231   -0.0007709241206085497
-0.016342226271614694   -0.04096083359261489   -0.0008262344595369961
-0.015501050999687052   -0.054234251697211106   -0.0011628085199605971
-0.02381840469778074   -0.040751518722674566   -0.000932254423705223
-0.016342226271614694   -0.04096083359261489   -0.0008262344595369961
-0.022472373747556187   -0.05415711106206454   -0.0014144256942398837
-0.015501050999687052   -0.054234251697211106   -0.0011628085199605971
-0.016434015732628197   -0.04085645308510231   -0.0007709241206085497
-0.0225431391707936   -0.054074892479309224   -0.0013184167022961429
-0.01557017377644699   -0.05414474711997243   -0.0010921035155842978
-0.016434015732628197   -0.04085645308510231   -0.0007709241206085497
-0.02381840469778074   -0.040751518722674566   -0.000932254423705223
-0.0225431391707936   -0.054074892479309224   -0.0013184167022961429
-0.023885155494170852   -0.04067547440008917   -0.0008572392588835966
-0.01557017377644699   -0.05414474711997243   -0.0010921035155842978
-0.02258614874584691   -0.05400808148089195   -0.001215129846557681
-0.023885155494170852   -0.04067547440008917   -0.0008572392588835966
-0.0225431391707936   -0.054074892479309224   -0.0013184167022961429
-0.01557017377644699   -0.05414474711997243   -0.0010921035155842978
-0.023885155494170852   -0.04067547440008917   -0.0008572392588835966
-0.01651987887129724   -0.040758954884186606   -0.0007087247669142978
-0.016434015732628197   -0.04085645308510231   -0.0007709241206085497
-0.01557017377644699   -0.05414474711997243   -0.0010921035155842978
-0.023885155494170852   -0.04067547440008917   -0.0008572392588835966
-0.016434015732628197   -0.04085645308510231   -0.0007709241206085497
-0.0225431391707936   -0.054074892479309224   -0.0013184167022961429
-0.01557017377644699   -0.05414474711997243   -0.0010921035155842978
-0.01651987887129724   -0.040758954884186606   -0.0007087247669142978
-0.02258614874584691   -0.05400808148089195   -0.001215129846557681
-0.015639949392307815   -0.05407308945031884   -0.0010133040076418264
-0.01651987887129724   -0.040758954884186606   -0.0007087247669142978
-0.023885155494170852   -0.04067547440008917   -0.0008572392588835966
-0.02258614874584691   -0.05400808148089195   -0.001215129846557681
-0.02395136248814718   -0.040606973297009574   -0.0007749739707822841
-0.015639949392307815   -0.05407308945031884   -0.0010133040076418264
-0.022633313955584444   -0.053960658086468   -0.001103058767060793
-0.02395136248814718   -0.040606973297009574   -0.0007749739707822841
-0.02258614874584691   -0.05400808148089195   -0.001215129846557681
-0.015639949392307815   -0.05407308945031884   -0.0010133040076418264
-0.02395136248814718   -0.040606973297009574   -0.0007749739707822841
-0.016606048730083426   -0.04066861225037972   -0.0006399791226559428
-0.01651987887129724   -0.040758954884186606   -0.0007087247669142978
-0.015639949392307815   -0.05407308945031884   -0.0010133040076418264
-0.02395136248814718   -0.040606973297009574   -0.0007749739707822841
-0.01651987887129724   -0.040758954884186606   -0.0007087247669142978
-0.02258614874584691   -0.05400808148089195   -0.001215129846557681
-0.022472373747556187   -0.05415711106206454   -0.0014144256942398837
-0.02373048816597422   -0.04083176947531383   -0.0010015245535242945
-0.030035441921427267   -0.05393059063645555   -0.0015650846097945794
-0.0225431391707936   -0.054074892479309224   -0.0013184167022961429
-0.02373048816597422   -0.04083176947531383   -0.0010015245535242945
-0.03156003829053649   -0.040679511372238665   -0.0011318645687917956
-0.030035441921427267   -0.05393059063645555   -0.0015650846097945794
-0.03157405816414059   -0.04061532067168373   -0.0010555195458578025
-0.0225431391707936   -0.054074892479309224   -0.0013184167022961429
-0.029984247955226362   -0.05386120472925682   -0.0014373364114594468
-0.03157405816414059   -0.04061532067168373   -0.0010555195458578025
-0.030035441921427267   -0.05393059063645555   -0.0015650846097945794
-0.0225431391707936   -0.054074892479309224   -0.0013184167022961429
-0.03157405816414059   -0.04061532067168373   -0.0010555195458578025
-0.02381840469778074   -0.040751518722674566   -0.000932254423705223
-0.02373048816597422   -0.04083176947531383   -0.0010015245535242945
-0.0225431391707936   -0.054074892479309224   -0.0013184167022961429
-0.03157405816414059   -0.04061532067168373   -0.0010555195458578025
-0.02373048816597422   -0.04083176947531383   -0.0010015245535242945
-0.030035441921427267   -0.05393059063645555   -0.0015650846097945794
-0.0225431391707936   -0.054074892479309224   -0.0013184167022961429
-0.02381840469778074   -0.040751518722674566   -0.000932254423705223
-0.029984247955226362   -0.05386120472925682   -0.0014373364114594468
-0.02258614874584691   -0.05400808148089195   -0.001215129846557681
-0.02381840469778074   -0.040751518722674566   -0.000932254423705223
-0.03157405816414059   -0.04061532067168373   -0.0010555195458578025
-0.029984247955226362   -0.05386120472925682   -0.0014373364114594468
-0.031588369171730316   -0.040550292958319724   -0.0009675992118671367
-0.02258614874584691   -0.05400808148089195   -0.001215129846557681
-0.029942540461217807   -0.05380508144005565   -0.001296234294719274
-0.031588369171730316   -0.040550292958319724   -0.0009675992118671367
-0.029984247955226362   -0.05386120472925682   -0.0014373364114594468
-0.02258614874584691   -0.05400808148089195   -0.001215129846557681
-0.031588369171730316   -0.040550292958319724   -0.0009675992118671367
-0.023885155494170852   -0.04067547440008917   -0.0008572392588835966
-0.02381840469778074   -0.040751518722674566   -0.000932254423705223
-0.02258614874584691   -0.05400808148089195   -0.001215129846557681
-0.031588369171730316   -0.040550292958319724   -0.0009675992118671367
-0.02381840469778074   -0.040751518722674566   -0.000932254423705223
-0.029984247955226362   -0.05386120472925682   -0.0014373364114594468
-0.02258614874584691   -0.05400808148089195   -0.001215129846557681
-0.023885155494170852   -0.04067547440008917   -0.0008572392588835966
-0.029942540461217807   -0.05380508144005565   -0.001296234294719274
-0.022633313955584444   -0.053960658086468   -0.001103058767060793
-0.023885155494170852   -0.04067547440008917   -0.0008572392588835966
-0.031588369171730316   -0.040550292958319724   -0.0009675992118671367
-0.029942540461217807   -0.05380508144005565   -0.001296234294719274
-0.03155881139012029   -0.04050702514983952   -0.0008694814386283006
-0.022633313955584444   -0.053960658086468   -0.001103058767060793
-0.02984158684303288   -0.05378667171304764   -0.0011433024191360407
-0.03155881139012029   -0.04050702514983952   -0.0008694814386283006
-0.029942540461217807   -0.05380508144005565   -0.001296234294719274
-0.022633313955584444   -0.053960658086468   -0.001103058767060793
-0.03155881139012029   -0.04050702514983952   -0.0008694814386283006
-0.02395136248814718   -0.040606973297009574   -0.0007749739707822841
-0.023885155494170852   -0.04067547440008917   -0.0008572392588835966
-0.022633313955584444   -0.053960658086468   -0.001103058767060793
-0.03155881139012029   -0.04050702514983952   -0.0008694814386283006
-0.023885155494170852   -0.04067547440008917   -0.0008572392588835966
-0.029942540461217807   -0.05380508144005565   -0.001296234294719274
0.006077506864645523   -0.04120515392699223   -5.9691048731899844e-05
0.005443432770397785   -0.027485567277257296   0.00016657689135362918
-0.0017078138826383301   -0.04113625852856284   -0.00035820102853904623
0.005980749610689685   -0.04103100095976862   -5.379657111159556e-05
0.005443432770397785   -0.027485567277257296   0.00016657689135362918
-0.002396893545805703   -0.027355912845775057   -7.103436466137657e-05
-0.0017078138826383301   -0.04113625852856284   -0.00035820102853904623
-0.002505185565047813   -0.027218175776549076   -1.4793944749174544e-05
0.005980749610689685   -0.04103100095976862   -5.379657111159556e-05
-0.0017986021399761347   -0.040984225422709804   -0.00033113692775759877
-0.002505185565047813   -0.027218175776549076   -1.4793944749174544e-05
-0.0017078138826383301   -0.04113625852856284   -0.00035820102853904623
0.005980749610689685   -0.04103100095976862   -5.379657111159556e-05
-0.002505185565047813   -0.027218175776549076   -1.4793944749174544e-05
0.005272583426016524   -0.027319564999412   0.0002368183190967695
0.005443432770397785   -0.027485567277257296   0.00016657689135362918
0.005980749610689685   -0.04103100095976862   -5.379657111159556e-05
-0.002505185565047813   -0.027218175776549076   -1.4793944749174544e-05
0.005443432770397785   -0.027485567277257296   0.00016657689135362918
-0.0017078138826383301   -0.04113625852856284   -0.00035820102853904623
0.005980749610689685   -0.04103100095976862   -5.379657111159556e-05
0.005272583426016524   -0.027319564999412   0.0002368183190967695
-0.0017986021399761347   -0.040984225422709804   -0.00033113692775759877
0.005862303215608474   -0.04087513381726823   -3.258604667994651e-05
0.005272583426016524   -0.027319564999412   0.0002368183190967695
-0.002505185565047813   -0.027218175776549076   -1.4793944749174544e-05
-0.0017986021399761347   -0.040984225422709804   -0.00033113692775759877
-0.002631819714791299   -0.027072744559133083   5.141390497026914e-05
0.005862303215608474   -0.04087513381726823   -3.258604667994651e-05
-0.0019025097630297693   -0.04084056780546934   -0.00029658081995064293
-0.002631819714791299   -0.027072744559133083   5.141390497026914e-05
-0.0017986021399761347   -0.040984225422709804   -0.00033113692775759877
0.005862303215608474   -0.04087513381726823   -3.258604667994651e-05
-0.002631819714791299   -0.027072744559133083   5.141390497026914e-05
0.005082125966073374   -0.027154556875765738   0.0003374891884921203
0.005272583426016524   -0.027319564999412   0.0002368183190967695
0.005862303215608474   -0.04087513381726823   -3.258604667994651e-05
-0.002631819714791299   -0.027072744559133083   5.141390497026914e-05
0.005272583426016524   -0.027319564999412   0.0002368183190967695
-0.0017986021399761347   -0.040984225422709804   -0.00033113692775759877
0.005862303215608474   -0.04087513381726823   -3.258604667994651e-05
0.005082125966073374   -0.027154556875765738   0.0003374891884921203
-0.0019025097630297693   -0.04084056780546934   -0.00029658081995064293
0.0057062529838004476   -0.04071196588924679   3.245030934208515e-06
0.005082125966073374   -0.027154556875765738   0.0003374891884921203
-0.002631819714791299   -0.027072744559133083   5.141390497026914e-05
-0.0019025097630297693   -0.04084056780546934   -0.00029658081995064293
-0.002762750318402913   -0.026918271861980574   0.00012744837440046086
0.0057062529838004476   -0.04071196588924679   3.245030934208515e-06
-0.0020190548585764224   -0.040703328056272935   -0.0002526531202102366
-0.002762750318402913   -0.026918271861980574   0.00012744837440046086
-0.0019025097630297693   -0.04084056780546934   -0.00029658081995064293
0.0057062529838004476   -0.04071196588924679   3.245030934208515e-06
-0.002762750318402913   -0.026918271861980574   0.00012744837440046086
0.004849435600312448   -0.026951912397563386   0.0004482261105754961
0.005082125966073374   -0.027154556875765738   0.0003374891884921203
0.0057062529838004476   -0.04071196588924679   3.245030934208515e-06
-0.002762750318402913   -0.026918271861980574   0.00012744837440046086
0.005082125966073374   -0.027154556875765738   0.0003374891884921203
-0.0019025097630297693   -0.04084056780546934   -0.00029658081995064293
-0.0017078138826383301   -0.04113625852856284   -0.00035820102853904623
-0.002396893545805703   -0.027355912845775057   -7.103436466137657e-05
-0.00908491189422873   -0.04105639897256045   -0.000611181754874726
-0.0017986021399761347   -0.040984225422709804   -0.00033113692775759877
-0.002396893545805703   -0.027355912845775057   -7.103436466137657e-05
-0.00978073521194934   -0.027322377197011735   -0.00030023336206455185
-0.00908491189422873   -0.04105639897256045   -0.000611181754874726
-0.009878531377599963   -0.027202031959361668   -0.0002480236527266293
-0.0017986021399761347   -0.040984225422709804   -0.00033113692775759877
-0.009177414586155902   -0.04092908607743106   -0.0005699982108480191
-0.009878531377599963   -0.027202031959361668   -0.0002480236527266293
-0.00908491189422873   -0.04105639897256045   -0.000611181754874726
-0.0017986021399761347   -0.040984225422709804   -0.00033113692775759877
-0.009878531377599963   -0.027202031959361668   -0.0002480236527266293
-0.002505185565047813   -0.027218175776549076   -1.4793944749174544e-05
-0.002396893545805703   -0.027355912845775057   -7.103436466137657e-05
-0.0017986021399761347   -0.040984225422709804   -0.00033113692775759877
-0.009878531377599963   -0.027202031959361668   -0.0002480236527266293
-0.002396893545805703   -0.027355912845775057   -7.103436466137657e-05
-0.00908491189422873   -0.04105639897256045   -0.000611181754874726
-0.0017986021399761347   -0.040984225422709804   -0.00033113692775759877
-0.002505185565047813   -0.027218175776549076   -1.4793944749174544e-05
-0.009177414586155902   -0.04092908607743106   -0.0005699982108480191
-0.0019025097630297693   -0.04084056780546934   -0.00029658081995064293
-0.002505185565047813   -0.027218175776549076   -1.4793944749174544e-05
-0.009878531377599963   -0.027202031959361668   -0.0002480236527266293
-0.009177414586155902   -0.04092908607743106   -0.0005699982108480191
-0.009979673556936255   -0.027076826258592233   -0.00019065693603350045
-0.0019025097630297693   -0.04084056780546934   -0.00029658081995064293
-0.009271975072165052   -0.04080827807508746   -0.0005216814495814375
-0.009979673556936255   -0.027076826258592233   -0.00019065693603350045
-0.009177414586155902   -0.04092908607743106   -0.0005699982108480191
-0.0019025097630297693   -0.04084056780546934   -0.00029658081995064293
-0.009979673556936255   -0.027076826258592233   -0.00019065693603350045
-0.002631819714791299   -0.027072744559133083   5.141390497026914e-05
-0.002505185565047813   -0.027218175776549076   -1.4793944749174544e-05
-0.0019025097630297693   -0.04084056780546934   -0.00029658081995064293
-0.009979673556936255   -0.027076826258592233   -0.00019065693603350045
-0.002505185565047813   -0.027218175776549076   -1.4793944749174544e-05
-0.009177414586155902   -0.04092908607743106   -0.0005699982108480191
-0.0019025097630297693   -0.04084056780546934   -0.00029658081995064293
-0.002631819714791299   -0.027072744559133083   5.141390497026914e-05
-0.009271975072165052   -0.04080827807508746   -0.0005216814495814375
-0.0020190548585764224   -0.040703328056272935   -0.0002526531202102366
-0.002631819714791299   -0.027072744559133083   5.141390497026914e-05
-0.009979673556936255   -0.027076826258592233   -0.00019065693603350045
-0.009271975072165052   -0.04080827807508746   -0.0005216814495814375
-0.010084947482242515   -0.026948967552379886   -0.00012709735685741832
-0.0020190548585764224   -0.040703328056272935   -0.0002526531202102366
-0.009372527531561753   -0.04069582567279693   -0.0004661493337549988
-0.010084947482242515   -0.026948967552379886   -0.00012709735685741832
-0.009271975072165052   -0.04080827807508746   -0.0005216814495814375
-0.0020190548585764224   -0.040703328056272935   -0.0002526531202102366
-0.010084947482242515   -0.026948967552379886   -0.00012709735685741832
-0.002762750318402913   -0.026918271861980574   0.00012744837440046086
-0.002631819714791299   -0.027072744559133083   5.141390497026914e-05
-0.0020190548585764224   -0.040703328056272935   -0.0002526531202102366
-0.010084947482242515   -0.026948967552379886   -0.00012709735685741832
-0.002631819714791299   -0.027072744559133083   5.141390497026914e-05
-0.009271975072165052   -0.04080827807508746   -0.0005216814495814375
-0.00908491189422873   -0.04105639897256045   -0.000611181754874726
-0.00978073521194934   -0.027322377197011735   -0.00030023336206455185
-0.016342226271614694   -0.04096083359261489   -0.0008262344595369961
-0.009177414586155902   -0.04092908607743106   -0.0005699982108480191
-0.00978073521194934   -0.027322377197011735   -0.00030023336206455185
-0.0170894294618734   -0.02731308111145357   -0.0005075106927937031
-0.016342226271614694   -0.04096083359261489   -0.0008262344595369961
-0.01718287740692567   -0.027207463047381766   -0.0004578045082070252
-0.009177414586155902   -0.04092908607743106   -0.0005699982108480191
-0.016434015732628197   -0.04085645308510231   -0.0007709241206085497
-0.01718287740692567   -0.027207463047381766   -0.0004578045082070252
-0.016342226271614694   -0.04096083359261489   -0.0008262344595369961
-0.009177414586155902   -0.04092908607743106   -0.0005699982108480191
-0.01718287740692567   -0.027207463047381766   -0.0004578045082070252
-0.009878531377599963   -0.027202031959361668   -0.0002480236527266293
-0.00978073521194934   -0.027322377197011735   -0.00030023336206455185
-0.009177414586155902   -0.04092908607743106   -0.0005699982108480191
-0.01718287740692567   -0.027207463047381766   -0.0004578045082070252
-0.00978073521194934   -0.027322377197011735   -0.00030023336206455185
-0.016342226271614694   -0.04096083359261489   -0.0008262344595369961
-0.009177414586155902   -0.04092908607743106   -0.0005699982108480191
-0.009878531377599963   -0.027202031959361668   -0.0002480236527266293
-0.016434015732628197   -0.04085645308510231   -0.0007709241206085497
-0.009271975072165052   -0.04080827807508746   -0.0005216814495814375
-0.009878531377599963   -0.027202031959361668   -0.0002480236527266293
-0.01718287740692567   -0.027207463047381766   -0.0004578045082070252
-0.016434015732628197   -0.04085645308510231   -0.0007709241206085497
-0.017271893828313456   -0.027099895410826615   -0.0004035927871870062
-0.009271975072165052   -0.04080827807508746   -0.0005216814495814375
-0.01651987887129724   -0.040758954884186606   -0.0007087247669142978
-0.017271893828313456   -0.027099895410826615   -0.0004035927871870062
-0.016434015732628197   -0.04085645308510231   -0.0007709241206085497
-0.009271975072165052   -0.04080827807508746   -0.0005216814495814375
-0.017271893828313456   -0.027099895410826615   -0.0004035927871870062
-0.009979673556936255   -0.027076826258592233   -0.00019065693603350045
-0.009878531377599963   -0.027202031959361668   -0.0002480236527266293
-0.009271975072165052   -0.04080827807508746   -0.0005216814495814375
-0.017271893828313456   -0.027099895410826615   -0.0004035927871870062
-0.009878531377599963   -0.027202031959361668   -0.0002480236527266293
-0.016434015732628197   -0.04085645308510231   -0.0007709241206085497
-0.009271975072165052   -0.04080827807508746   -0.0005216814495814375
-0.009979673556936255   -0.027076826258592233   -0.00019065693603350045
-0.01651987887129724   -0.040758954884186606   -0.0007087247669142978
-0.009372527531561753   -0.04069582567279693   -0.0004661493337549988
-0.009979673556936255   -0.027076826258592233   -0.00019065693603350045
-0.017271893828313456   -0.027099895410826615   -0.0004035927871870062
-0.01651987887129724   -0.040758954884186606   -0.0007087247669142978
-0.017360012234751726   -0.026989770761946898   -0.00034513459089681003
-0.009372527531561753   -0.04069582567279693   -0.0004661493337549988
-0.016606048730083426   -0.04066861225037972   -0.0006399791226559428
-0.017360012234751726   -0.026989770761946898   -0.00034513459089681003
-0.01651987887129724   -0.040758954884186606   -0.0007087247669142978
-0.009372527531561753   -0.04069582567279693   -0.0004661493337549988
-0.017360012234751726   -0.026989770761946898   -0.00034513459089681003
-0.010084947482242515   -0.026948967552379886   -0.00012709735685741832
-0.009979673556936255   -0.027076826258592233   -0.00019065693603350045
-0.009372527531561753   -0.04069582567279693   -0.0004661493337549988
-0.017360012234751726   -0.026989770761946898   -0.00034513459089681003
-0.009979673556936255   -0.027076826258592233   -0.00019065693603350045
-0.01651987887129724   -0.040758954884186606   -0.0007087247669142978
-0.016342226271614694   -0.04096083359261489   -0.0008262344595369961
-0.0170894294618734   -0.02731308111145357   -0.0005075106927937031
-0.02373048816597422   -0.04083176947531383   -0.0010015245535242945
-0.016434015732628197   -0.04085645308510231   -0.0007709241206085497
-0.0170894294618734   -0.02731308111145357   -0.0005075106927937031
-0.024552866321896356   -0.027270761256420466   -0.0006818264272252427
-0.02373048816597422   -0.04083176947531383   -0.0010015245535242945
-0.024641953896631846   -0.027184533518680276   -0.0006348618370260403
-0.016434015732628197   -0.04085645308510231   -0.0007709241206085497
-0.02381840469778074   -0.040751518722674566   -0.000932254423705223
-0.024641953896631846   -0.027184533518680276   -0.0006348618370260403
-0.02373048816597422   -0.04083176947531383   -0.0010015245535242945
-0.016434015732628197   -0.04085645308510231   -0.0007709241206085497
-0.024641953896631846   -0.027184533518680276   -0.0006348618370260403
-0.01718287740692567   -0.027207463047381766   -0.0004578045082070252
-0.0170894294618734   -0.02731308111145357   -0.0005075106927937031
-0.016434015732628197   -0.04085645308510231   -0.0007709241206085497
-0.024641953896631846   -0.027184533518680276   -0.0006348618370260403
-0.0170894294618734   -0.02731308111145357   -0.0005075106927937031
-0.02373048816597422   -0.04083176947531383   -0.0010015245535242945
-0.016434015732628197   -0.04085645308510231   -0.0007709241206085497
-0.01718287740692567   -0.027207463047381766   -0.0004578045082070252
-0.02381840469778074   -0.040751518722674566   -0.000932254423705223
-0.01651987887129724   -0.040758954884186606   -0.0007087247669142978
-0.01718287740692567   -0.027207463047381766   -0.0004578045082070252
-0.024641953896631846   -0.027184533518680276   -0.0006348618370260403
-0.02381840469778074   -0.040751518722674566   -0.000932254423705223
-0.02471748909108147   -0.02709356228016455   -0.0005847092324914471
-0.01651987887129724   -0.040758954884186606   -0.0007087247669142978
-0.023885155494170852   -0.04067547440008917   -0.0008572392588835966
-0.02471748909108147   -0.02709356228016455   -0.0005847092324914471
-0.02381840469778074   -0.040751518722674566   -0.000932254423705223
-0.01651987887129724   -0.040758954884186606   -0.0007087247669142978
-0.02471748909108147   -0.02709356228016455   -0.0005847092324914471
-0.017271893828313456   -0.027099895410826615   -0.0004035927871870062
-0.01718287740692567   -0.027207463047381766   -0.0004578045082070252
-0.01651987887129724   -0.040758954884186606   -0.0007087247669142978
-0.02471748909108147   -0.02709356228016455   -0.0005847092324914471
-0.01718287740692567   -0.027207463047381766   -0.0004578045082070252
-0.02381840469778074   -0.040751518722674566   -0.000932254423705223
-0.01651987887129724   -0.040758954884186606   -0.0007087247669142978
-0.017271893828313456   -0.027099895410826615   -0.0004035927871870062
-0.023885155494170852   -0.04067547440008917   -0.0008572392588835966
-0.016606048730083426   -0.04066861225037972   -0.0006399791226559428
-0.017271893828313456   -0.027099895410826615   -0.0004035927871870062
-0.02471748909108147   -0.02709356228016455   -0.0005847092324914471
-0.023885155494170852   -0.04067547440008917   -0.0008572392588835966
-0.024788883874196272   -0.02700016316633912   -0.0005299691317738331
-0.016606048730083426   -0.04066861225037972   -0.0006399791226559428
-0.02395136248814718   -0.040606973297009574   -0.0007749739707822841
-0.024788883874196272   -0.02700016316633912   -0.0005299691317738331
-0.023885155494170852   -0.04067547440008917   -0.0008572392588835966
-0.016606048730083426   -0.04066861225037972   -0.0006399791226559428
-0.024788883874196272   -0.02700016316633912   -0.0005299691317738331
-0.017360012234751726   -0.026989770761946898   -0.00034513459089681003
-0.017271893828313456   -0.027099895410826615   -0.0004035927871870062
-0.016606048730083426   -0.04066861225037972   -0.0006399791226559428
-0.024788883874196272   -0.02700016316633912   -0.0005299691317738331
-0.017271893828313456   -0.027099895410826615   -0.0004035927871870062
-0.023885155494170852   -0.04067547440008917   -0.0008572392588835966
-0.02373048816597422   -0.04083176947531383   -0.0010015245535242945
-0.024552866321896356   -0.027270761256420466   -0.0006818264272252427
-0.03156003829053649   -0.040679511372238665   -0.0011318645687917956
-0.02381840469778074   -0.040751518722674566   -0.000932254423705223
-0.024552866321896356   -0.027270761256420466   -0.0006818264272252427
-0.0323697216508961   -0.027201188380324832   -0.0008111310288581008
-0.03156003829053649   -0.040679511372238665   -0.0011318645687917956
-0.032425364694723055   -0.02712866060886584   -0.0007760693042468647
-0.02381840469778074   -0.040751518722674566   -0.000932254423705223
-0.03157405816414059   -0.04061532067168373   -0.0010555195458578025
-0.032425364694723055   -0.02712866060886584   -0.0007760693042468647
-0.03156003829053649   -0.040679511372238665   -0.0011318645687917956
-0.02381840469778074   -0.040751518722674566   -0.000932254423705223
-0.032425364694723055   -0.02712866060886584   -0.0007760693042468647
-0.024641953896631846   -0.027184533518680276   -0.0006348618370260403
-0.024552866321896356   -0.027270761256420466   -0.0006818264272252427
-0.02381840469778074   -0.040751518722674566   -0.000932254423705223
-0.032425364694723055   -0.02712866060886584   -0.0007760693042468647
-0.024552866321896356   -0.027270761256420466   -0.0006818264272252427
-0.03156003829053649   -0.040679511372238665   -0.0011318645687917956
-0.02381840469778074   -0.040751518722674566   -0.000932254423705223
-0.024641953896631846   -0.027184533518680276   -0.0006348618370260403
-0.03157405816414059   -0.04061532067168373   -0.0010555195458578025
-0.023885155494170852   -0.04067547440008917   -0.0008572392588835966
-0.024641953896631846   -0.027184533518680276   -0.0006348618370260403
-0.032425364694723055   -0.02712866060886584   -0.0007760693042468647
-0.03157405816414059   -0.04061532067168373   -0.0010555195458578025
-0.03247624366464099   -0.027046653118626817   -0.0007331633926990356
-0.023885155494170852   -0.04067547440008917   -0.0008572392588835966
-0.031588369171730316   -0.040550292958319724   -0.0009675992118671367
-0.03247624366464099   -0.027046653118626817   -0.0007331633926990356
-0.03157405816414059   -0.04061532067168373   -0.0010555195458578025
-0.023885155494170852   -0.04067547440008917   -0.0008572392588835966
-0.03247624366464099   -0.027046653118626817   -0.0007331633926990356
-0.02471748909108147   -0.02709356228016455   -0.0005847092324914471
-0.024641953896631846   -0.027184533518680276   -0.0006348618370260403
-0.023885155494170852   -0.04067547440008917   -0.0008572392588835966
-0.03247624366464099   -0.027046653118626817   -0.0007331633926990356
-0.024641953896631846   -0.027184533518680276   -0.0006348618370260403
-0.03157405816414059   -0.04061532067168373   -0.0010555195458578025
-0.023885155494170852   -0.04067547440008917   -0.0008572392588835966
-0.02471748909108147   -0.02709356228016455   -0.0005847092324914471
-0.031588369171730316   -0.040550292958319724   -0.0009675992118671367
-0.02395136248814718   -0.040606973297009574   -0.0007749739707822841
-0.02471748909108147   -0.02709356228016455   -0.0005847092324914471
-0.03247624366464099   -0.027046653118626817   -0.0007331633926990356
-0.031588369171730316   -0.040550292958319724   -0.0009675992118671367
-0.03250120997621234   -0.02697121688845835   -0.0006843872898041196
-0.02395136248814718   -0.040606973297009574   -0.0007749739707822841
-0.03155881139012029   -0.04050702514983952   -0.0008694814386283006
-0.03250120997621234   -0.02697121688845835   -0.0006843872898041196
-0.031588369171730316   -0.040550292958319724   -0.0009675992118671367
-0.02395136248814718   -0.040606973297009574   -0.0007749739707822841
-0.03250120997621234   -0.02697121688845835   -0.0006843872898041196
-0.024788883874196272   -0.02700016316633912   -0.0005299691317738331
-0.02471748909108147   -0.02709356228016455   -0.0005847092324914471
-0.02395136248814718   -0.040606973297009574   -0.0007749739707822841
-0.03250120997621234   -0.02697121688845835   -0.0006843872898041196
-0.02471748909108147   -0.02709356228016455   -0.0005847092324914471
-0.031588369171730316   -0.040550292958319724   -0.0009675992118671367
0.005443432770397785   -0.027485567277257296   0.00016657689135362918
0.0038111202127249244   -0.013797603758863271   0.0001786454301378623
-0.002396893545805703   -0.027355912845775057   -7.103436466137657e-05
0.005272583426016524   -0.027319564999412   0.0002368183190967695
0.0038111202127249244   -0.013797603758863271   0.0001786454301378623
-0.003496673068356674   -0.013617909851353286   8.95553083617329e-05
-0.002396893545805703   -0.027355912845775057   -7.103436466137657e-05
-0.0036042829764973386   -0.0135479705809997   0.000167523479279248
0.005272583426016524   -0.027319564999412   0.0002368183190967695
-0.002505185565047813   -0.027218175776549076   -1.4793944749174544e-05
-0.0036042829764973386   -0.0135479705809997   0.000167523479279248
-0.002396893545805703   -0.027355912845775057   -7.103436466137657e-05
0.005272583426016524   -0.027319564999412   0.0002368183190967695
-0.0036042829764973386   -0.0135479705809997   0.000167523479279248
0.003475839582650036   -0.01362144998628521   0.00037181801378834346
0.0038111202127249244   -0.013797603758863271   0.0001786454301378623
0.005272583426016524   -0.027319564999412   0.0002368183190967695
-0.0036042829764973386   -0.0135479705809997   0.000167523479279248
0.0038111202127249244   -0.013797603758863271   0.0001786454301378623
-0.002396893545805703   -0.027355912845775057   -7.103436466137657e-05
0.005272583426016524   -0.027319564999412   0.0002368183190967695
0.003475839582650036   -0.01362144998628521   0.00037181801378834346
-0.002505185565047813   -0.027218175776549076   -1.4793944749174544e-05
0.005082125966073374   -0.027154556875765738   0.0003374891884921203
0.003475839582650036   -0.01362144998628521   0.00037181801378834346
-0.0036042829764973386   -0.0135479705809997   0.000167523479279248
-0.002505185565047813   -0.027218175776549076   -1.4793944749174544e-05
-0.0037455130440519797   -0.0134240788765066   0.00026214250823607897
0.005082125966073374   -0.027154556875765738   0.0003374891884921203
-0.002631819714791299   -0.027072744559133083   5.141390497026914e-05
-0.0037455130440519797   -0.0134240788765066   0.00026214250823607897
-0.002505185565047813   -0.027218175776549076   -1.4793944749174544e-05
0.005082125966073374   -0.027154556875765738   0.0003374891884921203
-0.0037455130440519797   -0.0134240788765066   0.00026214250823607897
0.0032794186973943615   -0.01347704908249078   0.0005160852303077428
0.003475839582650036   -0.01362144998628521   0.00037181801378834346
0.005082125966073374   -0.027154556875765738   0.0003374891884921203
-0.0037455130440519797   -0.0134240788765066   0.00026214250823607897
0.003475839582650036   -0.01362144998628521   0.00037181801378834346
-0.002505185565047813   -0.027218175776549076   -1.4793944749174544e-05
0.005082125966073374   -0.027154556875765738   0.0003374891884921203
0.0032794186973943615   -0.01347704908249078   0.0005160852303077428
-0.002631819714791299   -0.027072744559133083   5.141390497026914e-05
0.004849435600312448   -0.026951912397563386   0.0004482261105754961
0.0032794186973943615   -0.01347704908249078   0.0005160852303077428
-0.0037455130440519797   -0.0134240788765066   0.00026214250823607897
-0.002631819714791299   -0.027072744559133083   5.141390497026914e-05
-0.003864163925132231   -0.013290748254129172   0.00034544640888074053
0.004849435600312448   -0.026951912397563386   0.0004482261105754961
-0.002762750318402913   -0.026918271861980574   0.00012744837440046086
-0.003864163925132231   -0.013290748254129172   0.00034544640888074053
-0.002631819714791299   -0.027072744559133083   5.141390497026914e-05
0.004849435600312448   -0.026951912397563386   0.0004482261105754961
-0.003864163925132231   -0.013290748254129172   0.00034544640888074053
0.0030278394359707426   -0.013256644073104082   0.0006812253735734225
0.0032794186973943615   -0.01347704908249078   0.0005160852303077428
0.004849435600312448   -0.026951912397563386   0.0004482261105754961
-0.003864163925132231   -0.013290748254129172   0.00034544640888074053
0.0032794186973943615   -0.01347704908249078   0.0005160852303077428
-0.002631819714791299   -0.027072744559133083   5.141390497026914e-05
-0.002396893545805703   -0.027355912845775057   -7.103436466137657e-05
-0.003496673068356674   -0.013617909851353286   8.95553083617329e-05
-0.00978073521194934   -0.027322377197011735   -0.00030023336206455185
-0.002505185565047813   -0.027218175776549076   -1.4793944749174544e-05
-0.003496673068356674   -0.013617909851353286   8.95553083617329e-05
-0.010454482497332381   -0.013818623036335322   -9.324354528422535e-05
-0.00978073521194934   -0.027322377197011735   -0.00030023336206455185
-0.01055339349198411   -0.013712139819697208   -3.8086397797718086e-05
-0.002505185565047813   -0.027218175776549076   -1.4793944749174544e-05
-0.009878531377599963   -0.027202031959361668   -0.0002480236527266293
-0.01055339349198411   -0.013712139819697208   -3.8086397797718086e-05
-0.00978073521194934   -0.027322377197011735   -0.00030023336206455185
-0.002505185565047813   -0.027218175776549076   -1.4793944749174544e-05
-0.01055339349198411   -0.013712139819697208   -3.8086397797718086e-05
-0.0036042829764973386   -0.0135479705809997   0.000167523479279248
-0.003496673068356674   -0.013617909851353286   8.95553083617329e-05
-0.002505185565047813   -0.027218175776549076   -1.4793944749174544e-05
-0.01055339349198411   -0.013712139819697208   -3.8086397797718086e-05
-0.003496673068356674   -0.013617909851353286   8.95553083617329e-05
-0.00978073521194934   -0.027322377197011735   -0.00030023336206455185
-0.002505185565047813   -0.027218175776549076   -1.4793944749174544e-05
-0.0036042829764973386   -0.0135479705809997   0.000167523479279248
-0.009878531377599963   -0.027202031959361668   -0.0002480236527266293
-0.002631819714791299   -0.027072744559133083   5.141390497026914e-05
-0.0036042829764973386   -0.0135479705809997   0.000167523479279248
-0.01055339349198411   -0.013712139819697208   -3.8086397797718086e-05
-0.009878531377599963   -0.027202031959361668   -0.0002480236527266293
-0.010656831610904421   -0.013592031354618188   2.02396506532012e-05
-0.002631819714791299   -0.027072744559133083   5.141390497026914e-05
-0.009979673556936255   -0.027076826258592233   -0.00019065693603350045
-0.010656831610904421   -0.013592031354618188   2.02396506532012e-05
-0.009878531377599963   -0.027202031959361668   -0.0002480236527266293
-0.002631819714791299   -0.027072744559133083   5.141390497026914e-05
-0.010656831610904421   -0.013592031354618188   2.02396506532012e-05
-0.0037455130440519797   -0.0134240788765066   0.00026214250823607897
-0.0036042829764973386   -0.0135479705809997   0.000167523479279248
-0.002631819714791299   -0.027072744559133083   5.141390497026914e-05
-0.010656831610904421   -0.013592031354618188   2.02396506532012e-05
-0.0036042829764973386   -0.0135479705809997   0.000167523479279248
-0.009878531377599963   -0.027202031959361668   -0.0002480236527266293
-0.002631819714791299   -0.027072744559133083   5.141390497026914e-05
-0.0037455130440519797   -0.0134240788765066   0.00026214250823607897
-0.009979673556936255   -0.027076826258592233   -0.00019065693603350045
-0.002762750318402913   -0.026918271861980574   0.00012744837440046086
-0.0037455130440519797   -0.0134240788765066   0.00026214250823607897
-0.010656831610904421   -0.013592031354618188   2.02396506532012e-05
-0.009979673556936255   -0.027076826258592233   -0.00019065693603350045
-0.010755069865982873   -0.01346039397143349   8.45358311656028e-05
-0.002762750318402913   -0.026918271861980574   0.00012744837440046086
-0.010084947482242515   -0.026948967552379886   -0.00012709735685741832
-0.010755069865982873   -0.01346039397143349   8.45358311656028e-05
-0.009979673556936255   -0.027076826258592233   -0.00019065693603350045
-0.002762750318402913   -0.026918271861980574   0.00012744837440046086
-0.010755069865982873   -0.01346039397143349   8.45358311656028e-05
-0.003864163925132231   -0.013290748254129172   0.00034544640888074053
-0.0037455130440519797   -0.0134240788765066   0.00026214250823607897
-0.002762750318402913   -0.026918271861980574   0.00012744837440046086
-0.010755069865982873   -0.01346039397143349   8.45358311656028e-05
-0.0037455130440519797   -0.0134240788765066   0.00026214250823607897
-0.009979673556936255   -0.027076826258592233   -0.00019065693603350045
-0.00978073521194934   -0.027322377197011735   -0.00030023336206455185
-0.010454482497332381   -0.013818623036335322   -9.324354528422535e-05
-0.0170894294618734   -0.02731308111145357   -0.0005075106927937031
-0.009878531377599963   -0.027202031959361668   -0.0002480236527266293
-0.010454482497332381   -0.013818623036335322   -9.324354528422535e-05
-0.017584013696099545   -0.013975399508119258   -0.0002955387006250938
-0.0170894294618734   -0.02731308111145357   -0.0005075106927937031
-0.017672773307807945   -0.013866111778335197   -0.00025285832955120296
-0.009878531377599963   -0.027202031959361668   -0.0002480236527266293
-0.01718287740692567   -0.027207463047381766   -0.0004578045082070252
-0.017672773307807945   -0.013866111778335197   -0.00025285832955120296
-0.0170894294618734   -0.02731308111145357   -0.0005075106927937031
-0.009878531377599963   -0.027202031959361668   -0.0002480236527266293
-0.017672773307807945   -0.013866111778335197   -0.00025285832955120296
-0.01055339349198411   -0.013712139819697208   -3.8086397797718086e-05
-0.010454482497332381   -0.013818623036335322   -9.324354528422535e-05
-0.009878531377599963   -0.027202031959361668   -0.0002480236527266293
-0.017672773307807945   -0.013866111778335197   -0.00025285832955120296
-0.010454482497332381   -0.013818623036335322   -9.324354528422535e-05
-0.0170894294618734   -0.02731308111145357   -0.0005075106927937031
-0.009878531377599963   -0.027202031959361668   -0.0002480236527266293
-0.01055339349198411   -0.013712139819697208   -3.8086397797718086e-05
-0.01718287740692567   -0.027207463047381766   -0.0004578045082070252
-0.009979673556936255   -0.027076826258592233   -0.00019065693603350045
-0.01055339349198411   -0.013712139819697208   -3.8086397797718086e-05
-0.017672773307807945   -0.013866111778335197   -0.00025285832955120296
-0.01718287740692567   -0.027207463047381766   -0.0004578045082070252
-0.017757677407272358   -0.013750739393921754   -0.00021035162385708037
-0.009979673556936255   -0.027076826258592233   -0.00019065693603350045
-0.017271893828313456   -0.027099895410826615   -0.0004035927871870062
-0.017757677407272358   -0.013750739393921754   -0.00021035162385708037
-0.01718287740692567   -0.027207463047381766   -0.0004578045082070252
-0.009979673556936255   -0.027076826258592233   -0.00019065693603350045
-0.017757677407272358   -0.013750739393921754   -0.00021035162385708037
-0.010656831610904421   -0.013592031354618188   2.02396506532012e-05
-0.01055339349198411   -0.013712139819697208   -3.8086397797718086e-05
-0.009979673556936255   -0.027076826258592233   -0.00019065693603350045
-0.017757677407272358   -0.013750739393921754   -0.00021035162385708037
-0.01055339349198411   -0.013712139819697208   -3.8086397797718086e-05
-0.01718287740692567   -0.027207463047381766   -0.0004578045082070252
-0.009979673556936255   -0.027076826258592233   -0.00019065693603350045
-0.010656831610904421   -0.013592031354618188   2.02396506532012e-05
-0.017271893828313456   -0.027099895410826615   -0.0004035927871870062
-0.010084947482242515   -0.026948967552379886   -0.00012709735685741832
-0.010656831610904421   -0.013592031354618188   2.02396506532012e-05
-0.017757677407272358   -0.013750739393921754   -0.00021035162385708037
-0.017271893828313456   -0.027099895410826615   -0.0004035927871870062
-0.017835892646483782   -0.013625868011877965   -0.00016411165667666095
-0.010084947482242515   -0.026948967552379886   -0.00012709735685741832
-0.017360012234751726   -0.026989770761946898   -0.00034513459089681003
-0.017835892646483782   -0.013625868011877965   -0.00016411165667666095
-0.017271893828313456   -0.027099895410826615   -0.0004035927871870062
-0.010084947482242515   -0.026948967552379886   -0.00012709735685741832
-0.017835892646483782   -0.013625868011877965   -0.00016411165667666095
-0.010755069865982873   -0.01346039397143349   8.45358311656028e-05
-0.010656831610904421   -0.013592031354618188   2.02396506532012e-05
-0.010084947482242515   -0.026948967552379886   -0.00012709735685741832
-0.017835892646483782   -0.013625868011877965   -0.00016411165667666095
-0.010656831610904421   -0.013592031354618188   2.02396506532012e-05
-0.017271893828313456   -0.027099895410826615   -0.0004035927871870062
-0.0170894294618734   -0.02731308111145357   -0.0005075106927937031
-0.017584013696099545   -0.013975399508119258   -0.0002955387006250938
-0.024552866321896356   -0.027270761256420466   -0.0006818264272252427
-0.01718287740692567   -0.027207463047381766   -0.0004578045082070252
-0.017584013696099545   -0.013975399508119258   -0.0002955387006250938
-0.024963943262829736   -0.014039664292193948   -0.00048236822670694396
-0.024552866321896356   -0.027270761256420466   -0.0006818264272252427
-0.025043891308441073   -0.01394140152531969   -0.0004513081875515917
-0.01718287740692567   -0.027207463047381766   -0.0004578045082070252
-0.024641953896631846   -0.027184533518680276   -0.0006348618370260403
-0.025043891308441073   -0.01394140152531969   -0.0004513081875515917
-0.024552866321896356   -0.027270761256420466   -0.0006818264272252427
-0.01718287740692567   -0.027207463047381766   -0.0004578045082070252
-0.025043891308441073   -0.01394140152531969   -0.0004513081875515917
-0.017672773307807945   -0.013866111778335197   -0.00025285832955120296
-0.017584013696099545   -0.013975399508119258   -0.0002955387006250938
-0.01718287740692567   -0.027207463047381766   -0.0004578045082070252
-0.025043891308441073   -0.01394140152531969   -0.0004513081875515917
-0.017584013696099545   -0.013975399508119258   -0.0002955387006250938
-0.024552866321896356   -0.027270761256420466   -0.0006818264272252427
-0.01718287740692567   -0.027207463047381766   -0.0004578045082070252
-0.017672773307807945   -0.013866111778335197   -0.00025285832955120296
-0.024641953896631846   -0.027184533518680276   -0.0006348618370260403
-0.017271893828313456   -0.027099895410826615   -0.0004035927871870062
-0.017672773307807945   -0.013866111778335197   -0.00025285832955120296
-0.025043891308441073   -0.01394140152531969   -0.0004513081875515917
-0.024641953896631846   -0.027184533518680276   -0.0006348618370260403
-0.02511513019093079   -0.013834453698615566   -0.0004211663986095926
-0.017271893828313456   -0.027099895410826615   -0.0004035927871870062
-0.02471748909108147   -0.02709356228016455   -0.0005847092324914471
-0.02511513019093079   -0.013834453698615566   -0.0004211663986095926
-0.024641953896631846   -0.027184533518680276   -0.0006348618370260403
-0.017271893828313456   -0.027099895410826615   -0.0004035927871870062
-0.02511513019093079   -0.013834453698615566   -0.0004211663986095926
-0.017757677407272358   -0.013750739393921754   -0.00021035162385708037
-0.017672773307807945   -0.013866111778335197   -0.00025285832955120296
-0.017271893828313456   -0.027099895410826615   -0.0004035927871870062
-0.02511513019093079   -0.013834453698615566   -0.0004211663986095926
-0.017672773307807945   -0.013866111778335197   -0.00025285832955120296
-0.024641953896631846   -0.027184533518680276   -0.0006348618370260403
-0.017271893828313456   -0.027099895410826615   -0.0004035927871870062
-0.017757677407272358   -0.013750739393921754   -0.00021035162385708037
-0.02471748909108147   -0.02709356228016455   -0.0005847092324914471
-0.017360012234751726   -0.026989770761946898   -0.00034513459089681003
-0.017757677407272358   -0.013750739393921754   -0.00021035162385708037
-0.02511513019093079   -0.013834453698615566   -0.0004211663986095926
-0.02471748909108147   -0.02709356228016455   -0.0005847092324914471
-0.025179625040675658   -0.01372064672475265   -0.0003901679343761833
-0.017360012234751726   -0.026989770761946898   -0.00034513459089681003
-0.024788883874196272   -0.02700016316633912   -0.0005299691317738331
-0.025179625040675658   -0.01372064672475265   -0.0003901679343761833
-0.02471748909108147   -0.02709356228016455   -0.0005847092324914471
-0.017360012234751726   -0.026989770761946898   -0.00034513459089681003
-0.025179625040675658   -0.01372064672475265   -0.0003901679343761833
-0.017835892646483782   -0.013625868011877965   -0.00016411165667666095
-0.017757677407272358   -0.013750739393921754   -0.00021035162385708037
-0.017360012234751726   -0.026989770761946898   -0.00034513459089681003
-0.025179625040675658   -0.01372064672475265   -0.0003901679343761833
-0.017757677407272358   -0.013750739393921754   -0.00021035162385708037
-0.02471748909108147   -0.02709356228016455   -0.0005847092324914471
-0.024552866321896356   -0.027270761256420466   -0.0006818264272252427
-0.024963943262829736   -0.014039664292193948   -0.00048236822670694396
-0.0323697216508961   -0.027201188380324832   -0.0008111310288581008
-0.024641953896631846   -0.027184533518680276   -0.0006348618370260403
-0.024963943262829736   -0.014039664292193948   -0.00048236822670694396
-0.032605481905738115   -0.014046963666792978   -0.0006377271515077789
-0.0323697216508961   -0.027201188380324832   -0.0008111310288581008
-0.032674272504285784   -0.013951533431193628   -0.0006244961209774514
-0.024641953896631846   -0.027184533518680276   -0.0006348618370260403
-0.032425364694723055   -0.02712866060886584   -0.0007760693042468647
-0.032674272504285784   -0.013951533431193628   -0.0006244961209774514
-0.0323697216508961   -0.027201188380324832   -0.0008111310288581008
-0.024641953896631846   -0.027184533518680276   -0.0006348618370260403
-0.032674272504285784   -0.013951533431193628   -0.0006244961209774514
-0.025043891308441073   -0.01394140152531969   -0.0004513081875515917
-0.024963943262829736   -0.014039664292193948   -0.00048236822670694396
-0.024641953896631846   -0.027184533518680276   -0.0006348618370260403
-0.032674272504285784   -0.013951533431193628   -0.0006244961209774514
-0.024963943262829736   -0.014039664292193948   -0.00048236822670694396
-0.0323697216508961   -0.027201188380324832   -0.0008111310288581008
-0.024641953896631846   -0.027184533518680276   -0.0006348618370260403
-0.025043891308441073   -0.01394140152531969   -0.0004513081875515917
-0.032425364694723055   -0.02712866060886584   -0.0007760693042468647
-0.02471748909108147   -0.02709356228016455   -0.0005847092324914471
-0.025043891308441073   -0.01394140152531969   -0.0004513081875515917
-0.032674272504285784   -0.013951533431193628   -0.0006244961209774514
-0.032425364694723055   -0.02712866060886584   -0.0007760693042468647
-0.032735902731288354   -0.013848435133014562   -0.0006090409385227619
-0.02471748909108147   -0.02709356228016455   -0.0005847092324914471
-0.03247624366464099   -0.027046653118626817   -0.0007331633926990356
-0.032735902731288354   -0.013848435133014562   -0.0006090409385227619
-0.032425364694723055   -0.02712866060886584   -0.0007760693042468647
-0.02471748909108147   -0.02709356228016455   -0.0005847092324914471
-0.032735902731288354   -0.013848435133014562   -0.0006090409385227619
-0.02511513019093079   -0.013834453698615566   -0.0004211663986095926
-0.025043891308441073   -0.01394140152531969   -0.0004513081875515917
-0.02471748909108147   -0.02709356228016455   -0.0005847092324914471
-0.032735902731288354   -0.013848435133014562   -0.0006090409385227619
-0.025043891308441073   -0.01394140152531969   -0.0004513081875515917
-0.032425364694723055   -0.02712866060886584   -0.0007760693042468647
-0.02471748909108147   -0.02709356228016455   -0.0005847092324914471
-0.02511513019093079   -0.013834453698615566   -0.0004211663986095926
-0.03247624366464099   -0.027046653118626817   -0.0007331633926990356
-0.024788883874196272   -0.02700016316633912   -0.0005299691317738331
-0.02511513019093079   -0.013834453698615566   -0.0004211663986095926
-0.032735902731288354   -0.013848435133014562   -0.0006090409385227619
-0.03247624366464099   -0.027046653118626817   -0.0007331633926990356
-0.03278785672122391   -0.013739248534363282   -0.0005947329971079251
-0.024788883874196272   -0.02700016316633912   -0.0005299691317738331
-0.03250120997621234   -0.02697121688845835   -0.0006843872898041196
-0.03278785672122391   -0.013739248534363282   -0.0005947329971079251
-0.03247624366464099   -0.027046653118626817   -0.0007331633926990356
-0.024788883874196272   -0.02700016316633912   -0.0005299691317738331
-0.03278785672122391   -0.013739248534363282   -0.0005947329971079251
-0.025179625040675658   -0.01372064672475265   -0.0003901679343761833
-0.02511513019093079   -0.013834453698615566   -0.0004211663986095926
-0.024788883874196272   -0.02700016316633912   -0.0005299691317738331
-0.03278785672122391   -0.013739248534363282   -0.0005947329971079251
-0.02511513019093079   -0.013834453698615566   -0.0004211663986095926
-0.03247624366464099   -0.027046653118626817   -0.0007331633926990356
0.0038111202127249244   -0.013797603758863271   0.0001786454301378623
0.0   0.0   0.0
-0.003496673068356674   -0.013617909851353286   8.95553083617329e-05
0.003475839582650036   -0.01362144998628521   0.00037181801378834346
0.0   0.0   0.0
-0.004394380192575183   -0.0011061876909767793   -3.891984914074397e-05
-0.003496673068356674   -0.013617909851353286   8.95553083617329e-05
-0.004656762235991545   -0.0008580917393164208   0.00011164145516904536
0.003475839582650036   -0.01362144998628521   0.00037181801378834346
-0.0036042829764973386   -0.0135479705809997   0.000167523479279248
-0.004656762235991545   -0.0008580917393164208   0.00011164145516904536
-0.003496673068356674   -0.013617909851353286   8.95553083617329e-05
0.003475839582650036   -0.01362144998628521   0.00037181801378834346
-0.004656762235991545   -0.0008580917393164208   0.00011164145516904536
0.0   0.0   0.0
0.0   0.0   0.0
0.003475839582650036   -0.01362144998628521   0.00037181801378834346
-0.004656762235991545   -0.0008580917393164208   0.00011164145516904536
0.0   0.0   0.0
-0.003496673068356674   -0.013617909851353286   8.95553083617329e-05
0.003475839582650036   -0.01362144998628521   0.00037181801378834346
0.0   0.0   0.0
-0.0036042829764973386   -0.0135479705809997   0.000167523479279248
0.0032794186973943615   -0.01347704908249078   0.0005160852303077428
0.0   0.0   0.0
-0.004656762235991545   -0.0008580917393164208   0.00011164145516904536
-0.0036042829764973386   -0.0135479705809997   0.000167523479279248
-0.004821191285722791   -0.0007383196864948716   0.00019828681208809088
0.0032794186973943615   -0.01347704908249078   0.0005160852303077428
-0.0037455130440519797   -0.0134240788765066   0.00026214250823607897
-0.004821191285722791   -0.0007383196864948716   0.00019828681208809088
-0.0036042829764973386   -0.0135479705809997   0.000167523479279248
0.0032794186973943615   -0.01347704908249078   0.0005160852303077428
-0.004821191285722791   -0.0007383196864948716   0.00019828681208809088
0.0   0.0   0.0
0.0   0.0   0.0
0.0032794186973943615   -0.01347704908249078   0.0005160852303077428
-0.004821191285722791   -0.0007383196864948716   0.00019828681208809088
0.0   0.0   0.0
-0.0036042829764973386   -0.0135479705809997   0.000167523479279248
0.0032794186973943615   -0.01347704908249078   0.0005160852303077428
0.0   0.0   0.0
-0.0037455130440519797   -0.0134240788765066   0.00026214250823607897
0.0030278394359707426   -0.013256644073104082   0.0006812253735734225
0.0   0.0   0.0
-0.004821191285722791   -0.0007383196864948716   0.00019828681208809088
-0.0037455130440519797   -0.0134240788765066   0.00026214250823607897
-0.005041226132521997   -0.0005794079333186793   0.00029769012849877876
0.0030278394359707426   -0.013256644073104082   0.0006812253735734225
-0.003864163925132231   -0.013290748254129172   0.00034544640888074053
-0.005041226132521997   -0.0005794079333186793   0.00029769012849877876
-0.0037455130440519797   -0.0134240788765066   0.00026214250823607897
0.0030278394359707426   -0.013256644073104082   0.0006812253735734225
-0.005041226132521997   -0.0005794079333186793   0.00029769012849877876
0.0   0.0   0.0
0.0   0.0   0.0
0.0030278394359707426   -0.013256644073104082   0.0006812253735734225
-0.005041226132521997   -0.0005794079333186793   0.00029769012849877876
0.0   0.0   0.0
-0.0037455130440519797   -0.0134240788765066   0.00026214250823607897
-0.003496673068356674   -0.013617909851353286   8.95553083617329e-05
-0.004394380192575183   -0.0011061876909767793   -3.891984914074397e-05
-0.010454482497332381   -0.013818623036335322   -9.324354528422535e-05
-0.0036042829764973386   -0.0135479705809997   0.000167523479279248
-0.004394380192575183   -0.0011061876909767793   -3.891984914074397e-05
-0.010767703939948397   -0.0014460093793988277   -3.9500213513930594e-05
-0.010454482497332381   -0.013818623036335322   -9.324354528422535e-05
-0.010902588697971546   -0.001309929970553429   -1.2911144102270861e-06
-0.0036042829764973386   -0.0135479705809997   0.000167523479279248
-0.01055339349198411   -0.013712139819697208   -3.8086397797718086e-05
-0.010902588697971546   -0.001309929970553429   -1.2911144102270861e-06
-0.010454482497332381   -0.013818623036335322   -9.324354528422535e-05
-0.0036042829764973386   -0.0135479705809997   0.000167523479279248
-0.010902588697971546   -0.001309929970553429   -1.2911144102270861e-06
-0.004656762235991545   -0.0008580917393164208   0.00011164145516904536
-0.004394380192575183   -0.0011061876909767793   -3.891984914074397e-05
-0.0036042829764973386   -0.0135479705809997   0.000167523479279248
-0.010902588697971546   -0.001309929970553429   -1.2911144102270861e-06
-0.004394380192575183   -0.0011061876909767793   -3.891984914074397e-05
-0.010454482497332381   -0.013818623036335322   -9.324354528422535e-05
-0.0036042829764973386   -0.0135479705809997   0.000167523479279248
-0.004656762235991545   -0.0008580917393164208   0.00011164145516904536
-0.01055339349198411   -0.013712139819697208   -3.8086397797718086e-05
-0.0037455130440519797   -0.0134240788765066   0.00026214250823607897
-0.004656762235991545   -0.0008580917393164208   0.00011164145516904536
-0.010902588697971546   -0.001309929970553429   -1.2911144102270861e-06
-0.01055339349198411   -0.013712139819697208   -3.8086397797718086e-05
-0.011036793214910237   -0.001150841726422811   6.744434038250446e-05
-0.0037455130440519797   -0.0134240788765066   0.00026214250823607897
-0.010656831610904421   -0.013592031354618188   2.02396506532012e-05
-0.011036793214910237   -0.001150841726422811   6.744434038250446e-05
-0.01055339349198411   -0.013712139819697208   -3.8086397797718086e-05
-0.0037455130440519797   -0.0134240788765066   0.00026214250823607897
-0.011036793214910237   -0.001150841726422811   6.744434038250446e-05
-0.004821191285722791   -0.0007383196864948716   0.00019828681208809088
-0.004656762235991545   -0.0008580917393164208   0.00011164145516904536
-0.0037455130440519797   -0.0134240788765066   0.00026214250823607897
-0.011036793214910237   -0.001150841726422811   6.744434038250446e-05
-0.004656762235991545   -0.0008580917393164208   0.00011164145516904536
-0.01055339349198411   -0.013712139819697208   -3.8086397797718086e-05
-0.0037455130440519797   -0.0134240788765066   0.00026214250823607897
-0.004821191285722791   -0.0007383196864948716   0.00019828681208809088
-0.010656831610904421   -0.013592031354618188   2.02396506532012e-05
-0.003864163925132231   -0.013290748254129172   0.00034544640888074053
-0.004821191285722791   -0.0007383196864948716   0.00019828681208809088
-0.011036793214910237   -0.001150841726422811   6.744434038250446e-05
-0.010656831610904421   -0.013592031354618188   2.02396506532012e-05
-0.011184960300037832   -0.0009672080423788871   0.00013307525213385716
-0.003864163925132231   -0.013290748254129172   0.00034544640888074053
-0.010755069865982873   -0.01346039397143349   8.45358311656028e-05
-0.011184960300037832   -0.0009672080423788871   0.00013307525213385716
-0.010656831610904421   -0.013592031354618188   2.02396506532012e-05
-0.003864163925132231   -0.013290748254129172   0.00034544640888074053
-0.011184960300037832   -0.0009672080423788871   0.00013307525213385716
-0.005041226132521997   -0.0005794079333186793   0.00029769012849877876
-0.004821191285722791   -0.0007383196864948716   0.00019828681208809088
-0.003864163925132231   -0.013290748254129172   0.00034544640888074053
-0.011184960300037832   -0.0009672080423788871   0.00013307525213385716
-0.004821191285722791   -0.0007383196864948716   0.00019828681208809088
-0.010656831610904421   -0.013592031354618188   2.02396506532012e-05
-0.010454482497332381   -0.013818623036335322   -9.324354528422535e-05
-0.010767703939948397   -0.0014460093793988277   -3.9500213513930594e-05
-0.017584013696099545   -0.013975399508119258   -0.0002955387006250938
-0.01055339349198411   -0.013712139819697208   -3.8086397797718086e-05
-0.010767703939948397   -0.0014460093793988277   -3.9500213513930594e-05
-0.017758450434745825   -0.0015391995696664366   -0.00016861176475227758
-0.017584013696099545   -0.013975399508119258   -0.0002955387006250938
-0.017840078187785418   -0.0014324867408456172   -0.00015824627036884232
-0.01055339349198411   -0.013712139819697208   -3.8086397797718086e-05
-0.017672773307807945   -0.013866111778335197   -0.00025285832955120296
-0.017840078187785418   -0.0014324867408456172   -0.00015824627036884232
-0.017584013696099545   -0.013975399508119258   -0.0002955387006250938
-0.01055339349198411   -0.013712139819697208   -3.8086397797718086e-05
-0.017840078187785418   -0.0014324867408456172   -0.00015824627036884232
-0.010902588697971546   -0.001309929970553429   -1.2911144102270861e-06
-0.010767703939948397   -0.0014460093793988277   -3.9500213513930594e-05
-0.01055339349198411   -0.013712139819697208   -3.8086397797718086e-05
-0.017840078187785418   -0.0014324867408456172   -0.00015824627036884232
-0.010767703939948397   -0.0014460093793988277   -3.9500213513930594e-05
-0.017584013696099545   -0.013975399508119258   -0.0002955387006250938
-0.01055339349198411   -0.013712139819697208   -3.8086397797718086e-05
-0.010902588697971546   -0.001309929970553429   -1.2911144102270861e-06
-0.017672773307807945   -0.013866111778335197   -0.00025285832955120296
-0.010656831610904421   -0.013592031354618188   2.02396506532012e-05
-0.010902588697971546   -0.001309929970553429   -1.2911144102270861e-06
-0.017840078187785418   -0.0014324867408456172   -0.00015824627036884232
-0.017672773307807945   -0.013866111778335197   -0.00025285832955120296
-0.017924917337287297   -0.0013089293301006453   -0.00013992999569494832
-0.010656831610904421   -0.013592031354618188   2.02396506532012e-05
-0.017757677407272358   -0.013750739393921754   -0.00021035162385708037
-0.017924917337287297   -0.0013089293301006453   -0.00013992999569494832
-0.017672773307807945   -0.013866111778335197   -0.00025285832955120296
-0.010656831610904421   -0.013592031354618188   2.02396506532012e-05
-0.017924917337287297   -0.0013089293301006453   -0.00013992999569494832
-0.011036793214910237   -0.001150841726422811   6.744434038250446e-05
-0.010902588697971546   -0.001309929970553429   -1.2911144102270861e-06
-0.010656831610904421   -0.013592031354618188   2.02396506532012e-05
-0.017924917337287297   -0.0013089293301006453   -0.00013992999569494832
-0.010902588697971546   -0.001309929970553429   -1.2911144102270861e-06
-0.017672773307807945   -0.013866111778335197   -0.00025285832955120296
-0.010656831610904421   -0.013592031354618188   2.02396506532012e-05
-0.011036793214910237   -0.001150841726422811   6.744434038250446e-05
-0.017757677407272358   -0.013750739393921754   -0.00021035162385708037
-0.010755069865982873   -0.01346039397143349   8.45358311656028e-05
-0.011036793214910237   -0.001150841726422811   6.744434038250446e-05
-0.017924917337287297   -0.0013089293301006453   -0.00013992999569494832
-0.017757677407272358   -0.013750739393921754   -0.00021035162385708037
-0.018005048691739533   -0.0011590944267174375   -0.00011569662627798371
-0.010755069865982873   -0.01346039397143349   8.45358311656028e-05
-0.017835892646483782   -0.013625868011877965   -0.00016411165667666095
-0.018005048691739533   -0.0011590944267174375   -0.00011569662627798371
-0.017757677407272358   -0.013750739393921754   -0.00021035162385708037
-0.010755069865982873   -0.01346039397143349   8.45358311656028e-05
-0.018005048691739533   -0.0011590944267174375   -0.00011569662627798371
-0.011184960300037832   -0.0009672080423788871   0.00013307525213385716
-0.011036793214910237   -0.001150841726422811   6.744434038250446e-05
-0.010755069865982873   -0.01346039397143349   8.45358311656028e-05
-0.018005048691739533   -0.0011590944267174375   -0.00011569662627798371
-0.011036793214910237   -0.001150841726422811   6.744434038250446e-05
-0.017757677407272358   -0.013750739393921754   -0.00021035162385708037
-0.017584013696099545   -0.013975399508119258   -0.0002955387006250938
-0.017758450434745825   -0.0015391995696664366   -0.00016861176475227758
-0.024963943262829736   -0.014039664292193948   -0.00048236822670694396
-0.017672773307807945   -0.013866111778335197   -0.00025285832955120296
-0.017758450434745825   -0.0015391995696664366   -0.00016861176475227758
-0.025092814883719797   -0.0015211658226663863   -0.00035277072768403496
-0.024963943262829736   -0.014039664292193948   -0.00048236822670694396
-0.02514789260089215   -0.0014248247251405636   -0.00034836589190948865
-0.017672773307807945   -0.013866111778335197   -0.00025285832955120296
-0.025043891308441073   -0.01394140152531969   -0.0004513081875515917
-0.02514789260089215   -0.0014248247251405636   -0.00034836589190948865
-0.024963943262829736   -0.014039664292193948   -0.00048236822670694396
-0.017672773307807945   -0.013866111778335197   -0.00025285832955120296
-0.02514789260089215   -0.0014248247251405636   -0.00034836589190948865
-0.017840078187785418   -0.0014324867408456172   -0.00015824627036884232
-0.017758450434745825   -0.0015391995696664366   -0.00016861176475227758
-0.017672773307807945   -0.013866111778335197   -0.00025285832955120296
-0.02514789260089215   -0.0014248247251405636   -0.00034836589190948865
-0.017758450434745825   -0.0015391995696664366   -0.00016861176475227758
-0.024963943262829736   -0.014039664292193948   -0.00048236822670694396
-0.017672773307807945   -0.013866111778335197   -0.00025285832955120296
-0.017840078187785418   -0.0014324867408456172   -0.00015824627036884232
-0.025043891308441073   -0.01394140152531969   -0.0004513081875515917
-0.017757677407272358   -0.013750739393921754   -0.00021035162385708037
-0.017840078187785418   -0.0014324867408456172   -0.00015824627036884232
-0.02514789260089215   -0.0014248247251405636   -0.00034836589190948865
-0.025043891308441073   -0.01394140152531969   -0.0004513081875515917
-0.025205367690964976   -0.0013178800052978826   -0.00034548597665199737
-0.017757677407272358   -0.013750739393921754   -0.00021035162385708037
-0.02511513019093079   -0.013834453698615566   -0.0004211663986095926
-0.025205367690964976   -0.0013178800052978826   -0.00034548597665199737
-0.025043891308441073   -0.01394140152531969   -0.0004513081875515917
-0.017757677407272358   -0.013750739393921754   -0.00021035162385708037
-0.025205367690964976   -0.0013178800052978826   -0.00034548597665199737
-0.017924917337287297   -0.0013089293301006453   -0.00013992999569494832
-0.017840078187785418   -0.0014324867408456172   -0.00015824627036884232
-0.017757677407272358   -0.013750739393921754   -0.00021035162385708037
-0.025205367690964976   -0.0013178800052978826   -0.00034548597665199737
-0.017840078187785418   -0.0014324867408456172   -0.00015824627036884232
-0.025043891308441073   -0.01394140152531969   -0.0004513081875515917
-0.017757677407272358   -0.013750739393921754   -0.00021035162385708037
-0.017924917337287297   -0.0013089293301006453   -0.00013992999569494832
-0.02511513019093079   -0.013834453698615566   -0.0004211663986095926
-0.017835892646483782   -0.013625868011877965   -0.00016411165667666095
-0.017924917337287297   -0.0013089293301006453   -0.00013992999569494832
-0.025205367690964976   -0.0013178800052978826   -0.00034548597665199737
-0.02511513019093079   -0.013834453698615566   -0.0004211663986095926
-0.025248733679525584   -0.0012023793667729889   -0.00034439305672269275
-0.017835892646483782   -0.013625868011877965   -0.00016411165667666095
-0.025179625040675658   -0.01372064672475265   -0.0003901679343761833
-0.025248733679525584   -0.0012023793667729889   -0.00034439305672269275
-0.02511513019093079   -0.013834453698615566   -0.0004211663986095926
-0.017835892646483782   -0.013625868011877965   -0.00016411165667666095
-0.025248733679525584   -0.0012023793667729889   -0.00034439305672269275
-0.018005048691739533   -0.0011590944267174375   -0.00011569662627798371
-0.017924917337287297   -0.0013089293301006453   -0.00013992999569494832
-0.017835892646483782   -0.013625868011877965   -0.00016411165667666095
-0.025248733679525584   -0.0012023793667729889   -0.00034439305672269275
-0.017924917337287297   -0.0013089293301006453   -0.00013992999569494832
-0.02511513019093079   -0.013834453698615566   -0.0004211663986095926
-0.024963943262829736   -0.014039664292193948   -0.00048236822670694396
-0.025092814883719797   -0.0015211658226663863   -0.00035277072768403496
-0.032605481905738115   -0.014046963666792978   -0.0006377271515077789
-0.025043891308441073   -0.01394140152531969   -0.0004513081875515917
-0.025092814883719797   -0.0015211658226663863   -0.00035277072768403496
-0.03262875057694418   -0.0015099245475202613   -0.000533923495625687
-0.032605481905738115   -0.014046963666792978   -0.0006377271515077789
-0.0326730932287794   -0.0014053099302354063   -0.0005339354506720262
-0.025043891308441073   -0.01394140152531969   -0.0004513081875515917
-0.032674272504285784   -0.013951533431193628   -0.0006244961209774514
-0.0326730932287794   -0.0014053099302354063   -0.0005339354506720262
-0.032605481905738115   -0.014046963666792978   -0.0006377271515077789
-0.025043891308441073   -0.01394140152531969   -0.0004513081875515917
-0.0326730932287794   -0.0014053099302354063   -0.0005339354506720262
-0.02514789260089215   -0.0014248247251405636   -0.00034836589190948865
-0.025092814883719797   -0.0015211658226663863   -0.00035277072768403496
-0.025043891308441073   -0.01394140152531969   -0.0004513081875515917
-0.0326730932287794   -0.0014053099302354063   -0.0005339354506720262
-0.025092814883719797   -0.0015211658226663863   -0.00035277072768403496
-0.032605481905738115   -0.014046963666792978   -0.0006377271515077789
-0.025043891308441073   -0.01394140152531969   -0.0004513081875515917
-0.02514789260089215   -0.0014248247251405636   -0.00034836589190948865
-0.032674272504285784   -0.013951533431193628   -0.0006244961209774514
-0.02511513019093079   -0.013834453698615566   -0.0004211663986095926
-0.02514789260089215   -0.0014248247251405636   -0.00034836589190948865
-0.0326730932287794   -0.0014053099302354063   -0.0005339354506720262
-0.032674272504285784   -0.013951533431193628   -0.0006244961209774514
-0.032721795153806646   -0.0013009931701670097   -0.0005421001489708801
-0.02511513019093079   -0.013834453698615566   -0.0004211663986095926
-0.032735902731288354   -0.013848435133014562   -0.0006090409385227619
-0.032721795153806646   -0.0013009931701670097   -0.0005421001489708801
-0.032674272504285784   -0.013951533431193628   -0.0006244961209774514
-0.02511513019093079   -0.013834453698615566   -0.0004211663986095926
-0.032721795153806646   -0.0013009931701670097   -0.0005421001489708801
-0.025205367690964976   -0.0013178800052978826   -0.00034548597665199737
-0.02514789260089215   -0.0014248247251405636   -0.00034836589190948865
-0.02511513019093079   -0.013834453698615566   -0.0004211663986095926
-0.032721795153806646   -0.0013009931701670097   -0.0005421001489708801
-0.02514789260089215   -0.0014248247251405636   -0.00034836589190948865
-0.032674272504285784   -0.013951533431193628   -0.0006244961209774514
-0.02511513019093079   -0.013834453698615566   -0.0004211663986095926
-0.025205367690964976   -0.0013178800052978826   -0.00034548597665199737
-0.032735902731288354   -0.013848435133014562   -0.0006090409385227619
-0.025179625040675658   -0.01372064672475265   -0.0003901679343761833
-0.025205367690964976   -0.0013178800052978826   -0.00034548597665199737
-0.032721795153806646   -0.0013009931701670097   -0.0005421001489708801
-0.032735902731288354   -0.013848435133014562   -0.0006090409385227619
-0.032757581094644404   -0.0011875577427909196   -0.000550827012789725
-0.025179625040675658   -0.01372064672475265   -0.0003901679343761833
-0.03278785672122391   -0.013739248534363282   -0.0005947329971079251
-0.032757581094644404   -0.0011875577427909196   -0.000550827012789725
-0.032735902731288354   -0.013848435133014562   -0.0006090409385227619
-0.025179625040675658   -0.01372064672475265   -0.0003901679343761833
-0.032757581094644404   -0.0011875577427909196   -0.000550827012789725
-0.025248733679525584   -0.0012023793667729889   -0.00034439305672269275
-0.025205367690964976   -0.0013178800052978826   -0.00034548597665199737
-0.025179625040675658   -0.01372064672475265   -0.0003901679343761833
-0.032757581094644404   -0.0011875577427909196   -0.000550827012789725
-0.025205367690964976   -0.0013178800052978826   -0.00034548597665199737
-0.032735902731288354   -0.013848435133014562   -0.0006090409385227619
              </DataArray>   
          </PointData>  
       </Piece>  
   </UnstructuredGrid> 
</VTKFile> 
